%chk=1-modopt.chk
#p opt=(modredundant,nomicro) external='./xtb.sh'

Generate automatically by rxnb

0 1
Fe          -4.778820        1.842640        2.637210
C           -1.888040        1.637410       -3.515120
Pd          -3.494160        1.983330       -1.205710
C           -6.196300        2.332720       -0.238200
H           -6.810700        1.615020        4.605540
H           -6.940950        0.024820        2.416250
H           -4.427660       -0.840590        1.865090
C           -1.287400        0.599160        0.000060
O           -1.428190        1.834910       -4.620770
C           -5.320200        2.731220        0.902550
O           -1.989970        0.642720        1.061130
C           -3.318600        3.160220        1.959430
C           -4.341570        3.873680        2.647240
C           -5.577860        3.635650        1.974000
H           -2.273470        3.102530        2.257110
H           -4.209200        4.477080        3.543940
H           -6.549610        4.046140        2.245260
H           -3.074120        1.349100        0.792020
C           -3.899470        2.426890        0.864450
C           -1.085110        0.873540       -2.439980
O           -3.115360        1.973690       -3.175550
C           -3.839510        0.336270        3.682530
C           -4.613770        1.137980        4.575260
C           -5.975340        1.089630        4.145990
C           -6.043590        0.250620        2.990210
C           -4.724030       -0.214690        2.704560
H           -2.761060        0.199710        3.706550
N           -1.706060        1.111570       -1.136740
H           -0.051870        1.256330       -2.447980
H           -6.348770        1.244280       -0.264710
H           -7.188140        2.818650       -0.202500
P           -3.967360        2.103290        5.989190
O           -3.404200        3.200720        5.033920
C           -2.776190        1.028850        6.729470
C           -2.300110        1.142910        8.028660
C           -1.386420        0.239180        8.533350
C           -0.913660       -0.806090        7.769930
C           -1.374180       -0.928790        6.488130
C           -2.285090       -0.020350        5.998050
C           -5.522680        2.495300        6.735980
C           -5.834700        2.271780        8.067500
C           -7.083030        2.563030        8.588770
C           -8.073500        3.092460        7.796010
C           -7.786230        3.322090        6.479290
C           -6.539660        3.033810        5.947650
H           -2.641270        1.957460        8.678540
H           -1.037780        0.367930        9.569130
H           -0.187220       -1.526800        8.177240
H           -1.024900       -1.744600        5.852500
H           -2.615620       -0.173890        4.950170
H           -5.049790        1.858130        8.688320
H           -7.285140        2.366790        9.647430
H           -9.032120        3.300130        8.242310
H           -8.557520        3.735000        5.845400
H           -6.322530        3.221430        4.894470
N           -5.492500        2.692040       -1.477730
C           -5.468630        4.060570       -1.844590
C           -5.628870        1.763030       -2.556460
H           -5.833580        4.264370       -2.884940
H           -6.028970        4.679410       -1.094500
H           -4.420940        4.457330       -1.809550
H           -6.710330        1.585060       -2.742710
H           -5.080730        2.034770       -3.460160
H           -5.239840        0.769880       -2.184740
C           -1.048200       -0.602210       -2.802180
C           -0.564810       -1.273560       -1.598150
C           -0.186120       -0.592400       -3.989960
C           -0.864470        0.084130       -5.152770
H           -0.138450       -0.542140       -0.947880
H            0.121270       -2.130240       -1.837300
H           -1.417620       -1.748270       -1.013640
H           -2.093480       -0.452600       -2.929600
H            0.325070       -1.518860       -4.260580
H            0.620970        0.124820       -3.630080
H           -0.380100        0.998640       -5.500630
H           -0.890100       -0.617340       -6.028540
H           -1.931040        0.332980       -4.911000
O            0.000000        0.000000        0.000000
C            2.368720       -0.000000        0.000000
C            1.126420        0.841020       -0.000000
C            1.004410        1.759090       -1.163780
C            1.122290        1.643780        1.293210
H            2.100510       -0.970940        0.502060
H            2.786720       -0.181780       -0.998560
H            3.150810        0.449130        0.668740
H            1.450060        1.401060       -2.097950
H            1.371780        2.797030       -0.929300
H           -0.092540        1.910070       -1.392230
H            0.273330        1.327120        1.939480
H            2.042180        1.476920        1.891450
H            1.103450        2.725340        1.054360

B 11 18 F
B 18 19 F
B 3 19 F
B 3 33 F
B 3 28 F
B 3 21 F

