%chk=2-modfreq.chk
#p freq external='./xtb.sh'

Generate automatically by rxnb

0 1
Fe          -0.636370       -0.288650       -0.061860
C            2.870860        1.823770        1.849110
Pd           1.628660       -0.529780        1.080960
C           -0.459070       -2.581470        1.453070
H           -2.626900       -0.544080        1.708330
H           -0.335160        0.574920        2.626240
H            0.611030        2.122430        0.765740
C            3.844850       -0.518130       -0.552810
O            3.026740        2.890850        2.416890
C           -0.305640       -2.186110        0.034900
O            3.493710       -1.737090       -0.704700
C            0.299730       -0.860790       -1.672100
C           -1.078760       -1.064680       -1.775110
C           -1.460820       -1.889200       -0.708350
H            0.847720       -0.258910       -2.357710
H           -1.706920       -0.582880       -2.482920
H           -2.446850       -2.151140       -0.413250
H            2.178000       -1.800690       -0.596840
C            0.830790       -1.618740       -0.599560
C            3.336490        1.680440        0.360300
O            2.358650        0.790630        2.402880
C           -1.164410        1.528590       -0.414890
C           -2.256230        0.711880       -0.060670
C           -2.004120        0.166510        1.216540
C           -0.778660        0.673750        1.660730
C           -0.259310        1.515920        0.651030
H           -1.046360        1.947480       -1.386640
N            3.020730        0.342570       -0.042940
H            4.423650        1.833220        0.358310
H           -1.430440       -2.170780        1.726490
H           -0.471670       -3.668290        1.618990
P           -3.638510        0.537410       -1.160450
O           -3.383390        0.879480       -2.568210
C           -4.881980        1.634340       -0.391090
C           -6.134700        1.679480       -0.987700
C           -7.120440        2.503530       -0.477670
C           -6.853620        3.288440        0.633350
C           -5.602820        3.250130        1.226200
C           -4.615260        2.424130        0.716280
C           -4.390400       -1.099180       -0.921260
C           -4.890950       -1.487600        0.314220
C           -5.484160       -2.728450        0.456900
C           -5.592420       -3.574880       -0.636350
C           -5.115590       -3.178100       -1.875300
C           -4.516370       -1.939260       -2.016920
H           -6.318970        1.065870       -1.859230
H           -8.094490        2.537380       -0.943080
H           -7.621110        3.934080        1.034090
H           -5.394550        3.867720        2.087580
H           -3.637680        2.396910        1.173770
H           -4.823600       -0.809630        1.152370
H           -5.870700       -3.036030        1.417550
H           -6.058680       -4.541990       -0.521720
H           -5.212540       -3.834150       -2.727070
H           -4.133130       -1.604370       -2.968620
N            0.564830       -1.943730        2.286780
C            1.747840       -2.808620        2.403530
C            0.053070       -1.676580        3.624040
H            1.514780       -3.710930        2.989930
H            2.085360       -3.123420        1.412100
H            2.553890       -2.261630        2.910340
H           -0.088540       -2.607090        4.189820
H            0.759590       -1.043680        4.161530
H           -0.906350       -1.168410        3.561970
C            2.665790        2.718590       -0.580490
C            1.735250        2.029310       -1.589580
C            3.725560        3.544510       -1.320320
C            4.406400        4.557460       -0.407930
H            2.340460        1.530650       -2.344670
H            1.123170        2.777570       -2.087850
H            1.082600        1.288290       -1.113490
H            2.088550        3.416320        0.036060
H            3.246270        4.075880       -2.146550
H            4.468580        2.867080       -1.748420
H            5.229550        5.048400       -0.923020
H            3.694470        5.315970       -0.091150
H            4.790520        4.075450        0.487010
O            5.031340       -0.058340       -0.966300
C            7.199000        0.002010       -1.837820
C            6.014830       -0.926540       -1.562550
C            6.418200       -2.029090       -0.583230
C            5.483610       -1.514610       -2.870440
H            6.896270        0.801330       -2.509180
H            7.546650        0.446930       -0.909160
H            8.012420       -0.555730       -2.292170
H            6.743720       -1.589090        0.357300
H            7.234150       -2.611600       -1.001770
H            5.575110       -2.687740       -0.392230
H            5.162030       -0.714420       -3.533800
H            6.267880       -2.085220       -3.359780
H            4.638650       -2.168930       -2.673990


