%chk=4-tsfreq.chk
#p freq external='./xtb.sh'

Generate automatically by rxnb

0 1
Fe          -0.712680       -0.361800        0.137030
C            3.037220        1.565140        2.124310
Pd           1.677560       -0.708950        1.120430
C           -0.456730       -2.698700        1.567780
H           -2.729580       -0.734580        1.822170
H           -0.392580        0.088080        2.893180
H            0.674020        1.847250        1.293140
C            3.745250       -0.397650       -0.763380
O            3.325820        2.565450        2.758800
C           -0.354450       -2.251850        0.160690
O            3.362270       -1.593130       -1.157200
C            0.244140       -0.836330       -1.479990
C           -1.124100       -1.085590       -1.611020
C           -1.506370       -1.954920       -0.578830
H            0.762380       -0.169390       -2.128550
H           -1.740320       -0.616660       -2.334420
H           -2.487490       -2.260050       -0.310450
H            2.340070       -1.727520       -0.775570
C            0.775450       -1.594190       -0.402510
C            3.367900        1.554710        0.583970
O            2.502430        0.520700        2.607350
C           -1.109750        1.519480        0.022940
C           -2.258130        0.743140        0.258000
C           -2.068200        0.009960        1.444090
C           -0.818270        0.374220        1.959930
C           -0.226020        1.310470        1.086880
H           -0.968610        2.063690       -0.879920
N            3.023130        0.259010        0.066890
H            4.450640        1.713960        0.500920
H           -1.333480       -2.176710        1.947560
H           -0.600850       -3.782660        1.687080
P           -3.454700        0.695700       -1.036590
O           -2.950540        1.176710       -2.331060
C           -4.821700        1.724740       -0.392020
C           -5.850860        2.042800       -1.266970
C           -6.916770        2.812480       -0.839190
C           -6.955850        3.266400        0.469810
C           -5.927840        2.954710        1.343970
C           -4.860970        2.183670        0.915630
C           -4.251030       -0.935490       -1.072580
C           -4.843080       -1.454060        0.071340
C           -5.485680       -2.676740        0.022190
C           -5.554300       -3.375000       -1.174340
C           -4.991680       -2.844190       -2.323200
C           -4.343750       -1.622540       -2.271750
H           -5.793720        1.687100       -2.286260
H           -7.716260        3.060680       -1.521760
H           -7.786700        3.868440        0.807330
H           -5.956760        3.316340        2.361590
H           -4.052150        1.946890        1.591040
H           -4.800650       -0.890240        0.990850
H           -5.940140       -3.086400        0.912500
H           -6.057250       -4.329840       -1.210470
H           -5.059990       -3.382630       -3.256460
H           -3.901170       -1.187540       -3.154770
N            0.726010       -2.243050        2.300990
C            1.826620       -3.204180        2.142800
C            0.461840       -2.090040        3.726850
H            1.617520       -4.129680        2.701810
H            1.950310       -3.464900        1.089700
H            2.756100       -2.766540        2.529100
H            0.418610       -3.064700        4.230970
H            1.255090       -1.492370        4.177240
H           -0.492650       -1.594140        3.888300
C            2.623920        2.676110       -0.193140
C            1.669300        2.090540       -1.242490
C            3.626930        3.626290       -0.859520
C            4.307700        4.539510        0.153040
H            2.248760        1.668760       -2.062810
H            1.050180        2.886750       -1.648950
H            1.020440        1.312830       -0.821890
H            2.048640        3.269670        0.525060
H            3.099530        4.238530       -1.595600
H            4.374650        3.035780       -1.395150
H            5.125740        5.088460       -0.308820
H            3.592990        5.255200        0.552330
H            4.695150        3.965090        0.990240
O            4.849850        0.149930       -1.252060
C            6.821460        0.487020       -2.455170
C            5.693330       -0.517860       -2.217170
C            6.249580       -1.816620       -1.635420
C            4.922200       -0.769350       -3.512820
H            6.415340        1.417860       -2.842040
H            7.334440        0.698460       -1.520820
H            7.533910        0.086260       -3.169620
H            6.733990       -1.618220       -0.681650
H            6.980640       -2.238120       -2.319370
H            5.453100       -2.539960       -1.483670
H            4.483500        0.159920       -3.870130
H            5.600870       -1.150360       -4.270410
H            4.129470       -1.495250       -3.354340


