91
charge 0 multiplicity 1
Fe          -0.63637  -0.28865  -0.06186
C            2.87086   1.82377   1.84911
Pd           1.62866  -0.52978   1.08096
C           -0.45907  -2.58147   1.45307
H           -2.62690  -0.54408   1.70833
H           -0.33516   0.57492   2.62624
H            0.61103   2.12243   0.76574
C            3.84485  -0.51813  -0.55281
O            3.02674   2.89085   2.41689
C           -0.30564  -2.18611   0.03490
O            3.49371  -1.73709  -0.70470
C            0.29973  -0.86079  -1.67210
C           -1.07876  -1.06468  -1.77511
C           -1.46082  -1.88920  -0.70835
H            0.84772  -0.25891  -2.35771
H           -1.70692  -0.58288  -2.48292
H           -2.44685  -2.15114  -0.41325
H            2.17800  -1.80069  -0.59684
C            0.83079  -1.61874  -0.59956
C            3.33649   1.68044   0.36030
O            2.35865   0.79063   2.40288
C           -1.16441   1.52859  -0.41489
C           -2.25623   0.71188  -0.06067
C           -2.00412   0.16651   1.21654
C           -0.77866   0.67375   1.66073
C           -0.25931   1.51592   0.65103
H           -1.04636   1.94748  -1.38664
N            3.02073   0.34257  -0.04294
H            4.42365   1.83322   0.35831
H           -1.43044  -2.17078   1.72649
H           -0.47167  -3.66829   1.61899
P           -3.63851   0.53741  -1.16045
O           -3.38339   0.87948  -2.56821
C           -4.88198   1.63434  -0.39109
C           -6.13470   1.67948  -0.98770
C           -7.12044   2.50353  -0.47767
C           -6.85362   3.28844   0.63335
C           -5.60282   3.25013   1.22620
C           -4.61526   2.42413   0.71628
C           -4.39040  -1.09918  -0.92126
C           -4.89095  -1.48760   0.31422
C           -5.48416  -2.72845   0.45690
C           -5.59242  -3.57488  -0.63635
C           -5.11559  -3.17810  -1.87530
C           -4.51637  -1.93926  -2.01692
H           -6.31897   1.06587  -1.85923
H           -8.09449   2.53738  -0.94308
H           -7.62111   3.93408   1.03409
H           -5.39455   3.86772   2.08758
H           -3.63768   2.39691   1.17377
H           -4.82360  -0.80963   1.15237
H           -5.87070  -3.03603   1.41755
H           -6.05868  -4.54199  -0.52172
H           -5.21254  -3.83415  -2.72707
H           -4.13313  -1.60437  -2.96862
N            0.56483  -1.94373   2.28678
C            1.74784  -2.80862   2.40353
C            0.05307  -1.67658   3.62404
H            1.51478  -3.71093   2.98993
H            2.08536  -3.12342   1.41210
H            2.55389  -2.26163   2.91034
H           -0.08854  -2.60709   4.18982
H            0.75959  -1.04368   4.16153
H           -0.90635  -1.16841   3.56197
C            2.66579   2.71859  -0.58049
C            1.73525   2.02931  -1.58958
C            3.72556   3.54451  -1.32032
C            4.40640   4.55746  -0.40793
H            2.34046   1.53065  -2.34467
H            1.12317   2.77757  -2.08785
H            1.08260   1.28829  -1.11349
H            2.08855   3.41632   0.03606
H            3.24627   4.07588  -2.14655
H            4.46858   2.86708  -1.74842
H            5.22955   5.04840  -0.92302
H            3.69447   5.31597  -0.09115
H            4.79052   4.07545   0.48701
O            5.03134  -0.05834  -0.96630
C            7.19900   0.00201  -1.83782
C            6.01483  -0.92654  -1.56255
C            6.41820  -2.02909  -0.58323
C            5.48361  -1.51461  -2.87044
H            6.89627   0.80133  -2.50918
H            7.54665   0.44693  -0.90916
H            8.01242  -0.55573  -2.29217
H            6.74372  -1.58909   0.35730
H            7.23415  -2.61160  -1.00177
H            5.57511  -2.68774  -0.39223
H            5.16203  -0.71442  -3.53380
H            6.26788  -2.08522  -3.35978
H            4.63865  -2.16893  -2.67399