91
charge 0 multiplicity 1
Fe          -4.77882   1.84264   2.63721
C           -1.88804   1.63741  -3.51512
Pd          -3.49416   1.98333  -1.20571
C           -6.19630   2.33272  -0.23820
H           -6.81070   1.61502   4.60554
H           -6.94095   0.02482   2.41625
H           -4.42766  -0.84059   1.86509
C           -1.28740   0.59916   0.00006
O           -1.42819   1.83491  -4.62077
C           -5.32020   2.73122   0.90255
O           -1.98997   0.64272   1.06113
C           -3.31860   3.16022   1.95943
C           -4.34157   3.87368   2.64724
C           -5.57786   3.63565   1.97400
H           -2.27347   3.10253   2.25711
H           -4.20920   4.47708   3.54394
H           -6.54961   4.04614   2.24526
H           -3.07412   1.34910   0.79202
C           -3.89947   2.42689   0.86445
C           -1.08511   0.87354  -2.43998
O           -3.11536   1.97369  -3.17555
C           -3.83951   0.33627   3.68253
C           -4.61377   1.13798   4.57526
C           -5.97534   1.08963   4.14599
C           -6.04359   0.25062   2.99021
C           -4.72403  -0.21469   2.70456
H           -2.76106   0.19971   3.70655
N           -1.70606   1.11157  -1.13674
H           -0.05187   1.25633  -2.44798
H           -6.34877   1.24428  -0.26471
H           -7.18814   2.81865  -0.20250
P           -3.96736   2.10329   5.98919
O           -3.40420   3.20072   5.03392
C           -2.77619   1.02885   6.72947
C           -2.30011   1.14291   8.02866
C           -1.38642   0.23918   8.53335
C           -0.91366  -0.80609   7.76993
C           -1.37418  -0.92879   6.48813
C           -2.28509  -0.02035   5.99805
C           -5.52268   2.49530   6.73598
C           -5.83470   2.27178   8.06750
C           -7.08303   2.56303   8.58877
C           -8.07350   3.09246   7.79601
C           -7.78623   3.32209   6.47929
C           -6.53966   3.03381   5.94765
H           -2.64127   1.95746   8.67854
H           -1.03778   0.36793   9.56913
H           -0.18722  -1.52680   8.17724
H           -1.02490  -1.74460   5.85250
H           -2.61562  -0.17389   4.95017
H           -5.04979   1.85813   8.68832
H           -7.28514   2.36679   9.64743
H           -9.03212   3.30013   8.24231
H           -8.55752   3.73500   5.84540
H           -6.32253   3.22143   4.89447
N           -5.49250   2.69204  -1.47773
C           -5.46863   4.06057  -1.84459
C           -5.62887   1.76303  -2.55646
H           -5.83358   4.26437  -2.88494
H           -6.02897   4.67941  -1.09450
H           -4.42094   4.45733  -1.80955
H           -6.71033   1.58506  -2.74271
H           -5.08073   2.03477  -3.46016
H           -5.23984   0.76988  -2.18474
C           -1.04820  -0.60221  -2.80218
C           -0.56481  -1.27356  -1.59815
C           -0.18612  -0.59240  -3.98996
C           -0.86447   0.08413  -5.15277
H           -0.13845  -0.54214  -0.94788
H            0.12127  -2.13024  -1.83730
H           -1.41762  -1.74827  -1.01364
H           -2.09348  -0.45260  -2.92960
H            0.32507  -1.51886  -4.26058
H            0.62097   0.12482  -3.63008
H           -0.38010   0.99864  -5.50063
H           -0.89010  -0.61734  -6.02854
H           -1.93104   0.33298  -4.91100
O            0.00000   0.00000   0.00000
C            2.36872  -0.00000   0.00000
C            1.12642   0.84102  -0.00000
C            1.00441   1.75909  -1.16378
C            1.12229   1.64378   1.29321
H            2.10051  -0.97094   0.50206
H            2.78672  -0.18178  -0.99856
H            3.15081   0.44913   0.66874
H            1.45006   1.40106  -2.09795
H            1.37178   2.79703  -0.92930
H           -0.09254   1.91007  -1.39223
H            0.27333   1.32712   1.93948
H            2.04218   1.47692   1.89145
H            1.10345   2.72534   1.05436