91
charge 0 multiplicity 1
Fe          -0.71268  -0.36180   0.13703
C            3.03722   1.56514   2.12431
Pd           1.67756  -0.70895   1.12043
C           -0.45673  -2.69870   1.56778
H           -2.72958  -0.73458   1.82217
H           -0.39258   0.08808   2.89318
H            0.67402   1.84725   1.29314
C            3.74525  -0.39765  -0.76338
O            3.32582   2.56545   2.75880
C           -0.35445  -2.25185   0.16069
O            3.36227  -1.59313  -1.15720
C            0.24414  -0.83633  -1.47999
C           -1.12410  -1.08559  -1.61102
C           -1.50637  -1.95492  -0.57883
H            0.76238  -0.16939  -2.12855
H           -1.74032  -0.61666  -2.33442
H           -2.48749  -2.26005  -0.31045
H            2.34007  -1.72752  -0.77557
C            0.77545  -1.59419  -0.40251
C            3.36790   1.55471   0.58397
O            2.50243   0.52070   2.60735
C           -1.10975   1.51948   0.02294
C           -2.25813   0.74314   0.25800
C           -2.06820   0.00996   1.44409
C           -0.81827   0.37422   1.95993
C           -0.22602   1.31047   1.08688
H           -0.96861   2.06369  -0.87992
N            3.02313   0.25901   0.06689
H            4.45064   1.71396   0.50092
H           -1.33348  -2.17671   1.94756
H           -0.60085  -3.78266   1.68708
P           -3.45470   0.69570  -1.03659
O           -2.95054   1.17671  -2.33106
C           -4.82170   1.72474  -0.39202
C           -5.85086   2.04280  -1.26697
C           -6.91677   2.81248  -0.83919
C           -6.95585   3.26640   0.46981
C           -5.92784   2.95471   1.34397
C           -4.86097   2.18367   0.91563
C           -4.25103  -0.93549  -1.07258
C           -4.84308  -1.45406   0.07134
C           -5.48568  -2.67674   0.02219
C           -5.55430  -3.37500  -1.17434
C           -4.99168  -2.84419  -2.32320
C           -4.34375  -1.62254  -2.27175
H           -5.79372   1.68710  -2.28626
H           -7.71626   3.06068  -1.52176
H           -7.78670   3.86844   0.80733
H           -5.95676   3.31634   2.36159
H           -4.05215   1.94689   1.59104
H           -4.80065  -0.89024   0.99085
H           -5.94014  -3.08640   0.91250
H           -6.05725  -4.32984  -1.21047
H           -5.05999  -3.38263  -3.25646
H           -3.90117  -1.18754  -3.15477
N            0.72601  -2.24305   2.30099
C            1.82662  -3.20418   2.14280
C            0.46184  -2.09004   3.72685
H            1.61752  -4.12968   2.70181
H            1.95031  -3.46490   1.08970
H            2.75610  -2.76654   2.52910
H            0.41861  -3.06470   4.23097
H            1.25509  -1.49237   4.17724
H           -0.49265  -1.59414   3.88830
C            2.62392   2.67611  -0.19314
C            1.66930   2.09054  -1.24249
C            3.62693   3.62629  -0.85952
C            4.30770   4.53951   0.15304
H            2.24876   1.66876  -2.06281
H            1.05018   2.88675  -1.64895
H            1.02044   1.31283  -0.82189
H            2.04864   3.26967   0.52506
H            3.09953   4.23853  -1.59560
H            4.37465   3.03578  -1.39515
H            5.12574   5.08846  -0.30882
H            3.59299   5.25520   0.55233
H            4.69515   3.96509   0.99024
O            4.84985   0.14993  -1.25206
C            6.82146   0.48702  -2.45517
C            5.69333  -0.51786  -2.21717
C            6.24958  -1.81662  -1.63542
C            4.92220  -0.76935  -3.51282
H            6.41534   1.41786  -2.84204
H            7.33444   0.69846  -1.52082
H            7.53391   0.08626  -3.16962
H            6.73399  -1.61822  -0.68165
H            6.98064  -2.23812  -2.31937
H            5.45310  -2.53996  -1.48367
H            4.48350   0.15992  -3.87013
H            5.60087  -1.15036  -4.27041
H            4.12947  -1.49525  -3.35434