      -----------------------------------------------------------      
     |                   =====================                   |     
     |                           x T B                           |     
     |                   =====================                   |     
     |                         S. Grimme                         |     
     |          Mulliken Center for Theoretical Chemistry        |     
     |                    University of Bonn                     |     
      -----------------------------------------------------------      

   * xtb version 6.6.1 (8d0f1dd) compiled by 'stahn@M-Bot' on 2023-08-01

   xtb is free software: you can redistribute it and/or modify it under
   the terms of the GNU Lesser General Public License as published by
   the Free Software Foundation, either version 3 of the License, or
   (at your option) any later version.
   
   xtb is distributed in the hope that it will be useful,
   but WITHOUT ANY WARRANTY; without even the implied warranty of
   MERCHANTABILITY or FITNESS FOR A PARTICULAR PURPOSE.  See the
   GNU Lesser General Public License for more details.
   
   Cite this work as:
   * C. Bannwarth, E. Caldeweyher, S. Ehlert, A. Hansen, P. Pracht,
     J. Seibert, S. Spicher, S. Grimme, WIREs Comput. Mol. Sci., 2020, 11,
     e01493. DOI: 10.1002/wcms.1493
   
   for GFN2-xTB:
   * C. Bannwarth, S. Ehlert and S. Grimme., J. Chem. Theory Comput., 2019,
     15, 1652-1671. DOI: 10.1021/acs.jctc.8b01176
   for GFN1-xTB:
   * S. Grimme, C. Bannwarth, P. Shushkov, J. Chem. Theory Comput., 2017,
     13, 1989-2009. DOI: 10.1021/acs.jctc.7b00118
   for GFN0-xTB:
   * P. Pracht, E. Caldeweyher, S. Ehlert, S. Grimme, ChemRxiv, 2019, preprint.
     DOI: 10.26434/chemrxiv.8326202.v1
   for GFN-FF:
   * S. Spicher and S. Grimme, Angew. Chem. Int. Ed., 2020, 59, 15665-15673.
     DOI: 10.1002/anie.202004239
   
   for ALPB and GBSA implicit solvation:
   * S. Ehlert, M. Stahn, S. Spicher, S. Grimme, J. Chem. Theory Comput.,
     2021, 17, 4250-4261. DOI: 10.1021/acs.jctc.1c00471
   
   for DFT-D4:
   * E. Caldeweyher, C. Bannwarth and S. Grimme, J. Chem. Phys., 2017,
     147, 034112. DOI: 10.1063/1.4993215
   * E. Caldeweyher, S. Ehlert, A. Hansen, H. Neugebauer, S. Spicher,
     C. Bannwarth and S. Grimme, J. Chem. Phys., 2019, 150, 154122.
     DOI: 10.1063/1.5090222
   * E. Caldeweyher, J.-M. Mewes, S. Ehlert and S. Grimme, Phys. Chem. Chem. Phys.
     2020, 22, 8499-8512. DOI: 10.1039/D0CP00502A
   
   for sTDA-xTB:
   * S. Grimme and C. Bannwarth, J. Chem. Phys., 2016, 145, 054103.
     DOI: 10.1063/1.4959605
   
   in the mass-spec context:
   * V. Asgeirsson, C. Bauer and S. Grimme, Chem. Sci., 2017, 8, 4879.
     DOI: 10.1039/c7sc00601b
   * J. Koopman and S. Grimme, ACS Omega 2019, 4, 12, 15120-15133.
     DOI: 10.1021/acsomega.9b02011
   
   for metadynamics refer to:
   * S. Grimme, J. Chem. Theory Comput., 2019, 155, 2847-2862
     DOI: 10.1021/acs.jctc.9b00143
   
   for SPH calculations refer to:
   * S. Spicher and S. Grimme, J. Chem. Theory Comput., 2021, 17, 1701-1714
     DOI: 10.1021/acs.jctc.0c01306
   
   with help from (in alphabetical order)
   P. Atkinson, C. Bannwarth, F. Bohle, G. Brandenburg, E. Caldeweyher
   M. Checinski, S. Dohm, S. Ehlert, S. Ehrlich, I. Gerasimov, C. Hölzer
   A. Katbashev, J. Koopman, C. Lavigne, S. Lehtola, F. März, M. Müller,
   F. Musil, H. Neugebauer, J. Pisarek, C. Plett, P. Pracht, F. Pultar,
   J. Seibert, P. Shushkov, S. Spicher, M. Stahn, M. Steiner, T. Strunk,
   J. Stückrath, T. Rose, and J. Unsleber
   
 * started run on 2024/10/14 at 20:53:37.061     

           -------------------------------------------------
          |                Calculation Setup                |
           -------------------------------------------------

          program call               : xtb tsopted.xyz --gfn 2 --charge 0
          coordinate file            : tsopted.xyz
          omp threads                :                    12

   ID    Z sym.   atoms
    1   26 Fe     1
    2    6 C      2, 4, 8, 10, 12-14, 19, 20, 22-26, 34, 35, 42-45, 56-59
    3   46 Pd     3
    4    1 H      5-7, 15-18, 27, 29-32, 36-41, 46-54, 60-68
    5    8 O      9, 11, 21, 55
    6    7 N      28, 33

           -------------------------------------------------
          |                 G F N 2 - x T B                 |
           -------------------------------------------------

        Reference                      10.1021/acs.jctc.8b01176
      * Hamiltonian:
        H0-scaling (s, p, d)           1.850000    2.230000    2.230000
        zeta-weighting                 0.500000
      * Dispersion:
        s8                             2.700000
        a1                             0.520000
        a2                             5.000000
        s9                             5.000000
      * Repulsion:
        kExp                           1.500000    1.000000
        rExp                           1.000000
      * Coulomb:
        alpha                          2.000000
        third order                    shell-resolved
        anisotropic                    true
        a3                             3.000000
        a5                             4.000000
        cn-shift                       1.200000
        cn-exp                         4.000000
        max-rad                        5.000000

q/qsh data taken from xtbrestart
CAMM data taken from xtbrestart

          ...................................................
          :                      SETUP                      :
          :.................................................:
          :  # basis functions                 176          :
          :  # atomic orbitals                 174          :
          :  # shells                          102          :
          :  # electrons                       184          :
          :  max. iterations                   250          :
          :  Hamiltonian                  GFN2-xTB          :
          :  restarted?                       true          :
          :  GBSA solvation                  false          :
          :  PC potential                    false          :
          :  electronic temp.          300.0000000     K    :
          :  accuracy                    1.0000000          :
          :  -> integral cutoff          0.2500000E+02      :
          :  -> integral neglect         0.1000000E-07      :
          :  -> SCF convergence          0.1000000E-05 Eh   :
          :  -> wf. convergence          0.1000000E-03 e    :
          :  Broyden damping             0.4000000          :
          ...................................................

 iter      E             dE          RMSdq      gap      omega  full diag
   1   -100.9882161 -0.100988E+03  0.727E-01    1.97       0.0  T
   2   -101.0158390 -0.276229E-01  0.814E-01    1.26       1.0  T
   3   -101.0299374 -0.140984E-01  0.434E-01    1.44       1.0  T
   4   -101.0302780 -0.340550E-03  0.361E-01    1.43       1.0  T
   5   -101.0310319 -0.753893E-03  0.196E-01    1.42       1.0  T
   6   -101.0311399 -0.108006E-03  0.125E-01    1.43       1.0  T
   7   -101.0312400 -0.100178E-03  0.582E-02    1.43       1.0  T
   8   -101.0312570 -0.169239E-04  0.303E-02    1.44       1.0  T
   9   -101.0312813 -0.243099E-04  0.119E-02    1.44       1.0  T
  10   -101.0312840 -0.276321E-05  0.555E-03    1.44       2.2  T
  11   -101.0312842 -0.215597E-06  0.295E-03    1.44       4.1  T
  12   -101.0312843 -0.663252E-07  0.177E-03    1.44       6.9  T
  13   -101.0312843 -0.117468E-07  0.908E-04    1.44      13.4  T
  14   -101.0312843 -0.852859E-08  0.393E-04    1.44      30.9  T

   *** convergence criteria satisfied after 14 iterations ***

         #    Occupation            Energy/Eh            Energy/eV
      -------------------------------------------------------------
         1        2.0000           -0.8671038             -23.5951
       ...           ...                  ...                  ...
        86        2.0000           -0.3704896             -10.0815
        87        2.0000           -0.3656260              -9.9492
        88        2.0000           -0.3516629              -9.5692
        89        2.0000           -0.3491629              -9.5012
        90        2.0000           -0.3410451              -9.2803
        91        2.0000           -0.3289978              -8.9525
        92        2.0000           -0.3178908              -8.6502 (HOMO)
        93                         -0.2649406              -7.2094 (LUMO)
        94                         -0.2553816              -6.9493
        95                         -0.2339141              -6.3651
        96                         -0.1863529              -5.0709
        97                         -0.1774387              -4.8284
       ...                                ...                  ...
       174                          6.9902292             190.2138
      -------------------------------------------------------------
                  HL-Gap            0.0529502 Eh            1.4408 eV
             Fermi-level           -0.2914157 Eh           -7.9298 eV

 SCC (total)                   0 d,  0 h,  0 min,  0.079 sec
 SCC setup                      ...        0 min,  0.003 sec (  3.460%)
 Dispersion                     ...        0 min,  0.001 sec (  1.163%)
 classical contributions        ...        0 min,  0.000 sec (  0.085%)
 integral evaluation            ...        0 min,  0.005 sec (  6.957%)
 iterations                     ...        0 min,  0.057 sec ( 72.569%)
 molecular gradient             ...        0 min,  0.009 sec ( 11.827%)
 printout                       ...        0 min,  0.003 sec (  3.889%)

         :::::::::::::::::::::::::::::::::::::::::::::::::::::
         ::                     SUMMARY                     ::
         :::::::::::::::::::::::::::::::::::::::::::::::::::::
         :: total energy             -99.740118017215 Eh    ::
         :: gradient norm              0.000046522734 Eh/a0 ::
         :: HOMO-LUMO gap              1.440848835373 eV    ::
         ::.................................................::
         :: SCC energy              -101.031284336209 Eh    ::
         :: -> isotropic ES           -0.049836342210 Eh    ::
         :: -> anisotropic ES         -0.027654276590 Eh    ::
         :: -> anisotropic XC          0.020357596670 Eh    ::
         :: -> dispersion             -0.099748486324 Eh    ::
         :: repulsion energy           1.287575458727 Eh    ::
         :: add. restraining           0.000000000000 Eh    ::
         :: total charge              -0.000012990289 e     ::
         :::::::::::::::::::::::::::::::::::::::::::::::::::::

           -------------------------------------------------
          |                Property Printout                |
           -------------------------------------------------

    * Orbital Energies and Occupations

         #    Occupation            Energy/Eh            Energy/eV
      -------------------------------------------------------------
         1        2.0000           -0.8671038             -23.5951
       ...           ...                  ...                  ...
        80        2.0000           -0.3987989             -10.8519
        81        2.0000           -0.3905009             -10.6261
        82        2.0000           -0.3851468             -10.4804
        83        2.0000           -0.3810959             -10.3701
        84        2.0000           -0.3765449             -10.2463
        85        2.0000           -0.3752233             -10.2103
        86        2.0000           -0.3704896             -10.0815
        87        2.0000           -0.3656260              -9.9492
        88        2.0000           -0.3516629              -9.5692
        89        2.0000           -0.3491629              -9.5012
        90        2.0000           -0.3410451              -9.2803
        91        2.0000           -0.3289978              -8.9525
        92        2.0000           -0.3178908              -8.6502 (HOMO)
        93                         -0.2649406              -7.2094 (LUMO)
        94                         -0.2553816              -6.9493
        95                         -0.2339141              -6.3651
        96                         -0.1863529              -5.0709
        97                         -0.1774387              -4.8284
        98                         -0.1681305              -4.5751
        99                         -0.1627854              -4.4296
       100                         -0.1523408              -4.1454
       101                         -0.1441499              -3.9225
       102                         -0.1080795              -2.9410
       103                         -0.0056754              -0.1544
       ...                                ...                  ...
       174                          6.9902292             190.2138
      -------------------------------------------------------------
                  HL-Gap            0.0529502 Eh            1.4408 eV
             Fermi-level           -0.2914157 Eh           -7.9298 eV

     #   Z          covCN         q      C6AA      α(0)
     1  26 Fe      10.243     1.596   107.521    18.286
     2   6 C        2.739     0.372    20.693     7.448
     3  46 Pd       4.863    -0.303   381.838    35.687
     4   6 C        3.836    -0.041    21.278     6.563
     5   1 H        0.927     0.063     2.165     2.301
     6   1 H        0.927     0.046     2.375     2.410
     7   1 H        0.927     0.094     1.839     2.120
     8   6 C        2.667     0.384    20.496     7.408
     9   8 O        0.856    -0.499    23.766     6.536
    10   6 C        4.070    -0.104    22.400     6.723
    11   8 O        0.862    -0.565    25.264     6.739
    12   6 C        3.933    -0.136    23.049     6.823
    13   6 C        3.871    -0.148    23.296     6.863
    14   6 C        3.875    -0.159    23.516     6.895
    15   1 H        0.927     0.092     1.857     2.131
    16   1 H        0.927     0.058     2.219     2.329
    17   1 H        0.927     0.048     2.349     2.397
    18   1 H        1.514     0.154     1.357     1.819
    19   6 C        3.771    -0.180    24.054     6.989
    20   6 C        3.885     0.039    19.871     6.338
    21   8 O        1.519    -0.448    21.916     6.314
    22   6 C        3.877    -0.144    23.222     6.852
    23   6 C        3.900    -0.152    23.373     6.872
    24   6 C        3.891    -0.150    23.328     6.866
    25   6 C        3.889    -0.150    23.339     6.868
    26   6 C        3.886    -0.105    22.457     6.737
    27   1 H        0.927     0.106     1.731     2.057
    28   7 N        2.672    -0.242    26.322     7.620
    29   1 H        0.924     0.030     2.586     2.515
    30   1 H        0.925     0.046     2.376     2.411
    31   1 H        0.923     0.046     2.375     2.410
    32   1 H        0.927     0.082     1.954     2.186
    33   7 N        3.499    -0.049    22.187     6.996
    34   6 C        3.721    -0.051    21.606     6.639
    35   6 C        3.813    -0.039    21.253     6.562
    36   1 H        0.924     0.031     2.573     2.509
    37   1 H        0.925     0.049     2.332     2.388
    38   1 H        0.925     0.090     1.882     2.145
    39   1 H        0.923     0.024     2.675     2.558
    40   1 H        0.924     0.094     1.844     2.123
    41   1 H        0.924     0.082     1.963     2.191
    42   6 C        3.851    -0.012    20.749     6.479
    43   6 C        3.755    -0.105    22.556     6.772
    44   6 C        3.801    -0.058    21.618     6.620
    45   6 C        3.751    -0.094    22.354     6.743
    46   1 H        0.925     0.033     2.541     2.493
    47   1 H        0.925     0.030     2.580     2.512
    48   1 H        0.925     0.044     2.396     2.421
    49   1 H        0.921     0.103     1.756     2.073
    50   1 H        0.924     0.027     2.627     2.535
    51   1 H        0.924     0.048     2.346     2.395
    52   1 H        0.925     0.028     2.618     2.530
    53   1 H        0.924     0.022     2.708     2.574
    54   1 H        0.925     0.052     2.297     2.370
    55   8 O        1.705    -0.312    19.200     5.916
    56   6 C        3.758    -0.118    22.816     6.810
    57   6 C        3.785     0.160    18.034     6.049
    58   6 C        3.756    -0.125    22.945     6.830
    59   6 C        3.755    -0.123    22.920     6.826
    60   1 H        0.925     0.051     2.313     2.378
    61   1 H        0.925     0.054     2.267     2.354
    62   1 H        0.925     0.043     2.413     2.429
    63   1 H        0.925     0.044     2.400     2.422
    64   1 H        0.925     0.039     2.467     2.456
    65   1 H        0.925     0.064     2.152     2.294
    66   1 H        0.925     0.042     2.422     2.434
    67   1 H        0.925     0.038     2.475     2.460
    68   1 H        0.925     0.065     2.140     2.288

 Mol. C6AA /au·bohr⁶  :      50570.140626
 Mol. C8AA /au·bohr⁸  :    1462000.561014
 Mol. α(0) /au        :        341.083777


Wiberg/Mayer (AO) data.
largest (>0.10) Wiberg bond orders for each atom

 ---------------------------------------------------------------------------
     #   Z sym  total        # sym  WBO       # sym  WBO       # sym  WBO
 ---------------------------------------------------------------------------
     1  26 Fe   0.640 --    14 C    0.230    10 C    0.200    13 C    0.196
                            12 C    0.192    24 C    0.190    25 C    0.179
                            23 C    0.174    19 C    0.157    22 C    0.153
     2   6 C    3.936 --     9 O    1.635    21 O    1.336    20 C    0.876
     3  46 Pd   3.829 --    19 C    0.807    28 N    0.617    21 O    0.489
                            18 H    0.432    33 N    0.411    26 C    0.147
                            22 C    0.147    10 C    0.114
     4   6 C    3.974 --    10 C    1.010    33 N    0.975    30 H    0.966
                            31 H    0.956
     5   1 H    0.995 --    24 C    0.989
     6   1 H    0.996 --    23 C    0.981
     7   1 H    0.989 --    22 C    0.944
     8   6 C    3.938 --    28 N    1.413    11 O    1.345    55 O    1.057
     9   8 O    1.949 --     2 C    1.635    21 O    0.197
    10   6 C    3.959 --    14 C    1.276    19 C    1.216     4 C    1.010
                             1 Fe   0.200     3 Pd   0.114
    11   8 O    1.919 --     8 C    1.345    28 N    0.165    18 H    0.109
    12   6 C    3.966 --    13 C    1.342    19 C    1.176    15 H    0.967
                             1 Fe   0.192
    13   6 C    3.970 --    12 C    1.342    14 C    1.271    16 H    0.988
                             1 Fe   0.196
    14   6 C    3.973 --    10 C    1.276    13 C    1.271    17 H    0.988
                             1 Fe   0.230
    15   1 H    0.991 --    12 C    0.967
    16   1 H    0.993 --    13 C    0.988
    17   1 H    0.996 --    14 C    0.988
    18   1 H    0.976 --     3 Pd   0.432    26 C    0.127    11 O    0.109
    19   6 C    3.676 --    10 C    1.216    12 C    1.176     3 Pd   0.807
                             1 Fe   0.157
    20   6 C    3.968 --    28 N    0.976    42 C    0.955    29 H    0.955
                             2 C    0.876
    21   8 O    2.174 --     2 C    1.336     3 Pd   0.489     9 O    0.197
    22   6 C    3.975 --    23 C    1.325    26 C    1.248     7 H    0.944
                             1 Fe   0.153     3 Pd   0.147
    23   6 C    3.975 --    22 C    1.325    24 C    1.283     6 H    0.981
                             1 Fe   0.174
    24   6 C    3.973 --    25 C    1.331    23 C    1.283     5 H    0.989
                             1 Fe   0.190
    25   6 C    3.965 --    24 C    1.331    26 C    1.266    32 H    0.983
                             1 Fe   0.179
    26   6 C    3.973 --    25 C    1.266    22 C    1.248    27 H    0.951
                             3 Pd   0.147    18 H    0.127
    27   1 H    0.987 --    26 C    0.951
    28   7 N    3.396 --     8 C    1.413    20 C    0.976     3 Pd   0.617
                            11 O    0.165
    29   1 H    0.997 --    20 C    0.955
    30   1 H    0.997 --     4 C    0.966
    31   1 H    0.995 --     4 C    0.956
    32   1 H    0.990 --    25 C    0.983
    33   7 N    3.459 --    34 C    0.994    35 C    0.989     4 C    0.975
                             3 Pd   0.411
    34   6 C    3.972 --    33 N    0.994    36 H    0.973    37 H    0.971
                            38 H    0.963
    35   6 C    3.971 --    33 N    0.989    39 H    0.970    41 H    0.956
                            40 H    0.942
    36   1 H    0.997 --    34 C    0.973
    37   1 H    0.996 --    34 C    0.971
    38   1 H    0.991 --    34 C    0.963
    39   1 H    0.998 --    35 C    0.970
    40   1 H    0.990 --    35 C    0.942
    41   1 H    0.992 --    35 C    0.956
    42   6 C    3.986 --    43 C    1.007    44 C    0.995    20 C    0.955
                            49 H    0.864
    43   6 C    3.996 --    42 C    1.007    46 H    0.987    47 H    0.986
                            48 H    0.980
    44   6 C    3.995 --    45 C    1.020    42 C    0.995    50 H    0.977
                            51 H    0.975
    45   6 C    3.996 --    44 C    1.020    52 H    0.987    53 H    0.984
                            54 H    0.975
    46   1 H    0.998 --    43 C    0.987
    47   1 H    0.998 --    43 C    0.986
    48   1 H    0.998 --    43 C    0.980
    49   1 H    0.988 --    42 C    0.864
    50   1 H    0.999 --    44 C    0.977
    51   1 H    0.997 --    44 C    0.975
    52   1 H    0.999 --    45 C    0.987
    53   1 H    0.999 --    45 C    0.984
    54   1 H    0.996 --    45 C    0.975
    55   8 O    2.229 --     8 C    1.057    57 C    0.917
    56   6 C    3.992 --    57 C    0.994    62 H    0.985    60 H    0.985
                            61 H    0.984
    57   6 C    3.927 --    56 C    0.994    58 C    0.993    59 C    0.993
                            55 O    0.917
    58   6 C    3.994 --    57 C    0.993    63 H    0.986    64 H    0.985
                            65 H    0.978
    59   6 C    3.993 --    57 C    0.993    66 H    0.986    67 H    0.985
                            68 H    0.978
    60   1 H    0.997 --    56 C    0.985
    61   1 H    0.997 --    56 C    0.984
    62   1 H    0.997 --    56 C    0.985
    63   1 H    0.998 --    58 C    0.986
    64   1 H    0.998 --    58 C    0.985
    65   1 H    0.995 --    58 C    0.978
    66   1 H    0.998 --    59 C    0.986
    67   1 H    0.998 --    59 C    0.985
    68   1 H    0.995 --    59 C    0.978
 ---------------------------------------------------------------------------

Topologies differ in total number of bonds
Writing topology from bond orders to xtbtopo.mol

molecular dipole:
                 x           y           z       tot (Debye)
 q only:        4.352       1.970      -1.545
   full:        3.839       0.860      -1.249      10.492
molecular quadrupole (traceless):
                xx          xy          yy          xz          yz          zz
 q only:       10.445     -10.307      10.198      15.558      12.681     -20.643
  q+dip:       15.892     -15.042      12.150      18.444      11.638     -28.043
   full:       14.898     -18.726       8.213      16.708      11.842     -23.111


           -------------------------------------------------
          | TOTAL ENERGY              -99.740118017215 Eh   |
          | GRADIENT NORM               0.000046522734 Eh/α |
          | HOMO-LUMO GAP               1.440848835373 eV   |
           -------------------------------------------------
########################################################################
[WARNING] Runtime exception occurred
-1- restart_readRestart: Multiplicity missmatch in restart file.
########################################################################

------------------------------------------------------------------------
 * finished run on 2024/10/14 at 20:53:37.335     
------------------------------------------------------------------------
 total:
 * wall-time:     0 d,  0 h,  0 min,  0.274 sec
 *  cpu-time:     0 d,  0 h,  0 min,  2.832 sec
 * ratio c/w:    10.321 speedup
 SCF:
 * wall-time:     0 d,  0 h,  0 min,  0.082 sec
 *  cpu-time:     0 d,  0 h,  0 min,  0.966 sec
 * ratio c/w:    11.721 speedup

