68
charge 0 multiplicity 1
Fe           1.91338   1.26393  -0.05406
C           -1.73992  -1.72345   1.47043
Pd           0.41296  -0.87593  -0.13058
C            3.34034  -1.05341  -0.30961
H            3.35081   3.42990   0.39304
H            4.12919   1.16431   1.45915
H            1.92871  -0.12548   2.36411
C           -1.73932   1.04783  -0.27086
O           -2.50939  -2.08750   2.34259
C            2.80635  -0.00151  -1.19750
O           -0.84060   1.92457  -0.37156
C            1.23898   1.43666  -1.88481
C            2.40938   2.16462  -1.69273
C            3.40167   1.26880  -1.25594
H            0.30929   1.90268  -2.11214
H            2.47497   3.22636  -1.71907
H            4.37831   1.52251  -0.91579
H            0.49491   0.93742  -0.08577
C            1.44148   0.04884  -1.59854
C           -2.28225  -1.29966   0.06717
O           -0.47528  -1.62680   1.59923
C            1.97878   0.81086   1.85879
C            3.11935   1.50350   1.43270
C            2.71459   2.73564   0.88701
C            1.32167   2.80187   0.95795
C            0.86053   1.62737   1.59056
H           -0.14501   1.41785   1.88131
N           -1.42944  -0.21071  -0.34666
H           -3.32760  -0.98509   0.15929
H            3.71707  -0.51424   0.55635
H            4.15191  -1.64923  -0.75318
H            0.70976   3.49745   0.43561
N            2.23109  -1.91174   0.11023
C            2.50007  -2.53899   1.39922
C            2.00566  -2.96845  -0.87744
H            3.22460  -3.35785   1.30096
H            2.91113  -1.81132   2.09535
H            1.57173  -2.93091   1.81476
H            2.87200  -3.64629  -0.93027
H            1.12838  -3.55480  -0.59034
H            1.84953  -2.52825  -1.86345
C           -2.15878  -2.44486  -0.95998
C           -2.85533  -2.03133  -2.25587
C           -2.70547  -3.77232  -0.41523
C           -1.60781  -4.64698   0.18326
H           -3.92729  -1.93419  -2.09451
H           -2.68700  -2.77065  -3.03737
H           -2.46698  -1.07197  -2.59485
H           -1.07330  -2.56201  -1.18772
H           -3.19537  -4.32231  -1.22300
H           -3.45292  -3.56597   0.35274
H           -2.03267  -5.55018   0.61595
H           -0.89084  -4.94261  -0.58459
H           -1.08786  -4.11269   0.97564
O           -3.04109   1.35123  -0.09902
C           -4.95803   2.64402   0.26550
C           -3.44409   2.72271   0.06217
C           -2.77250   3.33132   1.29558
C           -3.11346   3.53181  -1.19370
H           -5.42487   2.18337  -0.60101
H           -5.18130   2.03716   1.13878
H           -5.36904   3.63945   0.40621
H           -2.96548   2.70652   2.16506
H           -3.17108   4.32518   1.47908
H           -1.69927   3.39726   1.13808
H           -3.57573   3.07131  -2.06395
H           -3.48839   4.54590  -1.08702
H           -2.03659   3.55771  -1.33906