      -----------------------------------------------------------      
     |                   =====================                   |     
     |                           x T B                           |     
     |                   =====================                   |     
     |                         S. Grimme                         |     
     |          Mulliken Center for Theoretical Chemistry        |     
     |                    University of Bonn                     |     
      -----------------------------------------------------------      

   * xtb version 6.6.1 (8d0f1dd) compiled by 'stahn@M-Bot' on 2023-08-01

   xtb is free software: you can redistribute it and/or modify it under
   the terms of the GNU Lesser General Public License as published by
   the Free Software Foundation, either version 3 of the License, or
   (at your option) any later version.
   
   xtb is distributed in the hope that it will be useful,
   but WITHOUT ANY WARRANTY; without even the implied warranty of
   MERCHANTABILITY or FITNESS FOR A PARTICULAR PURPOSE.  See the
   GNU Lesser General Public License for more details.
   
   Cite this work as:
   * C. Bannwarth, E. Caldeweyher, S. Ehlert, A. Hansen, P. Pracht,
     J. Seibert, S. Spicher, S. Grimme, WIREs Comput. Mol. Sci., 2020, 11,
     e01493. DOI: 10.1002/wcms.1493
   
   for GFN2-xTB:
   * C. Bannwarth, S. Ehlert and S. Grimme., J. Chem. Theory Comput., 2019,
     15, 1652-1671. DOI: 10.1021/acs.jctc.8b01176
   for GFN1-xTB:
   * S. Grimme, C. Bannwarth, P. Shushkov, J. Chem. Theory Comput., 2017,
     13, 1989-2009. DOI: 10.1021/acs.jctc.7b00118
   for GFN0-xTB:
   * P. Pracht, E. Caldeweyher, S. Ehlert, S. Grimme, ChemRxiv, 2019, preprint.
     DOI: 10.26434/chemrxiv.8326202.v1
   for GFN-FF:
   * S. Spicher and S. Grimme, Angew. Chem. Int. Ed., 2020, 59, 15665-15673.
     DOI: 10.1002/anie.202004239
   
   for ALPB and GBSA implicit solvation:
   * S. Ehlert, M. Stahn, S. Spicher, S. Grimme, J. Chem. Theory Comput.,
     2021, 17, 4250-4261. DOI: 10.1021/acs.jctc.1c00471
   
   for DFT-D4:
   * E. Caldeweyher, C. Bannwarth and S. Grimme, J. Chem. Phys., 2017,
     147, 034112. DOI: 10.1063/1.4993215
   * E. Caldeweyher, S. Ehlert, A. Hansen, H. Neugebauer, S. Spicher,
     C. Bannwarth and S. Grimme, J. Chem. Phys., 2019, 150, 154122.
     DOI: 10.1063/1.5090222
   * E. Caldeweyher, J.-M. Mewes, S. Ehlert and S. Grimme, Phys. Chem. Chem. Phys.
     2020, 22, 8499-8512. DOI: 10.1039/D0CP00502A
   
   for sTDA-xTB:
   * S. Grimme and C. Bannwarth, J. Chem. Phys., 2016, 145, 054103.
     DOI: 10.1063/1.4959605
   
   in the mass-spec context:
   * V. Asgeirsson, C. Bauer and S. Grimme, Chem. Sci., 2017, 8, 4879.
     DOI: 10.1039/c7sc00601b
   * J. Koopman and S. Grimme, ACS Omega 2019, 4, 12, 15120-15133.
     DOI: 10.1021/acsomega.9b02011
   
   for metadynamics refer to:
   * S. Grimme, J. Chem. Theory Comput., 2019, 155, 2847-2862
     DOI: 10.1021/acs.jctc.9b00143
   
   for SPH calculations refer to:
   * S. Spicher and S. Grimme, J. Chem. Theory Comput., 2021, 17, 1701-1714
     DOI: 10.1021/acs.jctc.0c01306
   
   with help from (in alphabetical order)
   P. Atkinson, C. Bannwarth, F. Bohle, G. Brandenburg, E. Caldeweyher
   M. Checinski, S. Dohm, S. Ehlert, S. Ehrlich, I. Gerasimov, C. Hölzer
   A. Katbashev, J. Koopman, C. Lavigne, S. Lehtola, F. März, M. Müller,
   F. Musil, H. Neugebauer, J. Pisarek, C. Plett, P. Pracht, F. Pultar,
   J. Seibert, P. Shushkov, S. Spicher, M. Stahn, M. Steiner, T. Strunk,
   J. Stückrath, T. Rose, and J. Unsleber
   
 * started run on 2024/10/14 at 20:53:35.564     

           -------------------------------------------------
          |                Calculation Setup                |
           -------------------------------------------------

          program call               : xtb tsopted.xyz --gfn 2 --charge 0 --vfukui
          coordinate file            : tsopted.xyz
          omp threads                :                    12

   ID    Z sym.   atoms
    1   26 Fe     1
    2    6 C      2, 4, 8, 10, 12-14, 19, 20, 22-26, 34, 35, 42-45, 56-59
    3   46 Pd     3
    4    1 H      5-7, 15-18, 27, 29-32, 36-41, 46-54, 60-68
    5    8 O      9, 11, 21, 55
    6    7 N      28, 33

           -------------------------------------------------
          |                 G F N 2 - x T B                 |
           -------------------------------------------------

        Reference                      10.1021/acs.jctc.8b01176
      * Hamiltonian:
        H0-scaling (s, p, d)           1.850000    2.230000    2.230000
        zeta-weighting                 0.500000
      * Dispersion:
        s8                             2.700000
        a1                             0.520000
        a2                             5.000000
        s9                             5.000000
      * Repulsion:
        kExp                           1.500000    1.000000
        rExp                           1.000000
      * Coulomb:
        alpha                          2.000000
        third order                    shell-resolved
        anisotropic                    true
        a3                             3.000000
        a5                             4.000000
        cn-shift                       1.200000
        cn-exp                         4.000000
        max-rad                        5.000000


          ...................................................
          :                      SETUP                      :
          :.................................................:
          :  # basis functions                 176          :
          :  # atomic orbitals                 174          :
          :  # shells                          102          :
          :  # electrons                       184          :
          :  max. iterations                   250          :
          :  Hamiltonian                  GFN2-xTB          :
          :  restarted?                      false          :
          :  GBSA solvation                  false          :
          :  PC potential                    false          :
          :  electronic temp.          300.0000000     K    :
          :  accuracy                    1.0000000          :
          :  -> integral cutoff          0.2500000E+02      :
          :  -> integral neglect         0.1000000E-07      :
          :  -> SCF convergence          0.1000000E-05 Eh   :
          :  -> wf. convergence          0.1000000E-03 e    :
          :  Broyden damping             0.4000000          :
          ...................................................

 iter      E             dE          RMSdq      gap      omega  full diag
   1   -100.6187837 -0.100619E+03  0.755E+00    1.58       0.0  T
   2   -100.9634260 -0.344642E+00  0.455E+00    1.51       1.0  T
   3   -101.0042146 -0.407886E-01  0.306E+00    1.68       1.0  T
   4   -101.0198859 -0.156713E-01  0.181E+00    1.51       1.0  T
   5   -101.0158649  0.402100E-02  0.110E+00    1.46       1.0  T
   6   -101.0250276 -0.916268E-02  0.610E-01    1.43       1.0  T
   7   -101.0286803 -0.365272E-02  0.296E-01    1.46       1.0  T
   8   -101.0306053 -0.192495E-02  0.165E-01    1.45       1.0  T
   9   -101.0311856 -0.580289E-03  0.103E-01    1.45       1.0  T
  10   -101.0312660 -0.803864E-04  0.439E-02    1.43       1.0  T
  11   -101.0312770 -0.110277E-04  0.220E-02    1.44       1.0  T
  12   -101.0312823 -0.536237E-05  0.103E-02    1.44       1.2  T
  13   -101.0312841 -0.174467E-05  0.377E-03    1.44       3.2  T
  14   -101.0312843 -0.192051E-06  0.185E-03    1.44       6.6  T
  15   -101.0312843 -0.460673E-07  0.855E-04    1.44      14.2  T
  16   -101.0312843 -0.611666E-08  0.440E-04    1.44      27.6  T

   *** convergence criteria satisfied after 16 iterations ***

         #    Occupation            Energy/Eh            Energy/eV
      -------------------------------------------------------------
         1        2.0000           -0.8671087             -23.5952
       ...           ...                  ...                  ...
        86        2.0000           -0.3705014             -10.0819
        87        2.0000           -0.3656381              -9.9495
        88        2.0000           -0.3516733              -9.5695
        89        2.0000           -0.3491723              -9.5015
        90        2.0000           -0.3410545              -9.2806
        91        2.0000           -0.3290084              -8.9528
        92        2.0000           -0.3179018              -8.6505 (HOMO)
        93                         -0.2649523              -7.2097 (LUMO)
        94                         -0.2553933              -6.9496
        95                         -0.2339231              -6.3654
        96                         -0.1863641              -5.0712
        97                         -0.1774498              -4.8287
       ...                                ...                  ...
       174                          6.9902317             190.2139
      -------------------------------------------------------------
                  HL-Gap            0.0529496 Eh            1.4408 eV
             Fermi-level           -0.2914271 Eh           -7.9301 eV

 SCC (total)                   0 d,  0 h,  0 min,  0.104 sec
 SCC setup                      ...        0 min,  0.003 sec (  2.525%)
 Dispersion                     ...        0 min,  0.001 sec (  1.175%)
 classical contributions        ...        0 min,  0.000 sec (  0.043%)
 integral evaluation            ...        0 min,  0.005 sec (  5.168%)
 iterations                     ...        0 min,  0.080 sec ( 77.314%)
 molecular gradient             ...        0 min,  0.011 sec ( 10.256%)
 printout                       ...        0 min,  0.004 sec (  3.475%)

         :::::::::::::::::::::::::::::::::::::::::::::::::::::
         ::                     SUMMARY                     ::
         :::::::::::::::::::::::::::::::::::::::::::::::::::::
         :: total energy             -99.740118018710 Eh    ::
         :: gradient norm              0.000048052060 Eh/a0 ::
         :: HOMO-LUMO gap              1.440830596719 eV    ::
         ::.................................................::
         :: SCC energy              -101.031284337704 Eh    ::
         :: -> isotropic ES           -0.049843420893 Eh    ::
         :: -> anisotropic ES         -0.027655998809 Eh    ::
         :: -> anisotropic XC          0.020356791775 Eh    ::
         :: -> dispersion             -0.099748554616 Eh    ::
         :: repulsion energy           1.287575458727 Eh    ::
         :: add. restraining           0.000000000000 Eh    ::
         :: total charge               0.000000000000 e     ::
         :::::::::::::::::::::::::::::::::::::::::::::::::::::


Fukui index Calculation

 iter      E             dE          RMSdq      gap      omega  full diag
   1   -101.1563552 -0.101156E+03  0.770E-01    0.26       0.0  T
   2   -101.1037544  0.526008E-01  0.153E+00    0.50       1.0  T
   3   -101.2058464 -0.102092E+00  0.478E-01    0.25       1.0  T
   4   -101.2094143 -0.356792E-02  0.397E-01    0.28       1.0  T
   5   -101.2067714  0.264290E-02  0.386E-01    0.25       1.0  T
   6   -101.2099340 -0.316259E-02  0.173E-01    0.27       1.0  T
   7   -101.2101098 -0.175820E-03  0.109E-01    0.28       1.0  T
   8   -101.2101962 -0.863580E-04  0.563E-02    0.28       1.0  T
   9   -101.2102992 -0.102968E-03  0.161E-02    0.28       1.0  T
  10   -101.2103027 -0.352311E-05  0.836E-03    0.28       1.5  T
  11   -101.2103032 -0.553844E-06  0.483E-03    0.28       2.5  T
  12   -101.2103037 -0.491337E-06  0.235E-03    0.28       5.2  T
  13   -101.2103038 -0.490316E-07  0.125E-03    0.28       9.7  T
  14   -101.2103038 -0.291190E-07  0.708E-04    0.28      17.1  T
  15   -101.2103038 -0.261051E-08  0.488E-04    0.28      24.8  T
     SCC iter.                  ...        0 min,  0.058 sec
     gradient                   ...        0 min,  0.009 sec

 iter      E             dE          RMSdq      gap      omega  full diag
   1   -100.6057601 -0.100606E+03  0.608E-01    1.44       0.0  T
   2   -100.5873519  0.184082E-01  0.856E-01    2.03       1.0  T
   3   -100.6284817 -0.411298E-01  0.500E-01    1.78       1.0  T
   4   -100.6357448 -0.726315E-02  0.301E-01    1.86       1.0  T
   5   -100.6356395  0.105288E-03  0.222E-01    1.92       1.0  T
   6   -100.6334959  0.214366E-02  0.226E-01    1.91       1.0  T
   7   -100.6359025 -0.240661E-02  0.990E-02    1.86       1.0  T
   8   -100.6364553 -0.552849E-03  0.341E-02    1.87       1.0  T
   9   -100.6364610 -0.564838E-05  0.201E-02    1.88       1.0  T
  10   -100.6364608  0.141098E-06  0.150E-02    1.87       1.0  T
  11   -100.6364702 -0.940815E-05  0.671E-03    1.87       1.8  T
  12   -100.6364710 -0.787649E-06  0.429E-03    1.87       2.8  T
  13   -100.6364712 -0.196466E-06  0.245E-03    1.87       4.9  T
  14   -100.6364713 -0.284108E-07  0.180E-03    1.87       6.7  T
  15   -100.6364713 -0.289475E-07  0.111E-03    1.87      10.9  T
  16   -100.6364714 -0.589864E-07  0.370E-04    1.87      32.7  T
  17   -100.6364713  0.222005E-08  0.298E-04    1.87      40.7  T
     SCC iter.                  ...        0 min,  0.065 sec
     gradient                   ...        0 min,  0.009 sec

     #        f(+)     f(-)     f(0)
     1Fe     -0.121   -0.067   -0.094
     2C       0.000   -0.012   -0.006
     3Pd     -0.169   -0.217   -0.193
     4C       0.016    0.017    0.016
     5H      -0.044   -0.031   -0.038
     6H      -0.043   -0.029   -0.036
     7H      -0.039   -0.016   -0.028
     8C      -0.002   -0.011   -0.007
     9O      -0.046   -0.105   -0.076
    10C      -0.015   -0.005   -0.010
    11O       0.002   -0.040   -0.019
    12C      -0.006   -0.001   -0.003
    13C      -0.012   -0.005   -0.009
    14C      -0.009   -0.003   -0.006
    15H      -0.040   -0.019   -0.029
    16H      -0.044   -0.032   -0.038
    17H      -0.044   -0.033   -0.038
    18H      -0.000    0.021    0.010
    19C      -0.019   -0.001   -0.010
    20C       0.010   -0.012   -0.001
    21O       0.002   -0.022   -0.010
    22C      -0.004    0.005    0.000
    23C      -0.005   -0.003   -0.004
    24C      -0.017   -0.006   -0.011
    25C      -0.009   -0.005   -0.007
    26C      -0.005    0.002   -0.001
    27H      -0.040   -0.009   -0.024
    28N      -0.004   -0.004   -0.004
    29H      -0.030   -0.037   -0.034
    30H      -0.012   -0.017   -0.014
    31H      -0.042   -0.035   -0.039
    32H      -0.040   -0.022   -0.031
    33N       0.010    0.008    0.009
    34C       0.017    0.016    0.017
    35C       0.017    0.016    0.016
    36H      -0.030   -0.030   -0.030
    37H      -0.007   -0.014   -0.010
    38H      -0.015   -0.006   -0.011
    39H      -0.029   -0.031   -0.030
    40H      -0.018   -0.006   -0.012
    41H      -0.004   -0.006   -0.005
    42C      -0.001   -0.004   -0.003
    43C       0.008    0.010    0.009
    44C       0.007    0.007    0.007
    45C       0.006    0.008    0.007
    46H      -0.016   -0.021   -0.018
    47H      -0.016   -0.028   -0.022
    48H       0.002   -0.005   -0.001
    49H       0.006   -0.002    0.002
    50H      -0.018   -0.026   -0.022
    51H      -0.009   -0.011   -0.010
    52H      -0.017   -0.022   -0.020
    53H      -0.005   -0.011   -0.008
    54H       0.006    0.007    0.007
    55O      -0.023   -0.029   -0.026
    56C       0.007    0.008    0.008
    57C       0.002    0.002    0.002
    58C       0.005    0.007    0.006
    59C       0.005    0.007    0.006
    60H      -0.009   -0.009   -0.009
    61H      -0.007   -0.006   -0.007
    62H      -0.015   -0.019   -0.017
    63H      -0.005   -0.005   -0.005
    64H      -0.017   -0.022   -0.020
    65H       0.012    0.004    0.008
    66H      -0.009   -0.010   -0.010
    67H      -0.016   -0.021   -0.019
    68H       0.009    0.002    0.006
           -------------------------------------------------
          |                Property Printout                |
           -------------------------------------------------

    * Orbital Energies and Occupations

         #    Occupation            Energy/Eh            Energy/eV
      -------------------------------------------------------------
         1        2.0000           -0.8671087             -23.5952
       ...           ...                  ...                  ...
        80        2.0000           -0.3988091             -10.8521
        81        2.0000           -0.3905105             -10.6263
        82        2.0000           -0.3851591             -10.4807
        83        2.0000           -0.3811079             -10.3705
        84        2.0000           -0.3765560             -10.2466
        85        2.0000           -0.3752353             -10.2107
        86        2.0000           -0.3705014             -10.0819
        87        2.0000           -0.3656381              -9.9495
        88        2.0000           -0.3516733              -9.5695
        89        2.0000           -0.3491723              -9.5015
        90        2.0000           -0.3410545              -9.2806
        91        2.0000           -0.3290084              -8.9528
        92        2.0000           -0.3179018              -8.6505 (HOMO)
        93                         -0.2649523              -7.2097 (LUMO)
        94                         -0.2553933              -6.9496
        95                         -0.2339231              -6.3654
        96                         -0.1863641              -5.0712
        97                         -0.1774498              -4.8287
        98                         -0.1681420              -4.5754
        99                         -0.1627955              -4.4299
       100                         -0.1523522              -4.1457
       101                         -0.1441606              -3.9228
       102                         -0.1080907              -2.9413
       103                         -0.0056843              -0.1547
       ...                                ...                  ...
       174                          6.9902317             190.2139
      -------------------------------------------------------------
                  HL-Gap            0.0529496 Eh            1.4408 eV
             Fermi-level           -0.2914271 Eh           -7.9301 eV

     #   Z          covCN         q      C6AA      α(0)
     1  26 Fe      10.243     1.596   107.520    18.286
     2   6 C        2.739     0.372    20.693     7.448
     3  46 Pd       4.863    -0.303   381.836    35.687
     4   6 C        3.836    -0.041    21.278     6.563
     5   1 H        0.927     0.063     2.165     2.301
     6   1 H        0.927     0.046     2.375     2.410
     7   1 H        0.927     0.094     1.839     2.120
     8   6 C        2.667     0.384    20.496     7.408
     9   8 O        0.856    -0.499    23.766     6.536
    10   6 C        4.070    -0.104    22.400     6.723
    11   8 O        0.862    -0.565    25.264     6.739
    12   6 C        3.933    -0.136    23.049     6.823
    13   6 C        3.871    -0.148    23.296     6.863
    14   6 C        3.875    -0.159    23.516     6.895
    15   1 H        0.927     0.092     1.857     2.131
    16   1 H        0.927     0.058     2.219     2.329
    17   1 H        0.927     0.048     2.349     2.397
    18   1 H        1.514     0.154     1.357     1.819
    19   6 C        3.771    -0.180    24.055     6.989
    20   6 C        3.885     0.039    19.871     6.338
    21   8 O        1.519    -0.448    21.916     6.314
    22   6 C        3.877    -0.144    23.223     6.852
    23   6 C        3.900    -0.152    23.373     6.872
    24   6 C        3.891    -0.150    23.328     6.866
    25   6 C        3.889    -0.150    23.339     6.868
    26   6 C        3.886    -0.105    22.457     6.737
    27   1 H        0.927     0.106     1.731     2.057
    28   7 N        2.672    -0.242    26.322     7.620
    29   1 H        0.924     0.030     2.586     2.515
    30   1 H        0.925     0.046     2.376     2.411
    31   1 H        0.923     0.046     2.375     2.410
    32   1 H        0.927     0.082     1.954     2.186
    33   7 N        3.499    -0.049    22.187     6.996
    34   6 C        3.721    -0.051    21.606     6.639
    35   6 C        3.813    -0.039    21.253     6.562
    36   1 H        0.924     0.031     2.573     2.509
    37   1 H        0.925     0.049     2.332     2.388
    38   1 H        0.925     0.090     1.882     2.145
    39   1 H        0.923     0.024     2.675     2.558
    40   1 H        0.924     0.094     1.844     2.123
    41   1 H        0.924     0.082     1.963     2.191
    42   6 C        3.851    -0.012    20.749     6.479
    43   6 C        3.755    -0.105    22.556     6.772
    44   6 C        3.801    -0.058    21.618     6.620
    45   6 C        3.751    -0.094    22.354     6.743
    46   1 H        0.925     0.033     2.541     2.493
    47   1 H        0.925     0.030     2.580     2.512
    48   1 H        0.925     0.044     2.396     2.421
    49   1 H        0.921     0.103     1.756     2.073
    50   1 H        0.924     0.027     2.627     2.535
    51   1 H        0.924     0.048     2.346     2.395
    52   1 H        0.925     0.028     2.618     2.530
    53   1 H        0.924     0.022     2.708     2.574
    54   1 H        0.925     0.052     2.297     2.370
    55   8 O        1.705    -0.312    19.200     5.916
    56   6 C        3.758    -0.118    22.816     6.810
    57   6 C        3.785     0.160    18.034     6.049
    58   6 C        3.756    -0.125    22.945     6.830
    59   6 C        3.755    -0.123    22.920     6.826
    60   1 H        0.925     0.051     2.313     2.378
    61   1 H        0.925     0.054     2.267     2.354
    62   1 H        0.925     0.043     2.413     2.429
    63   1 H        0.925     0.044     2.400     2.422
    64   1 H        0.925     0.039     2.467     2.456
    65   1 H        0.925     0.064     2.152     2.294
    66   1 H        0.925     0.042     2.422     2.434
    67   1 H        0.925     0.038     2.475     2.460
    68   1 H        0.925     0.065     2.140     2.288

 Mol. C6AA /au·bohr⁶  :      50570.154310
 Mol. C8AA /au·bohr⁸  :    1462000.359534
 Mol. α(0) /au        :        341.083763


Wiberg/Mayer (AO) data.
largest (>0.10) Wiberg bond orders for each atom

 ---------------------------------------------------------------------------
     #   Z sym  total        # sym  WBO       # sym  WBO       # sym  WBO
 ---------------------------------------------------------------------------
     1  26 Fe   0.639 --    14 C    0.230    10 C    0.200    13 C    0.196
                            12 C    0.192    24 C    0.190    25 C    0.179
                            23 C    0.174    19 C    0.157    22 C    0.153
     2   6 C    3.936 --     9 O    1.635    21 O    1.336    20 C    0.876
     3  46 Pd   3.829 --    19 C    0.807    28 N    0.617    21 O    0.489
                            18 H    0.432    33 N    0.411    26 C    0.147
                            22 C    0.147    10 C    0.114
     4   6 C    3.974 --    10 C    1.010    33 N    0.975    30 H    0.966
                            31 H    0.956
     5   1 H    0.995 --    24 C    0.989
     6   1 H    0.996 --    23 C    0.981
     7   1 H    0.989 --    22 C    0.944
     8   6 C    3.938 --    28 N    1.413    11 O    1.345    55 O    1.057
     9   8 O    1.949 --     2 C    1.635    21 O    0.197
    10   6 C    3.959 --    14 C    1.276    19 C    1.216     4 C    1.010
                             1 Fe   0.200     3 Pd   0.114
    11   8 O    1.919 --     8 C    1.345    28 N    0.165    18 H    0.109
    12   6 C    3.966 --    13 C    1.342    19 C    1.176    15 H    0.967
                             1 Fe   0.192
    13   6 C    3.970 --    12 C    1.342    14 C    1.271    16 H    0.988
                             1 Fe   0.196
    14   6 C    3.973 --    10 C    1.276    13 C    1.271    17 H    0.988
                             1 Fe   0.230
    15   1 H    0.991 --    12 C    0.967
    16   1 H    0.993 --    13 C    0.988
    17   1 H    0.996 --    14 C    0.988
    18   1 H    0.976 --     3 Pd   0.432    26 C    0.127    11 O    0.109
    19   6 C    3.676 --    10 C    1.216    12 C    1.176     3 Pd   0.807
                             1 Fe   0.157
    20   6 C    3.968 --    28 N    0.976    42 C    0.955    29 H    0.955
                             2 C    0.876
    21   8 O    2.174 --     2 C    1.336     3 Pd   0.489     9 O    0.197
    22   6 C    3.975 --    23 C    1.325    26 C    1.248     7 H    0.944
                             1 Fe   0.153     3 Pd   0.147
    23   6 C    3.975 --    22 C    1.325    24 C    1.283     6 H    0.981
                             1 Fe   0.174
    24   6 C    3.973 --    25 C    1.331    23 C    1.283     5 H    0.989
                             1 Fe   0.190
    25   6 C    3.965 --    24 C    1.331    26 C    1.266    32 H    0.983
                             1 Fe   0.179
    26   6 C    3.973 --    25 C    1.266    22 C    1.248    27 H    0.951
                             3 Pd   0.147    18 H    0.127
    27   1 H    0.987 --    26 C    0.951
    28   7 N    3.396 --     8 C    1.413    20 C    0.976     3 Pd   0.617
                            11 O    0.165
    29   1 H    0.997 --    20 C    0.955
    30   1 H    0.997 --     4 C    0.966
    31   1 H    0.995 --     4 C    0.956
    32   1 H    0.990 --    25 C    0.983
    33   7 N    3.459 --    34 C    0.994    35 C    0.989     4 C    0.975
                             3 Pd   0.411
    34   6 C    3.972 --    33 N    0.994    36 H    0.973    37 H    0.971
                            38 H    0.963
    35   6 C    3.971 --    33 N    0.989    39 H    0.970    41 H    0.956
                            40 H    0.942
    36   1 H    0.997 --    34 C    0.973
    37   1 H    0.996 --    34 C    0.971
    38   1 H    0.991 --    34 C    0.963
    39   1 H    0.998 --    35 C    0.970
    40   1 H    0.990 --    35 C    0.942
    41   1 H    0.992 --    35 C    0.956
    42   6 C    3.986 --    43 C    1.007    44 C    0.995    20 C    0.955
                            49 H    0.864
    43   6 C    3.996 --    42 C    1.007    46 H    0.987    47 H    0.986
                            48 H    0.980
    44   6 C    3.995 --    45 C    1.020    42 C    0.995    50 H    0.977
                            51 H    0.975
    45   6 C    3.996 --    44 C    1.020    52 H    0.987    53 H    0.984
                            54 H    0.975
    46   1 H    0.998 --    43 C    0.987
    47   1 H    0.998 --    43 C    0.986
    48   1 H    0.998 --    43 C    0.980
    49   1 H    0.988 --    42 C    0.864
    50   1 H    0.999 --    44 C    0.977
    51   1 H    0.997 --    44 C    0.975
    52   1 H    0.999 --    45 C    0.987
    53   1 H    0.999 --    45 C    0.984
    54   1 H    0.996 --    45 C    0.975
    55   8 O    2.229 --     8 C    1.057    57 C    0.917
    56   6 C    3.992 --    57 C    0.994    62 H    0.985    60 H    0.985
                            61 H    0.984
    57   6 C    3.927 --    56 C    0.994    58 C    0.993    59 C    0.993
                            55 O    0.917
    58   6 C    3.994 --    57 C    0.993    63 H    0.985    64 H    0.985
                            65 H    0.978
    59   6 C    3.993 --    57 C    0.993    66 H    0.986    67 H    0.985
                            68 H    0.978
    60   1 H    0.997 --    56 C    0.985
    61   1 H    0.997 --    56 C    0.984
    62   1 H    0.997 --    56 C    0.985
    63   1 H    0.998 --    58 C    0.985
    64   1 H    0.998 --    58 C    0.985
    65   1 H    0.995 --    58 C    0.978
    66   1 H    0.998 --    59 C    0.986
    67   1 H    0.998 --    59 C    0.985
    68   1 H    0.995 --    59 C    0.978
 ---------------------------------------------------------------------------

Topologies differ in total number of bonds
Writing topology from bond orders to xtbtopo.mol

molecular dipole:
                 x           y           z       tot (Debye)
 q only:        4.352       1.970      -1.545
   full:        3.840       0.860      -1.249      10.493
molecular quadrupole (traceless):
                xx          xy          yy          xz          yz          zz
 q only:       10.446     -10.306      10.197      15.558      12.681     -20.643
  q+dip:       15.893     -15.041      12.150      18.445      11.638     -28.043
   full:       14.899     -18.725       8.212      16.708      11.842     -23.111


           -------------------------------------------------
          | TOTAL ENERGY              -99.740118018710 Eh   |
          | GRADIENT NORM               0.000048052060 Eh/α |
          | HOMO-LUMO GAP               1.440830596719 eV   |
           -------------------------------------------------

------------------------------------------------------------------------
 * finished run on 2024/10/14 at 20:53:36.025     
------------------------------------------------------------------------
 total:
 * wall-time:     0 d,  0 h,  0 min,  0.460 sec
 *  cpu-time:     0 d,  0 h,  0 min,  4.989 sec
 * ratio c/w:    10.842 speedup
 SCF:
 * wall-time:     0 d,  0 h,  0 min,  0.108 sec
 *  cpu-time:     0 d,  0 h,  0 min,  1.261 sec
 * ratio c/w:    11.728 speedup

