      -----------------------------------------------------------      
     |                   =====================                   |     
     |                           x T B                           |     
     |                   =====================                   |     
     |                         S. Grimme                         |     
     |          Mulliken Center for Theoretical Chemistry        |     
     |                    University of Bonn                     |     
      -----------------------------------------------------------      

   * xtb version 6.6.1 (8d0f1dd) compiled by 'stahn@M-Bot' on 2023-08-01

   xtb is free software: you can redistribute it and/or modify it under
   the terms of the GNU Lesser General Public License as published by
   the Free Software Foundation, either version 3 of the License, or
   (at your option) any later version.
   
   xtb is distributed in the hope that it will be useful,
   but WITHOUT ANY WARRANTY; without even the implied warranty of
   MERCHANTABILITY or FITNESS FOR A PARTICULAR PURPOSE.  See the
   GNU Lesser General Public License for more details.
   
   Cite this work as:
   * C. Bannwarth, E. Caldeweyher, S. Ehlert, A. Hansen, P. Pracht,
     J. Seibert, S. Spicher, S. Grimme, WIREs Comput. Mol. Sci., 2020, 11,
     e01493. DOI: 10.1002/wcms.1493
   
   for GFN2-xTB:
   * C. Bannwarth, S. Ehlert and S. Grimme., J. Chem. Theory Comput., 2019,
     15, 1652-1671. DOI: 10.1021/acs.jctc.8b01176
   for GFN1-xTB:
   * S. Grimme, C. Bannwarth, P. Shushkov, J. Chem. Theory Comput., 2017,
     13, 1989-2009. DOI: 10.1021/acs.jctc.7b00118
   for GFN0-xTB:
   * P. Pracht, E. Caldeweyher, S. Ehlert, S. Grimme, ChemRxiv, 2019, preprint.
     DOI: 10.26434/chemrxiv.8326202.v1
   for GFN-FF:
   * S. Spicher and S. Grimme, Angew. Chem. Int. Ed., 2020, 59, 15665-15673.
     DOI: 10.1002/anie.202004239
   
   for ALPB and GBSA implicit solvation:
   * S. Ehlert, M. Stahn, S. Spicher, S. Grimme, J. Chem. Theory Comput.,
     2021, 17, 4250-4261. DOI: 10.1021/acs.jctc.1c00471
   
   for DFT-D4:
   * E. Caldeweyher, C. Bannwarth and S. Grimme, J. Chem. Phys., 2017,
     147, 034112. DOI: 10.1063/1.4993215
   * E. Caldeweyher, S. Ehlert, A. Hansen, H. Neugebauer, S. Spicher,
     C. Bannwarth and S. Grimme, J. Chem. Phys., 2019, 150, 154122.
     DOI: 10.1063/1.5090222
   * E. Caldeweyher, J.-M. Mewes, S. Ehlert and S. Grimme, Phys. Chem. Chem. Phys.
     2020, 22, 8499-8512. DOI: 10.1039/D0CP00502A
   
   for sTDA-xTB:
   * S. Grimme and C. Bannwarth, J. Chem. Phys., 2016, 145, 054103.
     DOI: 10.1063/1.4959605
   
   in the mass-spec context:
   * V. Asgeirsson, C. Bauer and S. Grimme, Chem. Sci., 2017, 8, 4879.
     DOI: 10.1039/c7sc00601b
   * J. Koopman and S. Grimme, ACS Omega 2019, 4, 12, 15120-15133.
     DOI: 10.1021/acsomega.9b02011
   
   for metadynamics refer to:
   * S. Grimme, J. Chem. Theory Comput., 2019, 155, 2847-2862
     DOI: 10.1021/acs.jctc.9b00143
   
   for SPH calculations refer to:
   * S. Spicher and S. Grimme, J. Chem. Theory Comput., 2021, 17, 1701-1714
     DOI: 10.1021/acs.jctc.0c01306
   
   with help from (in alphabetical order)
   P. Atkinson, C. Bannwarth, F. Bohle, G. Brandenburg, E. Caldeweyher
   M. Checinski, S. Dohm, S. Ehlert, S. Ehrlich, I. Gerasimov, C. Hölzer
   A. Katbashev, J. Koopman, C. Lavigne, S. Lehtola, F. März, M. Müller,
   F. Musil, H. Neugebauer, J. Pisarek, C. Plett, P. Pracht, F. Pultar,
   J. Seibert, P. Shushkov, S. Spicher, M. Stahn, M. Steiner, T. Strunk,
   J. Stückrath, T. Rose, and J. Unsleber
   
 * started run on 2024/10/14 at 20:53:36.094     

           -------------------------------------------------
          |                Calculation Setup                |
           -------------------------------------------------

          program call               : xtb tsopted.xyz --gfn 2 --charge 0 --vipea
          coordinate file            : tsopted.xyz
          omp threads                :                    12

   ID    Z sym.   atoms
    1   26 Fe     1
    2    6 C      2, 4, 8, 10, 12-14, 19, 20, 22-26, 34, 35, 42-45, 56-59
    3   46 Pd     3
    4    1 H      5-7, 15-18, 27, 29-32, 36-41, 46-54, 60-68
    5    8 O      9, 11, 21, 55
    6    7 N      28, 33

           -------------------------------------------------
          |                 G F N 2 - x T B                 |
           -------------------------------------------------

        Reference                      10.1021/acs.jctc.8b01176
      * Hamiltonian:
        H0-scaling (s, p, d)           1.850000    2.230000    2.230000
        zeta-weighting                 0.500000
      * Dispersion:
        s8                             2.700000
        a1                             0.520000
        a2                             5.000000
        s9                             5.000000
      * Repulsion:
        kExp                           1.500000    1.000000
        rExp                           1.000000
      * Coulomb:
        alpha                          2.000000
        third order                    shell-resolved
        anisotropic                    true
        a3                             3.000000
        a5                             4.000000
        cn-shift                       1.200000
        cn-exp                         4.000000
        max-rad                        5.000000

q/qsh data taken from xtbrestart
CAMM data taken from xtbrestart

          ...................................................
          :                      SETUP                      :
          :.................................................:
          :  # basis functions                 176          :
          :  # atomic orbitals                 174          :
          :  # shells                          102          :
          :  # electrons                       184          :
          :  max. iterations                   250          :
          :  Hamiltonian                  GFN2-xTB          :
          :  restarted?                       true          :
          :  GBSA solvation                  false          :
          :  PC potential                    false          :
          :  electronic temp.          300.0000000     K    :
          :  accuracy                    1.0000000          :
          :  -> integral cutoff          0.2500000E+02      :
          :  -> integral neglect         0.1000000E-07      :
          :  -> SCF convergence          0.1000000E-05 Eh   :
          :  -> wf. convergence          0.1000000E-03 e    :
          :  Broyden damping             0.4000000          :
          ...................................................

 iter      E             dE          RMSdq      gap      omega  full diag
   1   -101.0312843 -0.101031E+03  0.248E-04    1.44       0.0  T
   2   -101.0312843 -0.190894E-09  0.164E-04    1.44      74.1  T
   3   -101.0312843 -0.189004E-11  0.150E-04    1.44      80.8  T

   *** convergence criteria satisfied after 3 iterations ***

         #    Occupation            Energy/Eh            Energy/eV
      -------------------------------------------------------------
         1        2.0000           -0.8671180             -23.5955
       ...           ...                  ...                  ...
        86        2.0000           -0.3704994             -10.0818
        87        2.0000           -0.3656362              -9.9495
        88        2.0000           -0.3516719              -9.5695
        89        2.0000           -0.3491711              -9.5014
        90        2.0000           -0.3410534              -9.2805
        91        2.0000           -0.3290064              -8.9527
        92        2.0000           -0.3179005              -8.6505 (HOMO)
        93                         -0.2649503              -7.2097 (LUMO)
        94                         -0.2553913              -6.9496
        95                         -0.2339221              -6.3653
        96                         -0.1863636              -5.0712
        97                         -0.1774493              -4.8286
       ...                                ...                  ...
       174                          6.9902474             190.2143
      -------------------------------------------------------------
                  HL-Gap            0.0529501 Eh            1.4408 eV
             Fermi-level           -0.2914254 Eh           -7.9301 eV

 SCC (total)                   0 d,  0 h,  0 min,  0.039 sec
 SCC setup                      ...        0 min,  0.004 sec (  9.728%)
 Dispersion                     ...        0 min,  0.001 sec (  2.695%)
 classical contributions        ...        0 min,  0.000 sec (  0.133%)
 integral evaluation            ...        0 min,  0.006 sec ( 15.135%)
 iterations                     ...        0 min,  0.016 sec ( 39.841%)
 molecular gradient             ...        0 min,  0.010 sec ( 24.447%)
 printout                       ...        0 min,  0.003 sec (  7.914%)

         :::::::::::::::::::::::::::::::::::::::::::::::::::::
         ::                     SUMMARY                     ::
         :::::::::::::::::::::::::::::::::::::::::::::::::::::
         :: total energy             -99.740118020189 Eh    ::
         :: gradient norm              0.000048497302 Eh/a0 ::
         :: HOMO-LUMO gap              1.440846806557 eV    ::
         ::.................................................::
         :: SCC energy              -101.031284339182 Eh    ::
         :: -> isotropic ES           -0.049855046341 Eh    ::
         :: -> anisotropic ES         -0.027657641790 Eh    ::
         :: -> anisotropic XC          0.020356300382 Eh    ::
         :: -> dispersion             -0.099748774094 Eh    ::
         :: repulsion energy           1.287575458727 Eh    ::
         :: add. restraining           0.000000000000 Eh    ::
         :: total charge              -0.000000000000 e     ::
         :::::::::::::::::::::::::::::::::::::::::::::::::::::

           ------------------------------------------------- 
          |        vertical delta SCC IP calculation        |
           ------------------------------------------------- 

 iter      E             dE          RMSdq      gap      omega  full diag
   1   -100.6057603 -0.100606E+03  0.608E-01    1.44       0.0  T
   2   -100.5873500  0.184103E-01  0.856E-01    2.03       1.0  T
   3   -100.6284793 -0.411294E-01  0.500E-01    1.78       1.0  T
   4   -100.6357451 -0.726578E-02  0.301E-01    1.86       1.0  T
   5   -100.6356402  0.104906E-03  0.222E-01    1.92       1.0  T
   6   -100.6334965  0.214367E-02  0.226E-01    1.91       1.0  T
   7   -100.6359025 -0.240598E-02  0.990E-02    1.86       1.0  T
   8   -100.6364554 -0.552850E-03  0.341E-02    1.87       1.0  T
   9   -100.6364610 -0.563846E-05  0.201E-02    1.88       1.0  T
  10   -100.6364608  0.139834E-06  0.150E-02    1.87       1.0  T
  11   -100.6364702 -0.939996E-05  0.671E-03    1.87       1.8  T
  12   -100.6364710 -0.788044E-06  0.429E-03    1.87       2.8  T
  13   -100.6364712 -0.195810E-06  0.245E-03    1.87       5.0  T
  14   -100.6364713 -0.285490E-07  0.180E-03    1.87       6.7  T
  15   -100.6364713 -0.289026E-07  0.111E-03    1.87      10.9  T
  16   -100.6364714 -0.588653E-07  0.370E-04    1.87      32.7  T
  17   -100.6364713  0.221986E-08  0.298E-04    1.87      40.7  T
     SCC iter.                  ...        0 min,  0.064 sec
     gradient                   ...        0 min,  0.010 sec
------------------------------------------------------------------------
empirical IP shift (eV):    4.8455
delta SCC IP (eV):    5.8979
------------------------------------------------------------------------
           ------------------------------------------------- 
          |        vertical delta SCC EA calculation        |
           ------------------------------------------------- 

 iter      E             dE          RMSdq      gap      omega  full diag
   1   -101.1159810 -0.101116E+03  0.102E+00    0.32       0.0  T
   2   -101.1187284 -0.274738E-02  0.164E+00    0.33       1.0  T
   3   -101.1949474 -0.762191E-01  0.765E-01    0.24       1.0  T
   4   -101.1959098 -0.962389E-03  0.737E-01    0.28       1.0  T
   5   -101.2038068 -0.789694E-02  0.539E-01    0.25       1.0  T
   6   -101.2095293 -0.572258E-02  0.267E-01    0.27       1.0  T
   7   -101.2100127 -0.483327E-03  0.150E-01    0.28       1.0  T
   8   -101.2101526 -0.139963E-03  0.687E-02    0.28       1.0  T
   9   -101.2102816 -0.128976E-03  0.274E-02    0.28       1.0  T
  10   -101.2102968 -0.151710E-04  0.143E-02    0.28       1.0  T
  11   -101.2103024 -0.563517E-05  0.809E-03    0.28       1.5  T
  12   -101.2103031 -0.648501E-06  0.599E-03    0.28       2.0  T
  13   -101.2103037 -0.635117E-06  0.263E-03    0.28       4.6  T
  14   -101.2103038 -0.974762E-07  0.134E-03    0.28       9.1  T
  15   -101.2103038 -0.156112E-07  0.781E-04    0.28      15.5  T
  16   -101.2103038 -0.101282E-07  0.401E-04    0.28      30.3  T
     SCC iter.                  ...        0 min,  0.060 sec
     gradient                   ...        0 min,  0.010 sec
------------------------------------------------------------------------
empirical EA shift (eV):    4.8455
delta SCC EA (eV):    0.0259
------------------------------------------------------------------------
           -------------------------------------------------
          |                Property Printout                |
           -------------------------------------------------

    * Orbital Energies and Occupations

         #    Occupation            Energy/Eh            Energy/eV
      -------------------------------------------------------------
         1        2.0000           -0.7200040             -19.5923
       ...           ...                  ...                  ...
        81        2.0000           -0.2471425              -6.7251
        82        2.0000           -0.2409075              -6.5554
        83        2.0000           -0.2383174              -6.4849
        84        2.0000           -0.2267820              -6.1711
        85        2.0000           -0.2219873              -6.0406
        86        2.0000           -0.2131512              -5.8001
        87        2.0000           -0.2091186              -5.6904
        88        2.0000           -0.2014756              -5.4824
        89        2.0000           -0.1957483              -5.3266
        90        2.0000           -0.1934317              -5.2635
        91        2.0000           -0.1833621              -4.9895
        92        2.0000           -0.1682377              -4.5780
        93        0.9953           -0.0959346              -2.6105 (HOMO)
        94        0.0039           -0.0855774              -2.3287 (LUMO)
        95        0.0009           -0.0841497              -2.2898
        96                         -0.0357332              -0.9723
        97                         -0.0271064              -0.7376
        98                         -0.0241346              -0.6567
        99                         -0.0167124              -0.4548
       100                         -0.0080259              -0.2184
       101                          0.0095950               0.2611
       102                          0.0505636               1.3759
       103                          0.1221772               3.3246
       104                          0.1252157               3.4073
       ...                                ...                  ...
       174                          7.1330463             194.1001
      -------------------------------------------------------------
                  HL-Gap            0.0103572 Eh            0.2818 eV
             Fermi-level           -0.1114691 Eh           -3.0332 eV

     #   Z          covCN         q      C6AA      α(0)
     1  26 Fe      10.243     1.475   108.887    18.402
     2   6 C        2.739     0.373    20.686     7.447
     3  46 Pd       4.863    -0.472   392.346    36.175
     4   6 C        3.836    -0.025    20.994     6.519
     5   1 H        0.927     0.019     2.752     2.594
     6   1 H        0.927     0.002     3.021     2.718
     7   1 H        0.927     0.055     2.261     2.351
     8   6 C        2.667     0.382    20.530     7.414
     9   8 O        0.856    -0.545    24.809     6.678
    10   6 C        4.070    -0.119    22.686     6.765
    11   8 O        0.862    -0.562    25.210     6.732
    12   6 C        3.933    -0.142    23.161     6.839
    13   6 C        3.871    -0.159    23.537     6.898
    14   6 C        3.875    -0.168    23.709     6.923
    15   1 H        0.927     0.052     2.294     2.368
    16   1 H        0.927     0.014     2.821     2.626
    17   1 H        0.927     0.004     2.993     2.705
    18   1 H        1.514     0.153     1.360     1.821
    19   6 C        3.771    -0.199    24.454     7.047
    20   6 C        3.885     0.049    19.708     6.311
    21   8 O        1.519    -0.446    21.877     6.309
    22   6 C        3.877    -0.148    23.309     6.864
    23   6 C        3.900    -0.157    23.481     6.888
    24   6 C        3.891    -0.167    23.680     6.918
    25   6 C        3.889    -0.159    23.513     6.894
    26   6 C        3.886    -0.111    22.555     6.752
    27   1 H        0.927     0.066     2.129     2.282
    28   7 N        2.672    -0.246    26.419     7.634
    29   1 H        0.924    -0.000     3.065     2.738
    30   1 H        0.925     0.034     2.537     2.491
    31   1 H        0.923     0.003     3.001     2.709
    32   1 H        0.927     0.042     2.421     2.433
    33   7 N        3.499    -0.039    21.992     6.965
    34   6 C        3.721    -0.034    21.295     6.591
    35   6 C        3.813    -0.022    20.955     6.516
    36   1 H        0.924     0.001     3.037     2.725
    37   1 H        0.925     0.042     2.419     2.432
    38   1 H        0.925     0.074     2.037     2.232
    39   1 H        0.923    -0.005     3.139     2.771
    40   1 H        0.924     0.076     2.021     2.223
    41   1 H        0.924     0.078     2.003     2.213
    42   6 C        3.851    -0.013    20.775     6.483
    43   6 C        3.755    -0.096    22.393     6.747
    44   6 C        3.801    -0.051    21.493     6.601
    45   6 C        3.751    -0.088    22.233     6.724
    46   1 H        0.925     0.018     2.770     2.603
    47   1 H        0.925     0.014     2.819     2.626
    48   1 H        0.925     0.046     2.367     2.406
    49   1 H        0.921     0.109     1.705     2.042
    50   1 H        0.924     0.009     2.904     2.665
    51   1 H        0.924     0.038     2.469     2.457
    52   1 H        0.925     0.010     2.883     2.655
    53   1 H        0.924     0.017     2.780     2.608
    54   1 H        0.925     0.058     2.219     2.329
    55   8 O        1.705    -0.334    19.604     5.978
    56   6 C        3.758    -0.111    22.672     6.789
    57   6 C        3.785     0.162    18.007     6.044
    58   6 C        3.756    -0.119    22.839     6.814
    59   6 C        3.755    -0.118    22.814     6.810
    60   1 H        0.925     0.041     2.434     2.440
    61   1 H        0.925     0.047     2.356     2.401
    62   1 H        0.925     0.028     2.620     2.531
    63   1 H        0.925     0.039     2.467     2.456
    64   1 H        0.925     0.021     2.715     2.577
    65   1 H        0.925     0.076     2.018     2.221
    66   1 H        0.925     0.033     2.547     2.496
    67   1 H        0.925     0.022     2.703     2.571
    68   1 H        0.925     0.074     2.044     2.236

 Mol. C6AA /au·bohr⁶  :      52039.563048
 Mol. C8AA /au·bohr⁸  :    1494743.788343
 Mol. α(0) /au        :        346.224135


Wiberg/Mayer (AO) data.
largest (>0.10) Wiberg bond orders for each atom

 ---------------------------------------------------------------------------
     #   Z sym  total        # sym  WBO       # sym  WBO       # sym  WBO
 ---------------------------------------------------------------------------
     1  26 Fe   0.473 --    12 C    0.202    10 C    0.199    25 C    0.190
                            14 C    0.181    23 C    0.177    13 C    0.139
                            18 H    0.129    22 C    0.127    24 C    0.125
     2   6 C    3.936 --     9 O    1.593    21 O    1.378    20 C    0.874
     3  46 Pd   3.827 --    19 C    0.838    28 N    0.545    21 O    0.430
                            18 H    0.420    33 N    0.374    26 C    0.162
                            22 C    0.158    10 C    0.118
     4   6 C    3.971 --    10 C    1.004    33 N    0.972    30 H    0.968
                            31 H    0.960
     5   1 H    0.998 --    24 C    0.995
     6   1 H    0.998 --    23 C    0.984
     7   1 H    0.995 --    22 C    0.949
     8   6 C    3.932 --    28 N    1.427    11 O    1.364    55 O    1.017
     9   8 O    1.902 --     2 C    1.593    21 O    0.203
    10   6 C    3.948 --    14 C    1.267    19 C    1.228     4 C    1.004
                             1 Fe   0.199     3 Pd   0.118
    11   8 O    1.911 --     8 C    1.364    28 N    0.174
    12   6 C    3.972 --    13 C    1.339    19 C    1.175    15 H    0.973
                             1 Fe   0.202
    13   6 C    3.964 --    12 C    1.339    14 C    1.309    16 H    0.993
                             1 Fe   0.139
    14   6 C    3.965 --    13 C    1.309    10 C    1.267    17 H    0.992
                             1 Fe   0.181
    15   1 H    0.996 --    12 C    0.973
    16   1 H    0.996 --    13 C    0.993
    17   1 H    0.998 --    14 C    0.992
    18   1 H    0.976 --     3 Pd   0.420    26 C    0.131     1 Fe   0.129
    19   6 C    3.646 --    10 C    1.228    12 C    1.175     3 Pd   0.838
    20   6 C    3.973 --    28 N    0.985    29 H    0.958    42 C    0.957
                             2 C    0.874
    21   8 O    2.157 --     2 C    1.378     3 Pd   0.430     9 O    0.203
    22   6 C    3.971 --    23 C    1.305    26 C    1.273     7 H    0.949
                             3 Pd   0.158     1 Fe   0.127
    23   6 C    3.970 --    22 C    1.305    24 C    1.302     6 H    0.984
                             1 Fe   0.177
    24   6 C    3.961 --    25 C    1.345    23 C    1.302     5 H    0.995
                             1 Fe   0.125
    25   6 C    3.965 --    24 C    1.345    26 C    1.249    32 H    0.989
                             1 Fe   0.190
    26   6 C    3.975 --    22 C    1.273    25 C    1.249    27 H    0.959
                             3 Pd   0.162    18 H    0.131
    27   1 H    0.993 --    26 C    0.959
    28   7 N    3.361 --     8 C    1.427    20 C    0.985     3 Pd   0.545
                            11 O    0.174
    29   1 H    0.997 --    20 C    0.958
    30   1 H    0.998 --     4 C    0.968
    31   1 H    0.998 --     4 C    0.960
    32   1 H    0.995 --    25 C    0.989
    33   7 N    3.436 --    34 C    1.001    35 C    0.996     4 C    0.972
                             3 Pd   0.374
    34   6 C    3.982 --    33 N    1.001    36 H    0.974    37 H    0.973
                            38 H    0.967
    35   6 C    3.980 --    33 N    0.996    39 H    0.969    41 H    0.957
                            40 H    0.946
    36   1 H    0.998 --    34 C    0.974
    37   1 H    0.997 --    34 C    0.973
    38   1 H    0.993 --    34 C    0.967
    39   1 H    0.999 --    35 C    0.969
    40   1 H    0.993 --    35 C    0.946
    41   1 H    0.993 --    35 C    0.957
    42   6 C    3.983 --    43 C    1.006    44 C    0.995    20 C    0.957
                            49 H    0.868
    43   6 C    3.997 --    42 C    1.006    46 H    0.987    47 H    0.987
                            48 H    0.981
    44   6 C    3.996 --    45 C    1.019    42 C    0.995    50 H    0.978
                            51 H    0.976
    45   6 C    3.996 --    44 C    1.019    52 H    0.988    53 H    0.984
                            54 H    0.975
    46   1 H    0.999 --    43 C    0.987
    47   1 H    0.999 --    43 C    0.987
    48   1 H    0.997 --    43 C    0.981
    49   1 H    0.987 --    42 C    0.868
    50   1 H    0.999 --    44 C    0.978
    51   1 H    0.998 --    44 C    0.976
    52   1 H    1.000 --    45 C    0.988
    53   1 H    0.999 --    45 C    0.984
    54   1 H    0.995 --    45 C    0.975
    55   8 O    2.194 --     8 C    1.017    57 C    0.932
    56   6 C    3.996 --    57 C    0.993    62 H    0.987    60 H    0.986
                            61 H    0.985
    57   6 C    3.939 --    56 C    0.993    58 C    0.993    59 C    0.992
                            55 O    0.932
    58   6 C    3.993 --    57 C    0.993    64 H    0.986    63 H    0.986
                            65 H    0.976
    59   6 C    3.994 --    57 C    0.992    67 H    0.987    66 H    0.987
                            68 H    0.976
    60   1 H    0.998 --    56 C    0.986
    61   1 H    0.998 --    56 C    0.985
    62   1 H    0.998 --    56 C    0.987
    63   1 H    0.999 --    58 C    0.986
    64   1 H    0.999 --    58 C    0.986
    65   1 H    0.994 --    58 C    0.976
    66   1 H    0.999 --    59 C    0.987
    67   1 H    0.999 --    59 C    0.987
    68   1 H    0.994 --    59 C    0.976
 ---------------------------------------------------------------------------

Topologies differ in total number of bonds
Writing topology from bond orders to xtbtopo.mol

molecular dipole:
                 x           y           z       tot (Debye)
 q only:        2.589       1.185      -1.626
   full:        1.856      -0.069      -1.175       5.587
molecular quadrupole (traceless):
                xx          xy          yy          xz          yz          zz
 q only:       -2.931     -17.027       7.620      16.032      13.615      -4.689
  q+dip:        3.778     -22.443      10.526      19.883      11.966     -14.304
   full:        3.341     -26.352       6.731      18.275      12.030     -10.072


           -------------------------------------------------
          | TOTAL ENERGY              -99.919137496745 Eh   |
          | GRADIENT NORM               0.103916030911 Eh/α |
          | HOMO-LUMO GAP               0.281832665693 eV   |
           -------------------------------------------------

------------------------------------------------------------------------
 * finished run on 2024/10/14 at 20:53:36.487     
------------------------------------------------------------------------
 total:
 * wall-time:     0 d,  0 h,  0 min,  0.393 sec
 *  cpu-time:     0 d,  0 h,  0 min,  4.306 sec
 * ratio c/w:    10.950 speedup
 SCF:
 * wall-time:     0 d,  0 h,  0 min,  0.199 sec
 *  cpu-time:     0 d,  0 h,  0 min,  2.354 sec
 * ratio c/w:    11.840 speedup

