      -----------------------------------------------------------      
     |                   =====================                   |     
     |                           x T B                           |     
     |                   =====================                   |     
     |                         S. Grimme                         |     
     |          Mulliken Center for Theoretical Chemistry        |     
     |                    University of Bonn                     |     
      -----------------------------------------------------------      

   * xtb version 6.6.1 (8d0f1dd) compiled by 'stahn@M-Bot' on 2023-08-01

   xtb is free software: you can redistribute it and/or modify it under
   the terms of the GNU Lesser General Public License as published by
   the Free Software Foundation, either version 3 of the License, or
   (at your option) any later version.
   
   xtb is distributed in the hope that it will be useful,
   but WITHOUT ANY WARRANTY; without even the implied warranty of
   MERCHANTABILITY or FITNESS FOR A PARTICULAR PURPOSE.  See the
   GNU Lesser General Public License for more details.
   
   Cite this work as:
   * C. Bannwarth, E. Caldeweyher, S. Ehlert, A. Hansen, P. Pracht,
     J. Seibert, S. Spicher, S. Grimme, WIREs Comput. Mol. Sci., 2020, 11,
     e01493. DOI: 10.1002/wcms.1493
   
   for GFN2-xTB:
   * C. Bannwarth, S. Ehlert and S. Grimme., J. Chem. Theory Comput., 2019,
     15, 1652-1671. DOI: 10.1021/acs.jctc.8b01176
   for GFN1-xTB:
   * S. Grimme, C. Bannwarth, P. Shushkov, J. Chem. Theory Comput., 2017,
     13, 1989-2009. DOI: 10.1021/acs.jctc.7b00118
   for GFN0-xTB:
   * P. Pracht, E. Caldeweyher, S. Ehlert, S. Grimme, ChemRxiv, 2019, preprint.
     DOI: 10.26434/chemrxiv.8326202.v1
   for GFN-FF:
   * S. Spicher and S. Grimme, Angew. Chem. Int. Ed., 2020, 59, 15665-15673.
     DOI: 10.1002/anie.202004239
   
   for ALPB and GBSA implicit solvation:
   * S. Ehlert, M. Stahn, S. Spicher, S. Grimme, J. Chem. Theory Comput.,
     2021, 17, 4250-4261. DOI: 10.1021/acs.jctc.1c00471
   
   for DFT-D4:
   * E. Caldeweyher, C. Bannwarth and S. Grimme, J. Chem. Phys., 2017,
     147, 034112. DOI: 10.1063/1.4993215
   * E. Caldeweyher, S. Ehlert, A. Hansen, H. Neugebauer, S. Spicher,
     C. Bannwarth and S. Grimme, J. Chem. Phys., 2019, 150, 154122.
     DOI: 10.1063/1.5090222
   * E. Caldeweyher, J.-M. Mewes, S. Ehlert and S. Grimme, Phys. Chem. Chem. Phys.
     2020, 22, 8499-8512. DOI: 10.1039/D0CP00502A
   
   for sTDA-xTB:
   * S. Grimme and C. Bannwarth, J. Chem. Phys., 2016, 145, 054103.
     DOI: 10.1063/1.4959605
   
   in the mass-spec context:
   * V. Asgeirsson, C. Bauer and S. Grimme, Chem. Sci., 2017, 8, 4879.
     DOI: 10.1039/c7sc00601b
   * J. Koopman and S. Grimme, ACS Omega 2019, 4, 12, 15120-15133.
     DOI: 10.1021/acsomega.9b02011
   
   for metadynamics refer to:
   * S. Grimme, J. Chem. Theory Comput., 2019, 155, 2847-2862
     DOI: 10.1021/acs.jctc.9b00143
   
   for SPH calculations refer to:
   * S. Spicher and S. Grimme, J. Chem. Theory Comput., 2021, 17, 1701-1714
     DOI: 10.1021/acs.jctc.0c01306
   
   with help from (in alphabetical order)
   P. Atkinson, C. Bannwarth, F. Bohle, G. Brandenburg, E. Caldeweyher
   M. Checinski, S. Dohm, S. Ehlert, S. Ehrlich, I. Gerasimov, C. Hölzer
   A. Katbashev, J. Koopman, C. Lavigne, S. Lehtola, F. März, M. Müller,
   F. Musil, H. Neugebauer, J. Pisarek, C. Plett, P. Pracht, F. Pultar,
   J. Seibert, P. Shushkov, S. Spicher, M. Stahn, M. Steiner, T. Strunk,
   J. Stückrath, T. Rose, and J. Unsleber
   
 * started run on 2024/10/14 at 20:24:29.174     

           -------------------------------------------------
          |                Calculation Setup                |
           -------------------------------------------------

          program call               : xtb tsopted.xyz --gfn 2 --charge 0
          coordinate file            : tsopted.xyz
          omp threads                :                    12

   ID    Z sym.   atoms
    1   26 Fe     1
    2    6 C      2, 4, 8, 10, 12-14, 19, 20, 22-26, 34, 35, 42-48, 57-60
    3   46 Pd     3
    4    1 H      5-7, 15-18, 27, 29-32, 36-41, 49-55, 61-69
    5    8 O      9, 11, 21, 56
    6    7 N      28, 33

           -------------------------------------------------
          |                 G F N 2 - x T B                 |
           -------------------------------------------------

        Reference                      10.1021/acs.jctc.8b01176
      * Hamiltonian:
        H0-scaling (s, p, d)           1.850000    2.230000    2.230000
        zeta-weighting                 0.500000
      * Dispersion:
        s8                             2.700000
        a1                             0.520000
        a2                             5.000000
        s9                             5.000000
      * Repulsion:
        kExp                           1.500000    1.000000
        rExp                           1.000000
      * Coulomb:
        alpha                          2.000000
        third order                    shell-resolved
        anisotropic                    true
        a3                             3.000000
        a5                             4.000000
        cn-shift                       1.200000
        cn-exp                         4.000000
        max-rad                        5.000000

q/qsh data taken from xtbrestart
CAMM data taken from xtbrestart

          ...................................................
          :                      SETUP                      :
          :.................................................:
          :  # basis functions                 186          :
          :  # atomic orbitals                 184          :
          :  # shells                          106          :
          :  # electrons                       194          :
          :  max. iterations                   250          :
          :  Hamiltonian                  GFN2-xTB          :
          :  restarted?                       true          :
          :  GBSA solvation                  false          :
          :  PC potential                    false          :
          :  electronic temp.          300.0000000     K    :
          :  accuracy                    1.0000000          :
          :  -> integral cutoff          0.2500000E+02      :
          :  -> integral neglect         0.1000000E-07      :
          :  -> SCF convergence          0.1000000E-05 Eh   :
          :  -> wf. convergence          0.1000000E-03 e    :
          :  Broyden damping             0.4000000          :
          ...................................................

 iter      E             dE          RMSdq      gap      omega  full diag
   1   -106.5350432 -0.106535E+03  0.680E-01    1.96       0.0  T
   2   -106.5575382 -0.224949E-01  0.729E-01    1.26       1.0  T
   3   -106.5690116 -0.114734E-01  0.378E-01    1.43       1.0  T
   4   -106.5692619 -0.250370E-03  0.317E-01    1.43       1.0  T
   5   -106.5698459 -0.583995E-03  0.174E-01    1.42       1.0  T
   6   -106.5699333 -0.873796E-04  0.105E-01    1.43       1.0  T
   7   -106.5699685 -0.352396E-04  0.513E-02    1.43       1.0  T
   8   -106.5699806 -0.120644E-04  0.268E-02    1.44       1.0  T
   9   -106.5699984 -0.177564E-04  0.121E-02    1.44       1.0  T
  10   -106.5700027 -0.438554E-05  0.515E-03    1.44       2.3  T
  11   -106.5700029 -0.192513E-06  0.266E-03    1.44       4.5  T
  12   -106.5700030 -0.612141E-07  0.161E-03    1.44       7.5  T
  13   -106.5700030 -0.103139E-07  0.839E-04    1.44      14.3  T
  14   -106.5700030 -0.882370E-08  0.367E-04    1.44      32.8  T

   *** convergence criteria satisfied after 14 iterations ***

         #    Occupation            Energy/Eh            Energy/eV
      -------------------------------------------------------------
         1        2.0000           -0.8691780             -23.6515
       ...           ...                  ...                  ...
        91        2.0000           -0.3706972             -10.0872
        92        2.0000           -0.3669552              -9.9854
        93        2.0000           -0.3536835              -9.6242
        94        2.0000           -0.3515401              -9.5659
        95        2.0000           -0.3432045              -9.3391
        96        2.0000           -0.3314713              -9.0198
        97        2.0000           -0.3197554              -8.7010 (HOMO)
        98                         -0.2667987              -7.2600 (LUMO)
        99                         -0.2573571              -7.0030
       100                         -0.2369413              -6.4475
       101                         -0.1997660              -5.4359
       102                         -0.1994447              -5.4272
       ...                                ...                  ...
       184                          6.9657018             189.5464
      -------------------------------------------------------------
                  HL-Gap            0.0529567 Eh            1.4410 eV
             Fermi-level           -0.2932770 Eh           -7.9805 eV

 SCC (total)                   0 d,  0 h,  0 min,  0.087 sec
 SCC setup                      ...        0 min,  0.003 sec (  3.663%)
 Dispersion                     ...        0 min,  0.001 sec (  1.208%)
 classical contributions        ...        0 min,  0.000 sec (  0.054%)
 integral evaluation            ...        0 min,  0.006 sec (  6.481%)
 iterations                     ...        0 min,  0.063 sec ( 72.974%)
 molecular gradient             ...        0 min,  0.010 sec ( 11.228%)
 printout                       ...        0 min,  0.004 sec (  4.342%)

         :::::::::::::::::::::::::::::::::::::::::::::::::::::
         ::                     SUMMARY                     ::
         :::::::::::::::::::::::::::::::::::::::::::::::::::::
         :: total energy            -105.123923512926 Eh    ::
         :: gradient norm              0.000052856039 Eh/a0 ::
         :: HOMO-LUMO gap              1.441025180576 eV    ::
         ::.................................................::
         :: SCC energy              -106.570003017640 Eh    ::
         :: -> isotropic ES           -0.050560001853 Eh    ::
         :: -> anisotropic ES         -0.028613495415 Eh    ::
         :: -> anisotropic XC          0.024960843066 Eh    ::
         :: -> dispersion             -0.104155940033 Eh    ::
         :: repulsion energy           1.443095688988 Eh    ::
         :: add. restraining           0.000000000000 Eh    ::
         :: total charge              -0.000025938551 e     ::
         :::::::::::::::::::::::::::::::::::::::::::::::::::::

           -------------------------------------------------
          |                Property Printout                |
           -------------------------------------------------

    * Orbital Energies and Occupations

         #    Occupation            Energy/Eh            Energy/eV
      -------------------------------------------------------------
         1        2.0000           -0.8691780             -23.6515
       ...           ...                  ...                  ...
        85        2.0000           -0.3865518             -10.5186
        86        2.0000           -0.3842576             -10.4562
        87        2.0000           -0.3808694             -10.3640
        88        2.0000           -0.3788161             -10.3081
        89        2.0000           -0.3773066             -10.2670
        90        2.0000           -0.3743551             -10.1867
        91        2.0000           -0.3706972             -10.0872
        92        2.0000           -0.3669552              -9.9854
        93        2.0000           -0.3536835              -9.6242
        94        2.0000           -0.3515401              -9.5659
        95        2.0000           -0.3432045              -9.3391
        96        2.0000           -0.3314713              -9.0198
        97        2.0000           -0.3197554              -8.7010 (HOMO)
        98                         -0.2667987              -7.2600 (LUMO)
        99                         -0.2573571              -7.0030
       100                         -0.2369413              -6.4475
       101                         -0.1997660              -5.4359
       102                         -0.1994447              -5.4272
       103                         -0.1884588              -5.1282
       104                         -0.1793230              -4.8796
       105                         -0.1700945              -4.6285
       106                         -0.1652244              -4.4960
       107                         -0.1533274              -4.1723
       108                         -0.1454415              -3.9577
       ...                                ...                  ...
       184                          6.9657018             189.5464
      -------------------------------------------------------------
                  HL-Gap            0.0529567 Eh            1.4410 eV
             Fermi-level           -0.2932770 Eh           -7.9805 eV

     #   Z          covCN         q      C6AA      α(0)
     1  26 Fe      10.243     1.598   107.506    18.285
     2   6 C        2.736     0.372    20.702     7.449
     3  46 Pd       4.846    -0.304   381.898    35.690
     4   6 C        3.838    -0.042    21.288     6.564
     5   1 H        0.927     0.064     2.154     2.295
     6   1 H        0.927     0.046     2.364     2.404
     7   1 H        0.927     0.094     1.845     2.124
     8   6 C        2.667     0.386    20.472     7.403
     9   8 O        0.856    -0.496    23.698     6.527
    10   6 C        4.069    -0.104    22.401     6.723
    11   8 O        0.862    -0.562    25.210     6.732
    12   6 C        3.932    -0.137    23.052     6.823
    13   6 C        3.871    -0.147    23.292     6.862
    14   6 C        3.874    -0.158    23.514     6.895
    15   1 H        0.927     0.094     1.841     2.122
    16   1 H        0.927     0.059     2.207     2.323
    17   1 H        0.927     0.049     2.336     2.390
    18   1 H        1.522     0.153     1.363     1.822
    19   6 C        3.772    -0.179    24.027     6.985
    20   6 C        3.879     0.047    19.737     6.316
    21   8 O        1.520    -0.443    21.806     6.298
    22   6 C        3.877    -0.144    23.214     6.850
    23   6 C        3.900    -0.152    23.373     6.872
    24   6 C        3.891    -0.150    23.326     6.866
    25   6 C        3.889    -0.150    23.336     6.868
    26   6 C        3.885    -0.105    22.449     6.736
    27   1 H        0.927     0.106     1.727     2.055
    28   7 N        2.668    -0.248    26.467     7.641
    29   1 H        0.924     0.029     2.600     2.522
    30   1 H        0.925     0.046     2.364     2.404
    31   1 H        0.923     0.046     2.365     2.405
    32   1 H        0.927     0.083     1.943     2.180
    33   7 N        3.498    -0.048    22.155     6.991
    34   6 C        3.720    -0.050    21.589     6.636
    35   6 C        3.799    -0.037    21.236     6.561
    36   1 H        0.924     0.031     2.571     2.507
    37   1 H        0.925     0.049     2.328     2.386
    38   1 H        0.925     0.091     1.872     2.139
    39   1 H        0.923     0.026     2.650     2.546
    40   1 H        0.924     0.089     1.894     2.152
    41   1 H        0.924     0.081     1.973     2.196
    42   6 C        3.809    -0.055    21.552     6.608
    43   6 C        2.971     0.017    27.617     8.620
    44   6 C        2.926    -0.029    28.713     8.788
    45   6 C        2.919    -0.029    28.727     8.789
    46   6 C        2.921    -0.032    28.801     8.801
    47   6 C        2.920    -0.028    28.712     8.787
    48   6 C        2.925    -0.034    28.852     8.809
    49   1 H        0.924     0.038     2.475     2.460
    50   1 H        0.922     0.111     1.691     2.034
    51   1 H        0.925     0.035     2.523     2.484
    52   1 H        0.926     0.023     2.682     2.561
    53   1 H        0.926     0.024     2.676     2.558
    54   1 H        0.926     0.025     2.651     2.546
    55   1 H        0.926     0.027     2.622     2.532
    56   8 O        1.705    -0.312    19.207     5.917
    57   6 C        3.758    -0.118    22.818     6.810
    58   6 C        3.785     0.160    18.033     6.049
    59   6 C        3.756    -0.125    22.949     6.830
    60   6 C        3.755    -0.124    22.925     6.827
    61   1 H        0.925     0.051     2.313     2.378
    62   1 H        0.925     0.055     2.261     2.351
    63   1 H        0.925     0.043     2.407     2.426
    64   1 H        0.925     0.044     2.394     2.420
    65   1 H        0.925     0.039     2.459     2.452
    66   1 H        0.925     0.064     2.156     2.296
    67   1 H        0.925     0.042     2.417     2.431
    68   1 H        0.925     0.039     2.469     2.457
    69   1 H        0.925     0.065     2.137     2.286

 Mol. C6AA /au·bohr⁶  :      57506.441808
 Mol. C8AA /au·bohr⁸  :    1677881.394219
 Mol. α(0) /au        :        368.856846


Wiberg/Mayer (AO) data.
largest (>0.10) Wiberg bond orders for each atom

 ---------------------------------------------------------------------------
     #   Z sym  total        # sym  WBO       # sym  WBO       # sym  WBO
 ---------------------------------------------------------------------------
     1  26 Fe   0.641 --    14 C    0.230    10 C    0.200    13 C    0.196
                            12 C    0.192    24 C    0.190    25 C    0.180
                            23 C    0.174    19 C    0.157    22 C    0.154
     2   6 C    3.936 --     9 O    1.642    21 O    1.338    20 C    0.873
     3  46 Pd   3.827 --    19 C    0.812    28 N    0.610    21 O    0.492
                            18 H    0.434    33 N    0.415    26 C    0.148
                            22 C    0.146    10 C    0.115
     4   6 C    3.974 --    10 C    1.010    33 N    0.975    30 H    0.966
                            31 H    0.956
     5   1 H    0.995 --    24 C    0.988
     6   1 H    0.996 --    23 C    0.981
     7   1 H    0.990 --    22 C    0.944
     8   6 C    3.937 --    28 N    1.405    11 O    1.351    56 O    1.059
     9   8 O    1.956 --     2 C    1.642    21 O    0.197
    10   6 C    3.959 --    14 C    1.276    19 C    1.214     4 C    1.010
                             1 Fe   0.200     3 Pd   0.115
    11   8 O    1.919 --     8 C    1.351    28 N    0.164    18 H    0.105
    12   6 C    3.966 --    13 C    1.343    19 C    1.176    15 H    0.967
                             1 Fe   0.192
    13   6 C    3.970 --    12 C    1.343    14 C    1.270    16 H    0.988
                             1 Fe   0.196
    14   6 C    3.973 --    10 C    1.276    13 C    1.270    17 H    0.988
                             1 Fe   0.230
    15   1 H    0.990 --    12 C    0.967
    16   1 H    0.993 --    13 C    0.988
    17   1 H    0.996 --    14 C    0.988
    18   1 H    0.976 --     3 Pd   0.434    26 C    0.129    11 O    0.105
    19   6 C    3.680 --    10 C    1.214    12 C    1.176     3 Pd   0.812
                             1 Fe   0.157
    20   6 C    3.968 --    28 N    0.979    29 H    0.958    42 C    0.946
                             2 C    0.873
    21   8 O    2.179 --     2 C    1.338     3 Pd   0.492     9 O    0.197
    22   6 C    3.975 --    23 C    1.326    26 C    1.247     7 H    0.944
                             1 Fe   0.154     3 Pd   0.146
    23   6 C    3.975 --    22 C    1.326    24 C    1.282     6 H    0.981
                             1 Fe   0.174
    24   6 C    3.973 --    25 C    1.332    23 C    1.282     5 H    0.988
                             1 Fe   0.190
    25   6 C    3.965 --    24 C    1.332    26 C    1.264    32 H    0.982
                             1 Fe   0.180
    26   6 C    3.973 --    25 C    1.264    22 C    1.247    27 H    0.951
                             3 Pd   0.148    18 H    0.129
    27   1 H    0.987 --    26 C    0.951
    28   7 N    3.384 --     8 C    1.405    20 C    0.979     3 Pd   0.610
                            11 O    0.164
    29   1 H    0.997 --    20 C    0.958
    30   1 H    0.997 --     4 C    0.966
    31   1 H    0.995 --     4 C    0.956
    32   1 H    0.990 --    25 C    0.982
    33   7 N    3.463 --    34 C    0.994    35 C    0.989     4 C    0.975
                             3 Pd   0.415
    34   6 C    3.972 --    33 N    0.994    36 H    0.973    37 H    0.971
                            38 H    0.963
    35   6 C    3.972 --    33 N    0.989    39 H    0.970    41 H    0.958
                            40 H    0.942
    36   1 H    0.997 --    34 C    0.973
    37   1 H    0.996 --    34 C    0.971
    38   1 H    0.990 --    34 C    0.963
    39   1 H    0.998 --    35 C    0.970
    40   1 H    0.991 --    35 C    0.942
    41   1 H    0.992 --    35 C    0.958
    42   6 C    3.989 --    43 C    1.015    49 H    0.970    20 C    0.946
                            50 H    0.867
    43   6 C    3.987 --    48 C    1.409    44 C    1.409    42 C    1.015
                            46 C    0.109
    44   6 C    3.989 --    45 C    1.446    43 C    1.409    51 H    0.953
                            47 C    0.110
    45   6 C    3.993 --    44 C    1.446    46 C    1.437    52 H    0.972
                            48 C    0.111
    46   6 C    3.991 --    47 C    1.438    45 C    1.437    53 H    0.972
                            43 C    0.109
    47   6 C    3.992 --    48 C    1.447    46 C    1.438    54 H    0.971
                            44 C    0.110
    48   6 C    3.989 --    47 C    1.447    43 C    1.409    55 H    0.970
                            45 C    0.111
    49   1 H    0.998 --    42 C    0.970
    50   1 H    0.986 --    42 C    0.867
    51   1 H    0.997 --    44 C    0.953
    52   1 H    0.999 --    45 C    0.972
    53   1 H    0.999 --    46 C    0.972
    54   1 H    0.999 --    47 C    0.971
    55   1 H    0.999 --    48 C    0.970
    56   8 O    2.230 --     8 C    1.059    58 C    0.916
    57   6 C    3.992 --    58 C    0.994    63 H    0.985    61 H    0.985
                            62 H    0.984
    58   6 C    3.926 --    57 C    0.994    59 C    0.994    60 C    0.994
                            56 O    0.916
    59   6 C    3.993 --    58 C    0.994    64 H    0.985    65 H    0.985
                            66 H    0.978
    60   6 C    3.993 --    58 C    0.994    67 H    0.986    68 H    0.985
                            69 H    0.978
    61   1 H    0.997 --    57 C    0.985
    62   1 H    0.997 --    57 C    0.984
    63   1 H    0.997 --    57 C    0.985
    64   1 H    0.998 --    59 C    0.985
    65   1 H    0.998 --    59 C    0.985
    66   1 H    0.996 --    59 C    0.978
    67   1 H    0.998 --    60 C    0.986
    68   1 H    0.998 --    60 C    0.985
    69   1 H    0.995 --    60 C    0.978
 ---------------------------------------------------------------------------

Topologies differ in total number of bonds
Writing topology from bond orders to xtbtopo.mol

molecular dipole:
                 x           y           z       tot (Debye)
 q only:        4.678      -2.099      -1.265
   full:        3.431      -2.374      -1.027      10.921
molecular quadrupole (traceless):
                xx          xy          yy          xz          yz          zz
 q only:        2.576       0.005      17.807      18.927      -3.375     -20.384
  q+dip:        0.572      -2.415      28.183      19.347      -9.775     -28.756
   full:       -6.414      -3.002      28.928      18.275      -6.341     -22.514


           -------------------------------------------------
          | TOTAL ENERGY             -105.123923512926 Eh   |
          | GRADIENT NORM               0.000052856039 Eh/α |
          | HOMO-LUMO GAP               1.441025180576 eV   |
           -------------------------------------------------
########################################################################
[WARNING] Runtime exception occurred
-1- restart_readRestart: Multiplicity missmatch in restart file.
########################################################################

------------------------------------------------------------------------
 * finished run on 2024/10/14 at 20:24:29.459     
------------------------------------------------------------------------
 total:
 * wall-time:     0 d,  0 h,  0 min,  0.285 sec
 *  cpu-time:     0 d,  0 h,  0 min,  3.026 sec
 * ratio c/w:    10.629 speedup
 SCF:
 * wall-time:     0 d,  0 h,  0 min,  0.091 sec
 *  cpu-time:     0 d,  0 h,  0 min,  1.068 sec
 * ratio c/w:    11.742 speedup

