      -----------------------------------------------------------      
     |                   =====================                   |     
     |                           x T B                           |     
     |                   =====================                   |     
     |                         S. Grimme                         |     
     |          Mulliken Center for Theoretical Chemistry        |     
     |                    University of Bonn                     |     
      -----------------------------------------------------------      

   * xtb version 6.6.1 (8d0f1dd) compiled by 'stahn@M-Bot' on 2023-08-01

   xtb is free software: you can redistribute it and/or modify it under
   the terms of the GNU Lesser General Public License as published by
   the Free Software Foundation, either version 3 of the License, or
   (at your option) any later version.
   
   xtb is distributed in the hope that it will be useful,
   but WITHOUT ANY WARRANTY; without even the implied warranty of
   MERCHANTABILITY or FITNESS FOR A PARTICULAR PURPOSE.  See the
   GNU Lesser General Public License for more details.
   
   Cite this work as:
   * C. Bannwarth, E. Caldeweyher, S. Ehlert, A. Hansen, P. Pracht,
     J. Seibert, S. Spicher, S. Grimme, WIREs Comput. Mol. Sci., 2020, 11,
     e01493. DOI: 10.1002/wcms.1493
   
   for GFN2-xTB:
   * C. Bannwarth, S. Ehlert and S. Grimme., J. Chem. Theory Comput., 2019,
     15, 1652-1671. DOI: 10.1021/acs.jctc.8b01176
   for GFN1-xTB:
   * S. Grimme, C. Bannwarth, P. Shushkov, J. Chem. Theory Comput., 2017,
     13, 1989-2009. DOI: 10.1021/acs.jctc.7b00118
   for GFN0-xTB:
   * P. Pracht, E. Caldeweyher, S. Ehlert, S. Grimme, ChemRxiv, 2019, preprint.
     DOI: 10.26434/chemrxiv.8326202.v1
   for GFN-FF:
   * S. Spicher and S. Grimme, Angew. Chem. Int. Ed., 2020, 59, 15665-15673.
     DOI: 10.1002/anie.202004239
   
   for ALPB and GBSA implicit solvation:
   * S. Ehlert, M. Stahn, S. Spicher, S. Grimme, J. Chem. Theory Comput.,
     2021, 17, 4250-4261. DOI: 10.1021/acs.jctc.1c00471
   
   for DFT-D4:
   * E. Caldeweyher, C. Bannwarth and S. Grimme, J. Chem. Phys., 2017,
     147, 034112. DOI: 10.1063/1.4993215
   * E. Caldeweyher, S. Ehlert, A. Hansen, H. Neugebauer, S. Spicher,
     C. Bannwarth and S. Grimme, J. Chem. Phys., 2019, 150, 154122.
     DOI: 10.1063/1.5090222
   * E. Caldeweyher, J.-M. Mewes, S. Ehlert and S. Grimme, Phys. Chem. Chem. Phys.
     2020, 22, 8499-8512. DOI: 10.1039/D0CP00502A
   
   for sTDA-xTB:
   * S. Grimme and C. Bannwarth, J. Chem. Phys., 2016, 145, 054103.
     DOI: 10.1063/1.4959605
   
   in the mass-spec context:
   * V. Asgeirsson, C. Bauer and S. Grimme, Chem. Sci., 2017, 8, 4879.
     DOI: 10.1039/c7sc00601b
   * J. Koopman and S. Grimme, ACS Omega 2019, 4, 12, 15120-15133.
     DOI: 10.1021/acsomega.9b02011
   
   for metadynamics refer to:
   * S. Grimme, J. Chem. Theory Comput., 2019, 155, 2847-2862
     DOI: 10.1021/acs.jctc.9b00143
   
   for SPH calculations refer to:
   * S. Spicher and S. Grimme, J. Chem. Theory Comput., 2021, 17, 1701-1714
     DOI: 10.1021/acs.jctc.0c01306
   
   with help from (in alphabetical order)
   P. Atkinson, C. Bannwarth, F. Bohle, G. Brandenburg, E. Caldeweyher
   M. Checinski, S. Dohm, S. Ehlert, S. Ehrlich, I. Gerasimov, C. Hölzer
   A. Katbashev, J. Koopman, C. Lavigne, S. Lehtola, F. März, M. Müller,
   F. Musil, H. Neugebauer, J. Pisarek, C. Plett, P. Pracht, F. Pultar,
   J. Seibert, P. Shushkov, S. Spicher, M. Stahn, M. Steiner, T. Strunk,
   J. Stückrath, T. Rose, and J. Unsleber
   
 * started run on 2024/10/14 at 20:24:28.537     

           -------------------------------------------------
          |                Calculation Setup                |
           -------------------------------------------------

          program call               : xtb tsopted.xyz --gfn 2 --charge 0 --vomega
          coordinate file            : tsopted.xyz
          omp threads                :                    12

   ID    Z sym.   atoms
    1   26 Fe     1
    2    6 C      2, 4, 8, 10, 12-14, 19, 20, 22-26, 34, 35, 42-48, 57-60
    3   46 Pd     3
    4    1 H      5-7, 15-18, 27, 29-32, 36-41, 49-55, 61-69
    5    8 O      9, 11, 21, 56
    6    7 N      28, 33

           -------------------------------------------------
          |                 G F N 2 - x T B                 |
           -------------------------------------------------

        Reference                      10.1021/acs.jctc.8b01176
      * Hamiltonian:
        H0-scaling (s, p, d)           1.850000    2.230000    2.230000
        zeta-weighting                 0.500000
      * Dispersion:
        s8                             2.700000
        a1                             0.520000
        a2                             5.000000
        s9                             5.000000
      * Repulsion:
        kExp                           1.500000    1.000000
        rExp                           1.000000
      * Coulomb:
        alpha                          2.000000
        third order                    shell-resolved
        anisotropic                    true
        a3                             3.000000
        a5                             4.000000
        cn-shift                       1.200000
        cn-exp                         4.000000
        max-rad                        5.000000

q/qsh data taken from xtbrestart
CAMM data taken from xtbrestart

          ...................................................
          :                      SETUP                      :
          :.................................................:
          :  # basis functions                 186          :
          :  # atomic orbitals                 184          :
          :  # shells                          106          :
          :  # electrons                       194          :
          :  max. iterations                   250          :
          :  Hamiltonian                  GFN2-xTB          :
          :  restarted?                       true          :
          :  GBSA solvation                  false          :
          :  PC potential                    false          :
          :  electronic temp.          300.0000000     K    :
          :  accuracy                    1.0000000          :
          :  -> integral cutoff          0.2500000E+02      :
          :  -> integral neglect         0.1000000E-07      :
          :  -> SCF convergence          0.1000000E-05 Eh   :
          :  -> wf. convergence          0.1000000E-03 e    :
          :  Broyden damping             0.4000000          :
          ...................................................

 iter      E             dE          RMSdq      gap      omega  full diag
   1   -106.5350432 -0.106535E+03  0.680E-01    1.96       0.0  T
   2   -106.5575382 -0.224949E-01  0.729E-01    1.26       1.0  T
   3   -106.5690116 -0.114734E-01  0.378E-01    1.43       1.0  T
   4   -106.5692619 -0.250370E-03  0.317E-01    1.43       1.0  T
   5   -106.5698459 -0.583995E-03  0.174E-01    1.42       1.0  T
   6   -106.5699333 -0.873796E-04  0.105E-01    1.43       1.0  T
   7   -106.5699685 -0.352396E-04  0.513E-02    1.43       1.0  T
   8   -106.5699806 -0.120644E-04  0.268E-02    1.44       1.0  T
   9   -106.5699984 -0.177564E-04  0.121E-02    1.44       1.0  T
  10   -106.5700027 -0.438554E-05  0.515E-03    1.44       2.3  T
  11   -106.5700029 -0.192513E-06  0.266E-03    1.44       4.5  T
  12   -106.5700030 -0.612141E-07  0.161E-03    1.44       7.5  T
  13   -106.5700030 -0.103140E-07  0.839E-04    1.44      14.3  T
  14   -106.5700030 -0.882356E-08  0.367E-04    1.44      32.8  T

   *** convergence criteria satisfied after 14 iterations ***

         #    Occupation            Energy/Eh            Energy/eV
      -------------------------------------------------------------
         1        2.0000           -0.8691780             -23.6515
       ...           ...                  ...                  ...
        91        2.0000           -0.3706972             -10.0872
        92        2.0000           -0.3669552              -9.9854
        93        2.0000           -0.3536835              -9.6242
        94        2.0000           -0.3515401              -9.5659
        95        2.0000           -0.3432045              -9.3391
        96        2.0000           -0.3314713              -9.0198
        97        2.0000           -0.3197554              -8.7010 (HOMO)
        98                         -0.2667987              -7.2600 (LUMO)
        99                         -0.2573571              -7.0030
       100                         -0.2369413              -6.4475
       101                         -0.1997660              -5.4359
       102                         -0.1994447              -5.4272
       ...                                ...                  ...
       184                          6.9657018             189.5464
      -------------------------------------------------------------
                  HL-Gap            0.0529567 Eh            1.4410 eV
             Fermi-level           -0.2932770 Eh           -7.9805 eV

 SCC (total)                   0 d,  0 h,  0 min,  0.094 sec
 SCC setup                      ...        0 min,  0.004 sec (  4.199%)
 Dispersion                     ...        0 min,  0.001 sec (  1.220%)
 classical contributions        ...        0 min,  0.000 sec (  0.049%)
 integral evaluation            ...        0 min,  0.008 sec (  8.354%)
 iterations                     ...        0 min,  0.067 sec ( 71.861%)
 molecular gradient             ...        0 min,  0.010 sec ( 10.249%)
 printout                       ...        0 min,  0.004 sec (  4.019%)

         :::::::::::::::::::::::::::::::::::::::::::::::::::::
         ::                     SUMMARY                     ::
         :::::::::::::::::::::::::::::::::::::::::::::::::::::
         :: total energy            -105.123923512926 Eh    ::
         :: gradient norm              0.000052856039 Eh/a0 ::
         :: HOMO-LUMO gap              1.441025180576 eV    ::
         ::.................................................::
         :: SCC energy              -106.570003017639 Eh    ::
         :: -> isotropic ES           -0.050560001853 Eh    ::
         :: -> anisotropic ES         -0.028613495415 Eh    ::
         :: -> anisotropic XC          0.024960843066 Eh    ::
         :: -> dispersion             -0.104155940033 Eh    ::
         :: repulsion energy           1.443095688988 Eh    ::
         :: add. restraining           0.000000000000 Eh    ::
         :: total charge              -0.000025938551 e     ::
         :::::::::::::::::::::::::::::::::::::::::::::::::::::

           ------------------------------------------------- 
          |        vertical delta SCC IP calculation        |
           ------------------------------------------------- 

 iter      E             dE          RMSdq      gap      omega  full diag
   1   -106.1403876 -0.106140E+03  0.609E-01    1.44       0.0  T
   2   -106.1181143  0.222734E-01  0.903E-01    2.04       1.0  T
   3   -106.1685417 -0.504274E-01  0.479E-01    1.81       1.0  T
   4   -106.1737643 -0.522258E-02  0.295E-01    1.88       1.0  T
   5   -106.1726739  0.109040E-02  0.250E-01    1.95       1.0  T
   6   -106.1728379 -0.163980E-03  0.172E-01    1.91       1.0  T
   7   -106.1736239 -0.786051E-03  0.108E-01    1.88       1.0  T
   8   -106.1743583 -0.734430E-03  0.453E-02    1.89       1.0  T
   9   -106.1744211 -0.628119E-04  0.214E-02    1.89       1.0  T
  10   -106.1744196  0.150754E-05  0.151E-02    1.89       1.0  T
  11   -106.1744260 -0.640598E-05  0.812E-03    1.89       1.5  T
  12   -106.1744287 -0.265760E-05  0.447E-03    1.89       2.7  T
  13   -106.1744290 -0.252433E-06  0.284E-03    1.89       4.2  T
  14   -106.1744291 -0.182981E-06  0.180E-03    1.89       6.7  T
  15   -106.1744290  0.145330E-06  0.181E-03    1.89       6.7  T
  16   -106.1744292 -0.190734E-06  0.588E-04    1.89      20.5  T
  17   -106.1744292 -0.100523E-07  0.255E-04    1.89      47.3  T
     SCC iter.                  ...        0 min,  0.093 sec
     gradient                   ...        0 min,  0.011 sec
------------------------------------------------------------------------
empirical IP shift (eV):    4.8455
delta SCC IP (eV):    5.9186
------------------------------------------------------------------------
           ------------------------------------------------- 
          |        vertical delta SCC EA calculation        |
           ------------------------------------------------- 

 iter      E             dE          RMSdq      gap      omega  full diag
   1   -106.6591861 -0.106659E+03  0.100E+00    0.32       0.0  T
   2   -106.6633975 -0.421144E-02  0.159E+00    0.12       1.0  T
   3   -106.7363015 -0.729040E-01  0.739E-01    0.24       1.0  T
   4   -106.7416323 -0.533078E-02  0.677E-01    0.11       1.0  T
   5   -106.7431028 -0.147053E-02  0.527E-01    0.24       1.0  T
   6   -106.6554113  0.876916E-01  0.838E-01    0.03       1.0  T
   7   -106.7461570 -0.907458E-01  0.290E-01    0.26       1.0  T
   8   -106.7482594 -0.210240E-02  0.230E-01    0.27       1.0  T
   9   -106.7480825  0.176921E-03  0.205E-01    0.27       1.0  T
  10   -106.7491464 -0.106386E-02  0.180E-01    0.27       1.0  T
  11   -106.7499839 -0.837563E-03  0.153E-01    0.27       1.0  T
  12   -106.7529681 -0.298421E-02  0.557E-02    0.15       1.0  T
  13   -106.7532798 -0.311683E-03  0.249E-02    0.11       1.0  T
  14   -106.7532416  0.381917E-04  0.304E-02    0.13       1.0  T
  15   -106.7533284 -0.867838E-04  0.182E-02    0.13       1.0  T
  16   -106.7532924  0.360535E-04  0.234E-02    0.11       1.0  T
  17   -106.7533823 -0.899161E-04  0.200E-03    0.12       6.0  T
  18   -106.7533824 -0.156175E-06  0.167E-03    0.12       7.2  T
  19   -106.7533782  0.426769E-05  0.526E-03    0.12       2.3  T
  20   -106.7533827 -0.451958E-05  0.774E-04    0.12      15.6  T
  21   -106.7533827 -0.635766E-07  0.363E-04    0.12      33.2  T
  22   -106.7533826  0.163486E-06  0.104E-03    0.12      11.6  T
  23   -106.7533828 -0.179552E-06  0.165E-04    0.12      72.9  T
     SCC iter.                  ...        0 min,  0.135 sec
     gradient                   ...        0 min,  0.010 sec
------------------------------------------------------------------------
empirical EA shift (eV):    4.8455
delta SCC EA (eV):    0.1445
------------------------------------------------------------------------

------------------------------------------------------------------------
Calculation of global electrophilicity index (IP+EA)²/(8·(IP-EA))
Global electrophilicity index (eV):    0.7958
------------------------------------------------------------------------
           -------------------------------------------------
          |                Property Printout                |
           -------------------------------------------------

    * Orbital Energies and Occupations

         #    Occupation            Energy/Eh            Energy/eV
      -------------------------------------------------------------
         1        2.0000           -0.7307957             -19.8860
       ...           ...                  ...                  ...
        86        2.0000           -0.2552553              -6.9458
        87        2.0000           -0.2523297              -6.8662
        88        2.0000           -0.2498716              -6.7994
        89        2.0000           -0.2388679              -6.4999
        90        2.0000           -0.2322391              -6.3195
        91        2.0000           -0.2244710              -6.1082
        92        2.0000           -0.2166311              -5.8948
        93        2.0000           -0.2115011              -5.7552
        94        2.0000           -0.2087841              -5.6813
        95        2.0000           -0.2055296              -5.5927
        96        2.0000           -0.1932145              -5.2576
        97        2.0000           -0.1805751              -4.9137
        98        0.8861           -0.1084582              -2.9513 (HOMO)
        99        0.0736           -0.1041025              -2.8328 (LUMO)
       100        0.0401           -0.1034910              -2.8161
       101        0.0002           -0.0983122              -2.6752
       102        0.0000           -0.0958588              -2.6085
       103                         -0.0417284              -1.1355
       104                         -0.0385292              -1.0484
       105                         -0.0304673              -0.8291
       106                         -0.0278009              -0.7565
       107                         -0.0197922              -0.5386
       108                         -0.0027172              -0.0739
       109                          0.0245364               0.6677
       ...                                ...                  ...
       184                          7.1008753             193.2247
      -------------------------------------------------------------
                  HL-Gap            0.0043556 Eh            0.1185 eV
             Fermi-level           -0.1255127 Eh           -3.4154 eV

     #   Z          covCN         q      C6AA      α(0)
     1  26 Fe      10.243     1.488   108.741    18.389
     2   6 C        2.736     0.373    20.681     7.446
     3  46 Pd       4.846    -0.444   390.532    36.091
     4   6 C        3.838    -0.027    21.028     6.524
     5   1 H        0.927     0.023     2.684     2.562
     6   1 H        0.927     0.007     2.944     2.683
     7   1 H        0.927     0.058     2.224     2.332
     8   6 C        2.667     0.384    20.503     7.409
     9   8 O        0.856    -0.535    24.569     6.646
    10   6 C        4.069    -0.118    22.668     6.763
    11   8 O        0.862    -0.561    25.180     6.728
    12   6 C        3.932    -0.142    23.156     6.839
    13   6 C        3.871    -0.159    23.527     6.897
    14   6 C        3.874    -0.168    23.703     6.923
    15   1 H        0.927     0.057     2.229     2.335
    16   1 H        0.927     0.019     2.748     2.592
    17   1 H        0.927     0.009     2.914     2.669
    18   1 H        1.522     0.152     1.372     1.828
    19   6 C        3.772    -0.196    24.385     7.037
    20   6 C        3.879     0.056    19.585     6.292
    21   8 O        1.520    -0.443    21.807     6.298
    22   6 C        3.877    -0.148    23.300     6.863
    23   6 C        3.900    -0.157    23.475     6.887
    24   6 C        3.891    -0.166    23.661     6.915
    25   6 C        3.889    -0.158    23.495     6.891
    26   6 C        3.885    -0.110    22.545     6.750
    27   1 H        0.927     0.070     2.083     2.257
    28   7 N        2.668    -0.251    26.538     7.651
    29   1 H        0.924     0.002     3.022     2.719
    30   1 H        0.925     0.036     2.508     2.476
    31   1 H        0.923     0.008     2.926     2.675
    32   1 H        0.927     0.047     2.363     2.404
    33   7 N        3.498    -0.040    22.001     6.966
    34   6 C        3.720    -0.034    21.308     6.593
    35   6 C        3.799    -0.022    20.972     6.520
    36   1 H        0.924     0.004     2.984     2.701
    37   1 H        0.925     0.043     2.413     2.429
    38   1 H        0.925     0.078     1.998     2.210
    39   1 H        0.923    -0.000     3.060     2.736
    40   1 H        0.924     0.074     2.039     2.233
    41   1 H        0.924     0.077     2.014     2.219
    42   6 C        3.809    -0.051    21.481     6.597
    43   6 C        2.971     0.015    27.666     8.628
    44   6 C        2.926    -0.033    28.812     8.803
    45   6 C        2.919    -0.038    28.954     8.824
    46   6 C        2.921    -0.043    29.060     8.840
    47   6 C        2.920    -0.040    28.988     8.829
    48   6 C        2.925    -0.042    29.049     8.839
    49   1 H        0.924     0.020     2.732     2.585
    50   1 H        0.922     0.112     1.679     2.027
    51   1 H        0.925     0.033     2.546     2.495
    52   1 H        0.926     0.004     2.998     2.707
    53   1 H        0.926    -0.001     3.081     2.745
    54   1 H        0.926     0.001     3.049     2.731
    55   1 H        0.926     0.010     2.888     2.658
    56   8 O        1.705    -0.332    19.560     5.971
    57   6 C        3.758    -0.112    22.687     6.791
    58   6 C        3.785     0.162    18.009     6.045
    59   6 C        3.756    -0.120    22.851     6.816
    60   6 C        3.755    -0.119    22.826     6.812
    61   1 H        0.925     0.042     2.420     2.433
    62   1 H        0.925     0.049     2.335     2.390
    63   1 H        0.925     0.029     2.601     2.522
    64   1 H        0.925     0.040     2.450     2.448
    65   1 H        0.925     0.023     2.690     2.565
    66   1 H        0.925     0.075     2.035     2.231
    67   1 H        0.925     0.034     2.531     2.488
    68   1 H        0.925     0.024     2.680     2.560
    69   1 H        0.925     0.073     2.053     2.241

 Mol. C6AA /au·bohr⁶  :      59075.807759
 Mol. C8AA /au·bohr⁸  :    1712791.513176
 Mol. α(0) /au        :        373.996891


Wiberg/Mayer (AO) data.
largest (>0.10) Wiberg bond orders for each atom

 ---------------------------------------------------------------------------
     #   Z sym  total        # sym  WBO       # sym  WBO       # sym  WBO
 ---------------------------------------------------------------------------
     1  26 Fe   0.421 --    12 C    0.200    10 C    0.197    25 C    0.190
                            14 C    0.182    23 C    0.176    13 C    0.140
                            22 C    0.129    24 C    0.126    18 H    0.124
     2   6 C    3.936 --     9 O    1.607    21 O    1.372    20 C    0.871
     3  46 Pd   3.807 --    19 C    0.839    28 N    0.552    21 O    0.442
                            18 H    0.424    33 N    0.383    26 C    0.160
                            22 C    0.155    10 C    0.118
     4   6 C    3.971 --    10 C    1.004    33 N    0.972    30 H    0.968
                            31 H    0.960
     5   1 H    0.998 --    24 C    0.994
     6   1 H    0.998 --    23 C    0.984
     7   1 H    0.995 --    22 C    0.949
     8   6 C    3.931 --    28 N    1.419    11 O    1.367    56 O    1.023
     9   8 O    1.916 --     2 C    1.607    21 O    0.202
    10   6 C    3.947 --    14 C    1.266    19 C    1.228     4 C    1.004
                             1 Fe   0.197     3 Pd   0.118
    11   8 O    1.911 --     8 C    1.367    28 N    0.172
    12   6 C    3.970 --    13 C    1.338    19 C    1.177    15 H    0.972
                             1 Fe   0.200
    13   6 C    3.958 --    12 C    1.338    14 C    1.307    16 H    0.992
                             1 Fe   0.140
    14   6 C    3.960 --    13 C    1.307    10 C    1.266    17 H    0.991
                             1 Fe   0.182
    15   1 H    0.996 --    12 C    0.972
    16   1 H    0.996 --    13 C    0.992
    17   1 H    0.998 --    14 C    0.991
    18   1 H    0.976 --     3 Pd   0.424    26 C    0.132     1 Fe   0.124
    19   6 C    3.639 --    10 C    1.228    12 C    1.177     3 Pd   0.839
    20   6 C    3.969 --    28 N    0.986    29 H    0.960    42 C    0.943
                             2 C    0.871
    21   8 O    2.161 --     2 C    1.372     3 Pd   0.442     9 O    0.202
    22   6 C    3.967 --    23 C    1.306    26 C    1.271     7 H    0.949
                             3 Pd   0.155     1 Fe   0.129
    23   6 C    3.969 --    22 C    1.306    24 C    1.301     6 H    0.984
                             1 Fe   0.176
    24   6 C    3.952 --    25 C    1.344    23 C    1.301     5 H    0.994
                             1 Fe   0.126
    25   6 C    3.964 --    24 C    1.344    26 C    1.249    32 H    0.988
                             1 Fe   0.190
    26   6 C    3.970 --    22 C    1.271    25 C    1.249    27 H    0.958
                             3 Pd   0.160    18 H    0.132
    27   1 H    0.993 --    26 C    0.958
    28   7 N    3.354 --     8 C    1.419    20 C    0.986     3 Pd   0.552
                            11 O    0.172
    29   1 H    0.997 --    20 C    0.960
    30   1 H    0.998 --     4 C    0.968
    31   1 H    0.997 --     4 C    0.960
    32   1 H    0.995 --    25 C    0.988
    33   7 N    3.441 --    34 C    1.000    35 C    0.995     4 C    0.972
                             3 Pd   0.383
    34   6 C    3.980 --    33 N    1.000    36 H    0.974    37 H    0.972
                            38 H    0.966
    35   6 C    3.979 --    33 N    0.995    39 H    0.970    41 H    0.958
                            40 H    0.946
    36   1 H    0.998 --    34 C    0.974
    37   1 H    0.997 --    34 C    0.972
    38   1 H    0.993 --    34 C    0.966
    39   1 H    0.999 --    35 C    0.970
    40   1 H    0.993 --    35 C    0.946
    41   1 H    0.993 --    35 C    0.958
    42   6 C    3.987 --    43 C    1.018    49 H    0.971    20 C    0.943
                            50 H    0.870
    43   6 C    3.961 --    44 C    1.399    48 C    1.398    42 C    1.018
                            46 C    0.100
    44   6 C    3.949 --    45 C    1.428    43 C    1.399    51 H    0.954
    45   6 C    3.950 --    44 C    1.428    46 C    1.426    52 H    0.972
    46   6 C    3.964 --    47 C    1.428    45 C    1.426    53 H    0.973
                            43 C    0.100
    47   6 C    3.952 --    46 C    1.428    48 C    1.427    54 H    0.972
    48   6 C    3.946 --    47 C    1.427    43 C    1.398    55 H    0.971
    49   1 H    0.998 --    42 C    0.971
    50   1 H    0.985 --    42 C    0.870
    51   1 H    0.997 --    44 C    0.954
    52   1 H    1.000 --    45 C    0.972
    53   1 H    0.999 --    46 C    0.973
    54   1 H    1.000 --    47 C    0.972
    55   1 H    1.000 --    48 C    0.971
    56   8 O    2.199 --     8 C    1.023    58 C    0.930
    57   6 C    3.995 --    58 C    0.993    63 H    0.987    61 H    0.986
                            62 H    0.985
    58   6 C    3.937 --    57 C    0.993    59 C    0.993    60 C    0.993
                            56 O    0.930
    59   6 C    3.992 --    58 C    0.993    65 H    0.986    64 H    0.986
                            66 H    0.976
    60   6 C    3.994 --    58 C    0.993    68 H    0.986    67 H    0.986
                            69 H    0.976
    61   1 H    0.998 --    57 C    0.986
    62   1 H    0.998 --    57 C    0.985
    63   1 H    0.998 --    57 C    0.987
    64   1 H    0.998 --    59 C    0.986
    65   1 H    0.999 --    59 C    0.986
    66   1 H    0.994 --    59 C    0.976
    67   1 H    0.999 --    60 C    0.986
    68   1 H    0.999 --    60 C    0.986
    69   1 H    0.994 --    60 C    0.976
 ---------------------------------------------------------------------------

Topologies differ in total number of bonds
Writing topology from bond orders to xtbtopo.mol

molecular dipole:
                 x           y           z       tot (Debye)
 q only:        3.567      -1.321      -1.404
   full:        2.083      -1.528      -1.021       7.061
molecular quadrupole (traceless):
                xx          xy          yy          xz          yz          zz
 q only:      -28.754       3.863      24.473      19.384      -2.310       4.282
  q+dip:      -30.865       1.431      36.815      19.963      -9.722      -5.951
   full:      -37.711       0.703      38.151      18.863      -6.603      -0.440


           -------------------------------------------------
          | TOTAL ENERGY             -105.307303254196 Eh   |
          | GRADIENT NORM               0.093714942883 Eh/α |
          | HOMO-LUMO GAP               0.118522672909 eV   |
           -------------------------------------------------
########################################################################
[WARNING] Runtime exception occurred
-1- restart_readRestart: Multiplicity missmatch in restart file.
########################################################################

------------------------------------------------------------------------
 * finished run on 2024/10/14 at 20:24:29.111     
------------------------------------------------------------------------
 total:
 * wall-time:     0 d,  0 h,  0 min,  0.574 sec
 *  cpu-time:     0 d,  0 h,  0 min,  6.408 sec
 * ratio c/w:    11.171 speedup
 SCF:
 * wall-time:     0 d,  0 h,  0 min,  0.360 sec
 *  cpu-time:     0 d,  0 h,  0 min,  4.269 sec
 * ratio c/w:    11.866 speedup

