      -----------------------------------------------------------      
     |                   =====================                   |     
     |                           x T B                           |     
     |                   =====================                   |     
     |                         S. Grimme                         |     
     |          Mulliken Center for Theoretical Chemistry        |     
     |                    University of Bonn                     |     
      -----------------------------------------------------------      

   * xtb version 6.6.1 (8d0f1dd) compiled by 'stahn@M-Bot' on 2023-08-01

   xtb is free software: you can redistribute it and/or modify it under
   the terms of the GNU Lesser General Public License as published by
   the Free Software Foundation, either version 3 of the License, or
   (at your option) any later version.
   
   xtb is distributed in the hope that it will be useful,
   but WITHOUT ANY WARRANTY; without even the implied warranty of
   MERCHANTABILITY or FITNESS FOR A PARTICULAR PURPOSE.  See the
   GNU Lesser General Public License for more details.
   
   Cite this work as:
   * C. Bannwarth, E. Caldeweyher, S. Ehlert, A. Hansen, P. Pracht,
     J. Seibert, S. Spicher, S. Grimme, WIREs Comput. Mol. Sci., 2020, 11,
     e01493. DOI: 10.1002/wcms.1493
   
   for GFN2-xTB:
   * C. Bannwarth, S. Ehlert and S. Grimme., J. Chem. Theory Comput., 2019,
     15, 1652-1671. DOI: 10.1021/acs.jctc.8b01176
   for GFN1-xTB:
   * S. Grimme, C. Bannwarth, P. Shushkov, J. Chem. Theory Comput., 2017,
     13, 1989-2009. DOI: 10.1021/acs.jctc.7b00118
   for GFN0-xTB:
   * P. Pracht, E. Caldeweyher, S. Ehlert, S. Grimme, ChemRxiv, 2019, preprint.
     DOI: 10.26434/chemrxiv.8326202.v1
   for GFN-FF:
   * S. Spicher and S. Grimme, Angew. Chem. Int. Ed., 2020, 59, 15665-15673.
     DOI: 10.1002/anie.202004239
   
   for ALPB and GBSA implicit solvation:
   * S. Ehlert, M. Stahn, S. Spicher, S. Grimme, J. Chem. Theory Comput.,
     2021, 17, 4250-4261. DOI: 10.1021/acs.jctc.1c00471
   
   for DFT-D4:
   * E. Caldeweyher, C. Bannwarth and S. Grimme, J. Chem. Phys., 2017,
     147, 034112. DOI: 10.1063/1.4993215
   * E. Caldeweyher, S. Ehlert, A. Hansen, H. Neugebauer, S. Spicher,
     C. Bannwarth and S. Grimme, J. Chem. Phys., 2019, 150, 154122.
     DOI: 10.1063/1.5090222
   * E. Caldeweyher, J.-M. Mewes, S. Ehlert and S. Grimme, Phys. Chem. Chem. Phys.
     2020, 22, 8499-8512. DOI: 10.1039/D0CP00502A
   
   for sTDA-xTB:
   * S. Grimme and C. Bannwarth, J. Chem. Phys., 2016, 145, 054103.
     DOI: 10.1063/1.4959605
   
   in the mass-spec context:
   * V. Asgeirsson, C. Bauer and S. Grimme, Chem. Sci., 2017, 8, 4879.
     DOI: 10.1039/c7sc00601b
   * J. Koopman and S. Grimme, ACS Omega 2019, 4, 12, 15120-15133.
     DOI: 10.1021/acsomega.9b02011
   
   for metadynamics refer to:
   * S. Grimme, J. Chem. Theory Comput., 2019, 155, 2847-2862
     DOI: 10.1021/acs.jctc.9b00143
   
   for SPH calculations refer to:
   * S. Spicher and S. Grimme, J. Chem. Theory Comput., 2021, 17, 1701-1714
     DOI: 10.1021/acs.jctc.0c01306
   
   with help from (in alphabetical order)
   P. Atkinson, C. Bannwarth, F. Bohle, G. Brandenburg, E. Caldeweyher
   M. Checinski, S. Dohm, S. Ehlert, S. Ehrlich, I. Gerasimov, C. Hölzer
   A. Katbashev, J. Koopman, C. Lavigne, S. Lehtola, F. März, M. Müller,
   F. Musil, H. Neugebauer, J. Pisarek, C. Plett, P. Pracht, F. Pultar,
   J. Seibert, P. Shushkov, S. Spicher, M. Stahn, M. Steiner, T. Strunk,
   J. Stückrath, T. Rose, and J. Unsleber
   
 * started run on 2024/10/15 at 00:00:01.858     

           -------------------------------------------------
          |                Calculation Setup                |
           -------------------------------------------------

          program call               : xtb tsopted.xyz --gfn 2 --charge 0 --vfukui
          coordinate file            : tsopted.xyz
          omp threads                :                    12

   ID    Z sym.   atoms
    1   26 Fe     1
    2    6 C      2, 4, 8, 10, 12-14, 19, 20, 22-26, 34-45, 57, 58, 65-68,
                  79-82
    3   46 Pd     3
    4    1 H      5-7, 15-18, 27, 29-31, 46-55, 59-64, 69-77, 83-91
    5    8 O      9, 11, 21, 33, 78
    6    7 N      28, 56
    7   15 P      32

           -------------------------------------------------
          |                 G F N 2 - x T B                 |
           -------------------------------------------------

        Reference                      10.1021/acs.jctc.8b01176
      * Hamiltonian:
        H0-scaling (s, p, d)           1.850000    2.230000    2.230000
        zeta-weighting                 0.500000
      * Dispersion:
        s8                             2.700000
        a1                             0.520000
        a2                             5.000000
        s9                             5.000000
      * Repulsion:
        kExp                           1.500000    1.000000
        rExp                           1.000000
      * Coulomb:
        alpha                          2.000000
        third order                    shell-resolved
        anisotropic                    true
        a3                             3.000000
        a5                             4.000000
        cn-shift                       1.200000
        cn-exp                         4.000000
        max-rad                        5.000000


          ...................................................
          :                      SETUP                      :
          :.................................................:
          :  # basis functions                 247          :
          :  # atomic orbitals                 244          :
          :  # shells                          140          :
          :  # electrons                       252          :
          :  max. iterations                   250          :
          :  Hamiltonian                  GFN2-xTB          :
          :  restarted?                      false          :
          :  GBSA solvation                  false          :
          :  PC potential                    false          :
          :  electronic temp.          300.0000000     K    :
          :  accuracy                    1.0000000          :
          :  -> integral cutoff          0.2500000E+02      :
          :  -> integral neglect         0.1000000E-07      :
          :  -> SCF convergence          0.1000000E-05 Eh   :
          :  -> wf. convergence          0.1000000E-03 e    :
          :  Broyden damping             0.4000000          :
          ...................................................

 iter      E             dE          RMSdq      gap      omega  full diag
   1   -138.2090115 -0.138209E+03  0.680E+00    1.61       0.0  T
   2   -138.5516163 -0.342605E+00  0.459E+00    1.56       1.0  T
   3   -138.6035262 -0.519099E-01  0.311E+00    1.82       1.0  T
   4   -138.6252108 -0.216846E-01  0.189E+00    1.52       1.0  T
   5   -138.6305162 -0.530540E-02  0.126E+00    1.48       1.0  T
   6   -138.6338117 -0.329547E-02  0.673E-01    1.49       1.0  T
   7   -138.6343616 -0.549916E-03  0.315E-01    1.50       1.0  T
   8   -138.6348609 -0.499309E-03  0.231E-01    1.48       1.0  T
   9   -138.6377903 -0.292934E-02  0.100E-01    1.47       1.0  T
  10   -138.6378345 -0.442719E-04  0.579E-02    1.46       1.0  T
  11   -138.6378588 -0.242741E-04  0.309E-02    1.47       1.0  T
  12   -138.6378816 -0.227917E-04  0.143E-02    1.47       1.0  T
  13   -138.6378875 -0.586615E-05  0.605E-03    1.47       1.7  T
  14   -138.6378880 -0.553988E-06  0.246E-03    1.47       4.3  T
  15   -138.6378882 -0.150143E-06  0.126E-03    1.47       8.3  T
  16   -138.6378882 -0.496323E-07  0.675E-04    1.47      15.5  T
  17   -138.6378882 -0.122810E-07  0.433E-04    1.47      24.2  T

   *** convergence criteria satisfied after 17 iterations ***

         #    Occupation            Energy/Eh            Energy/eV
      -------------------------------------------------------------
         1        2.0000           -0.9094937             -24.7486
       ...           ...                  ...                  ...
       120        2.0000           -0.3713346             -10.1045
       121        2.0000           -0.3680708             -10.0157
       122        2.0000           -0.3557734              -9.6811
       123        2.0000           -0.3535356              -9.6202
       124        2.0000           -0.3446516              -9.3784
       125        2.0000           -0.3356983              -9.1348
       126        2.0000           -0.3200873              -8.7100 (HOMO)
       127                         -0.2661752              -7.2430 (LUMO)
       128                         -0.2592889              -7.0556
       129                         -0.2547341              -6.9317
       130                         -0.2472283              -6.7274
       131                         -0.2410438              -6.5591
       ...                                ...                  ...
       244                          7.0542768             191.9566
      -------------------------------------------------------------
                  HL-Gap            0.0539121 Eh            1.4670 eV
             Fermi-level           -0.2931313 Eh           -7.9765 eV

 SCC (total)                   0 d,  0 h,  0 min,  0.174 sec
 SCC setup                      ...        0 min,  0.010 sec (  5.987%)
 Dispersion                     ...        0 min,  0.003 sec (  1.608%)
 classical contributions        ...        0 min,  0.000 sec (  0.048%)
 integral evaluation            ...        0 min,  0.012 sec (  7.184%)
 iterations                     ...        0 min,  0.129 sec ( 74.036%)
 molecular gradient             ...        0 min,  0.016 sec (  9.266%)
 printout                       ...        0 min,  0.003 sec (  1.841%)

         :::::::::::::::::::::::::::::::::::::::::::::::::::::
         ::                     SUMMARY                     ::
         :::::::::::::::::::::::::::::::::::::::::::::::::::::
         :: total energy            -136.682026910871 Eh    ::
         :: gradient norm              0.000043502652 Eh/a0 ::
         :: HOMO-LUMO gap              1.467022719157 eV    ::
         ::.................................................::
         :: SCC energy              -138.637888231094 Eh    ::
         :: -> isotropic ES           -0.050013685560 Eh    ::
         :: -> anisotropic ES         -0.025301589662 Eh    ::
         :: -> anisotropic XC          0.039543911143 Eh    ::
         :: -> dispersion             -0.145864821996 Eh    ::
         :: repulsion energy           1.950681918745 Eh    ::
         :: add. restraining           0.000000000000 Eh    ::
         :: total charge               0.000000000000 e     ::
         :::::::::::::::::::::::::::::::::::::::::::::::::::::


Fukui index Calculation

 iter      E             dE          RMSdq      gap      omega  full diag
   1   -138.7750592 -0.138775E+03  0.621E-01    0.19       0.0  T
   2   -138.6937497  0.813095E-01  0.139E+00    0.23       1.0  T
   3   -138.7737054 -0.799558E-01  0.782E-01    0.20       1.0  T
   4   -138.7807905 -0.708505E-02  0.746E-01    0.20       1.0  T
   5   -138.8219351 -0.411446E-01  0.489E-01    0.06       1.0  T
   6   -138.7894209  0.325141E-01  0.638E-01    0.22       1.0  T
   7   -138.8361748 -0.467539E-01  0.201E-01    0.04       1.0  T
   8   -138.8172107  0.189641E-01  0.370E-01    0.14       1.0  T
   9   -138.8217648 -0.455409E-02  0.317E-01    0.12       1.0  T
  10   -138.8312606 -0.949579E-02  0.221E-01    0.06       1.0  T
  11   -138.8339597 -0.269910E-02  0.169E-01    0.05       1.0  T
  12   -138.8376808 -0.372106E-02  0.718E-02    0.05       1.0  T
  13   -138.8377609 -0.801545E-04  0.615E-02    0.05       1.0  T
  14   -138.8383083 -0.547401E-03  0.233E-02    0.04       1.0  T
  15   -138.8383779 -0.695469E-04  0.775E-03    0.04       1.4  T
  16   -138.8383513  0.265539E-04  0.150E-02    0.04       1.0  T
  17   -138.8383601 -0.881705E-05  0.130E-02    0.04       1.0  T
  18   -138.8383867 -0.265594E-04  0.115E-03    0.04       9.1  T
  19   -138.8383852  0.144163E-05  0.306E-03    0.04       3.4  T
  20   -138.8383866 -0.139610E-05  0.868E-04    0.04      12.1  T
  21   -138.8383867 -0.966668E-07  0.182E-04    0.04      57.7  T
  22   -138.8383867  0.189195E-08  0.171E-04    0.04      61.4  T
     SCC iter.                  ...        0 min,  0.167 sec
     gradient                   ...        0 min,  0.018 sec

 iter      E             dE          RMSdq      gap      omega  full diag
   1   -138.2068933 -0.138207E+03  0.531E-01    1.47       0.0  T
   2   -138.1924499  0.144434E-01  0.787E-01    2.19       1.0  T
   3   -138.2355776 -0.431277E-01  0.438E-01    1.94       1.0  T
   4   -138.2408719 -0.529430E-02  0.283E-01    2.03       1.0  T
   5   -138.2402343  0.637602E-03  0.211E-01    2.11       1.0  T
   6   -138.2413747 -0.114039E-02  0.107E-01    2.07       1.0  T
   7   -138.2417145 -0.339844E-03  0.610E-02    2.07       1.0  T
   8   -138.2417434 -0.289332E-04  0.495E-02    2.08       1.0  T
   9   -138.2418791 -0.135615E-03  0.208E-02    2.07       1.0  T
  10   -138.2418873 -0.822859E-05  0.105E-02    2.07       1.0  T
  11   -138.2418906 -0.333704E-05  0.711E-03    2.07       1.5  T
  12   -138.2418910 -0.338970E-06  0.550E-03    2.07       1.9  T
  13   -138.2418926 -0.166181E-05  0.250E-03    2.06       4.2  T
  14   -138.2418927 -0.314994E-07  0.176E-03    2.06       6.0  T
  15   -138.2418927 -0.179083E-07  0.139E-03    2.06       7.6  T
  16   -138.2418928 -0.944064E-07  0.729E-04    2.06      14.4  T
  17   -138.2418928  0.126619E-09  0.597E-04    2.06      17.6  T
     SCC iter.                  ...        0 min,  0.121 sec
     gradient                   ...        0 min,  0.016 sec

     #        f(+)     f(-)     f(0)
     1Fe     -0.084   -0.067   -0.076
     2C       0.000   -0.013   -0.006
     3Pd     -0.099   -0.211   -0.155
     4C       0.010    0.016    0.013
     5H      -0.018   -0.025   -0.021
     6H      -0.026   -0.011   -0.019
     7H      -0.026   -0.001   -0.013
     8C      -0.001   -0.012   -0.006
     9O      -0.031   -0.106   -0.068
    10C      -0.009   -0.002   -0.006
    11O       0.006   -0.043   -0.019
    12C      -0.003   -0.000   -0.002
    13C      -0.002   -0.004   -0.003
    14C      -0.001   -0.002   -0.001
    15H      -0.025   -0.014   -0.020
    16H      -0.015   -0.028   -0.021
    17H      -0.012   -0.030   -0.021
    18H       0.003    0.022    0.013
    19C      -0.010    0.003   -0.003
    20C       0.006   -0.014   -0.004
    21O       0.002   -0.023   -0.010
    22C      -0.004    0.003   -0.000
    23C      -0.001    0.007    0.003
    24C       0.001   -0.002   -0.000
    25C       0.009   -0.004    0.002
    26C      -0.001   -0.000   -0.001
    27H      -0.021   -0.015   -0.018
    28N      -0.005   -0.006   -0.006
    29H      -0.020   -0.036   -0.028
    30H      -0.003   -0.015   -0.009
    31H      -0.025   -0.031   -0.028
    32P      -0.090   -0.032   -0.061
    33O       0.001    0.004    0.003
    34C      -0.005    0.012    0.004
    35C      -0.009    0.002   -0.003
    36C      -0.013   -0.003   -0.008
    37C      -0.027   -0.004   -0.016
    38C      -0.011   -0.002   -0.006
    39C      -0.007    0.005   -0.001
    40C      -0.001    0.006    0.002
    41C      -0.007    0.002   -0.003
    42C      -0.009   -0.002   -0.006
    43C      -0.021   -0.005   -0.013
    44C      -0.012   -0.004   -0.008
    45C      -0.006   -0.002   -0.004
    46H      -0.025   -0.003   -0.014
    47H      -0.035   -0.012   -0.024
    48H      -0.040   -0.014   -0.027
    49H      -0.033   -0.011   -0.022
    50H      -0.020   -0.001   -0.010
    51H      -0.013    0.008   -0.002
    52H      -0.028   -0.009   -0.018
    53H      -0.034   -0.014   -0.024
    54H      -0.030   -0.014   -0.022
    55H      -0.016   -0.006   -0.011
    56N       0.006    0.007    0.007
    57C       0.011    0.014    0.013
    58C       0.011    0.015    0.013
    59H      -0.019   -0.027   -0.023
    60H      -0.003   -0.014   -0.009
    61H      -0.011   -0.004   -0.008
    62H      -0.018   -0.029   -0.023
    63H      -0.013   -0.005   -0.009
    64H      -0.002   -0.006   -0.004
    65C      -0.001   -0.004   -0.003
    66C       0.006    0.009    0.007
    67C       0.005    0.007    0.006
    68C       0.004    0.008    0.006
    69H      -0.011   -0.020   -0.016
    70H      -0.011   -0.028   -0.020
    71H       0.002   -0.005   -0.002
    72H       0.004   -0.003    0.000
    73H      -0.012   -0.025   -0.019
    74H      -0.006   -0.010   -0.008
    75H      -0.012   -0.022   -0.017
    76H      -0.003   -0.012   -0.007
    77H       0.005    0.007    0.006
    78O      -0.015   -0.029   -0.022
    79C       0.005    0.007    0.006
    80C       0.001    0.002    0.002
    81C       0.003    0.007    0.005
    82C       0.003    0.007    0.005
    83H      -0.008   -0.009   -0.008
    84H      -0.006   -0.006   -0.006
    85H      -0.010   -0.018   -0.014
    86H      -0.005   -0.005   -0.005
    87H      -0.011   -0.021   -0.016
    88H       0.011    0.003    0.007
    89H      -0.007   -0.010   -0.009
    90H      -0.010   -0.021   -0.015
    91H       0.008    0.002    0.005
           -------------------------------------------------
          |                Property Printout                |
           -------------------------------------------------

    * Orbital Energies and Occupations

         #    Occupation            Energy/Eh            Energy/eV
      -------------------------------------------------------------
         1        2.0000           -0.9094937             -24.7486
       ...           ...                  ...                  ...
       114        2.0000           -0.3982982             -10.8382
       115        2.0000           -0.3930909             -10.6965
       116        2.0000           -0.3888273             -10.5805
       117        2.0000           -0.3854239             -10.4879
       118        2.0000           -0.3793986             -10.3240
       119        2.0000           -0.3781630             -10.2903
       120        2.0000           -0.3713346             -10.1045
       121        2.0000           -0.3680708             -10.0157
       122        2.0000           -0.3557734              -9.6811
       123        2.0000           -0.3535356              -9.6202
       124        2.0000           -0.3446516              -9.3784
       125        2.0000           -0.3356983              -9.1348
       126        2.0000           -0.3200873              -8.7100 (HOMO)
       127                         -0.2661752              -7.2430 (LUMO)
       128                         -0.2592889              -7.0556
       129                         -0.2547341              -6.9317
       130                         -0.2472283              -6.7274
       131                         -0.2410438              -6.5591
       132                         -0.2356693              -6.4129
       133                         -0.2345926              -6.3836
       134                         -0.1982232              -5.3939
       135                         -0.1851547              -5.0383
       136                         -0.1669328              -4.5425
       137                         -0.1658948              -4.5142
       ...                                ...                  ...
       244                          7.0542768             191.9566
      -------------------------------------------------------------
                  HL-Gap            0.0539121 Eh            1.4670 eV
             Fermi-level           -0.2931313 Eh           -7.9765 eV

     #   Z          covCN         q      C6AA      α(0)
     1  26 Fe      10.346     1.739   105.954    18.152
     2   6 C        2.736     0.372    20.695     7.448
     3  46 Pd       5.050    -0.285   380.717    35.635
     4   6 C        3.851    -0.046    21.365     6.574
     5   1 H        0.927     0.043     2.403     2.424
     6   1 H        0.927     0.093     1.852     2.128
     7   1 H        0.927     0.113     1.668     2.020
     8   6 C        2.677     0.386    20.476     7.405
     9   8 O        0.856    -0.498    23.731     6.531
    10   6 C        4.102    -0.115    22.609     6.754
    11   8 O        0.863    -0.564    25.235     6.735
    12   6 C        3.944    -0.147    23.260     6.853
    13   6 C        3.916    -0.170    23.727     6.923
    14   6 C        3.887    -0.174    23.825     6.939
    15   1 H        0.927     0.099     1.790     2.092
    16   1 H        0.930     0.109     1.703     2.041
    17   1 H        0.927     0.047     2.361     2.403
    18   1 H        1.707     0.156     1.346     1.811
    19   6 C        3.796    -0.183    24.074     6.987
    20   6 C        3.878     0.039    19.875     6.339
    21   8 O        1.517    -0.454    22.046     6.333
    22   6 C        3.898    -0.109    22.511     6.744
    23   6 C        3.911    -0.156    23.440     6.881
    24   6 C        3.915    -0.170    23.730     6.924
    25   6 C        3.919    -0.148    23.290     6.859
    26   6 C        4.053    -0.160    23.498     6.886
    27   1 H        0.927     0.106     1.728     2.056
    28   7 N        2.674    -0.244    26.373     7.627
    29   1 H        0.924     0.032     2.561     2.502
    30   1 H        0.925     0.042     2.418     2.432
    31   1 H        0.923     0.046     2.376     2.411
    32  15 P        4.218     0.317   146.916    21.773
    33   8 O        0.808    -0.446    22.656     6.380
    34   6 C        2.921    -0.039    28.964     8.825
    35   6 C        3.001    -0.029    28.714     8.790
    36   6 C        2.919    -0.027    28.681     8.782
    37   6 C        2.921    -0.028    28.695     8.784
    38   6 C        2.919    -0.032    28.792     8.799
    39   6 C        3.003    -0.042    29.031     8.838
    40   6 C        2.920    -0.029    28.735     8.791
    41   6 C        2.977    -0.036    28.894     8.817
    42   6 C        2.920    -0.029    28.732     8.790
    43   6 C        2.921    -0.027    28.681     8.782
    44   6 C        2.919    -0.028    28.691     8.784
    45   6 C        3.014    -0.026    28.628     8.777
    46   1 H        0.926     0.062     2.174     2.306
    47   1 H        0.926     0.044     2.394     2.420
    48   1 H        0.926     0.040     2.450     2.448
    49   1 H        0.926     0.037     2.489     2.467
    50   1 H        0.926     0.041     2.432     2.439
    51   1 H        0.926     0.052     2.292     2.368
    52   1 H        0.926     0.039     2.467     2.456
    53   1 H        0.926     0.038     2.477     2.461
    54   1 H        0.926     0.038     2.470     2.458
    55   1 H        0.925     0.044     2.394     2.420
    56   7 N        3.482    -0.058    22.349     7.021
    57   6 C        3.719    -0.050    21.590     6.637
    58   6 C        3.808    -0.039    21.260     6.564
    59   1 H        0.924     0.032     2.555     2.500
    60   1 H        0.925     0.047     2.361     2.403
    61   1 H        0.925     0.087     1.907     2.159
    62   1 H        0.923     0.024     2.672     2.556
    63   1 H        0.924     0.090     1.875     2.141
    64   1 H        0.924     0.082     1.963     2.191
    65   6 C        3.851    -0.012    20.748     6.479
    66   6 C        3.755    -0.106    22.573     6.775
    67   6 C        3.801    -0.058    21.620     6.620
    68   6 C        3.751    -0.094    22.352     6.742
    69   1 H        0.925     0.034     2.531     2.488
    70   1 H        0.925     0.031     2.575     2.509
    71   1 H        0.925     0.045     2.380     2.412
    72   1 H        0.921     0.102     1.767     2.079
    73   1 H        0.924     0.028     2.621     2.532
    74   1 H        0.924     0.048     2.343     2.394
    75   1 H        0.925     0.028     2.616     2.529
    76   1 H        0.924     0.021     2.716     2.577
    77   1 H        0.925     0.052     2.300     2.372
    78   8 O        1.705    -0.309    19.155     5.909
    79   6 C        3.757    -0.119    22.824     6.811
    80   6 C        3.786     0.160    18.044     6.050
    81   6 C        3.756    -0.127    22.984     6.836
    82   6 C        3.755    -0.126    22.981     6.835
    83   1 H        0.925     0.051     2.313     2.378
    84   1 H        0.925     0.054     2.276     2.359
    85   1 H        0.925     0.044     2.398     2.421
    86   1 H        0.925     0.043     2.407     2.426
    87   1 H        0.925     0.041     2.432     2.439
    88   1 H        0.925     0.065     2.142     2.289
    89   1 H        0.925     0.042     2.422     2.434
    90   1 H        0.925     0.041     2.442     2.444
    91   1 H        0.925     0.071     2.070     2.250

 Mol. C6AA /au·bohr⁶  :     102174.626156
 Mol. C8AA /au·bohr⁸  :    2934637.085856
 Mol. α(0) /au        :        496.366415


Wiberg/Mayer (AO) data.
largest (>0.10) Wiberg bond orders for each atom

 ---------------------------------------------------------------------------
     #   Z sym  total        # sym  WBO       # sym  WBO       # sym  WBO
 ---------------------------------------------------------------------------
     1  26 Fe  -0.021 --    14 C    0.206    10 C    0.173    13 C    0.171
                            25 C    0.159    12 C    0.152    24 C    0.148
                            26 C    0.143    19 C    0.129    23 C    0.117
     2   6 C    3.936 --     9 O    1.637    21 O    1.334    20 C    0.876
     3  46 Pd   3.897 --    19 C    0.822    28 N    0.625    18 H    0.492
                            21 O    0.479    56 N    0.393    22 C    0.173
                            23 C    0.149    10 C    0.120    12 C    0.102
     4   6 C    3.974 --    10 C    1.013    56 N    0.977    30 H    0.970
                            31 H    0.957
     5   1 H    0.997 --    24 C    0.983
     6   1 H    0.988 --    23 C    0.944
     7   1 H    0.984 --    22 C    0.941
     8   6 C    3.938 --    28 N    1.398    11 O    1.353    78 O    1.065
     9   8 O    1.951 --     2 C    1.637    21 O    0.197
    10   6 C    3.958 --    14 C    1.292    19 C    1.207     4 C    1.013
                             1 Fe   0.173     3 Pd   0.120
    11   8 O    1.919 --     8 C    1.353    28 N    0.164
    12   6 C    3.963 --    13 C    1.358    19 C    1.184    15 H    0.969
                             1 Fe   0.152     3 Pd   0.102
    13   6 C    3.963 --    12 C    1.358    14 C    1.270    16 H    0.951
                             1 Fe   0.171
    14   6 C    3.972 --    10 C    1.292    13 C    1.270    17 H    0.981
                             1 Fe   0.206
    15   1 H    0.989 --    12 C    0.969
    16   1 H    0.985 --    13 C    0.951
    17   1 H    0.996 --    14 C    0.981
    18   1 H    0.974 --     3 Pd   0.492    22 C    0.104
    19   6 C    3.700 --    10 C    1.207    12 C    1.184     3 Pd   0.822
                             1 Fe   0.129
    20   6 C    3.968 --    28 N    0.975    65 C    0.955    29 H    0.954
                             2 C    0.876
    21   8 O    2.165 --     2 C    1.334     3 Pd   0.479     9 O    0.197
    22   6 C    3.974 --    26 C    1.290    23 C    1.261     7 H    0.941
                             3 Pd   0.173    18 H    0.104
    23   6 C    3.973 --    24 C    1.335    22 C    1.261     6 H    0.944
                             3 Pd   0.149     1 Fe   0.117
    24   6 C    3.970 --    23 C    1.335    25 C    1.256     5 H    0.983
                             1 Fe   0.148
    25   6 C    3.966 --    26 C    1.291    24 C    1.256    32 P    0.970
                             1 Fe   0.159
    26   6 C    3.957 --    25 C    1.291    22 C    1.290    27 H    0.972
                             1 Fe   0.143
    27   1 H    0.987 --    26 C    0.972
    28   7 N    3.395 --     8 C    1.398    20 C    0.975     3 Pd   0.625
                            11 O    0.164
    29   1 H    0.997 --    20 C    0.954
    30   1 H    0.997 --     4 C    0.970
    31   1 H    0.994 --     4 C    0.957
    32  15 P    4.987 --    33 O    1.967    25 C    0.970    34 C    0.915
                            40 C    0.910
    33   8 O    2.167 --    32 P    1.967
    34   6 C    3.983 --    35 C    1.412    39 C    1.396    32 P    0.915
                            37 C    0.107
    35   6 C    3.987 --    36 C    1.438    34 C    1.412    46 H    0.959
                            38 C    0.108
    36   6 C    3.991 --    37 C    1.444    35 C    1.438    47 H    0.969
                            39 C    0.111
    37   6 C    3.988 --    36 C    1.444    38 C    1.428    48 H    0.971
                            34 C    0.107
    38   6 C    3.992 --    39 C    1.454    37 C    1.428    49 H    0.970
                            35 C    0.108
    39   6 C    3.990 --    38 C    1.454    34 C    1.396    50 H    0.964
                            36 C    0.111
    40   6 C    3.985 --    41 C    1.412    45 C    1.403    32 P    0.910
                            43 C    0.108
    41   6 C    3.989 --    42 C    1.441    40 C    1.412    51 H    0.961
                            44 C    0.110
    42   6 C    3.992 --    43 C    1.441    41 C    1.441    52 H    0.970
                            45 C    0.111
    43   6 C    3.987 --    42 C    1.441    44 C    1.434    53 H    0.971
                            40 C    0.108
    44   6 C    3.991 --    45 C    1.449    43 C    1.434    54 H    0.970
                            41 C    0.110
    45   6 C    3.991 --    44 C    1.449    40 C    1.403    55 H    0.960
                            42 C    0.111
    46   1 H    0.995 --    35 C    0.959
    47   1 H    0.997 --    36 C    0.969
    48   1 H    0.998 --    37 C    0.971
    49   1 H    0.998 --    38 C    0.970
    50   1 H    0.997 --    39 C    0.964
    51   1 H    0.996 --    41 C    0.961
    52   1 H    0.998 --    42 C    0.970
    53   1 H    0.998 --    43 C    0.971
    54   1 H    0.998 --    44 C    0.970
    55   1 H    0.998 --    45 C    0.960
    56   7 N    3.446 --    57 C    0.995    58 C    0.990     4 C    0.977
                             3 Pd   0.393
    57   6 C    3.973 --    56 N    0.995    59 H    0.973    60 H    0.972
                            61 H    0.966
    58   6 C    3.972 --    56 N    0.990    62 H    0.970    64 H    0.956
                            63 H    0.944
    59   1 H    0.996 --    57 C    0.973
    60   1 H    0.997 --    57 C    0.972
    61   1 H    0.991 --    57 C    0.966
    62   1 H    0.998 --    58 C    0.970
    63   1 H    0.990 --    58 C    0.944
    64   1 H    0.992 --    58 C    0.956
    65   6 C    3.986 --    66 C    1.007    67 C    0.995    20 C    0.955
                            72 H    0.865
    66   6 C    3.996 --    65 C    1.007    69 H    0.986    70 H    0.986
                            71 H    0.980
    67   6 C    3.995 --    68 C    1.020    65 C    0.995    73 H    0.977
                            74 H    0.975
    68   6 C    3.996 --    67 C    1.020    75 H    0.987    76 H    0.984
                            77 H    0.975
    69   1 H    0.998 --    66 C    0.986
    70   1 H    0.998 --    66 C    0.986
    71   1 H    0.997 --    66 C    0.980
    72   1 H    0.988 --    65 C    0.865
    73   1 H    0.999 --    67 C    0.977
    74   1 H    0.997 --    67 C    0.975
    75   1 H    0.999 --    68 C    0.987
    76   1 H    0.999 --    68 C    0.984
    77   1 H    0.996 --    68 C    0.975
    78   8 O    2.232 --     8 C    1.065    80 C    0.912
    79   6 C    3.992 --    80 C    0.994    85 H    0.985    83 H    0.985
                            84 H    0.984
    80   6 C    3.924 --    82 C    0.994    79 C    0.994    81 C    0.994
                            78 O    0.912
    81   6 C    3.992 --    80 C    0.994    86 H    0.986    87 H    0.985
                            88 H    0.977
    82   6 C    3.992 --    80 C    0.994    89 H    0.986    90 H    0.985
                            91 H    0.977
    83   1 H    0.997 --    79 C    0.985
    84   1 H    0.997 --    79 C    0.984
    85   1 H    0.997 --    79 C    0.985
    86   1 H    0.998 --    81 C    0.986
    87   1 H    0.998 --    81 C    0.985
    88   1 H    0.995 --    81 C    0.977
    89   1 H    0.998 --    82 C    0.986
    90   1 H    0.998 --    82 C    0.985
    91   1 H    0.994 --    82 C    0.977
 ---------------------------------------------------------------------------

Topologies differ in total number of bonds
Writing topology from bond orders to xtbtopo.mol

molecular dipole:
                 x           y           z       tot (Debye)
 q only:        4.530      -2.733      -0.938
   full:        3.439      -3.327      -0.167      12.170
molecular quadrupole (traceless):
                xx          xy          yy          xz          yz          zz
 q only:      -18.701       2.850      26.458      31.954      -2.965      -7.757
  q+dip:      -11.595       1.026      26.204      32.344      -7.079     -14.610
   full:      -15.969       0.272      29.521      32.569      -4.277     -13.552


           -------------------------------------------------
          | TOTAL ENERGY             -136.682026910871 Eh   |
          | GRADIENT NORM               0.000043502652 Eh/α |
          | HOMO-LUMO GAP               1.467022719157 eV   |
           -------------------------------------------------

------------------------------------------------------------------------
 * finished run on 2024/10/15 at 00:00:02.586     
------------------------------------------------------------------------
 total:
 * wall-time:     0 d,  0 h,  0 min,  0.728 sec
 *  cpu-time:     0 d,  0 h,  0 min,  8.230 sec
 * ratio c/w:    11.301 speedup
 SCF:
 * wall-time:     0 d,  0 h,  0 min,  0.178 sec
 *  cpu-time:     0 d,  0 h,  0 min,  2.085 sec
 * ratio c/w:    11.706 speedup

