      -----------------------------------------------------------      
     |                   =====================                   |     
     |                           x T B                           |     
     |                   =====================                   |     
     |                         S. Grimme                         |     
     |          Mulliken Center for Theoretical Chemistry        |     
     |                    University of Bonn                     |     
      -----------------------------------------------------------      

   * xtb version 6.6.1 (8d0f1dd) compiled by 'stahn@M-Bot' on 2023-08-01

   xtb is free software: you can redistribute it and/or modify it under
   the terms of the GNU Lesser General Public License as published by
   the Free Software Foundation, either version 3 of the License, or
   (at your option) any later version.
   
   xtb is distributed in the hope that it will be useful,
   but WITHOUT ANY WARRANTY; without even the implied warranty of
   MERCHANTABILITY or FITNESS FOR A PARTICULAR PURPOSE.  See the
   GNU Lesser General Public License for more details.
   
   Cite this work as:
   * C. Bannwarth, E. Caldeweyher, S. Ehlert, A. Hansen, P. Pracht,
     J. Seibert, S. Spicher, S. Grimme, WIREs Comput. Mol. Sci., 2020, 11,
     e01493. DOI: 10.1002/wcms.1493
   
   for GFN2-xTB:
   * C. Bannwarth, S. Ehlert and S. Grimme., J. Chem. Theory Comput., 2019,
     15, 1652-1671. DOI: 10.1021/acs.jctc.8b01176
   for GFN1-xTB:
   * S. Grimme, C. Bannwarth, P. Shushkov, J. Chem. Theory Comput., 2017,
     13, 1989-2009. DOI: 10.1021/acs.jctc.7b00118
   for GFN0-xTB:
   * P. Pracht, E. Caldeweyher, S. Ehlert, S. Grimme, ChemRxiv, 2019, preprint.
     DOI: 10.26434/chemrxiv.8326202.v1
   for GFN-FF:
   * S. Spicher and S. Grimme, Angew. Chem. Int. Ed., 2020, 59, 15665-15673.
     DOI: 10.1002/anie.202004239
   
   for ALPB and GBSA implicit solvation:
   * S. Ehlert, M. Stahn, S. Spicher, S. Grimme, J. Chem. Theory Comput.,
     2021, 17, 4250-4261. DOI: 10.1021/acs.jctc.1c00471
   
   for DFT-D4:
   * E. Caldeweyher, C. Bannwarth and S. Grimme, J. Chem. Phys., 2017,
     147, 034112. DOI: 10.1063/1.4993215
   * E. Caldeweyher, S. Ehlert, A. Hansen, H. Neugebauer, S. Spicher,
     C. Bannwarth and S. Grimme, J. Chem. Phys., 2019, 150, 154122.
     DOI: 10.1063/1.5090222
   * E. Caldeweyher, J.-M. Mewes, S. Ehlert and S. Grimme, Phys. Chem. Chem. Phys.
     2020, 22, 8499-8512. DOI: 10.1039/D0CP00502A
   
   for sTDA-xTB:
   * S. Grimme and C. Bannwarth, J. Chem. Phys., 2016, 145, 054103.
     DOI: 10.1063/1.4959605
   
   in the mass-spec context:
   * V. Asgeirsson, C. Bauer and S. Grimme, Chem. Sci., 2017, 8, 4879.
     DOI: 10.1039/c7sc00601b
   * J. Koopman and S. Grimme, ACS Omega 2019, 4, 12, 15120-15133.
     DOI: 10.1021/acsomega.9b02011
   
   for metadynamics refer to:
   * S. Grimme, J. Chem. Theory Comput., 2019, 155, 2847-2862
     DOI: 10.1021/acs.jctc.9b00143
   
   for SPH calculations refer to:
   * S. Spicher and S. Grimme, J. Chem. Theory Comput., 2021, 17, 1701-1714
     DOI: 10.1021/acs.jctc.0c01306
   
   with help from (in alphabetical order)
   P. Atkinson, C. Bannwarth, F. Bohle, G. Brandenburg, E. Caldeweyher
   M. Checinski, S. Dohm, S. Ehlert, S. Ehrlich, I. Gerasimov, C. Hölzer
   A. Katbashev, J. Koopman, C. Lavigne, S. Lehtola, F. März, M. Müller,
   F. Musil, H. Neugebauer, J. Pisarek, C. Plett, P. Pracht, F. Pultar,
   J. Seibert, P. Shushkov, S. Spicher, M. Stahn, M. Steiner, T. Strunk,
   J. Stückrath, T. Rose, and J. Unsleber
   
 * started run on 2024/10/15 at 00:00:03.429     

           -------------------------------------------------
          |                Calculation Setup                |
           -------------------------------------------------

          program call               : xtb tsopted.xyz --gfn 2 --charge 0 --vomega
          coordinate file            : tsopted.xyz
          omp threads                :                    12

   ID    Z sym.   atoms
    1   26 Fe     1
    2    6 C      2, 4, 8, 10, 12-14, 19, 20, 22-26, 34-45, 57, 58, 65-68,
                  79-82
    3   46 Pd     3
    4    1 H      5-7, 15-18, 27, 29-31, 46-55, 59-64, 69-77, 83-91
    5    8 O      9, 11, 21, 33, 78
    6    7 N      28, 56
    7   15 P      32

           -------------------------------------------------
          |                 G F N 2 - x T B                 |
           -------------------------------------------------

        Reference                      10.1021/acs.jctc.8b01176
      * Hamiltonian:
        H0-scaling (s, p, d)           1.850000    2.230000    2.230000
        zeta-weighting                 0.500000
      * Dispersion:
        s8                             2.700000
        a1                             0.520000
        a2                             5.000000
        s9                             5.000000
      * Repulsion:
        kExp                           1.500000    1.000000
        rExp                           1.000000
      * Coulomb:
        alpha                          2.000000
        third order                    shell-resolved
        anisotropic                    true
        a3                             3.000000
        a5                             4.000000
        cn-shift                       1.200000
        cn-exp                         4.000000
        max-rad                        5.000000

q/qsh data taken from xtbrestart
CAMM data taken from xtbrestart

          ...................................................
          :                      SETUP                      :
          :.................................................:
          :  # basis functions                 247          :
          :  # atomic orbitals                 244          :
          :  # shells                          140          :
          :  # electrons                       252          :
          :  max. iterations                   250          :
          :  Hamiltonian                  GFN2-xTB          :
          :  restarted?                       true          :
          :  GBSA solvation                  false          :
          :  PC potential                    false          :
          :  electronic temp.          300.0000000     K    :
          :  accuracy                    1.0000000          :
          :  -> integral cutoff          0.2500000E+02      :
          :  -> integral neglect         0.1000000E-07      :
          :  -> SCF convergence          0.1000000E-05 Eh   :
          :  -> wf. convergence          0.1000000E-03 e    :
          :  Broyden damping             0.4000000          :
          ...................................................

 iter      E             dE          RMSdq      gap      omega  full diag
   1   -138.6158110 -0.138616E+03  0.433E-01    2.10       0.0  T
   2   -138.6315568 -0.157459E-01  0.477E-01    1.37       1.0  T
   3   -138.6370587 -0.550193E-02  0.280E-01    1.50       1.0  T
   4   -138.6373699 -0.311134E-03  0.202E-01    1.46       1.0  T
   5   -138.6376855 -0.315607E-03  0.134E-01    1.46       1.0  T
   6   -138.6378398 -0.154301E-03  0.598E-02    1.46       1.0  T
   7   -138.6378255  0.142715E-04  0.427E-02    1.46       1.0  T
   8   -138.6378784 -0.528636E-04  0.180E-02    1.47       1.0  T
   9   -138.6378864 -0.800216E-05  0.781E-03    1.47       1.3  T
  10   -138.6378873 -0.898659E-06  0.482E-03    1.47       2.2  T
  11   -138.6378879 -0.644381E-06  0.305E-03    1.47       3.4  T
  12   -138.6378881 -0.168610E-06  0.222E-03    1.47       4.7  T
  13   -138.6378882 -0.104069E-06  0.130E-03    1.47       8.0  T
  14   -138.6378882 -0.304225E-07  0.688E-04    1.47      15.2  T
  15   -138.6378882 -0.810371E-08  0.326E-04    1.47      32.1  T

   *** convergence criteria satisfied after 15 iterations ***

         #    Occupation            Energy/Eh            Energy/eV
      -------------------------------------------------------------
         1        2.0000           -0.9094890             -24.7485
       ...           ...                  ...                  ...
       120        2.0000           -0.3713247             -10.1043
       121        2.0000           -0.3680584             -10.0154
       122        2.0000           -0.3557610              -9.6808
       123        2.0000           -0.3535231              -9.6199
       124        2.0000           -0.3446390              -9.3781
       125        2.0000           -0.3356864              -9.1345
       126        2.0000           -0.3200750              -8.7097 (HOMO)
       127                         -0.2661655              -7.2427 (LUMO)
       128                         -0.2592772              -7.0553
       129                         -0.2547241              -6.9314
       130                         -0.2472176              -6.7271
       131                         -0.2410331              -6.5588
       ...                                ...                  ...
       244                          7.0543250             191.9580
      -------------------------------------------------------------
                  HL-Gap            0.0539095 Eh            1.4670 eV
             Fermi-level           -0.2931203 Eh           -7.9762 eV

 SCC (total)                   0 d,  0 h,  0 min,  0.156 sec
 SCC setup                      ...        0 min,  0.004 sec (  2.380%)
 Dispersion                     ...        0 min,  0.002 sec (  1.354%)
 classical contributions        ...        0 min,  0.000 sec (  0.079%)
 integral evaluation            ...        0 min,  0.012 sec (  7.916%)
 iterations                     ...        0 min,  0.116 sec ( 74.516%)
 molecular gradient             ...        0 min,  0.017 sec ( 11.071%)
 printout                       ...        0 min,  0.004 sec (  2.650%)

         :::::::::::::::::::::::::::::::::::::::::::::::::::::
         ::                     SUMMARY                     ::
         :::::::::::::::::::::::::::::::::::::::::::::::::::::
         :: total energy            -136.682026916289 Eh    ::
         :: gradient norm              0.000044423204 Eh/a0 ::
         :: HOMO-LUMO gap              1.466953310473 eV    ::
         ::.................................................::
         :: SCC energy              -138.637888236512 Eh    ::
         :: -> isotropic ES           -0.050041494562 Eh    ::
         :: -> anisotropic ES         -0.025304493811 Eh    ::
         :: -> anisotropic XC          0.039543130162 Eh    ::
         :: -> dispersion             -0.145865082802 Eh    ::
         :: repulsion energy           1.950681918745 Eh    ::
         :: add. restraining           0.000000000000 Eh    ::
         :: total charge               0.000008823333 e     ::
         :::::::::::::::::::::::::::::::::::::::::::::::::::::

           ------------------------------------------------- 
          |        vertical delta SCC IP calculation        |
           ------------------------------------------------- 

 iter      E             dE          RMSdq      gap      omega  full diag
   1   -138.2068945 -0.138207E+03  0.531E-01    1.47       0.0  T
   2   -138.1924520  0.144424E-01  0.787E-01    2.19       1.0  T
   3   -138.2355729 -0.431209E-01  0.438E-01    1.94       1.0  T
   4   -138.2408711 -0.529825E-02  0.283E-01    2.03       1.0  T
   5   -138.2402387  0.632470E-03  0.211E-01    2.11       1.0  T
   6   -138.2413733 -0.113462E-02  0.107E-01    2.07       1.0  T
   7   -138.2417145 -0.341184E-03  0.610E-02    2.07       1.0  T
   8   -138.2417439 -0.294067E-04  0.495E-02    2.08       1.0  T
   9   -138.2418791 -0.135211E-03  0.208E-02    2.07       1.0  T
  10   -138.2418873 -0.822880E-05  0.105E-02    2.07       1.0  T
  11   -138.2418906 -0.330723E-05  0.712E-03    2.07       1.5  T
  12   -138.2418910 -0.357879E-06  0.548E-03    2.07       1.9  T
  13   -138.2418926 -0.165003E-05  0.249E-03    2.06       4.2  T
  14   -138.2418927 -0.334769E-07  0.175E-03    2.06       6.0  T
  15   -138.2418927 -0.136934E-07  0.139E-03    2.06       7.5  T
  16   -138.2418928 -0.957637E-07  0.725E-04    2.06      14.5  T
  17   -138.2418928  0.750816E-09  0.598E-04    2.06      17.5  T
     SCC iter.                  ...        0 min,  0.203 sec
     gradient                   ...        0 min,  0.018 sec
------------------------------------------------------------------------
empirical IP shift (eV):    4.8455
delta SCC IP (eV):    5.9301
------------------------------------------------------------------------
           ------------------------------------------------- 
          |        vertical delta SCC EA calculation        |
           ------------------------------------------------- 

 iter      E             dE          RMSdq      gap      omega  full diag
   1   -138.7226456 -0.138723E+03  0.844E-01    0.38       0.0  T
   2   -138.6706741  0.519715E-01  0.154E+00    0.27       1.0  T
   3   -138.7912885 -0.120614E+00  0.790E-01    0.11       1.0  T
   4   -138.8255040 -0.342155E-01  0.494E-01    0.07       1.0  T
   5   -138.7617915  0.637125E-01  0.844E-01    0.24       1.0  T
   6   -138.8033752 -0.415836E-01  0.489E-01    0.34       1.0  T
   7   -138.8173584 -0.139832E-01  0.389E-01    0.15       1.0  T
   8   -138.8336757 -0.163173E-01  0.218E-01    0.05       1.0  T
   9   -138.8348703 -0.119460E-02  0.159E-01    0.06       1.0  T
  10   -138.8368708 -0.200055E-02  0.108E-01    0.04       1.0  T
  11   -138.8381751 -0.130429E-02  0.437E-02    0.04       1.0  T
  12   -138.8381234  0.517005E-04  0.389E-02    0.04       1.0  T
  13   -138.8383120 -0.188616E-03  0.231E-02    0.04       1.0  T
  14   -138.8383758 -0.637999E-04  0.105E-02    0.04       1.0  T
  15   -138.8383656  0.102336E-04  0.120E-02    0.04       1.0  T
  16   -138.8383850 -0.193594E-04  0.512E-03    0.04       2.0  T
  17   -138.8383834  0.160711E-05  0.526E-03    0.04       2.0  T
  18   -138.8383863 -0.293260E-05  0.191E-03    0.04       5.5  T
  19   -138.8383866 -0.354693E-06  0.909E-04    0.04      11.5  T
  20   -138.8383867 -0.263888E-07  0.644E-04    0.04      16.3  T
     SCC iter.                  ...        0 min,  0.154 sec
     gradient                   ...        0 min,  0.018 sec
------------------------------------------------------------------------
empirical EA shift (eV):    4.8455
delta SCC EA (eV):    0.6103
------------------------------------------------------------------------

------------------------------------------------------------------------
Calculation of global electrophilicity index (IP+EA)²/(8·(IP-EA))
Global electrophilicity index (eV):    1.0051
------------------------------------------------------------------------
           -------------------------------------------------
          |                Property Printout                |
           -------------------------------------------------

    * Orbital Energies and Occupations

         #    Occupation            Energy/Eh            Energy/eV
      -------------------------------------------------------------
         1        2.0000           -0.7922438             -21.5580
       ...           ...                  ...                  ...
       115        2.0000           -0.2792990              -7.6001
       116        2.0000           -0.2787963              -7.5864
       117        2.0000           -0.2760549              -7.5118
       118        2.0000           -0.2692994              -7.3280
       119        2.0000           -0.2615829              -7.1180
       120        2.0000           -0.2568051              -6.9880
       121        2.0000           -0.2457879              -6.6882
       122        2.0000           -0.2411841              -6.5630
       123        2.0000           -0.2391438              -6.5074
       124        2.0000           -0.2374826              -6.4622
       125        2.0000           -0.2215695              -6.0292
       126        2.0000           -0.2148458              -5.8463
       127        0.6899           -0.1378128              -3.7501 (HOMO)
       128        0.3100           -0.1362926              -3.7087 (LUMO)
       129        0.0001           -0.1281156              -3.4862
       130        0.0000           -0.1251804              -3.4063
       131        0.0000           -0.1244731              -3.3871
       132        0.0000           -0.1225022              -3.3335
       133                         -0.1216412              -3.3100
       134                         -0.0728659              -1.9828
       135                         -0.0652527              -1.7756
       136                         -0.0599481              -1.6313
       137                         -0.0554696              -1.5094
       138                         -0.0412704              -1.1230
       ...                                ...                  ...
       244                          7.1636795             194.9336
      -------------------------------------------------------------
                  HL-Gap            0.0015202 Eh            0.0414 eV
             Fermi-level           -0.1566911 Eh           -4.2638 eV

     #   Z          covCN         q      C6AA      α(0)
     1  26 Fe      10.346     1.654   106.878    18.231
     2   6 C        2.736     0.372    20.690     7.447
     3  46 Pd       5.050    -0.384   386.806    35.919
     4   6 C        3.851    -0.037    21.193     6.548
     5   1 H        0.927     0.025     2.657     2.549
     6   1 H        0.927     0.067     2.119     2.276
     7   1 H        0.927     0.087     1.908     2.160
     8   6 C        2.677     0.385    20.486     7.407
     9   8 O        0.856    -0.528    24.418     6.625
    10   6 C        4.102    -0.124    22.778     6.779
    11   8 O        0.863    -0.557    25.089     6.716
    12   6 C        3.944    -0.151    23.330     6.864
    13   6 C        3.916    -0.172    23.768     6.929
    14   6 C        3.887    -0.175    23.845     6.942
    15   1 H        0.927     0.074     2.038     2.233
    16   1 H        0.930     0.094     1.842     2.122
    17   1 H        0.927     0.035     2.522     2.483
    18   1 H        1.707     0.159     1.325     1.797
    19   6 C        3.796    -0.192    24.275     7.016
    20   6 C        3.878     0.045    19.769     6.322
    21   8 O        1.517    -0.452    22.003     6.326
    22   6 C        3.898    -0.112    22.579     6.755
    23   6 C        3.911    -0.157    23.461     6.885
    24   6 C        3.915    -0.169    23.711     6.921
    25   6 C        3.919    -0.139    23.109     6.832
    26   6 C        4.053    -0.161    23.518     6.889
    27   1 H        0.927     0.085     1.924     2.169
    28   7 N        2.674    -0.249    26.490     7.644
    29   1 H        0.924     0.012     2.861     2.645
    30   1 H        0.925     0.039     2.463     2.454
    31   1 H        0.923     0.021     2.720     2.579
    32  15 P        4.218     0.227   150.551    22.041
    33   8 O        0.808    -0.445    22.626     6.376
    34   6 C        2.921    -0.044    29.084     8.844
    35   6 C        3.001    -0.038    28.930     8.823
    36   6 C        2.919    -0.040    28.995     8.830
    37   6 C        2.921    -0.055    29.371     8.887
    38   6 C        2.919    -0.042    29.055     8.839
    39   6 C        3.003    -0.049    29.194     8.863
    40   6 C        2.920    -0.030    28.754     8.793
    41   6 C        2.977    -0.043    29.071     8.844
    42   6 C        2.920    -0.038    28.955     8.824
    43   6 C        2.921    -0.048    29.203     8.862
    44   6 C        2.919    -0.040    28.982     8.828
    45   6 C        3.014    -0.031    28.762     8.797
    46   1 H        0.926     0.037     2.484     2.465
    47   1 H        0.926     0.009     2.905     2.665
    48   1 H        0.926     0.000     3.055     2.733
    49   1 H        0.926     0.004     2.989     2.703
    50   1 H        0.926     0.021     2.713     2.576
    51   1 H        0.926     0.040     2.454     2.450
    52   1 H        0.926     0.011     2.873     2.651
    53   1 H        0.926     0.004     2.984     2.701
    54   1 H        0.926     0.009     2.911     2.668
    55   1 H        0.925     0.028     2.618     2.530
    56   7 N        3.482    -0.052    22.231     7.003
    57   6 C        3.719    -0.039    21.389     6.606
    58   6 C        3.808    -0.028    21.066     6.534
    59   1 H        0.924     0.013     2.834     2.633
    60   1 H        0.925     0.043     2.405     2.425
    61   1 H        0.925     0.076     2.020     2.223
    62   1 H        0.923     0.007     2.947     2.685
    63   1 H        0.924     0.078     2.003     2.213
    64   1 H        0.924     0.080     1.980     2.200
    65   6 C        3.851    -0.013    20.772     6.482
    66   6 C        3.755    -0.100    22.463     6.758
    67   6 C        3.801    -0.054    21.535     6.607
    68   6 C        3.751    -0.090    22.274     6.731
    69   1 H        0.925     0.023     2.684     2.562
    70   1 H        0.925     0.020     2.733     2.585
    71   1 H        0.925     0.047     2.354     2.399
    72   1 H        0.921     0.106     1.730     2.057
    73   1 H        0.924     0.015     2.807     2.620
    74   1 H        0.924     0.042     2.426     2.436
    75   1 H        0.925     0.016     2.795     2.614
    76   1 H        0.924     0.018     2.761     2.598
    77   1 H        0.925     0.056     2.242     2.341
    78   8 O        1.705    -0.325    19.430     5.951
    79   6 C        3.757    -0.113    22.718     6.796
    80   6 C        3.786     0.161    18.026     6.047
    81   6 C        3.756    -0.123    22.919     6.826
    82   6 C        3.755    -0.123    22.913     6.825
    83   1 H        0.925     0.043     2.409     2.427
    84   1 H        0.925     0.048     2.349     2.397
    85   1 H        0.925     0.034     2.532     2.489
    86   1 H        0.925     0.039     2.468     2.457
    87   1 H        0.925     0.031     2.576     2.510
    88   1 H        0.925     0.076     2.025     2.225
    89   1 H        0.925     0.035     2.518     2.481
    90   1 H        0.925     0.030     2.579     2.512
    91   1 H        0.925     0.079     1.985     2.203

 Mol. C6AA /au·bohr⁶  :     104244.046906
 Mol. C8AA /au·bohr⁸  :    2980978.803731
 Mol. α(0) /au        :        501.517169


Wiberg/Mayer (AO) data.
largest (>0.10) Wiberg bond orders for each atom

 ---------------------------------------------------------------------------
     #   Z sym  total        # sym  WBO       # sym  WBO       # sym  WBO
 ---------------------------------------------------------------------------
     1  26 Fe  -0.195 --    14 C    0.173    10 C    0.171    12 C    0.159
                            26 C    0.153    24 C    0.147    13 C    0.128
                            25 C    0.116    23 C    0.107
     2   6 C    3.936 --     9 O    1.609    21 O    1.362    20 C    0.875
     3  46 Pd   3.821 --    19 C    0.843    28 N    0.584    18 H    0.474
                            21 O    0.443    56 N    0.376    22 C    0.180
                            23 C    0.153    10 C    0.122    12 C    0.103
     4   6 C    3.971 --    10 C    1.009    56 N    0.974    30 H    0.970
                            31 H    0.960
     5   1 H    0.999 --    24 C    0.985
     6   1 H    0.992 --    23 C    0.948
     7   1 H    0.989 --    22 C    0.946
     8   6 C    3.934 --    28 N    1.404    11 O    1.370    78 O    1.039
     9   8 O    1.920 --     2 C    1.609    21 O    0.201
    10   6 C    3.946 --    14 C    1.284    19 C    1.214     4 C    1.009
                             1 Fe   0.171     3 Pd   0.122
    11   8 O    1.920 --     8 C    1.370    28 N    0.171
    12   6 C    3.962 --    13 C    1.354    19 C    1.181    15 H    0.973
                             1 Fe   0.159     3 Pd   0.103
    13   6 C    3.945 --    12 C    1.354    14 C    1.295    16 H    0.954
                             1 Fe   0.128
    14   6 C    3.956 --    13 C    1.295    10 C    1.284    17 H    0.982
                             1 Fe   0.173
    15   1 H    0.993 --    12 C    0.973
    16   1 H    0.988 --    13 C    0.954
    17   1 H    0.997 --    14 C    0.982
    18   1 H    0.973 --     3 Pd   0.474    22 C    0.107
    19   6 C    3.640 --    10 C    1.214    12 C    1.181     3 Pd   0.843
    20   6 C    3.971 --    28 N    0.981    29 H    0.957    65 C    0.957
                             2 C    0.875
    21   8 O    2.153 --     2 C    1.362     3 Pd   0.443     9 O    0.201
    22   6 C    3.958 --    26 C    1.278    23 C    1.272     7 H    0.946
                             3 Pd   0.180    18 H    0.107
    23   6 C    3.964 --    24 C    1.320    22 C    1.272     6 H    0.948
                             3 Pd   0.153     1 Fe   0.107
    24   6 C    3.961 --    23 C    1.320    25 C    1.267     5 H    0.985
                             1 Fe   0.147
    25   6 C    3.938 --    26 C    1.293    24 C    1.267    32 P    0.982
                             1 Fe   0.116
    26   6 C    3.956 --    25 C    1.293    22 C    1.278    27 H    0.976
                             1 Fe   0.153
    27   1 H    0.991 --    26 C    0.976
    28   7 N    3.365 --     8 C    1.404    20 C    0.981     3 Pd   0.584
                            11 O    0.171
    29   1 H    0.997 --    20 C    0.957
    30   1 H    0.997 --     4 C    0.970
    31   1 H    0.996 --     4 C    0.960
    32  15 P    5.051 --    33 O    1.974    25 C    0.982    34 C    0.946
                            40 C    0.927
    33   8 O    2.171 --    32 P    1.974
    34   6 C    3.904 --    35 C    1.354    39 C    1.338    32 P    0.946
    35   6 C    3.958 --    36 C    1.470    34 C    1.354    46 H    0.962
    36   6 C    3.967 --    35 C    1.470    37 C    1.394    47 H    0.971
    37   6 C    3.876 --    36 C    1.394    38 C    1.385    48 H    0.973
    38   6 C    3.975 --    39 C    1.483    37 C    1.385    49 H    0.972
    39   6 C    3.959 --    38 C    1.483    34 C    1.338    50 H    0.965
    40   6 C    3.935 --    45 C    1.371    41 C    1.370    32 P    0.927
    41   6 C    3.962 --    42 C    1.459    40 C    1.370    51 H    0.962
    42   6 C    3.981 --    41 C    1.459    43 C    1.415    52 H    0.971
                            45 C    0.104
    43   6 C    3.911 --    42 C    1.415    44 C    1.396    53 H    0.973
    44   6 C    3.969 --    45 C    1.469    43 C    1.396    54 H    0.971
    45   6 C    3.977 --    44 C    1.469    40 C    1.371    55 H    0.961
                            42 C    0.104
    46   1 H    0.998 --    35 C    0.962
    47   1 H    0.999 --    36 C    0.971
    48   1 H    0.999 --    37 C    0.973
    49   1 H    0.999 --    38 C    0.972
    50   1 H    0.998 --    39 C    0.965
    51   1 H    0.997 --    41 C    0.962
    52   1 H    0.999 --    42 C    0.971
    53   1 H    0.999 --    43 C    0.973
    54   1 H    0.999 --    44 C    0.971
    55   1 H    0.999 --    45 C    0.961
    56   7 N    3.431 --    57 C    0.999    58 C    0.994     4 C    0.974
                             3 Pd   0.376
    57   6 C    3.979 --    56 N    0.999    59 H    0.974    60 H    0.972
                            61 H    0.968
    58   6 C    3.978 --    56 N    0.994    62 H    0.970    64 H    0.956
                            63 H    0.947
    59   1 H    0.997 --    57 C    0.974
    60   1 H    0.997 --    57 C    0.972
    61   1 H    0.993 --    57 C    0.968
    62   1 H    0.999 --    58 C    0.970
    63   1 H    0.992 --    58 C    0.947
    64   1 H    0.992 --    58 C    0.956
    65   6 C    3.984 --    66 C    1.007    67 C    0.995    20 C    0.957
                            72 H    0.867
    66   6 C    3.997 --    65 C    1.007    69 H    0.987    70 H    0.986
                            71 H    0.980
    67   6 C    3.996 --    68 C    1.019    65 C    0.995    73 H    0.978
                            74 H    0.975
    68   6 C    3.996 --    67 C    1.019    75 H    0.988    76 H    0.984
                            77 H    0.975
    69   1 H    0.999 --    66 C    0.987
    70   1 H    0.999 --    66 C    0.986
    71   1 H    0.997 --    66 C    0.980
    72   1 H    0.988 --    65 C    0.867
    73   1 H    0.999 --    67 C    0.978
    74   1 H    0.998 --    67 C    0.975
    75   1 H    0.999 --    68 C    0.988
    76   1 H    0.999 --    68 C    0.984
    77   1 H    0.996 --    68 C    0.975
    78   8 O    2.210 --     8 C    1.039    80 C    0.922
    79   6 C    3.995 --    80 C    0.994    85 H    0.986    83 H    0.986
                            84 H    0.985
    80   6 C    3.932 --    81 C    0.994    79 C    0.994    82 C    0.994
                            78 O    0.922
    81   6 C    3.992 --    80 C    0.994    86 H    0.986    87 H    0.986
                            88 H    0.975
    82   6 C    3.992 --    80 C    0.994    89 H    0.986    90 H    0.986
                            91 H    0.975
    83   1 H    0.998 --    79 C    0.986
    84   1 H    0.998 --    79 C    0.985
    85   1 H    0.998 --    79 C    0.986
    86   1 H    0.999 --    81 C    0.986
    87   1 H    0.999 --    81 C    0.986
    88   1 H    0.994 --    81 C    0.975
    89   1 H    0.999 --    82 C    0.986
    90   1 H    0.999 --    82 C    0.986
    91   1 H    0.993 --    82 C    0.975
 ---------------------------------------------------------------------------

Topologies differ in total number of bonds
Writing topology from bond orders to xtbtopo.mol

molecular dipole:
                 x           y           z       tot (Debye)
 q only:        1.034      -2.125      -1.024
   full:       -0.203      -2.669      -0.125       6.810
molecular quadrupole (traceless):
                xx          xy          yy          xz          yz          zz
 q only:      -69.766       6.823      46.377      31.980      -9.576      23.389
  q+dip:      -61.120       4.475      46.125      32.413     -14.700      14.994
   full:      -65.594       3.541      49.468      32.563     -12.202      16.125


           -------------------------------------------------
          | TOTAL ENERGY             -136.882525351892 Eh   |
          | GRADIENT NORM               0.075255216554 Eh/α |
          | HOMO-LUMO GAP               0.041366883608 eV   |
           -------------------------------------------------
########################################################################
[WARNING] Runtime exception occurred
-1- restart_readRestart: Multiplicity missmatch in restart file.
########################################################################

------------------------------------------------------------------------
 * finished run on 2024/10/15 at 00:00:04.217     
------------------------------------------------------------------------
 total:
 * wall-time:     0 d,  0 h,  0 min,  0.787 sec
 *  cpu-time:     0 d,  0 h,  0 min,  8.980 sec
 * ratio c/w:    11.412 speedup
 SCF:
 * wall-time:     0 d,  0 h,  0 min,  0.574 sec
 *  cpu-time:     0 d,  0 h,  0 min,  6.843 sec
 * ratio c/w:    11.913 speedup

