%chk=1-modopt.chk
#p opt=(modredundant,nomicro) external='./xtb.sh'

Generate automatically by rxnb

0 1
Fe          -3.781280        3.986180        1.731990
C           -3.261210       -1.313180       -2.498380
Pd          -3.982020        0.935080       -0.930440
C           -6.185030        2.356930        0.288080
H           -4.914550        5.689410        3.699090
H           -5.531940        3.052260        3.754630
H           -3.266040        1.655300        3.222190
C           -1.287400        0.599160        0.000060
O           -3.263220       -2.108110       -3.415440
C           -5.045730        3.321050        0.300050
O           -1.566080        1.553600        0.795530
C           -2.906640        4.045620       -0.154560
C           -3.727830        5.192700        0.041480
C           -5.060950        4.746560        0.290640
H           -1.830650        4.054270       -0.317160
H           -3.394010        6.229070        0.027190
H           -5.929660        5.378450        0.470730
H           -2.780290        1.980540        0.495200
C           -3.700300        2.854950        0.008340
C           -2.010890       -1.115690       -1.614200
O           -4.327890       -0.631730       -2.134340
C           -2.287380        3.671410        3.115240
C           -2.822820        4.986330        3.268530
C           -4.217820        4.866080        3.551420
C           -4.543360        3.474120        3.580170
C           -3.350500        2.736630        3.310980
H           -1.263770        3.417070        2.851070
N           -2.162660        0.130460       -0.862720
H           -1.130160       -1.060570       -2.274110
H           -6.145890        1.680110        1.153550
H           -7.168490        2.860860        0.289160
H           -2.281180        5.902550        3.158800
N           -6.038120        1.519670       -0.911210
C           -6.382980        2.095980       -2.158990
C           -6.383470        0.141500       -0.747920
H           -7.121300        1.497470       -2.753770
H           -6.740460        3.150780       -2.020500
H           -5.476200        2.190020       -2.811070
H           -7.412630        0.075830       -0.332670
H           -6.245850       -0.468870       -1.642070
H           -5.722360       -0.267080        0.071750
C           -1.849050       -2.323180       -0.705260
C           -1.250870       -1.795780        0.518700
C           -1.045240       -3.218640       -1.545580
C           -1.835950       -3.715770       -2.727790
H           -0.868100       -0.819680        0.317910
H           -0.497240       -2.502040        0.960320
H           -2.027670       -1.661240        1.338930
H           -2.908450       -2.355320       -0.793890
H           -0.460250       -3.997720       -1.051930
H           -0.295340       -2.467510       -1.956370
H           -1.457140       -3.399560       -3.701690
H           -1.833080       -4.838120       -2.732450
H           -2.909700       -3.398980       -2.659430
O            0.000000        0.000000        0.000000
C            2.368720       -0.000000       -0.000000
C            1.126420        0.841020        0.000000
C            1.004410        1.759090       -1.163780
C            1.122290        1.643780        1.293210
H            2.100510       -0.970940        0.502060
H            2.786720       -0.181780       -0.998560
H            3.150810        0.449130        0.668740
H            1.450060        1.401060       -2.097950
H            1.371780        2.797030       -0.929300
H           -0.092540        1.910070       -1.392230
H            0.273330        1.327120        1.939480
H            2.042180        1.476920        1.891450
H            1.103450        2.725340        1.054360

B 11 18 F
B 18 19 F
B 3 19 F
B 3 33 F
B 3 28 F
B 3 21 F

