%chk=3-tsopt.chk
#p opt(ts,calcfc,noeigen,nomicro) external='./xtb.sh'

Generate automatically by rxnb

0 1
Fe          -2.183530       -0.337260        0.898510
C            0.900270       -1.514540       -2.033660
Pd          -0.469340        0.479420       -0.719110
C           -2.901180        2.108930       -0.287790
H           -4.275220       -1.467550        2.058790
H           -4.607710       -0.353330       -0.300190
H           -2.476600       -1.061730       -1.841740
C            2.074680        0.856830        0.234000
O            1.044440       -2.519890       -2.708150
C           -2.309080        1.598600        0.972760
O            1.565510        1.970030        0.598420
C           -0.966540        0.356440        2.278670
C           -2.275130        0.198800        2.756280
C           -3.117640        0.975840        1.946800
H           -0.118060       -0.106540        2.729140
H           -2.583160       -0.481020        3.516290
H           -4.184070        0.980630        1.972130
H            0.287580        1.784360        0.879860
C           -0.937070        1.300810        1.218190
C            1.750350       -1.353560       -0.726420
O            0.111010       -0.556250       -2.336040
C           -1.777610       -2.049720       -0.015670
C           -2.377720       -2.235850        1.240400
C           -3.616280       -1.572460        1.229010
C           -3.773320       -0.960280       -0.028950
C           -2.642150       -1.257770       -0.804130
H           -0.887920       -2.509640       -0.384490
N            1.315970       -0.141940       -0.095700
H            2.796220       -1.262840       -1.048180
H           -3.873320        1.621240       -0.358040
H           -3.055800        3.196830       -0.301080
H           -1.943890       -2.697850        2.096770
N           -2.078780        1.690990       -1.434290
C           -1.156800        2.765090       -1.830690
C           -2.908410        1.344100       -2.579090
H           -1.710880        3.623310       -2.242080
H           -0.581180        3.110090       -0.965920
H           -0.470600        2.391340       -2.601860
H           -3.403660        2.231210       -2.996630
H           -2.284750        0.894600       -3.352170
H           -3.672300        0.630800       -2.281380
C            1.605290       -2.567720        0.227160
C            0.848130       -2.177130        1.504420
C            2.978650       -3.148160        0.587880
C            3.601810       -3.921920       -0.567310
H            1.516150       -1.610920        2.151100
H            0.542900       -3.075380        2.036610
H           -0.035650       -1.566060        1.287240
H            1.054490       -3.349700       -0.306990
H            2.864770       -3.819210        1.443480
H            3.639820       -2.332600        0.891440
H            4.611430       -4.241540       -0.316780
H            3.005660       -4.802340       -0.795200
H            3.641340       -3.311830       -1.465560
O            3.396940        0.641180        0.242960
C            5.697670        1.012400        0.417840
C            4.332040        1.680330        0.590010
C            4.194300        2.865040       -0.366650
C            4.131730        2.115760        2.042370
H            5.775570        0.150800        1.075810
H            5.819100        0.673070       -0.607510
H            6.489790        1.715790        0.656690
H            4.286960        2.523410       -1.395670
H            4.974760        3.593320       -0.164470
H            3.225310        3.340040       -0.238080
H            4.192840        1.251730        2.700820
H            4.903980        2.827370        2.320750
H            3.158130        2.582500        2.164560


