%chk=4-tsfreq.chk
#p freq external='./xtb.sh'

Generate automatically by rxnb

0 1
Fe          -2.371340        0.048880       -0.960270
C            1.280880        1.683660        1.911920
Pd          -0.405690       -0.328700        0.738080
C           -2.951600       -1.866510        0.986400
H           -3.505470        1.426410       -2.939360
H           -5.018640        0.464710       -0.976510
H           -3.770770        0.893150        1.304220
C            2.235110       -0.824130       -0.240670
O            1.874370        2.456050        2.645160
C           -2.431560       -1.802180       -0.404940
O            1.750430       -2.031620       -0.529310
C           -1.119690       -0.981020       -2.055430
C           -2.434590       -1.066710       -2.549060
C           -3.253980       -1.576300       -1.526600
H           -0.302370       -0.615160       -2.639730
H           -2.767800       -0.721960       -3.501200
H           -4.315370       -1.675620       -1.564240
H            0.731430       -1.956310       -0.499330
C           -1.074330       -1.477820       -0.722280
C            1.856440        1.433350        0.463010
O            0.232030        1.044380        2.210400
C           -2.138600        1.747140        0.068740
C           -2.091990        1.952700       -1.332120
C           -3.284990        1.475600       -1.898060
C           -4.080070        0.957690       -0.860490
C           -3.376240        1.125730        0.342640
H           -1.454510        2.124700        0.806090
N            1.429540        0.113710        0.077660
H            2.950480        1.480520        0.516840
H           -3.807120       -1.191960        1.005750
H           -3.284030       -2.865970        1.302960
H           -1.329240        2.443200       -1.885240
N           -1.894630       -1.365120        1.875760
C           -1.036540       -2.479650        2.301310
C           -2.393200       -0.701400        3.069810
H           -1.572210       -3.128100        3.011950
H           -0.747810       -3.083250        1.438030
H           -0.138590       -2.089750        2.796890
H           -2.959170       -1.392840        3.709280
H           -1.547800       -0.302040        3.630710
H           -3.031530        0.134200        2.803660
C            1.339340        2.473730       -0.563870
C            0.986150        1.772580       -1.880820
C            2.374840        3.577190       -0.805800
C            2.511040        4.532830        0.372880
H            1.849110        1.226200       -2.258610
H            0.705600        2.508220       -2.632730
H            0.149490        1.084150       -1.715110
H            0.429030        2.938740       -0.171700
H            2.077280        4.145910       -1.691810
H            3.342400        3.117280       -1.022960
H            3.326500        5.232780        0.203700
H            1.592520        5.101090        0.504920
H            2.700610        3.985450        1.292100
O            3.537850       -0.603300       -0.337410
C            5.839010       -0.917150       -0.556730
C            4.496340       -1.645750       -0.630260
C            4.429990       -2.745980        0.427950
C            4.269120       -2.202990       -2.035320
H            5.865320       -0.112090       -1.286130
H            5.974650       -0.488310        0.432400
H            6.651250       -1.608230       -0.760060
H            4.504730       -2.308260        1.421190
H            5.256570       -3.436410        0.286400
H            3.496960       -3.297860        0.353600
H            4.258400       -1.391180       -2.759400
H            5.074640       -2.886590       -2.287690
H            3.324950       -2.737330       -2.091560


