68
charge 0 multiplicity 1
Fe          -2.18353  -0.33726   0.89851
C            0.90027  -1.51454  -2.03366
Pd          -0.46934   0.47942  -0.71911
C           -2.90118   2.10893  -0.28779
H           -4.27522  -1.46755   2.05879
H           -4.60771  -0.35333  -0.30019
H           -2.47660  -1.06173  -1.84174
C            2.07468   0.85683   0.23400
O            1.04444  -2.51989  -2.70815
C           -2.30908   1.59860   0.97276
O            1.56551   1.97003   0.59842
C           -0.96654   0.35644   2.27867
C           -2.27513   0.19880   2.75628
C           -3.11764   0.97584   1.94680
H           -0.11806  -0.10654   2.72914
H           -2.58316  -0.48102   3.51629
H           -4.18407   0.98063   1.97213
H            0.28758   1.78436   0.87986
C           -0.93707   1.30081   1.21819
C            1.75035  -1.35356  -0.72642
O            0.11101  -0.55625  -2.33604
C           -1.77761  -2.04972  -0.01567
C           -2.37772  -2.23585   1.24040
C           -3.61628  -1.57246   1.22901
C           -3.77332  -0.96028  -0.02895
C           -2.64215  -1.25777  -0.80413
H           -0.88792  -2.50964  -0.38449
N            1.31597  -0.14194  -0.09570
H            2.79622  -1.26284  -1.04818
H           -3.87332   1.62124  -0.35804
H           -3.05580   3.19683  -0.30108
H           -1.94389  -2.69785   2.09677
N           -2.07878   1.69099  -1.43429
C           -1.15680   2.76509  -1.83069
C           -2.90841   1.34410  -2.57909
H           -1.71088   3.62331  -2.24208
H           -0.58118   3.11009  -0.96592
H           -0.47060   2.39134  -2.60186
H           -3.40366   2.23121  -2.99663
H           -2.28475   0.89460  -3.35217
H           -3.67230   0.63080  -2.28138
C            1.60529  -2.56772   0.22716
C            0.84813  -2.17713   1.50442
C            2.97865  -3.14816   0.58788
C            3.60181  -3.92192  -0.56731
H            1.51615  -1.61092   2.15110
H            0.54290  -3.07538   2.03661
H           -0.03565  -1.56606   1.28724
H            1.05449  -3.34970  -0.30699
H            2.86477  -3.81921   1.44348
H            3.63982  -2.33260   0.89144
H            4.61143  -4.24154  -0.31678
H            3.00566  -4.80234  -0.79520
H            3.64134  -3.31183  -1.46556
O            3.39694   0.64118   0.24296
C            5.69767   1.01240   0.41784
C            4.33204   1.68033   0.59001
C            4.19430   2.86504  -0.36665
C            4.13173   2.11576   2.04237
H            5.77557   0.15080   1.07581
H            5.81910   0.67307  -0.60751
H            6.48979   1.71579   0.65669
H            4.28696   2.52341  -1.39567
H            4.97476   3.59332  -0.16447
H            3.22531   3.34004  -0.23808
H            4.19284   1.25173   2.70082
H            4.90398   2.82737   2.32075
H            3.15813   2.58250   2.16456