%chk=rp_1_1.chk
%mem=300GB
%nprocshared=68
#p opt=(calcfc,ts,noeigen,maxstep=5) freq b3lyp def2svp em=gd3bj  

Freeze index  [11, 18]  [18, 19]  [3, 19]  [3, 33]  [3, 28]  [3, 21] // Local index  3  18  20  33  (20,)  [11, 18]  [18, 19]

0 1
Fe          -3.78128   3.98618   1.73199
C           -3.26121  -1.31318  -2.49838
Pd          -3.98202   0.93508  -0.93044
C           -6.18503   2.35693   0.28808
H           -4.91455   5.68941   3.69909
H           -5.53194   3.05226   3.75463
H           -3.26604   1.65530   3.22219
C           -1.28740   0.59916   0.00006
O           -3.26322  -2.10811  -3.41544
C           -5.04573   3.32105   0.30005
O           -1.56608   1.55360   0.79553
C           -2.90664   4.04562  -0.15456
C           -3.72783   5.19270   0.04148
C           -5.06095   4.74656   0.29064
H           -1.83065   4.05427  -0.31716
H           -3.39401   6.22907   0.02719
H           -5.92966   5.37845   0.47073
H           -2.78029   1.98054   0.49520
C           -3.70030   2.85495   0.00834
C           -2.01089  -1.11569  -1.61420
O           -4.32789  -0.63173  -2.13434
C           -2.28738   3.67141   3.11524
C           -2.82282   4.98633   3.26853
C           -4.21782   4.86608   3.55142
C           -4.54336   3.47412   3.58017
C           -3.35050   2.73663   3.31098
H           -1.26377   3.41707   2.85107
N           -2.16266   0.13046  -0.86272
H           -1.13016  -1.06057  -2.27411
H           -6.14589   1.68011   1.15355
H           -7.16849   2.86086   0.28916
H           -2.28118   5.90255   3.15880
N           -6.03812   1.51967  -0.91121
C           -6.38298   2.09598  -2.15899
C           -6.38347   0.14150  -0.74792
H           -7.12130   1.49747  -2.75377
H           -6.74046   3.15078  -2.02050
H           -5.47620   2.19002  -2.81107
H           -7.41263   0.07583  -0.33267
H           -6.24585  -0.46887  -1.64207
H           -5.72236  -0.26708   0.07175
C           -1.84905  -2.32318  -0.70526
C           -1.25087  -1.79578   0.51870
C           -1.04524  -3.21864  -1.54558
C           -1.83595  -3.71577  -2.72779
H           -0.86810  -0.81968   0.31791
H           -0.49724  -2.50204   0.96032
H           -2.02767  -1.66124   1.33893
H           -2.90845  -2.35532  -0.79389
H           -0.46025  -3.99772  -1.05193
H           -0.29534  -2.46751  -1.95637
H           -1.45714  -3.39956  -3.70169
H           -1.83308  -4.83812  -2.73245
H           -2.90970  -3.39898  -2.65943
O            0.00000   0.00000   0.00000
C            2.36872  -0.00000  -0.00000
C            1.12642   0.84102   0.00000
C            1.00441   1.75909  -1.16378
C            1.12229   1.64378   1.29321
H            2.10051  -0.97094   0.50206
H            2.78672  -0.18178  -0.99856
H            3.15081   0.44913   0.66874
H            1.45006   1.40106  -2.09795
H            1.37178   2.79703  -0.92930
H           -0.09254   1.91007  -1.39223
H            0.27333   1.32712   1.93948
H            2.04218   1.47692   1.89145
H            1.10345   2.72534   1.05436



