%chk=1-modopt.chk
#p opt=(modredundant,nomicro) external='./xtb.sh'

Generate automatically by rxnb

0 1
Fe          -3.496970       -0.257020       -4.682380
C            1.731410       -3.558850       -1.851820
Pd          -0.405500       -2.557080       -3.421170
C           -2.432630       -3.243370       -5.365250
H           -6.004770        0.109400       -5.959640
H           -5.668900       -2.046790       -4.354390
H           -4.276240       -1.246600       -2.165910
C           -0.498640       -0.643480       -1.283620
O            2.760470       -4.135870       -1.567230
C           -2.344200       -1.753980       -5.404830
O           -1.520810       -0.187870       -1.891040
C           -1.501990        0.312850       -4.833640
C           -2.143590        0.433250       -6.099500
C           -2.637450       -0.853850       -6.470730
H           -1.066150        1.129530       -4.261520
H           -2.258560        1.350910       -6.674310
H           -3.168880       -1.100710       -7.388890
H           -1.648460       -0.865110       -3.018800
C           -1.616270       -1.044480       -4.365970
C            1.188370       -2.411850       -0.972290
O            0.964060       -3.912040       -2.862350
C           -4.338310        0.784650       -3.116730
C           -4.899200        1.227930       -4.352890
C           -5.509320        0.104560       -4.990320
C           -5.331410       -1.033320       -4.143010
C           -4.608290       -0.612590       -2.985710
H           -3.765710        1.385560       -2.414380
N            0.180160       -1.675650       -1.735310
H            2.031030       -1.750910       -0.712930
H           -3.095560       -3.583750       -4.556960
H           -2.799130       -3.672930       -6.315140
H           -4.844230        2.220700       -4.748210
N           -1.089640       -3.754110       -5.054800
C           -0.126630       -3.739690       -6.094240
C           -1.046520       -4.888540       -4.185030
H            0.363200       -4.730730       -6.281280
H           -0.572130       -3.327870       -7.038440
H            0.707420       -3.033350       -5.845780
H           -1.695910       -5.687550       -4.604310
H           -0.040690       -5.238960       -3.947320
H           -1.557910       -4.584830       -3.224770
C            0.627940       -2.994890        0.314720
C            0.807220       -4.439240        0.452170
C            1.117630       -2.068760        1.329920
H            1.589350       -4.376510       -0.246400
H            1.338990       -4.972340        1.236240
H            0.016160       -5.063410        0.013910
H           -0.401000       -2.816070        0.089240
H            2.154680       -1.982390        1.598510
H            0.651470       -1.074910        1.181340
H            0.719390       -2.505020        2.218630
C            0.000000        0.000000        0.000000
H            1.105930        0.000000       -0.000000
H           -0.354240        1.064200        0.000000
H           -0.408080       -0.541910        0.872790

B 11 18 F
B 18 19 F
B 3 19 F
B 3 33 F
B 3 28 F
B 3 21 F

