%chk=2-modfreq.chk
#p freq external='./xtb.sh'

Generate automatically by rxnb

0 1
Fe           1.398310       -0.992550       -0.334540
C           -2.230230        0.128710        1.842410
Pd          -0.097180        0.889880        0.276070
C            2.754610        1.414430       -0.346880
H            2.987190       -3.109470       -0.434180
H            3.685870       -1.094680        1.104810
H            1.444970       -0.267060        2.417740
C           -2.252990        1.516720       -1.332430
O           -2.893050       -0.278400        2.780670
C            2.110010        0.514040       -1.333470
O           -1.344000        2.138150       -1.991000
C            0.481990       -0.853410       -2.057980
C            1.694420       -1.554030       -2.163580
C            2.715040       -0.706320       -1.705510
H           -0.465560       -1.279200       -2.305670
H            1.797570       -2.582400       -2.422610
H            3.731200       -0.983320       -1.535010
H           -0.231490        1.431160       -1.894690
C            0.728650        0.494100       -1.675330
C           -2.692420       -0.226260        0.372900
O           -1.194700        0.862590        1.954930
C            0.449030       -1.795440        1.214910
C            0.940370       -2.759390        0.320710
C            2.332330       -2.576860        0.215240
C            2.695680       -1.485340        1.028680
C            1.535690       -1.002940        1.650260
H           -0.529040       -1.737390        1.637400
N           -1.914830        0.605240       -0.483660
H           -3.773440       -0.041380        0.316100
H            3.508770        0.792470        0.134950
H            3.248150        2.292380       -0.785830
H            0.365290       -3.440260       -0.264950
N            1.777110        1.836590        0.676640
C            1.205520        3.147910        0.326520
C            2.434090        1.968600        1.971520
H            1.975670        3.933170        0.376870
H            0.799380        3.135100       -0.689530
H            0.406690        3.400450        1.036420
H            3.132400        2.816510        1.979000
H            1.682400        2.131260        2.744250
H            2.994300        1.066150        2.201320
C           -2.379370       -1.670370       -0.092690
C           -2.838430       -2.728880        0.904420
C           -3.037330       -1.924970       -1.451520
H           -3.922260       -2.816920        0.880910
H           -2.407330       -3.696160        0.655860
H           -2.562780       -2.468670        1.921630
H           -1.283660       -1.704860       -0.248570
H           -4.122120       -1.904710       -1.366600
H           -2.734160       -1.171910       -2.176430
H           -2.744950       -2.903390       -1.827570
C           -3.697840        1.840580       -1.631080
H           -4.191740        2.193880       -0.727800
H           -3.737110        2.613030       -2.393530
H           -4.214830        0.951440       -1.985670


