 Entering Gaussian System, Link 0=g16
 Input=2-modfreq.gjf
 Output=2-modfreq.log
 Initial command:
 /home/echo/g16/l1.exe "/home/echo/scratch/Gau-21810.inp" -scrdir="/home/echo/scratch/"
 Entering Link 1 = /home/echo/g16/l1.exe PID=     21812.
  
 Copyright (c) 1988-2019, Gaussian, Inc.  All Rights Reserved.
  
 This is part of the Gaussian(R) 16 program.  It is based on
 the Gaussian(R) 09 system (copyright 2009, Gaussian, Inc.),
 the Gaussian(R) 03 system (copyright 2003, Gaussian, Inc.),
 the Gaussian(R) 98 system (copyright 1998, Gaussian, Inc.),
 the Gaussian(R) 94 system (copyright 1995, Gaussian, Inc.),
 the Gaussian 92(TM) system (copyright 1992, Gaussian, Inc.),
 the Gaussian 90(TM) system (copyright 1990, Gaussian, Inc.),
 the Gaussian 88(TM) system (copyright 1988, Gaussian, Inc.),
 the Gaussian 86(TM) system (copyright 1986, Carnegie Mellon
 University), and the Gaussian 82(TM) system (copyright 1983,
 Carnegie Mellon University). Gaussian is a federally registered
 trademark of Gaussian, Inc.
  
 This software contains proprietary and confidential information,
 including trade secrets, belonging to Gaussian, Inc.
  
 This software is provided under written license and may be
 used, copied, transmitted, or stored only in accord with that
 written license.
  
 The following legend is applicable only to US Government
 contracts under FAR:
  
                    RESTRICTED RIGHTS LEGEND
  
 Use, reproduction and disclosure by the US Government is
 subject to restrictions as set forth in subparagraphs (a)
 and (c) of the Commercial Computer Software - Restricted
 Rights clause in FAR 52.227-19.
  
 Gaussian, Inc.
 340 Quinnipiac St., Bldg. 40, Wallingford CT 06492
  
  
 ---------------------------------------------------------------
 Warning -- This program may not be used in any manner that
 competes with the business of Gaussian, Inc. or will provide
 assistance to any competitor of Gaussian, Inc.  The licensee
 of this program is prohibited from giving any competitor of
 Gaussian, Inc. access to this program.  By using this program,
 the user acknowledges that Gaussian, Inc. is engaged in the
 business of creating and licensing software in the field of
 computational chemistry and represents and warrants to the
 licensee that it is not a competitor of Gaussian, Inc. and that
 it will not use this program in any manner prohibited above.
 ---------------------------------------------------------------
  

 Cite this work as:
 Gaussian 16, Revision C.01,
 M. J. Frisch, G. W. Trucks, H. B. Schlegel, G. E. Scuseria, 
 M. A. Robb, J. R. Cheeseman, G. Scalmani, V. Barone, 
 G. A. Petersson, H. Nakatsuji, X. Li, M. Caricato, A. V. Marenich, 
 J. Bloino, B. G. Janesko, R. Gomperts, B. Mennucci, H. P. Hratchian, 
 J. V. Ortiz, A. F. Izmaylov, J. L. Sonnenberg, D. Williams-Young, 
 F. Ding, F. Lipparini, F. Egidi, J. Goings, B. Peng, A. Petrone, 
 T. Henderson, D. Ranasinghe, V. G. Zakrzewski, J. Gao, N. Rega, 
 G. Zheng, W. Liang, M. Hada, M. Ehara, K. Toyota, R. Fukuda, 
 J. Hasegawa, M. Ishida, T. Nakajima, Y. Honda, O. Kitao, H. Nakai, 
 T. Vreven, K. Throssell, J. A. Montgomery, Jr., J. E. Peralta, 
 F. Ogliaro, M. J. Bearpark, J. J. Heyd, E. N. Brothers, K. N. Kudin, 
 V. N. Staroverov, T. A. Keith, R. Kobayashi, J. Normand, 
 K. Raghavachari, A. P. Rendell, J. C. Burant, S. S. Iyengar, 
 J. Tomasi, M. Cossi, J. M. Millam, M. Klene, C. Adamo, R. Cammi, 
 J. W. Ochterski, R. L. Martin, K. Morokuma, O. Farkas, 
 J. B. Foresman, and D. J. Fox, Gaussian, Inc., Wallingford CT, 2019.
 
 ******************************************
 Gaussian 16:  ES64L-G16RevC.01  3-Jul-2019
                14-Oct-2024 
 ******************************************
 %chk=2-modfreq.chk
 ---------------------------
 #p freq external='./xtb.sh'
 ---------------------------
 1/10=4,18=10,30=1,38=1/1,3;
 2/12=2,17=6,18=5,40=1/2;
 3/11=9,25=1,30=1,41=9900000,43=2,71=2,140=1/1;
 4/20=17,22=2,24=3,113=1,114=1/2;
 6/7=2,8=2,9=2,10=2/1;
 7/8=1,25=1,44=-1/16;
 1/10=4,18=10,30=1/3;
 99//99;
 Leave Link    1 at Mon Oct 14 18:08:53 2024, MaxMem=           0 cpu:               0.0 elap:               0.1
 (Enter /home/echo/g16/l101.exe)
 ------------------------------
 Generate automatically by rxnb
 ------------------------------
 Symbolic Z-matrix:
 Charge =  0 Multiplicity = 1
 Fe                    1.39831  -0.99255  -0.33454 
 C                    -2.23023   0.12871   1.84241 
 Pd                   -0.09718   0.88988   0.27607 
 C                     2.75461   1.41443  -0.34688 
 H                     2.98719  -3.10947  -0.43418 
 H                     3.68587  -1.09468   1.10481 
 H                     1.44497  -0.26706   2.41774 
 C                    -2.25299   1.51672  -1.33243 
 O                    -2.89305  -0.2784    2.78067 
 C                     2.11001   0.51404  -1.33347 
 O                    -1.344     2.13815  -1.991 
 C                     0.48199  -0.85341  -2.05798 
 C                     1.69442  -1.55403  -2.16358 
 C                     2.71504  -0.70632  -1.70551 
 H                    -0.46556  -1.2792   -2.30567 
 H                     1.79757  -2.5824   -2.42261 
 H                     3.7312   -0.98332  -1.53501 
 H                    -0.23149   1.43116  -1.89469 
 C                     0.72865   0.4941   -1.67533 
 C                    -2.69242  -0.22626   0.3729 
 O                    -1.1947    0.86259   1.95493 
 C                     0.44903  -1.79544   1.21491 
 C                     0.94037  -2.75939   0.32071 
 C                     2.33233  -2.57686   0.21524 
 C                     2.69568  -1.48534   1.02868 
 C                     1.53569  -1.00294   1.65026 
 H                    -0.52904  -1.73739   1.6374 
 N                    -1.91483   0.60524  -0.48366 
 H                    -3.77344  -0.04138   0.3161 
 H                     3.50877   0.79247   0.13495 
 H                     3.24815   2.29238  -0.78583 
 H                     0.36529  -3.44026  -0.26495 
 N                     1.77711   1.83659   0.67664 
 C                     1.20552   3.14791   0.32652 
 C                     2.43409   1.9686    1.97152 
 H                     1.97567   3.93317   0.37687 
 H                     0.79938   3.1351   -0.68953 
 H                     0.40669   3.40045   1.03642 
 H                     3.1324    2.81651   1.979 
 H                     1.6824    2.13126   2.74425 
 H                     2.9943    1.06615   2.20132 
 C                    -2.37937  -1.67037  -0.09269 
 C                    -2.83843  -2.72888   0.90442 
 C                    -3.03733  -1.92497  -1.45152 
 H                    -3.92226  -2.81692   0.88091 
 H                    -2.40733  -3.69616   0.65586 
 H                    -2.56278  -2.46867   1.92163 
 H                    -1.28366  -1.70486  -0.24857 
 H                    -4.12212  -1.90471  -1.3666 
 H                    -2.73416  -1.17191  -2.17643 
 H                    -2.74495  -2.90339  -1.82757 
 C                    -3.69784   1.84058  -1.63108 
 H                    -4.19174   2.19388  -0.7278 
 H                    -3.73711   2.61303  -2.39353 
 H                    -4.21483   0.95144  -1.98567 
 
 ITRead=  0  0  0  0  0  0  0  0  0  0  0  0  0  0  0  0  0  0  0  0
 ITRead=  0  0  0  0  0  0  0  0  0  0  0  0  0  0  0  0  0  0  0  0
 ITRead=  0  0  0  0  0  0  0  0  0  0  0  0  0  0  0
 MicOpt= -1 -1 -1 -1 -1 -1 -1 -1 -1 -1 -1 -1 -1 -1 -1 -1 -1 -1 -1 -1
 MicOpt= -1 -1 -1 -1 -1 -1 -1 -1 -1 -1 -1 -1 -1 -1 -1 -1 -1 -1 -1 -1
 MicOpt= -1 -1 -1 -1 -1 -1 -1 -1 -1 -1 -1 -1 -1 -1 -1
 NAtoms=     55 NQM=       55 NQMF=       0 NMMI=      0 NMMIF=      0
                NMic=       0 NMicF=      0.
                    Isotopes and Nuclear Properties:
 (Nuclear quadrupole moments (NQMom) in fm**2, nuclear magnetic moments (NMagM)
  in nuclear magnetons)

  Atom         1           2           3           4           5           6           7           8           9          10
 IAtWgt=          56          12         106          12           1           1           1          12          16          12
 AtmWgt=  55.9349393  12.0000000 105.9032000  12.0000000   1.0078250   1.0078250   1.0078250  12.0000000  15.9949146  12.0000000
 NucSpn=           0           0           0           0           1           1           1           0           0           0
 AtZEff=  -0.0000000  -0.0000000  -0.0000000  -0.0000000  -0.0000000  -0.0000000  -0.0000000  -0.0000000  -0.0000000  -0.0000000
 NQMom=    0.0000000   0.0000000   0.0000000   0.0000000   0.0000000   0.0000000   0.0000000   0.0000000   0.0000000   0.0000000
 NMagM=    0.0000000   0.0000000   0.0000000   0.0000000   2.7928460   2.7928460   2.7928460   0.0000000   0.0000000   0.0000000
 AtZNuc=  26.0000000   6.0000000  46.0000000   6.0000000   1.0000000   1.0000000   1.0000000   6.0000000   8.0000000   6.0000000

  Atom        11          12          13          14          15          16          17          18          19          20
 IAtWgt=          16          12          12          12           1           1           1           1          12          12
 AtmWgt=  15.9949146  12.0000000  12.0000000  12.0000000   1.0078250   1.0078250   1.0078250   1.0078250  12.0000000  12.0000000
 NucSpn=           0           0           0           0           1           1           1           1           0           0
 AtZEff=  -0.0000000  -0.0000000  -0.0000000  -0.0000000  -0.0000000  -0.0000000  -0.0000000  -0.0000000  -0.0000000  -0.0000000
 NQMom=    0.0000000   0.0000000   0.0000000   0.0000000   0.0000000   0.0000000   0.0000000   0.0000000   0.0000000   0.0000000
 NMagM=    0.0000000   0.0000000   0.0000000   0.0000000   2.7928460   2.7928460   2.7928460   2.7928460   0.0000000   0.0000000
 AtZNuc=   8.0000000   6.0000000   6.0000000   6.0000000   1.0000000   1.0000000   1.0000000   1.0000000   6.0000000   6.0000000

  Atom        21          22          23          24          25          26          27          28          29          30
 IAtWgt=          16          12          12          12          12          12           1          14           1           1
 AtmWgt=  15.9949146  12.0000000  12.0000000  12.0000000  12.0000000  12.0000000   1.0078250  14.0030740   1.0078250   1.0078250
 NucSpn=           0           0           0           0           0           0           1           2           1           1
 AtZEff=  -0.0000000  -0.0000000  -0.0000000  -0.0000000  -0.0000000  -0.0000000  -0.0000000  -0.0000000  -0.0000000  -0.0000000
 NQMom=    0.0000000   0.0000000   0.0000000   0.0000000   0.0000000   0.0000000   0.0000000   2.0440000   0.0000000   0.0000000
 NMagM=    0.0000000   0.0000000   0.0000000   0.0000000   0.0000000   0.0000000   2.7928460   0.4037610   2.7928460   2.7928460
 AtZNuc=   8.0000000   6.0000000   6.0000000   6.0000000   6.0000000   6.0000000   1.0000000   7.0000000   1.0000000   1.0000000

  Atom        31          32          33          34          35          36          37          38          39          40
 IAtWgt=           1           1          14          12          12           1           1           1           1           1
 AtmWgt=   1.0078250   1.0078250  14.0030740  12.0000000  12.0000000   1.0078250   1.0078250   1.0078250   1.0078250   1.0078250
 NucSpn=           1           1           2           0           0           1           1           1           1           1
 AtZEff=  -0.0000000  -0.0000000  -0.0000000  -0.0000000  -0.0000000  -0.0000000  -0.0000000  -0.0000000  -0.0000000  -0.0000000
 NQMom=    0.0000000   0.0000000   2.0440000   0.0000000   0.0000000   0.0000000   0.0000000   0.0000000   0.0000000   0.0000000
 NMagM=    2.7928460   2.7928460   0.4037610   0.0000000   0.0000000   2.7928460   2.7928460   2.7928460   2.7928460   2.7928460
 AtZNuc=   1.0000000   1.0000000   7.0000000   6.0000000   6.0000000   1.0000000   1.0000000   1.0000000   1.0000000   1.0000000

  Atom        41          42          43          44          45          46          47          48          49          50
 IAtWgt=           1          12          12          12           1           1           1           1           1           1
 AtmWgt=   1.0078250  12.0000000  12.0000000  12.0000000   1.0078250   1.0078250   1.0078250   1.0078250   1.0078250   1.0078250
 NucSpn=           1           0           0           0           1           1           1           1           1           1
 AtZEff=  -0.0000000  -0.0000000  -0.0000000  -0.0000000  -0.0000000  -0.0000000  -0.0000000  -0.0000000  -0.0000000  -0.0000000
 NQMom=    0.0000000   0.0000000   0.0000000   0.0000000   0.0000000   0.0000000   0.0000000   0.0000000   0.0000000   0.0000000
 NMagM=    2.7928460   0.0000000   0.0000000   0.0000000   2.7928460   2.7928460   2.7928460   2.7928460   2.7928460   2.7928460
 AtZNuc=   1.0000000   6.0000000   6.0000000   6.0000000   1.0000000   1.0000000   1.0000000   1.0000000   1.0000000   1.0000000

  Atom        51          52          53          54          55
 IAtWgt=           1          12           1           1           1
 AtmWgt=   1.0078250  12.0000000   1.0078250   1.0078250   1.0078250
 NucSpn=           1           0           1           1           1
 AtZEff=  -0.0000000  -0.0000000  -0.0000000  -0.0000000  -0.0000000
 NQMom=    0.0000000   0.0000000   0.0000000   0.0000000   0.0000000
 NMagM=    2.7928460   0.0000000   2.7928460   2.7928460   2.7928460
 AtZNuc=   1.0000000   6.0000000   1.0000000   1.0000000   1.0000000
 Leave Link  101 at Mon Oct 14 18:08:53 2024, MaxMem=   104857600 cpu:               0.0 elap:               0.1
 (Enter /home/echo/g16/l103.exe)

 GradGradGradGradGradGradGradGradGradGradGradGradGradGradGradGradGradGrad
 Berny optimization.
 Initialization pass.
 Trust Radius=3.00D-01 FncErr=1.00D-07 GrdErr=1.00D-07 EigMax=2.50D+02 EigMin=1.00D-04
 Number of steps in this run=      2 maximum allowed number of steps=      2.
 GradGradGradGradGradGradGradGradGradGradGradGradGradGradGradGradGradGrad

 Leave Link  103 at Mon Oct 14 18:08:53 2024, MaxMem=   104857600 cpu:               0.0 elap:               0.0
 (Enter /home/echo/g16/l202.exe)
 Stoichiometry    C20H28FeN2O3Pd
 Framework group  C1[X(C20H28FeN2O3Pd)]
 Deg. of freedom   159
 Full point group                 C1      NOp   1
 Largest Abelian subgroup         C1      NOp   1
 Largest concise Abelian subgroup C1      NOp   1
                         Standard orientation:                         
 ---------------------------------------------------------------------
 Center     Atomic      Atomic             Coordinates (Angstroms)
 Number     Number       Type             X           Y           Z
 ---------------------------------------------------------------------
      1         26           0       -1.398311    0.992549   -0.334540
      2          6           0        2.230230   -0.128706    1.842410
      3         46           0        0.097181   -0.889879    0.276070
      4          6           0       -2.754608   -1.414433   -0.346880
      5          1           0       -2.987194    3.109467   -0.434180
      6          1           0       -3.685871    1.094676    1.104810
      7          1           0       -1.444970    0.267059    2.417740
      8          6           0        2.252992   -1.516716   -1.332430
      9          8           0        2.893050    0.278405    2.780670
     10          6           0       -2.110009   -0.514042   -1.333470
     11          8           0        1.344003   -2.138147   -1.991000
     12          6           0       -0.481991    0.853410   -2.057980
     13          6           0       -1.694422    1.554028   -2.163580
     14          6           0       -2.715041    0.706317   -1.705510
     15          1           0        0.465558    1.279201   -2.305670
     16          1           0       -1.797574    2.582398   -2.422610
     17          1           0       -3.731201    0.983315   -1.535010
     18          1           0        0.231492   -1.431159   -1.894690
     19          6           0       -0.728649   -0.494100   -1.675330
     20          6           0        2.692420    0.226265    0.372900
     21          8           0        1.194701   -0.862587    1.954930
     22          6           0       -0.449032    1.795440    1.214910
     23          6           0       -0.940374    2.759389    0.320710
     24          6           0       -2.332334    2.576857    0.215240
     25          6           0       -2.695682    1.485337    1.028680
     26          6           0       -1.535691    1.002939    1.650260
     27          1           0        0.529038    1.737392    1.637400
     28          7           0        1.914831   -0.605236   -0.483660
     29          1           0        3.773440    0.041386    0.316100
     30          1           0       -3.508769   -0.792474    0.134950
     31          1           0       -3.248147   -2.292384   -0.785830
     32          1           0       -0.365295    3.440260   -0.264950
     33          7           0       -1.777107   -1.836592    0.676640
     34          6           0       -1.205515   -3.147911    0.326520
     35          6           0       -2.434087   -1.968603    1.971520
     36          1           0       -1.975664   -3.933172    0.376870
     37          1           0       -0.799375   -3.135100   -0.689530
     38          1           0       -0.406685   -3.400450    1.036420
     39          1           0       -3.132396   -2.816514    1.979000
     40          1           0       -1.682397   -2.131262    2.744250
     41          1           0       -2.994298   -1.066153    2.201320
     42          6           0        2.379368    1.670374   -0.092690
     43          6           0        2.838426    2.728885    0.904420
     44          6           0        3.037327    1.924975   -1.451520
     45          1           0        3.922256    2.816926    0.880910
     46          1           0        2.407325    3.696164    0.655860
     47          1           0        2.562777    2.468674    1.921630
     48          1           0        1.283658    1.704863   -0.248570
     49          1           0        4.122117    1.904717   -1.366600
     50          1           0        2.734158    1.171915   -2.176430
     51          1           0        2.744946    2.903395   -1.827570
     52          6           0        3.697843   -1.840574   -1.631080
     53          1           0        4.191743   -2.193873   -0.727800
     54          1           0        3.737114   -2.613024   -2.393530
     55          1           0        4.214832   -0.951433   -1.985670
 ---------------------------------------------------------------------
 Rotational constants (GHZ):           0.2614170           0.1940667           0.1701775
 Leave Link  202 at Mon Oct 14 18:08:53 2024, MaxMem=   104857600 cpu:               0.0 elap:               0.0
 (Enter /home/echo/g16/l301.exe)
 Standard basis: STO-3G (5D, 7F)
 Ernie: Thresh=  0.10000D-02 Tol=  0.10000D-05 Strict=F.
 There are   201 symmetry adapted cartesian basis functions of A   symmetry.
 There are   198 symmetry adapted basis functions of A   symmetry.
   198 basis functions,   603 primitive gaussians,   201 cartesian basis functions
   129 alpha electrons      129 beta electrons
       nuclear repulsion energy      5018.7396860327 Hartrees.
 IExCor=    0 DFT=F Ex=HF Corr=None ExCW=0 ScaHFX=  1.000000
 ScaDFX=  1.000000  1.000000  1.000000  1.000000 ScalE2=  1.000000  1.000000
 IRadAn=      5 IRanWt=     -1 IRanGd=            0 ICorTp=0 IEmpDi=  4
 NAtoms=   55 NActive=   55 NUniq=   55 SFac= 1.00D+00 NAtFMM=   60 NAOKFM=F Big=F
 Integral buffers will be    131072 words long.
 Raffenetti 1 integral format.
 Two-electron integral symmetry is turned on.
 Leave Link  301 at Mon Oct 14 18:08:53 2024, MaxMem=   104857600 cpu:               0.0 elap:               0.0
 (Enter /home/echo/g16/l402.exe)
 External calculation of energy, first and second derivatives.
 Running external command "./xtb.sh R"
         input file       "/home/echo/scratch/Gau-21812.EIn"
         output file      "/home/echo/scratch/Gau-21812.EOu"
         message file     "/home/echo/scratch/Gau-21812.EMs"
         fchk file        "/home/echo/scratch/Gau-21812.EFC"
         mat. el file     "/home/echo/scratch/Gau-21812.EUF"
Generating mol.tmp
Generating mol.xyz via genxyz
Running: xtb mol.xyz --chrg 0 --uhf 0 --gfn2 --hess --grad > xtbout
xtb running finished!
Extracting data from xtb outputs via extderi
 Recovered energy= -82.9713363107     dipole=      0.000000000000      0.000000000000      0.000000000000
 Energy=    -82.9713363     NIter=   0.
 Dipole moment=       0.000000       0.000000       0.000000
 Leave Link  402 at Mon Oct 14 18:08:58 2024, MaxMem=   104857600 cpu:               0.0 elap:               4.5
 (Enter /home/echo/g16/l601.exe)
 Leave Link  601 at Mon Oct 14 18:08:58 2024, MaxMem=   104857600 cpu:               0.0 elap:               0.0
 (Enter /home/echo/g16/l716.exe)
 Dipole        = 0.00000000D+00 0.00000000D+00 0.00000000D+00
 Full mass-weighted force constant matrix:
 Low frequencies --- -986.2550   -0.0161   -0.0148   -0.0068    0.0044    0.0109
 Low frequencies ---    0.0153   42.8357   49.3662
 ******    1 imaginary frequencies (negative Signs) ****** 
 Diagonal vibrational polarizability:
        0.0000000       0.0000000       0.0000000
 Harmonic frequencies (cm**-1), IR intensities (KM/Mole), Raman scattering
 activities (A**4/AMU), depolarization ratios for plane and unpolarized
 incident light, reduced masses (AMU), force constants (mDyne/A),
 and normal coordinates:
                      1                      2                      3
                      A                      A                      A
 Frequencies --   -986.2550                42.8357                49.3662
 Red. masses --      1.1082                 7.7155                 4.5088
 Frc consts  --      0.6351                 0.0083                 0.0065
 IR Inten    --      0.0000                 0.0000                 0.0000
  Atom  AN      X      Y      Z        X      Y      Z        X      Y      Z
     1  26    -0.00   0.00  -0.00     0.08   0.00   0.04    -0.01  -0.02  -0.02
     2   6    -0.01  -0.01   0.01    -0.14   0.12   0.02    -0.02  -0.02   0.03
     3  46    -0.00  -0.00  -0.00    -0.02  -0.08  -0.01    -0.01  -0.02   0.02
     4   6    -0.00   0.00  -0.00    -0.01   0.04  -0.02    -0.04   0.01   0.07
     5   1     0.00  -0.01  -0.00     0.06  -0.00   0.10     0.07   0.03  -0.10
     6   1     0.00  -0.00  -0.00     0.10  -0.03   0.08    -0.01   0.10  -0.04
     7   1    -0.00   0.01   0.01     0.13  -0.05   0.02    -0.05   0.07   0.00
     8   6     0.03   0.04   0.03     0.01   0.03  -0.01     0.03   0.11  -0.11
     9   8     0.00   0.00  -0.00    -0.29   0.32   0.04    -0.03  -0.03   0.04
    10   6    -0.01   0.01   0.00     0.02   0.05   0.01    -0.03  -0.04   0.03
    11   8    -0.03   0.00  -0.03     0.03   0.02  -0.02     0.06   0.12  -0.15
    12   6    -0.00  -0.00   0.00     0.06   0.00   0.02    -0.01  -0.08  -0.01
    13   6    -0.00   0.00  -0.00     0.09   0.05   0.05     0.00  -0.07  -0.04
    14   6    -0.01   0.00  -0.00     0.06   0.08   0.04    -0.01  -0.04  -0.01
    15   1    -0.01   0.01   0.01     0.07  -0.04  -0.01     0.00  -0.10  -0.01
    16   1    -0.00   0.00  -0.01     0.12   0.06   0.08     0.02  -0.08  -0.07
    17   1    -0.01   0.01  -0.01     0.07   0.11   0.05    -0.01  -0.02  -0.02
    18   1     0.81  -0.58  -0.05     0.01  -0.02  -0.02    -0.07  -0.02   0.03
    19   6    -0.01   0.01   0.04     0.01   0.00  -0.01    -0.03  -0.06   0.03
    20   6     0.00  -0.00  -0.01    -0.07   0.03   0.02     0.00  -0.04   0.04
    21   8     0.01   0.00   0.01    -0.04  -0.03   0.02    -0.04   0.00   0.03
    22   6     0.00  -0.00   0.00     0.09  -0.02   0.04     0.01  -0.00  -0.04
    23   6    -0.00  -0.00  -0.00     0.07  -0.00   0.07     0.05  -0.02  -0.07
    24   6     0.00   0.00   0.00     0.08  -0.01   0.08     0.04   0.03  -0.08
    25   6     0.00  -0.00  -0.00     0.10  -0.03   0.07    -0.00   0.07  -0.05
    26   6     0.00  -0.00   0.00     0.11  -0.04   0.04    -0.02   0.05  -0.02
    27   1    -0.00   0.01   0.01     0.10  -0.01   0.02     0.00  -0.03  -0.02
    28   7     0.00  -0.01  -0.01    -0.02  -0.03   0.04    -0.00  -0.02   0.03
    29   1     0.00   0.00   0.00    -0.06   0.03   0.09    -0.00  -0.06   0.06
    30   1     0.00   0.00   0.00     0.00   0.05  -0.01    -0.01   0.05   0.07
    31   1     0.00  -0.00   0.01    -0.04   0.07  -0.05    -0.07   0.01   0.11
    32   1    -0.00  -0.00  -0.00     0.06   0.02   0.08     0.08  -0.05  -0.09
    33   7     0.01   0.00  -0.00    -0.03  -0.02  -0.04    -0.03   0.02   0.06
    34   6    -0.00  -0.00   0.00    -0.08  -0.03  -0.07    -0.05   0.01   0.08
    35   6     0.00   0.00  -0.00    -0.02  -0.01  -0.03    -0.01   0.06   0.08
    36   1    -0.01  -0.00   0.02    -0.11  -0.00  -0.08    -0.07   0.02   0.10
    37   1    -0.03  -0.01  -0.01    -0.09  -0.03  -0.07    -0.06  -0.02   0.08
    38   1    -0.00  -0.00  -0.00    -0.09  -0.08  -0.08    -0.05   0.00   0.08
    39   1     0.00   0.00  -0.01    -0.06   0.03  -0.04    -0.00   0.05   0.11
    40   1    -0.00   0.00   0.00    -0.02  -0.07  -0.04     0.00   0.09   0.07
    41   1     0.00   0.00  -0.01     0.04   0.02  -0.01    -0.01   0.06   0.06
    42   6    -0.00  -0.00  -0.00    -0.06  -0.00  -0.08     0.05  -0.03   0.04
    43   6     0.00  -0.00  -0.00    -0.04   0.07  -0.17     0.05  -0.04   0.06
    44   6     0.00  -0.00   0.00    -0.06  -0.10  -0.11     0.08  -0.02   0.06
    45   1     0.00  -0.00  -0.00    -0.05   0.14  -0.26     0.05  -0.08   0.10
    46   1    -0.00  -0.01  -0.00    -0.12   0.04  -0.18     0.09  -0.03   0.04
    47   1    -0.00  -0.00  -0.00     0.06   0.11  -0.14     0.00  -0.04   0.05
    48   1    -0.00   0.00   0.00    -0.06  -0.01  -0.08     0.05  -0.00   0.01
    49   1     0.00   0.00   0.00    -0.06  -0.11  -0.11     0.08  -0.09   0.07
    50   1    -0.00   0.01  -0.01    -0.07  -0.14  -0.06     0.04   0.02   0.03
    51   1     0.00   0.00   0.00    -0.05  -0.12  -0.16     0.14   0.00   0.08
    52   6    -0.01  -0.01  -0.00     0.02   0.10  -0.04     0.04   0.25  -0.20
    53   1     0.01  -0.01  -0.01     0.05   0.10  -0.05     0.10   0.17  -0.26
    54   1    -0.01  -0.01  -0.00     0.04   0.12  -0.06     0.07   0.35  -0.30
    55   1    -0.01  -0.01  -0.00    -0.02   0.13  -0.02    -0.03   0.33  -0.11
                      4                      5                      6
                      A                      A                      A
 Frequencies --     57.2365                66.0153                82.8983
 Red. masses --      3.8711                 3.5112                 4.1294
 Frc consts  --      0.0075                 0.0090                 0.0167
 IR Inten    --      0.0000                 0.0000                 0.0000
  Atom  AN      X      Y      Z        X      Y      Z        X      Y      Z
     1  26    -0.05  -0.01   0.01    -0.01   0.01  -0.01    -0.03  -0.01  -0.01
     2   6    -0.04   0.02   0.01    -0.04   0.00   0.00     0.06   0.07   0.02
     3  46    -0.00   0.02  -0.02    -0.01  -0.00  -0.02    -0.00   0.01   0.06
     4   6     0.01  -0.05  -0.03    -0.00   0.04   0.12    -0.05   0.02  -0.03
     5   1    -0.19  -0.12   0.10     0.12   0.11  -0.06     0.03   0.03  -0.00
     6   1     0.04  -0.15   0.16    -0.03   0.17  -0.04    -0.05   0.02  -0.05
     7   1     0.18  -0.00   0.03    -0.11   0.04  -0.01    -0.11  -0.08  -0.04
     8   6     0.00   0.01   0.00    -0.02   0.01   0.03    -0.01   0.01   0.01
     9   8    -0.11   0.07   0.04    -0.09   0.04   0.02     0.13   0.04  -0.01
    10   6    -0.02  -0.01  -0.02    -0.04  -0.01   0.04    -0.02   0.00  -0.02
    11   8     0.00   0.04  -0.02    -0.02   0.01   0.03    -0.02   0.01   0.04
    12   6    -0.05   0.04   0.01    -0.06  -0.02  -0.03     0.01   0.00   0.02
    13   6    -0.06   0.01   0.02    -0.06  -0.03  -0.01     0.02   0.00  -0.01
    14   6    -0.04  -0.02   0.01    -0.05  -0.02   0.03     0.00   0.01  -0.04
    15   1    -0.05   0.07   0.04    -0.06  -0.02  -0.04     0.02  -0.00   0.05
    16   1    -0.09   0.01   0.04    -0.07  -0.04  -0.04     0.03   0.01  -0.01
    17   1    -0.05  -0.05   0.01    -0.04  -0.01   0.05     0.00   0.02  -0.06
    18   1    -0.01   0.04  -0.02    -0.03   0.01  -0.00    -0.01   0.01   0.05
    19   6    -0.02   0.02  -0.01    -0.04  -0.02   0.00    -0.00   0.01   0.04
    20   6     0.03  -0.02   0.03    -0.01   0.02   0.01     0.04   0.00   0.00
    21   8    -0.03  -0.00  -0.01    -0.00  -0.05  -0.02     0.01   0.16   0.07
    22   6     0.01   0.05  -0.06     0.02  -0.04  -0.01    -0.03  -0.06   0.02
    23   6    -0.11   0.01  -0.03     0.09  -0.01  -0.02     0.01  -0.03   0.04
    24   6    -0.11  -0.07   0.07     0.08   0.08  -0.04     0.00   0.01   0.00
    25   6     0.01  -0.09   0.09    -0.00   0.11  -0.04    -0.04   0.00  -0.03
    26   6     0.08  -0.02   0.02    -0.05   0.04  -0.02    -0.07  -0.05  -0.01
    27   1     0.04   0.11  -0.13     0.01  -0.10   0.01    -0.04  -0.09   0.03
    28   7     0.01   0.02  -0.00    -0.02   0.05  -0.02     0.01  -0.02   0.05
    29   1     0.02  -0.09   0.07    -0.02  -0.01   0.03     0.04  -0.02  -0.02
    30   1    -0.04  -0.08  -0.05     0.11   0.11   0.20    -0.00   0.05  -0.01
    31   1     0.06  -0.07  -0.04    -0.13   0.08   0.17    -0.10   0.05  -0.04
    32   1    -0.18   0.04  -0.07     0.14  -0.05  -0.02     0.04  -0.03   0.07
    33   7     0.01   0.00  -0.02     0.07  -0.05   0.00    -0.06  -0.05  -0.05
    34   6     0.03   0.00   0.03     0.03  -0.03  -0.15    -0.04  -0.02  -0.16
    35   6     0.01   0.05  -0.01     0.20  -0.14   0.06    -0.08  -0.17  -0.08
    36   1     0.04  -0.01   0.05     0.02  -0.03  -0.12    -0.03  -0.03  -0.21
    37   1     0.05  -0.02   0.04    -0.09   0.03  -0.19    -0.06   0.06  -0.17
    38   1     0.03   0.03   0.05     0.10  -0.09  -0.26    -0.02  -0.06  -0.20
    39   1    -0.00   0.06   0.01     0.25  -0.18   0.10    -0.10  -0.15  -0.17
    40   1     0.01   0.05  -0.01     0.29  -0.12  -0.02    -0.09  -0.26  -0.08
    41   1     0.04   0.07  -0.03     0.17  -0.18   0.15    -0.06  -0.18   0.00
    42   6     0.15  -0.01   0.00     0.04   0.03   0.02     0.07  -0.00  -0.03
    43   6     0.22  -0.03  -0.00     0.04   0.01   0.03     0.15   0.00  -0.08
    44   6     0.19  -0.08   0.01     0.07   0.02   0.03     0.02  -0.07  -0.07
    45   1     0.23  -0.17   0.06     0.05  -0.04   0.08     0.17  -0.21   0.03
    46   1     0.35   0.01  -0.06     0.10   0.03   0.01     0.37   0.06  -0.23
    47   1     0.13   0.03  -0.01    -0.01   0.03   0.02    -0.02   0.15  -0.09
    48   1     0.15   0.08  -0.01     0.04   0.06  -0.01     0.06   0.04   0.02
    49   1     0.19  -0.21   0.02     0.07  -0.03   0.05     0.02  -0.09  -0.10
    50   1     0.10  -0.04   0.00     0.05   0.04   0.02    -0.02  -0.08  -0.03
    51   1     0.31  -0.04   0.01     0.12   0.03   0.04     0.04  -0.07  -0.09
    52   6    -0.00  -0.04   0.03    -0.02  -0.04   0.09    -0.02   0.05  -0.07
    53   1    -0.04  -0.06   0.04    -0.07  -0.05   0.11     0.05   0.09  -0.09
    54   1    -0.01  -0.03   0.03    -0.02  -0.05   0.10    -0.04   0.04  -0.06
    55   1     0.04  -0.05   0.05     0.02  -0.07   0.10    -0.07   0.06  -0.12
                      7                      8                      9
                      A                      A                      A
 Frequencies --     98.5437               102.5427               105.8180
 Red. masses --      5.1566                 1.0200                 4.4342
 Frc consts  --      0.0295                 0.0063                 0.0293
 IR Inten    --      0.0000                 0.0000                 0.0000
  Atom  AN      X      Y      Z        X      Y      Z        X      Y      Z
     1  26     0.02  -0.03  -0.00    -0.00  -0.00  -0.00     0.01   0.02   0.00
     2   6     0.04   0.05  -0.05     0.01   0.00  -0.00    -0.03   0.01   0.05
     3  46    -0.04  -0.06  -0.01     0.00   0.00   0.00    -0.00  -0.02  -0.02
     4   6    -0.05   0.04  -0.00    -0.00  -0.00  -0.00    -0.01   0.06   0.05
     5   1    -0.04  -0.08   0.04     0.00   0.00  -0.00    -0.16  -0.11   0.03
     6   1     0.07  -0.06   0.11    -0.00   0.00  -0.00     0.06  -0.10   0.13
     7   1     0.16  -0.00   0.02    -0.01  -0.00  -0.00     0.20   0.07   0.02
     8   6    -0.05   0.04   0.06    -0.00   0.00  -0.00     0.02  -0.01   0.01
     9   8     0.11  -0.01  -0.07     0.01   0.01  -0.01     0.08  -0.14   0.04
    10   6    -0.03   0.00  -0.02    -0.00  -0.00  -0.00    -0.00   0.02   0.01
    11   8    -0.04  -0.09   0.16    -0.00  -0.00   0.01     0.03   0.02  -0.02
    12   6     0.03  -0.07   0.00     0.00  -0.00   0.00     0.01  -0.01   0.00
    13   6     0.07  -0.01  -0.00     0.00  -0.00  -0.00     0.02   0.01  -0.00
    14   6     0.02   0.03  -0.02     0.00  -0.00  -0.00     0.01   0.02  -0.00
    15   1     0.06  -0.12   0.02     0.00  -0.00   0.00     0.02  -0.02  -0.01
    16   1     0.12  -0.01   0.01     0.00  -0.00  -0.00     0.03   0.01   0.00
    17   1     0.04   0.08  -0.02     0.00   0.00  -0.00     0.01   0.03  -0.00
    18   1    -0.02  -0.10   0.01     0.00  -0.00   0.00    -0.02   0.02   0.01
    19   6    -0.03  -0.07  -0.02     0.00  -0.00   0.00    -0.00  -0.00   0.00
    20   6    -0.03   0.10  -0.06     0.00   0.00  -0.00    -0.01  -0.03   0.05
    21   8     0.03   0.06  -0.02     0.01   0.00  -0.00    -0.16   0.20   0.07
    22   6     0.06   0.00  -0.06    -0.00  -0.00   0.00     0.01   0.13  -0.06
    23   6    -0.00  -0.02  -0.04     0.00  -0.00   0.00    -0.10   0.06  -0.06
    24   6    -0.00  -0.06   0.02     0.00  -0.00   0.00    -0.09  -0.05   0.01
    25   6     0.06  -0.05   0.05    -0.00  -0.00  -0.00     0.03  -0.05   0.06
    26   6     0.10  -0.02   0.01    -0.00  -0.00  -0.00     0.10   0.05   0.01
    27   1     0.08   0.02  -0.10    -0.00  -0.01   0.00     0.03   0.21  -0.09
    28   7    -0.07   0.12  -0.04    -0.00   0.00  -0.00     0.02  -0.06   0.06
    29   1    -0.03   0.05  -0.09     0.00  -0.00  -0.00    -0.00  -0.01   0.07
    30   1    -0.02   0.07   0.01    -0.00  -0.00  -0.00     0.07   0.11   0.10
    31   1    -0.09   0.05   0.02     0.00  -0.00  -0.00    -0.10   0.09   0.08
    32   1    -0.04  -0.01  -0.07     0.00  -0.00   0.00    -0.17   0.08  -0.11
    33   7    -0.04   0.01  -0.02    -0.00  -0.00  -0.00     0.04  -0.00  -0.03
    34   6    -0.12  -0.02  -0.02    -0.00  -0.00   0.00    -0.03  -0.00  -0.13
    35   6    -0.02   0.06  -0.00    -0.01  -0.00  -0.00     0.18  -0.00   0.03
    36   1    -0.15   0.02   0.01    -0.00  -0.00  -0.00    -0.05   0.02  -0.08
    37   1    -0.15  -0.05  -0.03     0.00   0.00   0.00    -0.14   0.02  -0.17
    38   1    -0.10  -0.05  -0.05    -0.00   0.00   0.00     0.04  -0.06  -0.23
    39   1    -0.07   0.10   0.02    -0.01  -0.00  -0.01     0.17   0.00   0.10
    40   1    -0.01   0.02  -0.02    -0.01  -0.01  -0.00     0.26  -0.02  -0.05
    41   1     0.05   0.10   0.01    -0.01  -0.00  -0.00     0.22   0.00   0.10
    42   6     0.05   0.13   0.00     0.00   0.00  -0.00    -0.04  -0.05  -0.01
    43   6     0.01   0.07   0.09     0.00   0.00  -0.00    -0.09  -0.01  -0.03
    44   6     0.16   0.20   0.07    -0.00   0.01  -0.00    -0.03  -0.08  -0.01
    45   1     0.01   0.01   0.19     0.00  -0.00   0.00    -0.10   0.14  -0.13
    46   1     0.07   0.10   0.09     0.01   0.00  -0.01    -0.24  -0.06   0.03
    47   1    -0.09   0.04   0.06    -0.01   0.01  -0.00     0.04  -0.06  -0.01
    48   1     0.06   0.16  -0.07     0.00  -0.00  -0.00    -0.04  -0.09  -0.02
    49   1     0.15   0.13   0.15    -0.00   0.04  -0.00    -0.04  -0.06   0.00
    50   1     0.18   0.26  -0.01     0.02  -0.01   0.00    -0.02  -0.11   0.01
    51   1     0.24   0.24   0.12    -0.03  -0.00  -0.01    -0.05  -0.10  -0.04
    52   6    -0.05   0.09   0.02    -0.00  -0.01   0.01     0.03   0.01   0.00
    53   1    -0.01   0.11   0.01    -0.18  -0.56  -0.10     0.01  -0.06  -0.01
    54   1    -0.04   0.08   0.03     0.00   0.37  -0.38     0.04   0.06  -0.05
    55   1    -0.09   0.10  -0.00     0.17   0.11   0.56     0.04   0.03   0.08
                     10                     11                     12
                      A                      A                      A
 Frequencies --    122.3966               130.2592               135.4102
 Red. masses --      3.7894                 3.5433                 3.6019
 Frc consts  --      0.0334                 0.0354                 0.0389
 IR Inten    --      0.0000                 0.0000                 0.0000
  Atom  AN      X      Y      Z        X      Y      Z        X      Y      Z
     1  26     0.01  -0.02   0.02     0.03   0.03   0.00     0.02   0.04  -0.02
     2   6    -0.01   0.02  -0.01    -0.05  -0.00   0.01    -0.02   0.03   0.02
     3  46    -0.03  -0.03  -0.04    -0.02  -0.02  -0.03    -0.03  -0.01   0.00
     4   6    -0.00  -0.02   0.00     0.07  -0.07  -0.04     0.05  -0.13  -0.06
     5   1     0.08   0.04   0.01     0.02   0.03  -0.03     0.09   0.09   0.06
     6   1    -0.01   0.05  -0.02    -0.01   0.00  -0.07     0.06   0.03  -0.03
     7   1    -0.05  -0.02   0.02    -0.04   0.04   0.00     0.03  -0.05  -0.05
     8   6     0.03   0.06   0.00    -0.02  -0.01   0.04    -0.03   0.01   0.01
     9   8     0.07  -0.09  -0.02    -0.03  -0.04   0.02     0.04  -0.04   0.00
    10   6    -0.00  -0.01   0.01     0.04   0.00   0.01     0.02  -0.01   0.03
    11   8     0.10   0.11  -0.13    -0.05  -0.12   0.15    -0.04   0.02   0.00
    12   6    -0.01  -0.02   0.01     0.01   0.03  -0.01    -0.07   0.06  -0.07
    13   6    -0.00  -0.00   0.03    -0.00   0.01   0.00    -0.11   0.01  -0.01
    14   6    -0.00  -0.00   0.03     0.01  -0.01   0.02    -0.05  -0.03   0.06
    15   1    -0.01  -0.02   0.00    -0.00   0.06  -0.01    -0.10   0.10  -0.11
    16   1     0.01  -0.00   0.04    -0.03   0.01  -0.00    -0.16   0.00  -0.01
    17   1     0.00   0.01   0.05     0.01  -0.03   0.02    -0.05  -0.06   0.11
    18   1    -0.00   0.01  -0.05     0.06  -0.04  -0.01     0.03   0.04  -0.03
    19   6    -0.01  -0.03  -0.03     0.03   0.02  -0.03     0.00   0.06  -0.03
    20   6    -0.04   0.05  -0.01    -0.03   0.01   0.01    -0.02   0.00   0.01
    21   8    -0.07   0.10  -0.00    -0.08   0.04   0.01    -0.07   0.11   0.04
    22   6     0.01  -0.05   0.04    -0.02   0.04   0.04     0.07  -0.03  -0.01
    23   6     0.06  -0.03   0.04     0.00   0.04   0.02     0.09   0.01   0.02
    24   6     0.06   0.01   0.01     0.01   0.03  -0.02     0.08   0.06   0.03
    25   6     0.01   0.02   0.00    -0.01   0.02  -0.04     0.06   0.03  -0.00
    26   6    -0.02  -0.02   0.02    -0.03   0.03  -0.00     0.05  -0.01  -0.02
    27   1     0.00  -0.09   0.05    -0.04   0.05   0.08     0.07  -0.06  -0.02
    28   7    -0.04   0.05  -0.02    -0.02   0.01   0.01    -0.02  -0.00   0.02
    29   1    -0.04   0.05  -0.01    -0.03   0.00   0.02    -0.02  -0.02   0.03
    30   1    -0.02  -0.03  -0.01     0.00  -0.14  -0.05    -0.05  -0.24  -0.07
    31   1     0.02  -0.03  -0.00     0.15  -0.09  -0.08     0.18  -0.15  -0.15
    32   1     0.09  -0.04   0.06     0.02   0.05   0.04     0.10   0.02   0.04
    33   7    -0.01   0.00   0.02     0.06  -0.03  -0.01     0.02  -0.09   0.00
    34   6    -0.01  -0.01   0.07     0.09  -0.04   0.06     0.10  -0.07   0.08
    35   6    -0.04   0.04   0.01     0.08   0.03  -0.00    -0.06  -0.07  -0.04
    36   1    -0.01  -0.00   0.06     0.10  -0.05   0.07     0.13  -0.10   0.03
    37   1     0.03  -0.04   0.08     0.13  -0.08   0.08     0.20  -0.08   0.12
    38   1    -0.04   0.00   0.11     0.07   0.00   0.10     0.04  -0.02   0.17
    39   1    -0.02   0.03   0.03     0.12  -0.01   0.06    -0.09  -0.05  -0.08
    40   1    -0.05   0.07   0.04     0.09   0.12   0.01    -0.11  -0.09   0.01
    41   1    -0.06   0.04  -0.03     0.03   0.01  -0.06    -0.04  -0.05  -0.07
    42   6    -0.02   0.05  -0.02    -0.01   0.02   0.05     0.01  -0.01  -0.04
    43   6     0.10   0.02  -0.05     0.17  -0.05   0.03    -0.13   0.04  -0.02
    44   6    -0.08  -0.00  -0.06    -0.15   0.02  -0.02     0.16  -0.04   0.03
    45   1     0.13  -0.24   0.08     0.19  -0.30   0.08    -0.14   0.21  -0.04
    46   1     0.37   0.11  -0.20     0.41   0.04  -0.04    -0.28  -0.02   0.01
    47   1    -0.10   0.18  -0.07     0.04   0.06   0.02    -0.06  -0.02  -0.02
    48   1    -0.02   0.09   0.03    -0.02   0.07   0.14     0.02  -0.03  -0.14
    49   1    -0.07   0.03  -0.10    -0.14   0.03  -0.13     0.15  -0.15   0.13
    50   1    -0.09  -0.05  -0.01    -0.21   0.01   0.01     0.15   0.01  -0.01
    51   1    -0.12  -0.03  -0.09    -0.19   0.01   0.01     0.30  -0.00   0.02
    52   6     0.07  -0.01   0.24    -0.04   0.10  -0.11    -0.03   0.01  -0.02
    53   1    -0.09   0.04   0.34     0.08   0.06  -0.19    -0.02  -0.02  -0.04
    54   1     0.16  -0.06   0.30    -0.06   0.15  -0.17    -0.05   0.02  -0.04
    55   1     0.15  -0.05   0.25    -0.13   0.16  -0.09    -0.03   0.01  -0.01
                     13                     14                     15
                      A                      A                      A
 Frequencies --    139.6615               158.1697               163.9044
 Red. masses --      5.9068                 4.5395                 1.4110
 Frc consts  --      0.0679                 0.0669                 0.0223
 IR Inten    --      0.0000                 0.0000                 0.0000
  Atom  AN      X      Y      Z        X      Y      Z        X      Y      Z
     1  26    -0.05  -0.05   0.04    -0.05  -0.04  -0.01    -0.00  -0.01  -0.00
     2   6    -0.03   0.09   0.00     0.01  -0.06   0.05     0.00   0.02  -0.01
     3  46     0.06  -0.01  -0.08     0.02   0.02  -0.03     0.00  -0.00  -0.01
     4   6    -0.03   0.05   0.02    -0.04   0.04  -0.01    -0.02  -0.01  -0.00
     5   1     0.12   0.07   0.01     0.06   0.03   0.05     0.02   0.01  -0.01
     6   1    -0.09   0.11  -0.04    -0.01   0.06   0.04     0.00   0.02  -0.00
     7   1    -0.18  -0.05   0.05    -0.03  -0.03   0.02    -0.01  -0.00  -0.00
     8   6     0.04  -0.07  -0.01     0.04   0.03   0.10     0.01   0.00  -0.00
     9   8    -0.03   0.10   0.00     0.02  -0.16   0.09    -0.00   0.03  -0.00
    10   6    -0.03  -0.00  -0.03    -0.05  -0.00  -0.05    -0.01  -0.01   0.00
    11   8    -0.02  -0.06   0.05     0.02  -0.03   0.18     0.00   0.01  -0.01
    12   6    -0.01  -0.00   0.05    -0.06   0.02  -0.01    -0.01  -0.01  -0.00
    13   6     0.00   0.02   0.05    -0.07   0.02   0.01    -0.01  -0.01  -0.00
    14   6    -0.02   0.02   0.00    -0.06   0.00  -0.00    -0.01  -0.01   0.01
    15   1    -0.00  -0.00   0.08    -0.07   0.05   0.01    -0.01  -0.01   0.00
    16   1     0.02   0.03   0.08    -0.07   0.02   0.04    -0.01  -0.01  -0.01
    17   1    -0.01   0.03   0.01    -0.05  -0.01   0.02    -0.01  -0.01   0.01
    18   1    -0.01  -0.01   0.02     0.05  -0.01   0.02    -0.01  -0.00   0.00
    19   6    -0.03  -0.01  -0.01    -0.04   0.01  -0.03    -0.01  -0.01   0.00
    20   6     0.05  -0.03   0.00     0.01   0.05   0.07     0.03  -0.01  -0.00
    21   8    -0.13   0.24   0.02     0.03  -0.10  -0.03    -0.02   0.06   0.00
    22   6    -0.04  -0.15   0.07     0.03  -0.11  -0.01     0.01  -0.01   0.00
    23   6     0.07  -0.10   0.07     0.06  -0.07   0.01     0.02  -0.01  -0.01
    24   6     0.06   0.01   0.02     0.05  -0.00   0.03     0.02   0.01  -0.01
    25   6    -0.06   0.03   0.00     0.01   0.01   0.03     0.01   0.01  -0.00
    26   6    -0.12  -0.06   0.04    -0.01  -0.05   0.01     0.00   0.00  -0.00
    27   1    -0.05  -0.23   0.09     0.03  -0.15  -0.02     0.01   0.01   0.02
    28   7     0.09  -0.06  -0.00     0.03   0.04   0.07     0.01   0.01  -0.01
    29   1     0.06  -0.01   0.04     0.02   0.05   0.08     0.02  -0.02  -0.00
    30   1     0.01   0.10   0.01    -0.01   0.07  -0.02    -0.02  -0.02  -0.00
    31   1    -0.06   0.03   0.09    -0.06   0.02   0.04    -0.01  -0.01  -0.01
    32   1     0.14  -0.14   0.10     0.08  -0.10  -0.01     0.03  -0.02  -0.01
    33   7     0.00   0.09   0.01    -0.01   0.07  -0.03    -0.02  -0.01  -0.00
    34   6    -0.01   0.08   0.04    -0.02   0.06  -0.02    -0.02  -0.01   0.00
    35   6     0.01   0.11   0.02     0.00   0.09  -0.02    -0.03  -0.01  -0.01
    36   1    -0.01   0.08   0.08    -0.02   0.07   0.02    -0.02  -0.01  -0.00
    37   1    -0.03   0.04   0.03    -0.06   0.05  -0.03    -0.01  -0.01   0.00
    38   1     0.00   0.10   0.03    -0.00   0.08  -0.04    -0.02  -0.02   0.00
    39   1     0.11   0.03   0.07     0.05   0.05   0.02    -0.06   0.00  -0.03
    40   1     0.03   0.24   0.03     0.02   0.15  -0.02    -0.05  -0.04  -0.00
    41   1    -0.10   0.05  -0.04    -0.04   0.06  -0.05    -0.01  -0.00  -0.01
    42   6     0.01  -0.03   0.02     0.02   0.02  -0.03     0.03   0.01   0.03
    43   6    -0.10  -0.02   0.05     0.01   0.12  -0.13     0.09  -0.02   0.05
    44   6     0.08   0.03   0.06     0.00  -0.12  -0.07    -0.06   0.04  -0.00
    45   1    -0.09  -0.08   0.24    -0.01   0.34  -0.33     0.06   0.32  -0.35
    46   1     0.00  -0.01  -0.07    -0.23   0.03  -0.04    -0.29  -0.11   0.40
    47   1    -0.29   0.06   0.02     0.24   0.05  -0.08     0.55  -0.31   0.10
    48   1     0.01  -0.07  -0.01     0.02   0.01  -0.03     0.03   0.01   0.08
    49   1     0.07   0.07   0.13     0.00  -0.21  -0.10    -0.05   0.01  -0.09
    50   1     0.15   0.03   0.03    -0.09  -0.14  -0.01    -0.14   0.09  -0.01
    51   1     0.06   0.03   0.06     0.08  -0.12  -0.12    -0.06   0.07   0.07
    52   6     0.01  -0.11  -0.12     0.05   0.14   0.02     0.00  -0.02   0.01
    53   1     0.07  -0.13  -0.16     0.11   0.12  -0.02    -0.01  -0.02   0.02
    54   1    -0.07  -0.11  -0.12     0.07   0.19  -0.03    -0.00  -0.03   0.02
    55   1     0.00  -0.13  -0.15    -0.03   0.20   0.06     0.02  -0.03   0.01
                     16                     17                     18
                      A                      A                      A
 Frequencies --    181.3531               183.2251               198.7509
 Red. masses --      3.3844                 5.5105                 5.6407
 Frc consts  --      0.0656                 0.1090                 0.1313
 IR Inten    --      0.0000                 0.0000                 0.0000
  Atom  AN      X      Y      Z        X      Y      Z        X      Y      Z
     1  26    -0.00  -0.00   0.06     0.04   0.01   0.01     0.04  -0.07  -0.04
     2   6    -0.02  -0.01  -0.05    -0.10  -0.02  -0.04    -0.04   0.00   0.03
     3  46    -0.04   0.01  -0.01     0.01   0.10  -0.04    -0.04   0.07   0.04
     4   6     0.04  -0.02  -0.02    -0.04   0.01   0.10     0.01   0.02  -0.03
     5   1    -0.00   0.01  -0.07    -0.01  -0.04   0.05     0.07  -0.10   0.03
     6   1    -0.10   0.03  -0.09     0.05  -0.07   0.05     0.07  -0.12  -0.01
     7   1    -0.18   0.04   0.05     0.08  -0.10  -0.05     0.07  -0.10   0.01
     8   6    -0.02   0.00  -0.02     0.04  -0.03  -0.01    -0.11   0.03  -0.02
     9   8     0.02  -0.02  -0.07    -0.10  -0.10  -0.00     0.00   0.02  -0.01
    10   6     0.04   0.00   0.00    -0.00  -0.03   0.08    -0.02  -0.01  -0.07
    11   8     0.02  -0.04  -0.02     0.05  -0.11   0.05    -0.08   0.03  -0.07
    12   6     0.10  -0.02   0.10     0.04  -0.13  -0.01     0.03  -0.05  -0.04
    13   6     0.12   0.00   0.04     0.07  -0.08  -0.02     0.07   0.00  -0.01
    14   6     0.08   0.02  -0.02     0.04  -0.02   0.03     0.03   0.03  -0.03
    15   1     0.12  -0.05   0.12     0.05  -0.19  -0.07     0.05  -0.08  -0.03
    16   1     0.16   0.00   0.04     0.11  -0.08  -0.03     0.11   0.02   0.03
    17   1     0.08   0.03  -0.07     0.05   0.02   0.02     0.05   0.07  -0.02
    18   1     0.00  -0.05  -0.02    -0.00  -0.14   0.05    -0.03  -0.04  -0.10
    19   6     0.05  -0.04   0.02    -0.01  -0.11   0.03    -0.02  -0.05  -0.06
    20   6    -0.03  -0.00  -0.04    -0.04   0.01  -0.02    -0.07  -0.02   0.00
    21   8    -0.01  -0.01  -0.02    -0.13   0.02  -0.07    -0.04   0.02   0.08
    22   6    -0.10   0.02   0.08     0.03   0.01   0.03     0.07  -0.12  -0.00
    23   6    -0.05   0.01   0.05     0.00   0.02   0.05     0.07  -0.11   0.01
    24   6    -0.04   0.01  -0.03     0.01  -0.03   0.05     0.07  -0.11   0.02
    25   6    -0.10   0.03  -0.03     0.04  -0.05   0.04     0.07  -0.12  -0.01
    26   6    -0.13   0.04   0.04     0.06  -0.04   0.01     0.07  -0.13  -0.01
    27   1    -0.09  -0.02   0.06     0.04   0.04   0.02     0.06  -0.10   0.03
    28   7    -0.05   0.02  -0.05     0.01   0.01  -0.06    -0.10   0.02  -0.01
    29   1    -0.04  -0.04  -0.04    -0.03   0.03   0.03    -0.08  -0.05  -0.01
    30   1     0.02  -0.03  -0.02    -0.00   0.05   0.11    -0.01   0.01  -0.04
    31   1     0.06  -0.02  -0.03    -0.10   0.04   0.11     0.04  -0.03   0.02
    32   1    -0.01   0.00   0.08    -0.02   0.05   0.06     0.06  -0.11   0.01
    33   7     0.03  -0.01  -0.01    -0.06  -0.03   0.09     0.04   0.10  -0.02
    34   6     0.06  -0.00   0.02    -0.01   0.01   0.02     0.19   0.17  -0.03
    35   6     0.06  -0.00   0.01    -0.16  -0.20   0.03     0.10   0.04   0.00
    36   1     0.08  -0.02   0.03     0.04  -0.04   0.04     0.30   0.07   0.07
    37   1     0.07  -0.02   0.02    -0.06   0.06  -0.00     0.08   0.18  -0.07
    38   1     0.07   0.03   0.03     0.05   0.03  -0.04     0.29   0.29  -0.09
    39   1     0.15  -0.07   0.06    -0.29  -0.09  -0.19     0.26  -0.08   0.07
    40   1     0.09   0.12   0.00    -0.23  -0.48   0.05     0.17   0.21  -0.02
    41   1    -0.03  -0.05  -0.04    -0.03  -0.16   0.20    -0.05  -0.05  -0.01
    42   6     0.04   0.00  -0.06    -0.02   0.02  -0.02    -0.04  -0.01   0.02
    43   6     0.00   0.03  -0.07     0.00  -0.00  -0.01     0.01  -0.04   0.04
    44   6     0.15  -0.08  -0.02     0.02   0.01  -0.01    -0.05  -0.01   0.01
    45   1    -0.02   0.29  -0.28     0.01  -0.08   0.04     0.01  -0.03  -0.03
    46   1    -0.27  -0.05   0.10     0.08   0.02  -0.04    -0.01  -0.04   0.10
    47   1     0.26  -0.13  -0.04    -0.06   0.03  -0.02     0.08  -0.09   0.04
    48   1     0.04   0.04  -0.08    -0.02   0.04  -0.04    -0.03   0.02   0.02
    49   1     0.14  -0.26   0.05     0.01  -0.01   0.01    -0.05  -0.05  -0.01
    50   1     0.08  -0.01  -0.06     0.02   0.02  -0.02    -0.09   0.00   0.01
    51   1     0.34  -0.02  -0.03     0.04   0.02  -0.01    -0.03   0.00   0.03
    52   6     0.00   0.05   0.01     0.06   0.04  -0.02    -0.12   0.01   0.00
    53   1    -0.01   0.05   0.02     0.08   0.05  -0.03    -0.13   0.00   0.01
    54   1     0.04   0.06   0.00     0.10   0.06  -0.04    -0.13  -0.00   0.01
    55   1    -0.02   0.07   0.04     0.01   0.08  -0.00    -0.10  -0.01  -0.00
                     19                     20                     21
                      A                      A                      A
 Frequencies --    212.5966               228.8734               235.7806
 Red. masses --      3.8681                 4.0521                 3.0928
 Frc consts  --      0.1030                 0.1251                 0.1013
 IR Inten    --      0.0000                 0.0000                 0.0000
  Atom  AN      X      Y      Z        X      Y      Z        X      Y      Z
     1  26    -0.00  -0.02   0.04     0.02   0.01  -0.03    -0.01  -0.04   0.05
     2   6     0.02  -0.00   0.01    -0.04  -0.01   0.04    -0.02  -0.00   0.03
     3  46    -0.01   0.06   0.01     0.05  -0.01   0.01     0.01  -0.03  -0.01
     4   6    -0.09  -0.17  -0.14    -0.00  -0.01   0.01     0.00  -0.01  -0.01
     5   1     0.06   0.02  -0.02     0.00  -0.01  -0.01    -0.00  -0.03  -0.10
     6   1     0.04   0.05   0.03    -0.02  -0.09  -0.11     0.01   0.09   0.06
     7   1     0.02   0.12   0.10    -0.03  -0.09  -0.06     0.01   0.15   0.08
     8   6     0.01  -0.01  -0.01    -0.06   0.07  -0.03    -0.03   0.03  -0.00
     9   8    -0.01   0.00   0.02    -0.05  -0.11   0.08    -0.02  -0.05   0.05
    10   6    -0.07  -0.03   0.01    -0.02   0.02   0.03    -0.02  -0.01  -0.01
    11   8     0.02   0.00  -0.01    -0.09   0.12  -0.02    -0.05   0.05  -0.01
    12   6     0.00  -0.11   0.04     0.05  -0.04  -0.01     0.01  -0.02   0.07
    13   6     0.04  -0.05   0.03     0.07  -0.02  -0.05     0.03  -0.00   0.05
    14   6    -0.01  -0.00   0.04     0.03   0.02  -0.04     0.01   0.00   0.02
    15   1     0.03  -0.16   0.02     0.07  -0.09  -0.02     0.02  -0.03   0.10
    16   1     0.09  -0.05   0.02     0.09  -0.02  -0.06     0.05  -0.00   0.05
    17   1     0.00   0.04   0.02     0.04   0.06  -0.07     0.01   0.01   0.01
    18   1    -0.08  -0.08   0.06    -0.09   0.04   0.08    -0.02  -0.00  -0.01
    19   6    -0.06  -0.09   0.03    -0.02  -0.00   0.06    -0.02  -0.03   0.02
    20   6     0.03  -0.01   0.01    -0.01   0.08   0.04    -0.01   0.03   0.03
    21   8     0.01  -0.00  -0.02    -0.05  -0.00  -0.01    -0.01  -0.01   0.01
    22   6     0.04   0.04   0.02    -0.03  -0.02   0.03     0.01   0.07  -0.04
    23   6     0.06  -0.00  -0.03    -0.03   0.00   0.05     0.01  -0.00  -0.12
    24   6     0.05   0.03  -0.01    -0.02  -0.02  -0.00     0.01   0.01  -0.08
    25   6     0.04   0.07   0.04    -0.02  -0.07  -0.06     0.01   0.09   0.02
    26   6     0.03   0.08   0.06    -0.03  -0.07  -0.04     0.01   0.12   0.05
    27   1     0.04   0.04   0.02    -0.04  -0.01   0.05     0.01   0.08  -0.05
    28   7     0.04  -0.01   0.01     0.01   0.09  -0.01    -0.00   0.04   0.00
    29   1     0.04   0.00   0.01    -0.01   0.07   0.07    -0.01   0.02   0.03
    30   1    -0.21  -0.31  -0.14    -0.02  -0.05   0.02     0.01   0.00  -0.00
    31   1     0.07  -0.19  -0.26     0.02  -0.01  -0.03     0.01  -0.03   0.03
    32   1     0.07  -0.03  -0.06    -0.03   0.04   0.10     0.02  -0.07  -0.20
    33   7    -0.05  -0.10  -0.14    -0.00  -0.05   0.01     0.03   0.04  -0.01
    34   6    -0.06  -0.12  -0.07    -0.09  -0.09   0.06     0.15   0.09  -0.02
    35   6     0.08   0.09  -0.07     0.04   0.01   0.05    -0.10  -0.05  -0.09
    36   1    -0.05  -0.12   0.04    -0.16  -0.02  -0.04     0.26  -0.00   0.10
    37   1    -0.11  -0.18  -0.09     0.04  -0.12   0.11     0.03   0.10  -0.07
    38   1    -0.01  -0.05  -0.10    -0.19  -0.17   0.15     0.27   0.21  -0.10
    39   1     0.12   0.06   0.16     0.12  -0.05   0.15    -0.29   0.11  -0.32
    40   1     0.16   0.28  -0.11     0.08   0.15   0.04    -0.21  -0.36  -0.05
    41   1     0.05   0.11  -0.20    -0.04  -0.02  -0.01     0.10   0.04   0.02
    42   6     0.00  -0.01   0.01     0.02   0.09   0.01     0.00   0.03   0.01
    43   6    -0.03   0.01   0.00     0.05   0.16  -0.07     0.01   0.07  -0.03
    44   6    -0.02   0.02   0.00     0.01   0.02  -0.01    -0.01   0.01  -0.00
    45   1    -0.03  -0.03   0.08     0.04   0.20  -0.13     0.01   0.06  -0.02
    46   1     0.02   0.01  -0.08    -0.00   0.13  -0.09     0.01   0.06  -0.07
    47   1    -0.12   0.07  -0.01     0.10   0.20  -0.04    -0.01   0.12  -0.02
    48   1     0.00  -0.04   0.01     0.01   0.11   0.03     0.01   0.03   0.02
    49   1    -0.02   0.18   0.00     0.01   0.03  -0.01    -0.01   0.09  -0.01
    50   1     0.09  -0.06   0.03     0.02  -0.03   0.04     0.03  -0.04   0.03
    51   1    -0.16  -0.04  -0.05     0.00  -0.01  -0.06    -0.08  -0.02  -0.05
    52   6     0.01  -0.02  -0.02    -0.13  -0.15  -0.09    -0.07  -0.06  -0.04
    53   1     0.02  -0.01  -0.02    -0.13  -0.19  -0.10    -0.06  -0.09  -0.05
    54   1    -0.00  -0.03  -0.01    -0.31  -0.18  -0.06    -0.16  -0.08  -0.03
    55   1     0.02  -0.03  -0.03     0.01  -0.25  -0.15    -0.01  -0.11  -0.08
                     22                     23                     24
                      A                      A                      A
 Frequencies --    246.7807               256.9505               277.3365
 Red. masses --      3.3965                 1.5081                 2.6201
 Frc consts  --      0.1219                 0.0587                 0.1187
 IR Inten    --      0.0000                 0.0000                 0.0000
  Atom  AN      X      Y      Z        X      Y      Z        X      Y      Z
     1  26    -0.02  -0.05   0.02    -0.02  -0.00  -0.01    -0.02   0.03  -0.01
     2   6    -0.09  -0.01  -0.04     0.00  -0.01  -0.01    -0.03  -0.00  -0.01
     3  46     0.02   0.03   0.04    -0.04   0.00   0.00    -0.03  -0.02   0.04
     4   6     0.08   0.04  -0.01     0.03   0.02   0.02    -0.02  -0.01  -0.02
     5   1     0.03  -0.04  -0.03     0.00   0.00   0.03    -0.00   0.04   0.06
     6   1     0.01   0.09   0.09     0.00   0.03   0.05     0.01   0.01   0.03
     7   1     0.01   0.08   0.09     0.02  -0.01   0.00     0.02  -0.03  -0.02
     8   6    -0.01  -0.02  -0.03     0.02  -0.00  -0.00     0.09  -0.04  -0.02
     9   8    -0.05  -0.06  -0.04    -0.02  -0.02   0.01    -0.05  -0.06   0.03
    10   6     0.10  -0.04  -0.06     0.03  -0.01  -0.02     0.00  -0.00  -0.00
    11   8    -0.00  -0.04  -0.02     0.02  -0.00   0.01     0.07  -0.01  -0.01
    12   6     0.01   0.10   0.06     0.03   0.03   0.02     0.01   0.01   0.01
    13   6    -0.04   0.02   0.04     0.01   0.01  -0.00     0.01  -0.01  -0.03
    14   6     0.02  -0.07  -0.02     0.02  -0.01  -0.03     0.00  -0.01  -0.04
    15   1    -0.01   0.19   0.11     0.03   0.04   0.06     0.01   0.01   0.02
    16   1    -0.10   0.01   0.07    -0.00   0.01   0.00     0.00  -0.01  -0.04
    17   1     0.00  -0.14  -0.01     0.01  -0.02  -0.04     0.00  -0.01  -0.06
    18   1     0.08   0.05  -0.04     0.03   0.02  -0.00     0.00   0.05   0.06
    19   6     0.11   0.07   0.00     0.03   0.02  -0.00     0.02   0.01   0.04
    20   6    -0.07   0.01  -0.04     0.04  -0.01  -0.00     0.02   0.02  -0.02
    21   8    -0.10   0.01   0.01    -0.01   0.01  -0.02    -0.03  -0.01  -0.02
    22   6     0.04  -0.04  -0.04     0.02  -0.03  -0.03     0.02  -0.02  -0.02
    23   6     0.05  -0.06  -0.08     0.01  -0.02  -0.01     0.01   0.01   0.02
    24   6     0.04  -0.01  -0.02     0.01   0.00   0.02     0.00   0.03   0.05
    25   6     0.02   0.04   0.04     0.01   0.01   0.03     0.01   0.01   0.03
    26   6     0.02   0.04   0.04     0.01  -0.01   0.00     0.02  -0.02  -0.01
    27   1     0.04  -0.05  -0.05     0.03  -0.05  -0.05     0.03  -0.05  -0.05
    28   7    -0.03   0.02  -0.07     0.02  -0.00   0.00     0.08  -0.05   0.00
    29   1    -0.06   0.02   0.01     0.03  -0.03   0.00     0.03   0.05   0.03
    30   1     0.18   0.16  -0.01     0.07   0.07   0.02    -0.05  -0.03  -0.04
    31   1    -0.04   0.07   0.06    -0.02   0.03   0.04     0.01  -0.02  -0.04
    32   1     0.05  -0.12  -0.14     0.01  -0.03  -0.02     0.00   0.02   0.03
    33   7     0.05  -0.02  -0.01     0.02  -0.01   0.02    -0.03   0.01  -0.00
    34   6    -0.10  -0.08  -0.03     0.01  -0.01   0.02     0.06   0.06  -0.01
    35   6     0.01   0.04  -0.03     0.01  -0.02   0.01     0.01   0.01   0.02
    36   1    -0.24   0.05  -0.29    -0.01   0.01  -0.06     0.17  -0.04   0.23
    37   1     0.13  -0.03   0.06     0.10   0.00   0.06    -0.19   0.03  -0.11
    38   1    -0.30  -0.29   0.11    -0.06  -0.05   0.09     0.26   0.21  -0.18
    39   1    -0.08   0.12  -0.04     0.02  -0.02   0.01     0.12  -0.07   0.09
    40   1    -0.03  -0.02  -0.01     0.01  -0.02   0.02     0.06   0.14   0.00
    41   1     0.10   0.10  -0.05     0.00  -0.03   0.02    -0.09  -0.04  -0.02
    42   6    -0.04   0.03  -0.04     0.05  -0.00  -0.01     0.01   0.03  -0.05
    43   6    -0.00  -0.01  -0.01     0.01   0.02  -0.01     0.02   0.03  -0.05
    44   6    -0.02   0.05  -0.02     0.02   0.04  -0.02    -0.00   0.15  -0.04
    45   1     0.00  -0.06  -0.01     0.01   0.09  -0.03     0.02  -0.00  -0.04
    46   1     0.04   0.01   0.01    -0.05  -0.01   0.01     0.05   0.04  -0.08
    47   1    -0.02  -0.02  -0.02     0.05  -0.01  -0.01    -0.01   0.06  -0.05
    48   1    -0.03   0.06  -0.04     0.05  -0.03  -0.01     0.01   0.02  -0.05
    49   1    -0.02  -0.17  -0.05     0.02   0.58   0.04    -0.00  -0.11  -0.11
    50   1    -0.17   0.20  -0.11     0.42  -0.25   0.11    -0.21   0.38  -0.20
    51   1     0.17   0.16   0.10    -0.44  -0.18  -0.23     0.20   0.30   0.20
    52   6    -0.01  -0.01  -0.01     0.02  -0.01  -0.03     0.08  -0.09  -0.06
    53   1    -0.01  -0.02  -0.01     0.04   0.00  -0.04     0.10  -0.12  -0.08
    54   1     0.01  -0.00  -0.02    -0.01  -0.02  -0.02     0.02  -0.08  -0.07
    55   1    -0.01  -0.00   0.01     0.02  -0.02  -0.06     0.10  -0.10  -0.06
                     25                     26                     27
                      A                      A                      A
 Frequencies --    282.7870               291.3599               297.5324
 Red. masses --      2.5885                 1.7959                 2.6926
 Frc consts  --      0.1220                 0.0898                 0.1404
 IR Inten    --      0.0000                 0.0000                 0.0000
  Atom  AN      X      Y      Z        X      Y      Z        X      Y      Z
     1  26    -0.03   0.03  -0.01    -0.04   0.02  -0.01     0.06  -0.02   0.02
     2   6    -0.07  -0.01  -0.03    -0.01  -0.00   0.00    -0.05  -0.00  -0.02
     3  46     0.07  -0.02   0.03     0.02  -0.01  -0.00     0.02  -0.01   0.03
     4   6    -0.02  -0.03  -0.03    -0.03  -0.00  -0.01    -0.04  -0.01  -0.02
     5   1     0.00   0.05   0.05    -0.02   0.04   0.06    -0.01  -0.04  -0.08
     6   1    -0.01   0.02  -0.01     0.01   0.05   0.08    -0.00  -0.07  -0.10
     7   1    -0.00  -0.03  -0.04     0.03  -0.02  -0.03    -0.07   0.04   0.02
     8   6    -0.05  -0.01  -0.02    -0.01  -0.01   0.00     0.03  -0.01  -0.00
     9   8    -0.04  -0.03  -0.05    -0.01  -0.00   0.00    -0.04  -0.05  -0.01
    10   6    -0.02   0.01   0.01    -0.06   0.03  -0.00    -0.02   0.01   0.03
    11   8    -0.04  -0.03  -0.01    -0.02  -0.00   0.00     0.03  -0.03   0.00
    12   6     0.00   0.01   0.01     0.02  -0.06   0.03    -0.08  -0.00  -0.07
    13   6    -0.00  -0.01  -0.03     0.06  -0.01  -0.03    -0.08   0.01   0.05
    14   6    -0.01  -0.00  -0.03    -0.00   0.05  -0.05    -0.05   0.01   0.11
    15   1     0.01   0.00   0.02     0.05  -0.11   0.04    -0.09   0.00  -0.13
    16   1    -0.01  -0.01  -0.05     0.11  -0.00  -0.04    -0.08   0.01   0.05
    17   1    -0.01  -0.00  -0.06     0.01   0.10  -0.08    -0.04  -0.01   0.17
    18   1    -0.04   0.01   0.09    -0.05  -0.02   0.06     0.08  -0.04  -0.09
    19   6     0.00   0.03   0.09    -0.05  -0.03   0.06    -0.03  -0.01  -0.06
    20   6    -0.07  -0.00  -0.03    -0.00  -0.01  -0.00    -0.02   0.01  -0.02
    21   8    -0.07  -0.00   0.01    -0.00  -0.00  -0.00    -0.04  -0.01  -0.00
    22   6     0.00  -0.02  -0.01     0.02  -0.01  -0.05    -0.04   0.06   0.05
    23   6     0.00   0.01   0.02     0.00   0.01  -0.01    -0.03   0.02  -0.00
    24   6    -0.00   0.04   0.04    -0.00   0.04   0.05    -0.01  -0.03  -0.07
    25   6    -0.01   0.02   0.01     0.01   0.04   0.05    -0.01  -0.03  -0.07
    26   6    -0.00  -0.02  -0.02     0.03   0.01  -0.01    -0.03   0.03   0.01
    27   1     0.01  -0.04  -0.03     0.03  -0.03  -0.08    -0.04   0.11   0.07
    28   7    -0.06   0.01  -0.04    -0.01  -0.02   0.01     0.01  -0.02  -0.01
    29   1    -0.07  -0.01  -0.01    -0.00  -0.00  -0.00    -0.02   0.01   0.01
    30   1    -0.06  -0.08  -0.04    -0.04  -0.03   0.02    -0.11  -0.07  -0.05
    31   1     0.04  -0.04  -0.06     0.00  -0.01  -0.02     0.03  -0.04  -0.05
    32   1     0.00   0.03   0.04    -0.01   0.01  -0.03    -0.02   0.03   0.02
    33   7    -0.01  -0.00  -0.02     0.01   0.01  -0.02    -0.04   0.05  -0.01
    34   6     0.01   0.01  -0.01     0.08   0.03   0.02     0.01   0.10  -0.08
    35   6    -0.00   0.04  -0.01     0.02  -0.04  -0.02    -0.02   0.01  -0.00
    36   1     0.11  -0.07   0.34     0.00   0.07  -0.42    -0.04   0.12  -0.41
    37   1    -0.33  -0.08  -0.15     0.54   0.10   0.21     0.26   0.24   0.02
    38   1     0.28   0.18  -0.24    -0.27  -0.11   0.36    -0.19  -0.05   0.08
    39   1    -0.00   0.03   0.03     0.13  -0.14  -0.00     0.17  -0.15   0.07
    40   1     0.01   0.06  -0.01     0.03   0.08  -0.01     0.01   0.24   0.02
    41   1    -0.00   0.04  -0.04    -0.10  -0.11  -0.04    -0.22  -0.09  -0.08
    42   6    -0.01   0.00  -0.05    -0.01  -0.01  -0.02     0.01   0.02  -0.05
    43   6     0.01  -0.06   0.01    -0.02  -0.04   0.00     0.04  -0.01  -0.03
    44   6     0.04   0.01  -0.03    -0.02   0.02  -0.02     0.07   0.07  -0.02
    45   1     0.01  -0.04  -0.03    -0.01  -0.05   0.02     0.03  -0.01  -0.07
    46   1    -0.01  -0.04   0.11     0.00  -0.02   0.01     0.03  -0.00   0.02
    47   1     0.07  -0.14  -0.00    -0.03  -0.05  -0.01     0.08  -0.05  -0.03
    48   1    -0.01   0.04  -0.07    -0.01  -0.01  -0.03     0.01   0.03  -0.06
    49   1     0.04   0.30   0.07    -0.02  -0.05  -0.05     0.06   0.27   0.06
    50   1     0.29  -0.14   0.03    -0.08   0.09  -0.06     0.25  -0.01  -0.02
    51   1    -0.18  -0.11  -0.17     0.04   0.07   0.05    -0.09   0.00  -0.08
    52   6    -0.02   0.08   0.08    -0.00   0.03   0.04     0.03  -0.01  -0.01
    53   1    -0.07   0.13   0.13    -0.02   0.05   0.05     0.04  -0.01  -0.01
    54   1     0.11   0.07   0.10     0.05   0.03   0.04     0.03  -0.01  -0.01
    55   1    -0.05   0.11   0.11    -0.02   0.05   0.06     0.03  -0.01  -0.01
                     28                     29                     30
                      A                      A                      A
 Frequencies --    323.3550               334.6924               348.3706
 Red. masses --      3.3390                 2.0910                 4.0081
 Frc consts  --      0.2057                 0.1380                 0.2866
 IR Inten    --      0.0000                 0.0000                 0.0000
  Atom  AN      X      Y      Z        X      Y      Z        X      Y      Z
     1  26     0.02  -0.02   0.00    -0.01   0.01  -0.02     0.00  -0.03  -0.00
     2   6     0.03   0.01   0.04    -0.02  -0.00  -0.03    -0.03   0.03  -0.06
     3  46     0.00   0.02  -0.01    -0.01  -0.00   0.03    -0.00   0.00   0.03
     4   6     0.03   0.01   0.02     0.02   0.01   0.01    -0.02   0.02  -0.01
     5   1     0.00  -0.03  -0.06     0.02   0.04   0.04    -0.02  -0.03  -0.07
     6   1    -0.03  -0.04  -0.09    -0.03   0.00  -0.02     0.00  -0.03  -0.07
     7   1    -0.04   0.01   0.02    -0.00   0.04   0.06    -0.01  -0.02  -0.06
     8   6    -0.06  -0.02   0.04     0.05  -0.00  -0.02     0.09   0.03   0.00
     9   8    -0.04  -0.03   0.11    -0.01  -0.01  -0.04    -0.02  -0.02  -0.05
    10   6    -0.03   0.04   0.00    -0.06   0.03  -0.02    -0.08   0.10   0.00
    11   8    -0.07   0.03  -0.01     0.04  -0.02   0.01     0.04   0.03   0.07
    12   6     0.00   0.01  -0.00    -0.03  -0.07  -0.08    -0.00   0.06   0.05
    13   6     0.02   0.05   0.04     0.00  -0.00  -0.04     0.04   0.15   0.10
    14   6    -0.00   0.07   0.03    -0.03   0.05  -0.00    -0.02   0.17   0.06
    15   1     0.01  -0.02  -0.02    -0.02  -0.12  -0.12     0.02   0.02   0.10
    16   1     0.06   0.06   0.06     0.05  -0.00  -0.04     0.12   0.17   0.16
    17   1     0.01   0.10   0.05    -0.02   0.08   0.01     0.01   0.24   0.09
    18   1    -0.02  -0.01  -0.02    -0.04  -0.04   0.01     0.00   0.02   0.06
    19   6    -0.04   0.01  -0.03    -0.06  -0.04  -0.04    -0.08   0.05  -0.00
    20   6     0.07  -0.04  -0.00    -0.02   0.02  -0.01    -0.01   0.07  -0.02
    21   8     0.02   0.02  -0.03    -0.02  -0.01   0.01    -0.02   0.01  -0.06
    22   6    -0.03  -0.02   0.01    -0.02  -0.01   0.05     0.01  -0.04  -0.10
    23   6    -0.01  -0.03  -0.01    -0.00   0.00   0.07    -0.00  -0.05  -0.12
    24   6    -0.01  -0.03  -0.05     0.00   0.01   0.03    -0.01  -0.03  -0.08
    25   6    -0.03  -0.04  -0.06    -0.02  -0.01  -0.00    -0.00  -0.03  -0.07
    26   6    -0.04  -0.01  -0.01    -0.03  -0.01   0.02     0.00  -0.03  -0.07
    27   1    -0.03  -0.02  -0.00    -0.03  -0.02   0.07     0.00  -0.02  -0.10
    28   7    -0.01  -0.08   0.10     0.02   0.01  -0.03     0.06   0.04  -0.03
    29   1     0.06  -0.10  -0.02    -0.01   0.04   0.02     0.00   0.12   0.01
    30   1     0.04  -0.01   0.06     0.02  -0.03   0.06    -0.03  -0.03   0.05
    31   1     0.02   0.02   0.01     0.04  -0.01   0.04    -0.01   0.04  -0.06
    32   1     0.00  -0.04  -0.01     0.01   0.03   0.11    -0.00  -0.10  -0.18
    33   7     0.05  -0.02  -0.00     0.09   0.02  -0.04    -0.02  -0.06  -0.00
    34   6    -0.01  -0.07   0.06     0.03  -0.02   0.01     0.02  -0.08   0.11
    35   6     0.03  -0.00  -0.01     0.06   0.08  -0.06     0.02  -0.08   0.02
    36   1    -0.03  -0.04   0.16    -0.03   0.04  -0.04     0.07  -0.12   0.27
    37   1    -0.06  -0.15   0.03     0.12  -0.06   0.04    -0.06  -0.18   0.08
    38   1     0.02  -0.04   0.03    -0.04  -0.07   0.07     0.09   0.08   0.08
    39   1    -0.16   0.16  -0.10    -0.32   0.39  -0.23     0.10  -0.15   0.08
    40   1    -0.00  -0.25  -0.03    -0.02  -0.40  -0.09     0.07   0.00  -0.00
    41   1     0.23   0.10   0.09     0.45   0.27   0.10    -0.05  -0.13   0.04
    42   6     0.06  -0.08  -0.12    -0.02   0.02   0.00    -0.04   0.05  -0.03
    43   6    -0.02  -0.09  -0.08     0.01   0.00   0.01    -0.02  -0.08   0.09
    44   6     0.04   0.18  -0.10     0.01  -0.02   0.01    -0.01  -0.10  -0.04
    45   1    -0.02  -0.07  -0.03     0.01  -0.01  -0.02    -0.02  -0.13   0.13
    46   1    -0.03  -0.10  -0.07     0.02   0.01   0.04     0.03  -0.02   0.23
    47   1    -0.06  -0.12  -0.10     0.04  -0.02   0.01    -0.05  -0.22   0.05
    48   1     0.05  -0.13  -0.10    -0.02   0.03  -0.00    -0.03   0.06  -0.04
    49   1     0.04   0.19  -0.13     0.01  -0.01   0.04    -0.01  -0.15  -0.03
    50   1     0.04   0.34  -0.27     0.03  -0.06   0.04    -0.05  -0.18   0.05
    51   1     0.00   0.26   0.15     0.02  -0.04  -0.04     0.05  -0.13  -0.17
    52   6    -0.05   0.07   0.07     0.05  -0.03  -0.03     0.08  -0.03  -0.03
    53   1    -0.05   0.10   0.09     0.05  -0.04  -0.03     0.08  -0.06  -0.04
    54   1     0.05   0.08   0.07     0.02  -0.03  -0.03     0.02  -0.04  -0.03
    55   1    -0.11   0.12   0.10     0.07  -0.05  -0.03     0.13  -0.07  -0.04
                     31                     32                     33
                      A                      A                      A
 Frequencies --    361.5095               375.5368               391.9206
 Red. masses --      3.2302                 4.4768                 2.8228
 Frc consts  --      0.2487                 0.3720                 0.2555
 IR Inten    --      0.0000                 0.0000                 0.0000
  Atom  AN      X      Y      Z        X      Y      Z        X      Y      Z
     1  26    -0.00  -0.01  -0.01    -0.02  -0.00   0.00     0.01   0.01   0.01
     2   6    -0.01  -0.07  -0.02    -0.05   0.02   0.13    -0.01  -0.00   0.01
     3  46     0.01   0.00   0.01     0.01   0.02  -0.04    -0.02   0.00  -0.02
     4   6    -0.02   0.01  -0.01    -0.01   0.02  -0.00    -0.04  -0.08  -0.00
     5   1    -0.01  -0.00  -0.01    -0.02   0.04   0.04     0.03   0.02  -0.04
     6   1     0.00  -0.02  -0.03    -0.02   0.07   0.08     0.02  -0.11  -0.22
     7   1     0.01  -0.01  -0.03    -0.01  -0.01  -0.02     0.07  -0.11  -0.17
     8   6    -0.01  -0.07  -0.04     0.02  -0.07   0.03     0.01  -0.02   0.01
     9   8     0.00   0.02  -0.08     0.13   0.05  -0.00     0.03   0.02  -0.03
    10   6    -0.05   0.05  -0.01    -0.01   0.01  -0.02     0.00  -0.01   0.10
    11   8    -0.01  -0.09  -0.04     0.06  -0.03  -0.05    -0.00   0.01   0.01
    12   6    -0.02   0.02   0.01    -0.00  -0.00  -0.02     0.02   0.04   0.16
    13   6     0.00   0.07   0.03     0.01   0.03   0.02    -0.01  -0.02   0.05
    14   6    -0.02   0.08   0.02     0.00   0.04   0.00    -0.01  -0.04   0.05
    15   1    -0.00   0.02   0.06     0.01  -0.03  -0.04     0.01   0.08   0.22
    16   1     0.04   0.08   0.06     0.04   0.04   0.05    -0.04  -0.03   0.06
    17   1    -0.01   0.11   0.04     0.01   0.05   0.02    -0.01  -0.05   0.02
    18   1    -0.00  -0.05  -0.02    -0.04  -0.02  -0.08    -0.03   0.07   0.11
    19   6    -0.04   0.02  -0.02    -0.02  -0.02  -0.09     0.02   0.03   0.15
    20   6     0.04  -0.12   0.01    -0.21   0.06   0.05    -0.03   0.01   0.01
    21   8    -0.06  -0.01   0.05     0.04  -0.11   0.20     0.00  -0.02   0.02
    22   6     0.00  -0.00  -0.03     0.00  -0.02  -0.04     0.02  -0.04  -0.07
    23   6    -0.00  -0.02  -0.04    -0.01   0.00  -0.02     0.01   0.01  -0.02
    24   6    -0.01  -0.01  -0.03    -0.01   0.02   0.01     0.02   0.01  -0.04
    25   6     0.00  -0.01  -0.03    -0.01   0.04   0.03     0.01  -0.05  -0.12
    26   6     0.01  -0.01  -0.03    -0.01   0.01  -0.00     0.02  -0.09  -0.14
    27   1    -0.01   0.02   0.00     0.01  -0.03  -0.07     0.01  -0.07  -0.06
    28   7    -0.00  -0.03  -0.07    -0.03  -0.12   0.07     0.01  -0.03   0.02
    29   1     0.03  -0.17   0.02    -0.18   0.15   0.09    -0.03   0.03   0.03
    30   1    -0.02  -0.01   0.03     0.05   0.07   0.03    -0.17  -0.20  -0.05
    31   1    -0.01   0.02  -0.03    -0.07   0.05   0.01     0.12  -0.13  -0.08
    32   1    -0.00  -0.04  -0.07    -0.02   0.01  -0.03     0.01   0.02   0.00
    33   7    -0.01  -0.02  -0.01    -0.01  -0.03  -0.01    -0.02   0.04   0.01
    34   6     0.01  -0.03   0.05    -0.02  -0.06   0.06    -0.01   0.07  -0.06
    35   6     0.02  -0.04   0.01     0.01  -0.05   0.00     0.04   0.06   0.04
    36   1     0.02  -0.04   0.10    -0.01  -0.06   0.15    -0.04   0.09  -0.25
    37   1     0.00  -0.08   0.05    -0.04  -0.13   0.05     0.13   0.17  -0.01
    38   1     0.02   0.03   0.06    -0.00   0.01   0.06    -0.10  -0.04   0.01
    39   1     0.03  -0.05   0.01     0.05  -0.08   0.02    -0.21   0.27  -0.03
    40   1     0.04  -0.04  -0.02     0.04  -0.02  -0.02     0.06  -0.27  -0.05
    41   1     0.01  -0.05   0.04    -0.02  -0.08   0.03     0.33   0.19   0.19
    42   6     0.07  -0.06   0.14    -0.15   0.06  -0.05    -0.02   0.01  -0.00
    43   6     0.04   0.19  -0.09     0.09  -0.02  -0.07     0.01   0.00  -0.01
    44   6    -0.03   0.04   0.13     0.05   0.09   0.05     0.00   0.01   0.01
    45   1     0.03   0.28  -0.14     0.09  -0.12  -0.29     0.01  -0.01  -0.05
    46   1    -0.05   0.08  -0.39     0.14   0.04   0.09     0.02   0.01   0.01
    47   1     0.06   0.47  -0.01     0.29  -0.05  -0.02     0.04   0.01  -0.00
    48   1     0.06  -0.09   0.17    -0.13   0.18  -0.12    -0.02   0.04  -0.01
    49   1    -0.03   0.08   0.06     0.04   0.20   0.28     0.00   0.02   0.04
    50   1    -0.05   0.11   0.07     0.28   0.06  -0.01     0.03   0.01   0.00
    51   1    -0.09   0.07   0.24     0.04   0.06  -0.01     0.01   0.01   0.00
    52   6     0.03   0.05   0.04     0.02  -0.05  -0.06     0.02  -0.00  -0.01
    53   1     0.01   0.11   0.08     0.09  -0.08  -0.11     0.03  -0.00  -0.01
    54   1     0.19   0.05   0.04    -0.05  -0.03  -0.09     0.02   0.00  -0.01
    55   1    -0.05   0.11   0.08    -0.01  -0.04  -0.07    -0.00   0.01  -0.00
                     34                     35                     36
                      A                      A                      A
 Frequencies --    415.4370               432.4114               446.4691
 Red. masses --      3.4992                 3.1925                 5.1504
 Frc consts  --      0.3558                 0.3517                 0.6049
 IR Inten    --      0.0000                 0.0000                 0.0000
  Atom  AN      X      Y      Z        X      Y      Z        X      Y      Z
     1  26    -0.00  -0.02  -0.02     0.00   0.00  -0.00     0.01  -0.01  -0.00
     2   6    -0.01   0.02  -0.07    -0.01   0.02  -0.09    -0.08  -0.09   0.07
     3  46     0.00  -0.00  -0.01    -0.01   0.01   0.00    -0.01   0.00  -0.03
     4   6    -0.08  -0.03  -0.06     0.05   0.07   0.09    -0.05   0.06   0.05
     5   1     0.06  -0.13  -0.10     0.02  -0.06  -0.05     0.05  -0.12  -0.11
     6   1     0.05  -0.07   0.00     0.01  -0.02  -0.03     0.03  -0.06  -0.05
     7   1    -0.02   0.15   0.22     0.02  -0.03  -0.02    -0.00   0.04   0.08
     8   6     0.01  -0.02   0.03     0.00  -0.04   0.05     0.07   0.13  -0.05
     9   8     0.00  -0.01  -0.07    -0.00  -0.01  -0.09     0.07   0.06  -0.10
    10   6    -0.02  -0.01  -0.05    -0.02   0.01   0.03    -0.03   0.01   0.03
    11   8    -0.04   0.06   0.02    -0.04   0.08   0.01    -0.02   0.09   0.14
    12   6     0.01   0.07  -0.02    -0.01  -0.02   0.02    -0.01   0.02   0.02
    13   6    -0.01   0.02  -0.07    -0.01  -0.03  -0.02    -0.03  -0.03  -0.06
    14   6     0.00  -0.02  -0.11    -0.02  -0.00   0.03    -0.02  -0.02  -0.04
    15   1     0.01   0.08   0.01    -0.01  -0.04   0.02    -0.01   0.02   0.04
    16   1    -0.06  -0.00  -0.13    -0.00  -0.04  -0.04    -0.05  -0.06  -0.15
    17   1    -0.02  -0.04  -0.20    -0.02   0.01   0.02    -0.04  -0.03  -0.11
    18   1     0.02   0.10   0.09    -0.05   0.06   0.15    -0.09   0.14   0.19
    19   6     0.02   0.09   0.06    -0.02   0.01   0.10    -0.01   0.05   0.13
    20   6    -0.01   0.02  -0.00    -0.01   0.02   0.00     0.01  -0.07   0.05
    21   8    -0.01   0.00  -0.08    -0.01   0.00  -0.11    -0.07  -0.10   0.22
    22   6     0.00   0.06   0.14     0.01   0.02   0.02    -0.00   0.05   0.10
    23   6     0.04  -0.05   0.00     0.01  -0.01  -0.00     0.02  -0.01   0.03
    24   6     0.04  -0.07  -0.04     0.01  -0.03  -0.02     0.03  -0.06  -0.05
    25   6     0.04  -0.03   0.01     0.02  -0.03  -0.02     0.03  -0.06  -0.03
    26   6     0.01   0.09   0.15     0.02  -0.02  -0.02     0.02   0.02   0.06
    27   1    -0.01   0.12   0.20    -0.00   0.05   0.06     0.00   0.08   0.09
    28   7     0.03  -0.08   0.09     0.03  -0.11   0.13     0.05   0.14  -0.10
    29   1    -0.00   0.08  -0.00     0.01   0.11   0.00     0.01  -0.15   0.18
    30   1    -0.13  -0.06  -0.09     0.20   0.18   0.17     0.08   0.15   0.13
    31   1    -0.01  -0.05  -0.10    -0.14   0.13   0.17    -0.20   0.12   0.10
    32   1     0.06  -0.07  -0.01    -0.00  -0.02  -0.02     0.03  -0.03   0.02
    33   7    -0.10   0.02  -0.00     0.09  -0.05  -0.02     0.00  -0.03  -0.05
    34   6    -0.02   0.05   0.07     0.07  -0.07  -0.04     0.03  -0.04   0.02
    35   6     0.08  -0.09   0.08    -0.08   0.08  -0.11    -0.03   0.01  -0.07
    36   1     0.02   0.01   0.05     0.07  -0.06  -0.02     0.06  -0.06   0.05
    37   1     0.06   0.01   0.10     0.03  -0.07  -0.06     0.07  -0.09   0.03
    38   1    -0.07   0.12   0.15     0.10  -0.07  -0.07     0.02   0.04   0.06
    39   1    -0.03  -0.01   0.08     0.05  -0.02  -0.07     0.03  -0.04  -0.04
    40   1     0.22  -0.32  -0.11    -0.21   0.35   0.09    -0.06   0.12  -0.01
    41   1     0.24  -0.06   0.35    -0.25   0.05  -0.40    -0.10  -0.01  -0.15
    42   6    -0.06   0.01   0.01    -0.09   0.00   0.03     0.08  -0.10  -0.05
    43   6     0.02   0.01  -0.02     0.04   0.01  -0.04    -0.04  -0.09  -0.05
    44   6     0.02  -0.00   0.05     0.01   0.00   0.09     0.01   0.05  -0.08
    45   1     0.03  -0.04  -0.09     0.04  -0.06  -0.16    -0.05  -0.03   0.05
    46   1     0.05   0.02  -0.01     0.08   0.03  -0.04    -0.07  -0.11  -0.08
    47   1     0.08   0.04   0.00     0.14   0.07   0.01    -0.11  -0.11  -0.07
    48   1    -0.06   0.01   0.02    -0.08   0.01   0.02     0.07  -0.14  -0.03
    49   1     0.01   0.00   0.15     0.00   0.01   0.22     0.02   0.10  -0.17
    50   1     0.09  -0.01   0.03     0.10  -0.00   0.06    -0.01   0.15  -0.17
    51   1     0.06  -0.01   0.01     0.05   0.00   0.05    -0.08   0.09   0.10
    52   6     0.01   0.01   0.02     0.00   0.01   0.01     0.06  -0.02  -0.01
    53   1     0.02   0.02   0.01     0.04   0.01  -0.01    -0.03  -0.03   0.04
    54   1     0.04   0.03   0.01     0.02   0.04  -0.01    -0.01  -0.07   0.04
    55   1    -0.02   0.04   0.03    -0.05   0.05   0.02     0.19  -0.10  -0.03
                     37                     38                     39
                      A                      A                      A
 Frequencies --    456.1247               468.0375               476.1510
 Red. masses --      3.0262                 4.8947                 3.3204
 Frc consts  --      0.3710                 0.6317                 0.4435
 IR Inten    --      0.0000                 0.0000                 0.0000
  Atom  AN      X      Y      Z        X      Y      Z        X      Y      Z
     1  26    -0.00   0.01  -0.00    -0.01   0.01  -0.02     0.03   0.01  -0.00
     2   6    -0.04  -0.03  -0.03     0.10   0.03   0.10    -0.04   0.02   0.02
     3  46    -0.00   0.00  -0.01    -0.02  -0.00  -0.01    -0.00   0.00  -0.01
     4   6     0.10  -0.09  -0.01     0.03  -0.01   0.04    -0.04   0.04   0.03
     5   1    -0.04  -0.02   0.03     0.02  -0.15  -0.11    -0.01  -0.09  -0.06
     6   1    -0.04   0.02   0.11     0.01  -0.06   0.02    -0.03  -0.00   0.05
     7   1    -0.07   0.06   0.11    -0.03   0.10   0.17    -0.05   0.06   0.11
     8   6     0.02   0.03   0.04    -0.00  -0.03  -0.14    -0.03  -0.14   0.04
     9   8     0.02   0.02  -0.10    -0.02  -0.01   0.22     0.02  -0.00  -0.01
    10   6     0.02   0.06   0.08    -0.02   0.09   0.11     0.01   0.04   0.08
    11   8    -0.02   0.08   0.05    -0.02  -0.13  -0.04     0.00  -0.05  -0.10
    12   6     0.04  -0.03  -0.10     0.01   0.04  -0.02    -0.00   0.01  -0.04
    13   6     0.06   0.01  -0.04     0.00   0.01  -0.08    -0.02  -0.01  -0.05
    14   6     0.04   0.06   0.04    -0.01   0.07  -0.00    -0.00   0.02   0.03
    15   1     0.04  -0.10  -0.21     0.01   0.01  -0.07    -0.02   0.01  -0.08
    16   1     0.08  -0.00  -0.08    -0.00  -0.01  -0.19    -0.03  -0.03  -0.13
    17   1     0.06   0.11   0.08    -0.01   0.09  -0.04    -0.00   0.02   0.02
    18   1    -0.00   0.05   0.03    -0.04   0.02   0.14    -0.02   0.02   0.04
    19   6     0.00   0.02  -0.01     0.00   0.09   0.14     0.02   0.04   0.08
    20   6     0.00  -0.02   0.03    -0.02   0.03  -0.04    -0.03   0.03  -0.00
    21   8    -0.04  -0.03   0.01     0.09   0.07   0.01    -0.01  -0.04   0.05
    22   6    -0.01  -0.10  -0.07    -0.00  -0.04   0.04    -0.02  -0.05   0.00
    23   6    -0.02  -0.08  -0.07     0.02  -0.11  -0.07    -0.01  -0.05  -0.02
    24   6    -0.04  -0.01   0.02     0.01  -0.09  -0.04    -0.02  -0.05  -0.02
    25   6    -0.04   0.02   0.07     0.01  -0.05   0.02    -0.02  -0.03   0.02
    26   6    -0.05   0.03   0.08    -0.01   0.04   0.11    -0.04   0.02   0.07
    27   1    -0.00  -0.13  -0.11    -0.01  -0.03   0.05    -0.00  -0.08  -0.04
    28   7     0.01  -0.00   0.05     0.02   0.05  -0.18     0.00  -0.10   0.04
    29   1     0.00  -0.04   0.07    -0.00   0.13  -0.12    -0.03  -0.03   0.06
    30   1    -0.16  -0.33  -0.11    -0.06  -0.12   0.05     0.01   0.06   0.08
    31   1     0.41  -0.20  -0.15     0.12  -0.01  -0.06    -0.12   0.10  -0.01
    32   1    -0.01  -0.18  -0.18     0.03  -0.20  -0.17    -0.01  -0.11  -0.09
    33   7     0.06   0.03   0.10     0.02  -0.04   0.04    -0.03  -0.05  -0.03
    34   6    -0.05   0.03  -0.08     0.04  -0.02  -0.06     0.05  -0.02  -0.01
    35   6    -0.04   0.00   0.07    -0.05   0.04   0.01    -0.01   0.04  -0.02
    36   1    -0.12   0.09  -0.13     0.04  -0.03  -0.14     0.10  -0.08  -0.04
    37   1    -0.15   0.16  -0.12     0.03   0.08  -0.06     0.11  -0.01   0.02
    38   1    -0.00  -0.16  -0.20     0.04  -0.07  -0.09     0.03   0.05   0.04
    39   1    -0.03  -0.00   0.00    -0.05   0.05   0.04    -0.05   0.07   0.04
    40   1    -0.10   0.00   0.13    -0.10   0.12   0.09    -0.00   0.05  -0.02
    41   1    -0.06   0.00   0.02    -0.05   0.07  -0.12     0.04   0.07  -0.06
    42   6     0.02  -0.03   0.01    -0.13   0.00  -0.01     0.15   0.12  -0.01
    43   6     0.00  -0.01  -0.01     0.02  -0.04  -0.05    -0.01   0.12   0.15
    44   6    -0.01   0.01   0.01     0.01  -0.02   0.07    -0.00  -0.01  -0.14
    45   1     0.00   0.01  -0.02     0.03  -0.14  -0.20    -0.02   0.22   0.36
    46   1    -0.01  -0.02  -0.04     0.08   0.01   0.01    -0.07   0.10   0.16
    47   1     0.01   0.02  -0.01     0.14  -0.01  -0.02    -0.18  -0.01   0.07
    48   1     0.02  -0.04  -0.01    -0.12   0.01  -0.02     0.14   0.18  -0.01
    49   1    -0.01   0.03  -0.03    -0.00  -0.02   0.26     0.01  -0.06  -0.36
    50   1    -0.02   0.05  -0.02     0.14  -0.03   0.03    -0.21  -0.10   0.05
    51   1    -0.04   0.03   0.07     0.09  -0.02   0.00    -0.04  -0.05  -0.22
    52   6     0.00  -0.00  -0.00     0.05   0.01   0.00    -0.01   0.01   0.00
    53   1     0.03  -0.02  -0.02    -0.08   0.07   0.10     0.09   0.04  -0.04
    54   1    -0.06  -0.00  -0.00     0.24  -0.02   0.04     0.09   0.06  -0.05
    55   1     0.02  -0.02  -0.02     0.06   0.03   0.07    -0.16   0.11   0.03
                     40                     41                     42
                      A                      A                      A
 Frequencies --    486.3654               506.8464               522.6076
 Red. masses --      2.9006                 3.1057                 3.9757
 Frc consts  --      0.4043                 0.4701                 0.6398
 IR Inten    --      0.0000                 0.0000                 0.0000
  Atom  AN      X      Y      Z        X      Y      Z        X      Y      Z
     1  26    -0.04  -0.02  -0.01     0.05   0.02   0.02    -0.01   0.01  -0.00
     2   6    -0.01   0.01   0.02     0.01   0.00  -0.01     0.03  -0.00  -0.02
     3  46    -0.01   0.00  -0.00    -0.01   0.00   0.00     0.01  -0.00   0.00
     4   6     0.12  -0.05   0.00    -0.00   0.04  -0.04    -0.02   0.01   0.00
     5   1     0.07  -0.03  -0.06    -0.03  -0.03  -0.01     0.02  -0.05  -0.05
     6   1     0.09  -0.13  -0.16    -0.03   0.02   0.07     0.01  -0.04  -0.01
     7   1     0.04  -0.01  -0.02    -0.05  -0.04  -0.03     0.01  -0.00   0.01
     8   6    -0.00  -0.06   0.00    -0.01   0.01  -0.04     0.00  -0.10   0.29
     9   8     0.01  -0.00   0.01    -0.01  -0.00   0.01    -0.01   0.00   0.01
    10   6    -0.07   0.01  -0.05     0.03   0.01   0.04    -0.01   0.04   0.05
    11   8     0.01  -0.03  -0.04    -0.01  -0.01   0.00     0.21   0.03  -0.06
    12   6    -0.02  -0.00   0.08    -0.02  -0.03  -0.01    -0.01   0.02   0.02
    13   6    -0.00   0.02  -0.00    -0.05  -0.08  -0.04    -0.02  -0.00  -0.05
    14   6    -0.05   0.03  -0.06    -0.01  -0.04   0.08    -0.02   0.03  -0.00
    15   1     0.01   0.00   0.19    -0.05  -0.00  -0.09    -0.01   0.02   0.03
    16   1     0.04   0.02  -0.00    -0.07  -0.10  -0.11    -0.01  -0.02  -0.12
    17   1    -0.06   0.04  -0.14    -0.01  -0.07   0.11    -0.03   0.03  -0.03
    18   1    -0.08  -0.00   0.04    -0.06   0.01   0.11    -0.03   0.05  -0.01
    19   6    -0.06  -0.01   0.01     0.04  -0.00   0.11     0.00   0.02   0.06
    20   6    -0.02   0.01  -0.00     0.01   0.01  -0.01    -0.03  -0.05  -0.00
    21   8     0.01  -0.02   0.03     0.01   0.01  -0.01     0.00   0.03  -0.04
    22   6     0.03   0.10   0.09    -0.00  -0.07  -0.06     0.00   0.00   0.02
    23   6     0.05   0.03   0.03    -0.02  -0.03  -0.04     0.01  -0.03  -0.01
    24   6     0.06  -0.01  -0.04    -0.03  -0.01   0.01     0.01  -0.03  -0.02
    25   6     0.06  -0.05  -0.06    -0.03   0.01   0.04     0.01  -0.02  -0.00
    26   6     0.06   0.02   0.00    -0.03  -0.01   0.00     0.00  -0.00   0.02
    27   1     0.03   0.14   0.10     0.00  -0.10  -0.09     0.00   0.01   0.02
    28   7     0.00  -0.04   0.00     0.01  -0.01   0.00    -0.17   0.15  -0.05
    29   1    -0.02   0.00   0.02     0.01   0.03  -0.01    -0.06  -0.19  -0.13
    30   1    -0.05  -0.21  -0.05    -0.05  -0.01  -0.04    -0.05  -0.03   0.02
    31   1     0.33  -0.17   0.02     0.07   0.00  -0.04     0.01   0.02  -0.04
    32   1     0.05   0.09   0.10    -0.03  -0.10  -0.13     0.02  -0.06  -0.05
    33   7     0.15   0.10   0.07     0.07   0.16  -0.10     0.00   0.01  -0.02
    34   6    -0.09   0.01  -0.00    -0.11   0.05   0.11    -0.00  -0.00   0.01
    35   6    -0.02  -0.06  -0.02     0.08  -0.09  -0.17     0.01  -0.00  -0.03
    36   1    -0.24   0.17   0.08    -0.23   0.18   0.33    -0.00  -0.00   0.04
    37   1    -0.23  -0.05  -0.06    -0.12  -0.27   0.10     0.00  -0.04   0.01
    38   1    -0.04  -0.17  -0.12    -0.13   0.09   0.15    -0.00   0.02   0.02
    39   1     0.14  -0.19  -0.19     0.23  -0.22  -0.33     0.02  -0.02  -0.03
    40   1    -0.12   0.04   0.10     0.09  -0.12  -0.18     0.01   0.01  -0.02
    41   1    -0.23  -0.17  -0.06    -0.09  -0.24   0.01    -0.01  -0.02  -0.02
    42   6     0.04   0.05  -0.01    -0.02   0.00   0.00     0.01  -0.07   0.01
    43   6    -0.01   0.03   0.05     0.01   0.00  -0.00    -0.01  -0.05  -0.05
    44   6     0.01   0.00  -0.05    -0.00  -0.00   0.02    -0.00   0.00   0.02
    45   1    -0.01   0.06   0.13     0.01  -0.02  -0.03    -0.02  -0.03  -0.07
    46   1    -0.02   0.03   0.06     0.02   0.01   0.00    -0.04  -0.07  -0.10
    47   1    -0.07  -0.02   0.02     0.03   0.01   0.00     0.00   0.00  -0.03
    48   1     0.04   0.07   0.00    -0.02   0.00  -0.01     0.01  -0.09   0.01
    49   1     0.01  -0.02  -0.11    -0.00  -0.01   0.04    -0.00   0.05   0.03
    50   1    -0.05  -0.03   0.00     0.01  -0.01   0.02     0.03   0.05  -0.04
    51   1     0.01  -0.01  -0.09     0.01  -0.00   0.00    -0.04   0.02   0.10
    52   6     0.02  -0.00  -0.01     0.00   0.00   0.00    -0.06  -0.03  -0.04
    53   1     0.05   0.01  -0.02    -0.05   0.01   0.04     0.39  -0.15  -0.34
    54   1     0.07   0.02  -0.02     0.03  -0.02   0.02    -0.41   0.10  -0.19
    55   1    -0.04   0.04   0.01     0.04  -0.01   0.01    -0.27   0.04  -0.18
                     43                     44                     45
                      A                      A                      A
 Frequencies --    553.7942               564.4800               573.8371
 Red. masses --      4.2361                 5.8890                 4.4692
 Frc consts  --      0.7654                 1.1056                 0.8671
 IR Inten    --      0.0000                 0.0000                 0.0000
  Atom  AN      X      Y      Z        X      Y      Z        X      Y      Z
     1  26    -0.00   0.04  -0.02     0.12   0.09  -0.11    -0.09   0.06  -0.07
     2   6     0.01   0.02  -0.02     0.00  -0.01   0.00     0.00  -0.00   0.01
     3  46     0.02   0.00  -0.00     0.00  -0.00   0.00     0.00  -0.01  -0.01
     4   6     0.00   0.01   0.01    -0.03  -0.06   0.04    -0.02  -0.02   0.01
     5   1     0.02  -0.08  -0.06    -0.09  -0.03   0.09    -0.01   0.02   0.04
     6   1     0.01  -0.05  -0.00    -0.03  -0.00   0.10     0.06  -0.13  -0.12
     7   1    -0.01   0.03   0.06    -0.14   0.20   0.27     0.01   0.04   0.07
     8   6     0.00   0.26  -0.14     0.01  -0.06   0.04    -0.01   0.01  -0.00
     9   8     0.00  -0.00  -0.01    -0.00   0.00   0.00     0.01   0.01   0.00
    10   6    -0.01   0.05   0.04    -0.11  -0.08  -0.09     0.04  -0.12  -0.06
    11   8     0.17  -0.14   0.04    -0.02   0.04  -0.01     0.03  -0.01  -0.01
    12   6    -0.02   0.02   0.09     0.00  -0.01   0.21     0.05  -0.07  -0.15
    13   6    -0.04   0.01  -0.02    -0.04   0.03   0.20     0.09   0.05   0.25
    14   6    -0.04   0.02  -0.02    -0.08  -0.11  -0.12     0.06  -0.05   0.17
    15   1    -0.02   0.08   0.16     0.02   0.03   0.37     0.05  -0.15  -0.28
    16   1    -0.02   0.00  -0.05    -0.03   0.08   0.43     0.11   0.11   0.51
    17   1    -0.05  -0.00  -0.06    -0.11  -0.15  -0.18     0.11  -0.01   0.38
    18   1    -0.06  -0.15   0.00    -0.06  -0.02  -0.01    -0.04   0.05   0.16
    19   6    -0.01  -0.02  -0.00    -0.10  -0.08  -0.04     0.06   0.03   0.11
    20   6    -0.06  -0.04   0.00     0.01   0.00  -0.00    -0.01  -0.01   0.01
    21   8     0.01   0.01  -0.06    -0.00   0.00   0.01     0.00  -0.01   0.00
    22   6     0.00  -0.02   0.01    -0.01  -0.15  -0.09    -0.01   0.04   0.10
    23   6     0.02  -0.03  -0.01    -0.04  -0.02   0.01     0.04  -0.08  -0.07
    24   6     0.01  -0.05  -0.03    -0.04  -0.04   0.03     0.01   0.02   0.03
    25   6     0.01  -0.04   0.00    -0.02  -0.03   0.03     0.04  -0.09  -0.09
    26   6    -0.01   0.02   0.05    -0.09   0.12   0.18     0.03   0.03   0.05
    27   1    -0.00  -0.02   0.02    -0.02  -0.17  -0.08    -0.01   0.07   0.09
    28   7    -0.16  -0.10   0.17     0.02   0.02  -0.04    -0.03   0.01   0.00
    29   1    -0.09  -0.18  -0.10     0.01   0.02   0.01    -0.02  -0.03  -0.01
    30   1    -0.03  -0.03   0.03     0.00  -0.03   0.05     0.08   0.12  -0.01
    31   1     0.03   0.02  -0.04    -0.06  -0.09   0.16    -0.15  -0.00   0.12
    32   1     0.02  -0.06  -0.04    -0.06   0.02   0.04     0.07  -0.16  -0.12
    33   7     0.01  -0.01  -0.00     0.04   0.01   0.02    -0.01   0.02  -0.02
    34   6     0.01  -0.01  -0.01    -0.00  -0.01  -0.01    -0.01   0.02   0.01
    35   6    -0.00   0.01  -0.00    -0.02   0.01  -0.00     0.01  -0.01  -0.03
    36   1     0.01  -0.02  -0.01    -0.04   0.02  -0.02    -0.02   0.03   0.03
    37   1     0.02  -0.01  -0.01    -0.02   0.00  -0.02     0.00  -0.03   0.02
    38   1     0.01  -0.01  -0.01     0.00  -0.06  -0.03    -0.03   0.03   0.03
    39   1    -0.01   0.01   0.01    -0.00  -0.01  -0.05     0.03  -0.03  -0.04
    40   1    -0.01   0.03   0.01    -0.07   0.03   0.05     0.02  -0.01  -0.04
    41   1    -0.00   0.01  -0.03    -0.05  -0.00  -0.05    -0.01  -0.03  -0.00
    42   6     0.05  -0.02   0.01    -0.01  -0.00  -0.00     0.01  -0.00  -0.00
    43   6    -0.00   0.02   0.01     0.00  -0.01  -0.01    -0.00   0.00   0.01
    44   6    -0.00   0.01  -0.01    -0.00  -0.00   0.01     0.00   0.00  -0.01
    45   1    -0.01   0.08   0.05     0.00  -0.02  -0.03    -0.00   0.01   0.02
    46   1    -0.05  -0.02  -0.05     0.00  -0.01  -0.00    -0.01  -0.00   0.00
    47   1    -0.04   0.04   0.01     0.01  -0.01  -0.01    -0.01  -0.00   0.00
    48   1     0.05   0.02   0.03    -0.01   0.01   0.00     0.01  -0.00  -0.00
    49   1     0.00   0.02  -0.08    -0.00   0.00   0.03     0.00  -0.00  -0.03
    50   1    -0.04   0.03  -0.01     0.02   0.00  -0.00    -0.01   0.01  -0.01
    51   1    -0.04   0.02   0.04     0.00  -0.00   0.01    -0.00   0.01  -0.00
    52   6    -0.06  -0.02  -0.02     0.02  -0.00   0.00    -0.02  -0.00  -0.00
    53   1    -0.33  -0.14   0.09     0.09   0.02  -0.03    -0.02  -0.02  -0.01
    54   1    -0.33  -0.17   0.12     0.06   0.03  -0.03    -0.05  -0.01   0.00
    55   1     0.40  -0.32  -0.10    -0.08   0.06   0.01     0.01  -0.02  -0.02
                     46                     47                     48
                      A                      A                      A
 Frequencies --    589.7225               615.9545               633.4706
 Red. masses --      4.1613                 5.6465                 3.8644
 Frc consts  --      0.8527                 1.2622                 0.9137
 IR Inten    --      0.0000                 0.0000                 0.0000
  Atom  AN      X      Y      Z        X      Y      Z        X      Y      Z
     1  26     0.03   0.05  -0.04     0.10  -0.11  -0.00     0.00  -0.05  -0.08
     2   6    -0.01   0.01   0.00     0.01   0.02   0.02     0.01  -0.00   0.01
     3  46     0.00  -0.00   0.00    -0.01   0.01  -0.01    -0.00   0.00  -0.01
     4   6     0.01  -0.03  -0.01    -0.02  -0.06   0.04     0.02  -0.04  -0.02
     5   1    -0.04  -0.08  -0.01    -0.14   0.36   0.39     0.03  -0.10  -0.16
     6   1    -0.10   0.20   0.32    -0.05   0.13  -0.00    -0.04   0.23   0.37
     7   1     0.04  -0.24  -0.26    -0.07   0.01  -0.04    -0.04   0.05   0.03
     8   6     0.00  -0.01   0.00     0.02   0.02  -0.02     0.01   0.00  -0.00
     9   8     0.00  -0.00  -0.00     0.01   0.00   0.03     0.00   0.00   0.01
    10   6    -0.02  -0.05  -0.06    -0.13  -0.05  -0.10    -0.03  -0.06  -0.10
    11   8    -0.01   0.01  -0.00     0.05  -0.03   0.01     0.01   0.00   0.01
    12   6    -0.00   0.02   0.10    -0.01   0.05  -0.14     0.01   0.01  -0.00
    13   6    -0.01  -0.00  -0.04     0.01   0.07   0.05     0.02   0.01  -0.02
    14   6     0.01   0.01   0.05    -0.00  -0.02  -0.13     0.02   0.07   0.18
    15   1     0.02   0.02   0.22     0.00  -0.03  -0.23     0.03   0.07   0.15
    16   1    -0.03  -0.01  -0.08    -0.05   0.09   0.14     0.08   0.03   0.04
    17   1     0.03   0.03   0.14     0.01   0.06  -0.16     0.07   0.13   0.37
    18   1    -0.01  -0.02  -0.04    -0.03   0.07   0.27    -0.01   0.05   0.14
    19   6    -0.05  -0.05  -0.04    -0.02   0.13   0.24     0.03   0.04   0.14
    20   6     0.00   0.01  -0.00    -0.06  -0.03  -0.02    -0.03  -0.02  -0.01
    21   8     0.00  -0.01   0.01     0.02   0.01  -0.03     0.00   0.01  -0.01
    22   6    -0.05   0.13   0.22    -0.04   0.06   0.03     0.01  -0.04  -0.05
    23   6     0.04  -0.18  -0.14    -0.06  -0.02  -0.07    -0.05   0.12   0.18
    24   6    -0.04  -0.06   0.01    -0.08   0.19   0.20     0.02  -0.12  -0.17
    25   6    -0.07   0.13   0.18    -0.03   0.09  -0.01    -0.02   0.14   0.15
    26   6     0.00  -0.15  -0.16    -0.02  -0.01  -0.06    -0.01   0.01  -0.02
    27   1    -0.08   0.18   0.30    -0.05   0.14   0.05    -0.00   0.02  -0.00
    28   7     0.01   0.00  -0.01    -0.10  -0.03   0.01    -0.04  -0.01  -0.00
    29   1     0.00   0.01   0.02    -0.08  -0.13  -0.08    -0.03  -0.05  -0.05
    30   1     0.02  -0.00  -0.03    -0.03  -0.07   0.05     0.04   0.01  -0.04
    31   1     0.00  -0.05   0.03    -0.01  -0.11   0.15    -0.00  -0.06   0.04
    32   1     0.05  -0.34  -0.31    -0.08  -0.01  -0.08    -0.06   0.34   0.43
    33   7     0.01   0.00   0.01     0.05   0.01   0.03     0.00   0.00   0.02
    34   6    -0.00   0.00  -0.01     0.01  -0.01  -0.01    -0.00   0.01  -0.00
    35   6     0.00   0.02   0.02    -0.01   0.01   0.01    -0.00  -0.00   0.02
    36   1    -0.01   0.01  -0.02    -0.03   0.02  -0.03    -0.01   0.01  -0.02
    37   1    -0.01   0.02  -0.01    -0.01   0.01  -0.02    -0.01   0.03  -0.01
    38   1     0.00  -0.03  -0.02     0.01  -0.08  -0.04     0.00  -0.02  -0.02
    39   1    -0.03   0.05   0.01    -0.01   0.01  -0.04    -0.01   0.00   0.02
    40   1    -0.00  -0.03   0.01    -0.06   0.01   0.06     0.00  -0.01   0.01
    41   1     0.03   0.03   0.03    -0.03   0.01  -0.03     0.01   0.00   0.03
    42   6     0.01   0.01  -0.01     0.03  -0.01   0.01     0.01  -0.00   0.00
    43   6    -0.00  -0.00   0.00     0.00   0.02   0.01    -0.00   0.00   0.00
    44   6     0.01   0.00  -0.02     0.00   0.00  -0.01    -0.00   0.00  -0.00
    45   1    -0.00   0.00   0.03    -0.00   0.06   0.04    -0.00   0.02   0.01
    46   1    -0.00  -0.00   0.01    -0.03  -0.01  -0.03    -0.01  -0.01  -0.01
    47   1    -0.03  -0.02  -0.01    -0.02   0.03   0.01    -0.01   0.01   0.00
    48   1    -0.00  -0.01   0.05     0.03   0.02   0.01     0.01   0.03   0.00
    49   1     0.01  -0.00  -0.00     0.01   0.01  -0.05    -0.00   0.00  -0.01
    50   1     0.02   0.00  -0.02    -0.02   0.00   0.00    -0.01   0.00  -0.00
    51   1     0.02   0.00  -0.03    -0.02   0.00   0.01    -0.01   0.00   0.01
    52   6     0.01  -0.00   0.00     0.03  -0.01  -0.01     0.01  -0.00  -0.00
    53   1     0.01   0.01  -0.00     0.01  -0.05  -0.02     0.01  -0.02  -0.01
    54   1     0.03   0.01  -0.00    -0.05  -0.03   0.00    -0.01  -0.01  -0.00
    55   1    -0.02   0.02   0.01     0.10  -0.07  -0.04     0.03  -0.02  -0.01
                     49                     50                     51
                      A                      A                      A
 Frequencies --    638.0153               651.3591               665.8557
 Red. masses --      4.4759                 5.5940                 4.7746
 Frc consts  --      1.0735                 1.3984                 1.2472
 IR Inten    --      0.0000                 0.0000                 0.0000
  Atom  AN      X      Y      Z        X      Y      Z        X      Y      Z
     1  26     0.00  -0.03  -0.04     0.00   0.00  -0.00    -0.00  -0.08  -0.09
     2   6    -0.01   0.02   0.01    -0.25   0.39   0.07    -0.02  -0.06  -0.02
     3  46     0.00   0.00   0.00    -0.00  -0.00   0.01    -0.01  -0.00  -0.00
     4   6     0.02   0.00  -0.02     0.01   0.01  -0.01    -0.03   0.01   0.05
     5   1    -0.01   0.26   0.26     0.00  -0.01  -0.01    -0.05   0.17   0.22
     6   1    -0.00  -0.08  -0.08     0.00   0.01   0.01    -0.03   0.14   0.14
     7   1    -0.05   0.12   0.10    -0.02   0.01   0.03    -0.03   0.10   0.09
     8   6     0.00  -0.00  -0.00    -0.02  -0.03  -0.04    -0.08   0.02   0.00
     9   8     0.01  -0.00   0.00     0.15  -0.04  -0.01    -0.00   0.01  -0.06
    10   6    -0.02  -0.06  -0.12     0.01   0.02   0.01     0.05   0.09   0.20
    11   8    -0.01   0.01   0.00    -0.01  -0.06  -0.04     0.10  -0.11  -0.08
    12   6     0.04   0.06   0.17    -0.01  -0.01  -0.01     0.02   0.02   0.04
    13   6    -0.01  -0.11  -0.23    -0.01   0.01   0.02    -0.01   0.02   0.04
    14   6     0.03   0.10   0.25    -0.01  -0.00  -0.01    -0.03   0.01  -0.02
    15   1     0.05   0.13   0.33    -0.01   0.00   0.01     0.01   0.10   0.18
    16   1    -0.04  -0.11  -0.25     0.01   0.01   0.03     0.02   0.06   0.19
    17   1     0.11   0.23   0.44    -0.02  -0.02  -0.02     0.01   0.04   0.12
    18   1     0.00   0.01  -0.05    -0.02  -0.03  -0.01    -0.06  -0.06  -0.05
    19   6    -0.00  -0.02  -0.04     0.01  -0.01   0.01     0.05  -0.01   0.01
    20   6    -0.01   0.00   0.01    -0.07   0.05   0.18     0.17   0.09   0.06
    21   8     0.00  -0.01  -0.01     0.06  -0.07  -0.18    -0.05  -0.03   0.05
    22   6     0.00  -0.00  -0.01    -0.00  -0.01  -0.01    -0.04   0.06   0.04
    23   6    -0.01  -0.03  -0.04    -0.00   0.01   0.01    -0.00   0.00  -0.01
    24   6    -0.03   0.14   0.19     0.00  -0.01  -0.01     0.01   0.05   0.07
    25   6     0.00  -0.11  -0.14     0.00   0.01   0.01     0.00   0.03   0.03
    26   6    -0.02   0.11   0.08    -0.00  -0.01  -0.00    -0.01   0.01   0.00
    27   1    -0.01   0.02   0.03    -0.01   0.06   0.02    -0.05   0.12   0.09
    28   7     0.00   0.00  -0.01     0.07   0.06  -0.07     0.18   0.06   0.05
    29   1    -0.01  -0.01   0.03    -0.07  -0.10   0.61     0.20   0.26   0.19
    30   1     0.10   0.10  -0.03    -0.01  -0.00  -0.01    -0.13  -0.12   0.05
    31   1    -0.09   0.01   0.07     0.03   0.02  -0.03     0.10   0.02  -0.12
    32   1    -0.06  -0.05  -0.10     0.01   0.00   0.02    -0.02   0.19   0.19
    33   7    -0.02  -0.01   0.01    -0.00   0.00  -0.00    -0.00   0.01  -0.02
    34   6     0.00  -0.00   0.00    -0.00   0.00   0.00    -0.01   0.01   0.01
    35   6    -0.01  -0.01   0.02     0.01   0.00  -0.00     0.01  -0.00  -0.04
    36   1     0.01  -0.02  -0.01    -0.00   0.00   0.00    -0.01   0.01   0.03
    37   1    -0.00   0.02  -0.00     0.00   0.00   0.00     0.01  -0.03   0.01
    38   1     0.01   0.00  -0.01     0.00   0.01   0.00    -0.01   0.04   0.02
    39   1    -0.01  -0.01   0.05     0.00   0.00   0.00     0.02  -0.01  -0.06
    40   1     0.01   0.00   0.00     0.01  -0.00  -0.01    -0.01   0.01  -0.02
    41   1     0.00  -0.00   0.03     0.00  -0.00   0.00    -0.01  -0.01  -0.05
    42   6     0.00  -0.01  -0.00     0.10  -0.13   0.04    -0.05   0.02  -0.02
    43   6    -0.00  -0.01  -0.01    -0.01  -0.07  -0.03    -0.01  -0.03  -0.02
    44   6    -0.00  -0.00  -0.00    -0.02  -0.01   0.04     0.00   0.00  -0.00
    45   1    -0.00   0.00   0.00    -0.02   0.05  -0.00    -0.00  -0.13  -0.06
    46   1    -0.01  -0.01  -0.01    -0.11  -0.14  -0.15     0.07   0.03   0.08
    47   1    -0.01  -0.00  -0.01    -0.03   0.02  -0.01     0.03  -0.09  -0.03
    48   1     0.00   0.00   0.03     0.09  -0.13   0.03    -0.05  -0.09   0.01
    49   1    -0.00   0.00   0.00    -0.00   0.09  -0.10    -0.00  -0.03   0.10
    50   1     0.01   0.01  -0.01    -0.04   0.07  -0.03     0.05  -0.01  -0.02
    51   1    -0.00   0.00   0.01    -0.17   0.02   0.23     0.07   0.00  -0.05
    52   6     0.01  -0.00  -0.00    -0.02  -0.00  -0.01    -0.18   0.03   0.03
    53   1     0.01   0.00   0.00    -0.05   0.05   0.03    -0.19   0.04   0.04
    54   1     0.02  -0.00  -0.00     0.10  -0.00  -0.00    -0.18   0.03   0.03
    55   1    -0.00   0.00   0.00    -0.06   0.04   0.04    -0.17   0.03   0.03
                     52                     53                     54
                      A                      A                      A
 Frequencies --    674.4202               700.1305               740.8594
 Red. masses --      5.3501                 4.2275                10.7255
 Frc consts  --      1.4338                 1.2209                 3.4685
 IR Inten    --      0.0000                 0.0000                 0.0000
  Atom  AN      X      Y      Z        X      Y      Z        X      Y      Z
     1  26    -0.03  -0.06  -0.08     0.01  -0.02  -0.03     0.00  -0.00  -0.00
     2   6     0.01   0.07  -0.00     0.02  -0.03   0.02    -0.12   0.38  -0.33
     3  46     0.01   0.00   0.00    -0.00   0.00  -0.01    -0.01   0.01  -0.03
     4   6    -0.07  -0.00   0.08     0.20   0.19  -0.16     0.03   0.02  -0.02
     5   1    -0.02   0.11   0.15    -0.01   0.03   0.08    -0.01   0.01   0.01
     6   1    -0.03   0.13   0.13    -0.01   0.00  -0.03     0.01  -0.02  -0.03
     7   1    -0.01   0.09   0.09     0.01  -0.00  -0.00     0.02  -0.02  -0.01
     8   6     0.07  -0.02  -0.00     0.01  -0.02   0.00     0.00   0.02   0.02
     9   8    -0.01  -0.02   0.05     0.01   0.02   0.01    -0.22  -0.26  -0.03
    10   6     0.10   0.08   0.31     0.09   0.16  -0.06    -0.01   0.02  -0.03
    11   8    -0.12   0.12   0.08    -0.03   0.05   0.02     0.04   0.03   0.02
    12   6     0.06   0.02   0.05    -0.07  -0.17   0.02     0.01  -0.02  -0.01
    13   6     0.03  -0.01   0.03    -0.08  -0.09   0.08    -0.00  -0.03   0.02
    14   6     0.03  -0.05  -0.02    -0.16   0.04   0.00    -0.03   0.01   0.02
    15   1     0.07   0.08   0.19    -0.11  -0.00   0.16    -0.01   0.00  -0.03
    16   1    -0.00   0.03   0.20     0.16  -0.02   0.25     0.04  -0.02   0.04
    17   1     0.07   0.02   0.14    -0.20  -0.13  -0.02    -0.05  -0.02  -0.06
    18   1     0.09   0.06  -0.12    -0.10  -0.03   0.16    -0.04   0.00   0.08
    19   6     0.03  -0.02  -0.14     0.07  -0.11   0.12     0.01   0.00   0.04
    20   6    -0.14  -0.07  -0.07    -0.03  -0.02  -0.00     0.13   0.04  -0.23
    21   8     0.05   0.03  -0.02    -0.01   0.00  -0.02     0.26   0.00   0.43
    22   6    -0.04   0.05   0.04    -0.04   0.04   0.02     0.01  -0.02  -0.02
    23   6     0.01   0.00  -0.02     0.01  -0.00  -0.03    -0.00   0.00  -0.00
    24   6     0.02   0.03   0.06     0.01   0.03   0.06    -0.00   0.01   0.00
    25   6     0.01   0.02   0.02    -0.00  -0.00   0.01     0.00   0.00   0.00
    26   6    -0.00   0.00   0.01    -0.02  -0.00   0.00    -0.00   0.00   0.01
    27   1    -0.05   0.10   0.08    -0.03   0.02   0.02    -0.05   0.11   0.14
    28   7    -0.14  -0.06  -0.04    -0.03  -0.01  -0.01     0.00  -0.03   0.04
    29   1    -0.16  -0.22  -0.17    -0.04  -0.04  -0.05     0.10  -0.09  -0.13
    30   1    -0.15  -0.11   0.08     0.11   0.10  -0.18     0.02   0.02  -0.02
    31   1     0.05   0.02  -0.10     0.27   0.26  -0.41     0.02   0.04  -0.04
    32   1    -0.00   0.20   0.20     0.01   0.01  -0.02    -0.00  -0.00  -0.01
    33   7    -0.00   0.02  -0.04    -0.07  -0.04   0.01    -0.01  -0.01   0.00
    34   6    -0.02   0.02   0.02     0.01  -0.01  -0.01    -0.00  -0.01  -0.01
    35   6     0.03   0.00  -0.10    -0.02  -0.01   0.08    -0.02  -0.00   0.03
    36   1    -0.03   0.03   0.07     0.09  -0.08  -0.04     0.01  -0.02  -0.03
    37   1     0.01  -0.07   0.02     0.03   0.04  -0.00     0.01   0.00  -0.00
    38   1    -0.04   0.07   0.06     0.03   0.06  -0.01    -0.00   0.00  -0.00
    39   1     0.05  -0.02  -0.11    -0.04   0.01   0.21    -0.02   0.00   0.04
    40   1     0.01   0.02  -0.07     0.11  -0.02  -0.04     0.00  -0.00   0.02
    41   1    -0.00  -0.01  -0.11     0.07   0.02   0.14    -0.00   0.00   0.04
    42   6     0.04  -0.02   0.02     0.00   0.00  -0.00     0.04  -0.05   0.03
    43   6     0.01   0.02   0.02     0.00   0.01   0.00     0.00  -0.03  -0.01
    44   6    -0.00  -0.00  -0.00     0.01   0.00  -0.01    -0.04  -0.03   0.11
    45   1    -0.00   0.12   0.06     0.00   0.02   0.01    -0.01   0.06  -0.02
    46   1    -0.07  -0.03  -0.07    -0.00   0.00   0.00    -0.07  -0.09  -0.16
    47   1    -0.03   0.07   0.02    -0.01   0.00   0.00    -0.00   0.09   0.01
    48   1     0.04   0.07   0.03     0.00   0.03   0.00     0.02  -0.14   0.13
    49   1     0.00   0.02  -0.06     0.01   0.01  -0.01    -0.04  -0.06   0.13
    50   1    -0.03   0.00   0.01     0.00   0.00  -0.01    -0.04  -0.06   0.13
    51   1    -0.04  -0.00   0.03    -0.00   0.00  -0.01    -0.00  -0.04   0.06
    52   6     0.16  -0.03  -0.02     0.03  -0.01  -0.01    -0.04   0.02   0.01
    53   1     0.17  -0.03  -0.03     0.04  -0.00  -0.01    -0.04  -0.02  -0.00
    54   1     0.18  -0.02  -0.03     0.04  -0.00  -0.01    -0.13   0.01   0.01
    55   1     0.14  -0.02  -0.02     0.01   0.00  -0.00    -0.01  -0.02  -0.02
                     55                     56                     57
                      A                      A                      A
 Frequencies --    757.9181               772.9646               784.5866
 Red. masses --      2.8778                 2.1748                 2.0887
 Frc consts  --      0.9740                 0.7656                 0.7575
 IR Inten    --      0.0000                 0.0000                 0.0000
  Atom  AN      X      Y      Z        X      Y      Z        X      Y      Z
     1  26    -0.00  -0.01  -0.00     0.00   0.01   0.01     0.00   0.01   0.01
     2   6    -0.00   0.00  -0.00     0.00   0.01  -0.00    -0.00   0.00  -0.00
     3  46    -0.00   0.00  -0.00    -0.00   0.00   0.00    -0.00  -0.00  -0.00
     4   6    -0.00   0.00  -0.00    -0.01  -0.02  -0.00     0.00  -0.00  -0.00
     5   1     0.16   0.05  -0.04     0.08  -0.22  -0.02    -0.04   0.04   0.03
     6   1    -0.16   0.07   0.39    -0.16   0.14   0.10     0.06  -0.10  -0.15
     7   1     0.06  -0.27  -0.58     0.20  -0.19  -0.23    -0.08   0.20   0.26
     8   6    -0.00  -0.00  -0.00     0.00   0.00  -0.00    -0.00  -0.00  -0.00
     9   8    -0.00  -0.00   0.00    -0.00  -0.00  -0.00    -0.00  -0.00   0.00
    10   6     0.04   0.00   0.04    -0.00  -0.02  -0.02     0.05  -0.04   0.01
    11   8    -0.00   0.00   0.00    -0.00  -0.00   0.00    -0.00   0.01   0.00
    12   6    -0.06  -0.02  -0.02    -0.03  -0.01  -0.02    -0.17  -0.07  -0.07
    13   6    -0.01   0.07   0.01    -0.00   0.03  -0.02    -0.02   0.15  -0.04
    14   6     0.04  -0.00  -0.04     0.03   0.01   0.00     0.12  -0.01  -0.05
    15   1    -0.02  -0.01   0.12    -0.02   0.01   0.04    -0.03   0.10   0.74
    16   1     0.01   0.06   0.01     0.02   0.03  -0.03     0.01   0.11  -0.16
    17   1     0.04  -0.04   0.06     0.02  -0.01   0.01     0.18  -0.01   0.31
    18   1    -0.01  -0.01   0.01     0.01   0.00  -0.00    -0.03   0.00   0.04
    19   6     0.00  -0.03   0.03     0.01  -0.00   0.03     0.01  -0.08   0.05
    20   6    -0.00   0.00   0.00    -0.00  -0.00   0.00     0.00   0.00  -0.01
    21   8     0.00   0.00   0.00     0.00   0.00   0.00     0.00  -0.00   0.01
    22   6     0.19  -0.01   0.00    -0.09   0.06  -0.03    -0.01  -0.02  -0.02
    23   6     0.01  -0.05   0.11     0.12   0.03  -0.15    -0.01  -0.01  -0.02
    24   6    -0.02  -0.06   0.05     0.10  -0.07   0.09    -0.02   0.02  -0.01
    25   6    -0.15  -0.06  -0.06    -0.08  -0.09   0.03     0.03   0.01  -0.00
    26   6    -0.02   0.24  -0.08    -0.07   0.03   0.02     0.01  -0.05   0.01
    27   1     0.09   0.03   0.26    -0.05  -0.25  -0.16    -0.03   0.08   0.06
    28   7     0.00  -0.00  -0.00     0.00   0.00  -0.00    -0.00  -0.00   0.00
    29   1    -0.00  -0.00   0.00    -0.00   0.00   0.01     0.00  -0.00  -0.02
    30   1    -0.02  -0.00  -0.02     0.01   0.01   0.00     0.00   0.01  -0.02
    31   1     0.03   0.00  -0.04    -0.03  -0.03   0.04    -0.00  -0.00   0.00
    32   1    -0.15  -0.18  -0.22     0.02   0.60   0.43     0.00   0.02   0.03
    33   7     0.00   0.00  -0.00     0.01   0.00   0.00     0.00   0.00   0.00
    34   6     0.00  -0.00  -0.00     0.00  -0.00  -0.00    -0.00   0.00  -0.00
    35   6     0.00   0.01  -0.00     0.00   0.00   0.01    -0.00  -0.01  -0.00
    36   1     0.00  -0.00  -0.00    -0.01   0.01  -0.00    -0.00   0.00  -0.00
    37   1     0.00  -0.01  -0.00    -0.00  -0.00  -0.00    -0.00  -0.00  -0.00
    38   1     0.00  -0.00  -0.00     0.00  -0.02  -0.01    -0.00   0.00   0.00
    39   1    -0.00   0.01  -0.01     0.01  -0.00  -0.01     0.00  -0.01  -0.00
    40   1    -0.01  -0.00   0.01    -0.01  -0.00   0.02    -0.00   0.01  -0.00
    41   1    -0.01  -0.00   0.01    -0.01  -0.00   0.01     0.01   0.00  -0.02
    42   6     0.00  -0.00  -0.00     0.00  -0.00   0.00    -0.00   0.00  -0.00
    43   6    -0.00  -0.00   0.00     0.00  -0.00  -0.00    -0.00  -0.00  -0.00
    44   6     0.00   0.00  -0.00    -0.00  -0.00   0.01     0.00  -0.00  -0.00
    45   1    -0.00  -0.00   0.01     0.00   0.01  -0.01    -0.00   0.01   0.01
    46   1    -0.00  -0.00  -0.01    -0.01  -0.01  -0.00    -0.01  -0.00  -0.00
    47   1    -0.00   0.00   0.00    -0.00  -0.00  -0.00    -0.01  -0.01  -0.01
    48   1    -0.00   0.00   0.02     0.01   0.02  -0.02    -0.01   0.01   0.06
    49   1     0.00   0.00   0.00    -0.00   0.01  -0.01    -0.00  -0.00   0.03
    50   1     0.00   0.00  -0.00    -0.01   0.00   0.00     0.02   0.00  -0.02
    51   1     0.00  -0.00  -0.00    -0.02  -0.00   0.02     0.02   0.00  -0.02
    52   6     0.00  -0.00  -0.00    -0.00  -0.00   0.00     0.00  -0.00  -0.00
    53   1     0.00   0.00   0.00    -0.00   0.00   0.00     0.00   0.00   0.00
    54   1     0.01  -0.00  -0.00     0.00   0.00   0.00     0.01   0.00  -0.00
    55   1    -0.00   0.00   0.00    -0.00   0.00   0.00    -0.00   0.00   0.00
                     58                     59                     60
                      A                      A                      A
 Frequencies --    792.9896               796.4385               807.4327
 Red. masses --      1.2849                 1.4991                 1.4429
 Frc consts  --      0.4760                 0.5602                 0.5542
 IR Inten    --      0.0000                 0.0000                 0.0000
  Atom  AN      X      Y      Z        X      Y      Z        X      Y      Z
     1  26    -0.00   0.02   0.02    -0.00   0.01   0.01     0.00   0.01   0.03
     2   6     0.00  -0.00   0.00     0.00  -0.00   0.01    -0.00   0.00  -0.00
     3  46     0.00  -0.00  -0.00    -0.00  -0.00   0.00     0.00   0.00   0.00
     4   6     0.02  -0.01  -0.01    -0.01   0.01   0.01     0.00   0.01  -0.01
     5   1    -0.01   0.12   0.08    -0.09   0.14   0.10    -0.08   0.25   0.21
     6   1    -0.11   0.25   0.42     0.12  -0.29  -0.34    -0.02   0.14   0.29
     7   1    -0.17   0.39   0.38     0.02  -0.23  -0.25     0.01  -0.05  -0.03
     8   6    -0.00   0.00   0.00    -0.00   0.00  -0.00     0.00   0.00   0.00
     9   8     0.00   0.00   0.00     0.00   0.00   0.00    -0.00  -0.00  -0.00
    10   6     0.00   0.00  -0.01    -0.00   0.01   0.00    -0.03   0.02  -0.01
    11   8     0.00   0.00   0.00     0.00  -0.00  -0.00     0.00  -0.00  -0.00
    12   6     0.01  -0.00   0.01     0.01   0.00  -0.04     0.01   0.01  -0.00
    13   6     0.00   0.00   0.02     0.01  -0.05  -0.04    -0.01  -0.06  -0.06
    14   6    -0.01   0.00   0.01    -0.01   0.01   0.03    -0.02  -0.05  -0.10
    15   1    -0.01  -0.05  -0.14     0.03   0.10   0.19     0.00   0.03  -0.02
    16   1    -0.01  -0.04  -0.15     0.05   0.04   0.28     0.02   0.07   0.46
    17   1    -0.06  -0.06  -0.16    -0.06  -0.03  -0.22     0.18   0.27   0.62
    18   1    -0.02  -0.00   0.03     0.00   0.01  -0.01     0.00  -0.01  -0.03
    19   6    -0.00  -0.00  -0.00     0.00   0.02  -0.01    -0.02   0.02   0.00
    20   6     0.00  -0.00  -0.00     0.00  -0.00   0.00     0.00   0.00  -0.00
    21   8    -0.00  -0.00  -0.00    -0.00  -0.00  -0.01     0.00  -0.00   0.00
    22   6     0.07  -0.03  -0.02     0.06  -0.06   0.00    -0.01   0.00   0.02
    23   6     0.01  -0.05  -0.04    -0.02  -0.11  -0.05    -0.00  -0.02  -0.01
    24   6    -0.02  -0.00  -0.01    -0.05   0.01  -0.05    -0.01  -0.02  -0.08
    25   6    -0.03  -0.04  -0.06     0.01   0.06   0.03     0.02  -0.03  -0.04
    26   6     0.02  -0.03  -0.06     0.01   0.05   0.02     0.01  -0.01   0.01
    27   1    -0.04   0.27   0.29    -0.02   0.24   0.24     0.04  -0.08  -0.10
    28   7    -0.00   0.00  -0.00    -0.00   0.00  -0.00     0.00  -0.00   0.00
    29   1     0.00  -0.01  -0.01     0.00  -0.00   0.00     0.00   0.00   0.00
    30   1     0.03   0.02  -0.01    -0.01   0.00   0.01    -0.03  -0.02  -0.01
    31   1     0.01  -0.00  -0.01    -0.02   0.01   0.02     0.05   0.01  -0.04
    32   1    -0.05   0.26   0.27    -0.05   0.33   0.43     0.04   0.02   0.08
    33   7    -0.00  -0.00   0.00     0.00   0.00  -0.00     0.00   0.00   0.00
    34   6    -0.00   0.01   0.00     0.00  -0.01  -0.00     0.00  -0.01  -0.00
    35   6    -0.00  -0.01  -0.00     0.00   0.01  -0.00    -0.00  -0.00   0.01
    36   1    -0.00   0.01   0.00     0.00  -0.01   0.00     0.01  -0.01  -0.00
    37   1    -0.01   0.01   0.00     0.01  -0.01  -0.00     0.00  -0.01  -0.00
    38   1    -0.00   0.01   0.00     0.00  -0.00   0.00     0.01  -0.01  -0.00
    39   1    -0.00  -0.01   0.01    -0.00   0.01  -0.01    -0.00   0.00   0.01
    40   1     0.01   0.01  -0.01    -0.00  -0.01   0.00    -0.00  -0.00   0.01
    41   1     0.01   0.00  -0.02    -0.01  -0.00   0.02    -0.00   0.00   0.01
    42   6    -0.00   0.00  -0.00    -0.00   0.00  -0.00     0.00  -0.00   0.00
    43   6    -0.00   0.00   0.00    -0.00  -0.00  -0.00     0.00  -0.00   0.00
    44   6     0.00   0.00  -0.01     0.00   0.00  -0.01    -0.00  -0.00   0.00
    45   1    -0.00   0.00   0.01    -0.00   0.01   0.01     0.00  -0.00  -0.01
    46   1     0.00   0.00   0.00    -0.00   0.00  -0.00     0.00  -0.00  -0.00
    47   1    -0.01  -0.01  -0.00    -0.01  -0.01  -0.00     0.00   0.01   0.00
    48   1    -0.01   0.00   0.03    -0.01   0.01   0.04     0.00  -0.00  -0.01
    49   1     0.00  -0.00   0.00     0.00  -0.00   0.01    -0.00   0.00  -0.00
    50   1     0.01   0.00  -0.01     0.02   0.00  -0.02    -0.01  -0.00   0.01
    51   1     0.01   0.00  -0.01     0.01   0.00  -0.01    -0.00  -0.00   0.00
    52   6     0.00   0.00  -0.00     0.00  -0.00   0.00    -0.00   0.00   0.00
    53   1     0.00  -0.00  -0.00     0.00  -0.00  -0.00     0.00  -0.00  -0.00
    54   1    -0.00  -0.00  -0.00     0.00   0.00  -0.00    -0.00   0.00   0.00
    55   1     0.00  -0.00  -0.00     0.00   0.00  -0.00     0.00  -0.00  -0.00
                     61                     62                     63
                      A                      A                      A
 Frequencies --    817.5315               832.4549               856.9050
 Red. masses --      1.4532                 1.3087                 1.9325
 Frc consts  --      0.5723                 0.5343                 0.8361
 IR Inten    --      0.0000                 0.0000                 0.0000
  Atom  AN      X      Y      Z        X      Y      Z        X      Y      Z
     1  26     0.00   0.01   0.01     0.00  -0.00   0.00    -0.00  -0.00  -0.00
     2   6    -0.01   0.00   0.01    -0.00  -0.00   0.01     0.07  -0.04  -0.08
     3  46     0.00  -0.00   0.00     0.00  -0.00  -0.00    -0.00  -0.00  -0.00
     4   6    -0.01  -0.02   0.01     0.02   0.03   0.00     0.01  -0.01   0.01
     5   1     0.06  -0.22  -0.15     0.15  -0.33  -0.33    -0.01   0.04   0.10
     6   1    -0.08   0.10   0.05     0.03  -0.23  -0.32     0.01  -0.19  -0.25
     7   1    -0.03   0.19   0.17    -0.04   0.14   0.10    -0.09   0.29   0.23
     8   6     0.00   0.00  -0.00    -0.00   0.00   0.00    -0.00  -0.00  -0.01
     9   8     0.00   0.00   0.00     0.00   0.00   0.00    -0.04  -0.01  -0.02
    10   6    -0.02   0.01   0.00    -0.02   0.01  -0.01     0.03  -0.02   0.01
    11   8     0.00  -0.00  -0.00     0.00  -0.00  -0.00    -0.01  -0.01  -0.01
    12   6     0.03  -0.00  -0.10     0.03   0.02   0.02    -0.05   0.01   0.06
    13   6     0.02  -0.08  -0.05     0.00  -0.03   0.02    -0.03   0.04  -0.09
    14   6    -0.02   0.01   0.03    -0.02  -0.04  -0.06     0.05   0.02   0.01
    15   1     0.08   0.22   0.48    -0.00  -0.05  -0.19    -0.08  -0.16  -0.36
    16   1     0.09   0.08   0.56    -0.01  -0.04  -0.05     0.07   0.19   0.49
    17   1    -0.07  -0.01  -0.25     0.13   0.17   0.51    -0.00  -0.08  -0.12
    18   1     0.01   0.01   0.02    -0.01   0.00   0.03     0.01  -0.02  -0.01
    19   6    -0.00   0.05  -0.02    -0.02   0.02  -0.01    -0.00  -0.03   0.03
    20   6     0.01   0.00  -0.01     0.01  -0.00  -0.00    -0.10   0.04   0.10
    21   8    -0.00  -0.00  -0.00    -0.00  -0.00  -0.00     0.04   0.04   0.02
    22   6     0.00   0.01  -0.03     0.04  -0.02  -0.04     0.03   0.03   0.01
    23   6     0.02   0.06   0.02     0.01   0.01  -0.01     0.02  -0.01   0.01
    24   6     0.04  -0.02   0.05     0.02  -0.00   0.08    -0.00  -0.05   0.01
    25   6    -0.04  -0.02   0.00    -0.05   0.02   0.05    -0.05   0.02   0.03
    26   6    -0.01  -0.02  -0.04    -0.02   0.01  -0.04     0.00   0.01  -0.06
    27   1    -0.06   0.05   0.12    -0.09   0.26   0.30     0.07  -0.16  -0.10
    28   7    -0.00  -0.00   0.00    -0.00   0.00   0.00     0.02   0.01  -0.00
    29   1     0.01  -0.00  -0.01     0.00  -0.02  -0.01    -0.07   0.11   0.18
    30   1     0.00  -0.00   0.02    -0.02  -0.03   0.01     0.02   0.01  -0.00
    31   1    -0.02  -0.03   0.03     0.03   0.03  -0.03    -0.02   0.00   0.02
    32   1     0.01  -0.16  -0.25    -0.07   0.09   0.01    -0.04   0.02  -0.01
    33   7     0.00  -0.00   0.00    -0.01  -0.00  -0.00    -0.00  -0.01   0.00
    34   6    -0.00   0.01   0.00    -0.00  -0.00  -0.00    -0.01   0.01   0.00
    35   6    -0.00  -0.01  -0.01    -0.00  -0.00  -0.00    -0.00  -0.01  -0.01
    36   1    -0.01   0.01   0.00     0.01  -0.01   0.00    -0.00   0.01  -0.00
    37   1    -0.01   0.01   0.00     0.01  -0.00   0.00    -0.01   0.01   0.00
    38   1    -0.00  -0.00   0.00    -0.00   0.02   0.01    -0.01   0.01   0.01
    39   1     0.00  -0.01  -0.01    -0.00  -0.01   0.02     0.00  -0.01   0.01
    40   1    -0.00   0.01  -0.00     0.01   0.01  -0.01     0.01   0.02  -0.01
    41   1     0.00   0.00  -0.02     0.01   0.00   0.00     0.02   0.01  -0.03
    42   6    -0.00   0.00  -0.00    -0.00   0.00  -0.00     0.03  -0.02   0.01
    43   6    -0.00   0.00  -0.00     0.00   0.00   0.00     0.00  -0.02  -0.01
    44   6    -0.00   0.00  -0.01     0.00   0.00  -0.01     0.02  -0.01   0.01
    45   1    -0.00   0.00   0.01     0.00   0.00   0.02    -0.00   0.03   0.02
    46   1    -0.00   0.00   0.01     0.00   0.01   0.01    -0.03  -0.04  -0.04
    47   1    -0.01  -0.01  -0.01    -0.01  -0.01  -0.00    -0.02  -0.01  -0.02
    48   1    -0.01  -0.01   0.08    -0.01  -0.01   0.04     0.04   0.07  -0.11
    49   1    -0.01  -0.01   0.04     0.00  -0.01   0.01     0.03   0.08  -0.16
    50   1     0.03  -0.00  -0.02     0.02  -0.00  -0.01    -0.06   0.05  -0.02
    51   1     0.04   0.01  -0.03     0.02   0.00  -0.02    -0.14  -0.00   0.15
    52   6    -0.00   0.00   0.00     0.00   0.00   0.00    -0.00  -0.01  -0.01
    53   1    -0.00  -0.00  -0.00     0.00  -0.00  -0.00    -0.02   0.02   0.01
    54   1    -0.01   0.00   0.00    -0.01  -0.00   0.00     0.05  -0.01  -0.00
    55   1     0.00  -0.00  -0.00     0.00  -0.00  -0.00    -0.03   0.02   0.02
                     64                     65                     66
                      A                      A                      A
 Frequencies --    859.0541               870.7918               876.4427
 Red. masses --      2.4554                 1.5244                 1.5021
 Frc consts  --      1.0676                 0.6811                 0.6798
 IR Inten    --      0.0000                 0.0000                 0.0000
  Atom  AN      X      Y      Z        X      Y      Z        X      Y      Z
     1  26     0.00   0.00   0.00    -0.00   0.00   0.00    -0.00   0.00   0.00
     2   6     0.10  -0.07  -0.11     0.03  -0.02  -0.03    -0.00   0.00   0.00
     3  46    -0.00   0.00  -0.00    -0.00  -0.00  -0.00     0.00   0.00   0.00
     4   6     0.01   0.00   0.00    -0.02  -0.00  -0.01     0.01   0.00   0.02
     5   1     0.06  -0.13  -0.23    -0.11   0.16   0.30    -0.02   0.47   0.52
     6   1     0.00   0.11   0.19    -0.05   0.14  -0.00    -0.02  -0.23  -0.30
     7   1     0.02  -0.11  -0.09     0.14  -0.23  -0.15    -0.00   0.20   0.13
     8   6    -0.00  -0.01  -0.01    -0.01   0.00  -0.00     0.00   0.00   0.00
     9   8    -0.06  -0.01  -0.02    -0.01  -0.00  -0.01     0.00   0.00   0.00
    10   6    -0.04   0.02  -0.01     0.01  -0.01  -0.00    -0.02   0.01  -0.01
    11   8    -0.00  -0.02  -0.01    -0.01  -0.01  -0.01     0.00   0.00   0.00
    12   6     0.05  -0.01  -0.08    -0.01  -0.00   0.02     0.04  -0.00  -0.04
    13   6     0.03  -0.05   0.09    -0.01   0.02  -0.01     0.02  -0.04   0.06
    14   6    -0.06  -0.03  -0.01     0.02   0.01   0.00    -0.04  -0.01  -0.00
    15   1     0.08   0.21   0.42    -0.01  -0.08  -0.13     0.05   0.10   0.18
    16   1    -0.05  -0.18  -0.41    -0.05   0.03   0.02    -0.13  -0.15  -0.32
    17   1     0.01   0.10   0.14     0.01  -0.01  -0.03     0.02   0.16   0.03
    18   1     0.02  -0.01   0.03     0.00   0.00  -0.02     0.01   0.00  -0.02
    19   6    -0.00   0.04  -0.03     0.01  -0.01   0.01     0.01   0.02  -0.01
    20   6    -0.14   0.05   0.15    -0.03   0.01   0.06     0.00   0.01  -0.01
    21   8     0.06   0.06   0.02     0.02   0.02   0.00    -0.00  -0.00  -0.00
    22   6    -0.00  -0.01   0.02    -0.05  -0.04  -0.07     0.02   0.04  -0.01
    23   6    -0.03  -0.03  -0.01     0.02   0.09  -0.01     0.05   0.03   0.01
    24   6    -0.03   0.05   0.00     0.07  -0.03  -0.03     0.04  -0.11  -0.02
    25   6     0.03  -0.00  -0.03     0.02  -0.03   0.02    -0.08  -0.01   0.05
    26   6     0.02  -0.00   0.02    -0.04  -0.03   0.06    -0.02   0.02  -0.05
    27   1     0.01  -0.03  -0.03    -0.25   0.51   0.49     0.02  -0.15  -0.02
    28   7     0.03   0.01  -0.00    -0.00   0.01   0.00     0.00  -0.00   0.00
    29   1    -0.10   0.16   0.26    -0.03   0.01   0.09     0.00   0.01  -0.01
    30   1    -0.00  -0.01   0.01    -0.02   0.00  -0.01     0.01  -0.02   0.03
    31   1     0.02   0.00  -0.01    -0.01  -0.01  -0.00    -0.01   0.01   0.02
    32   1    -0.04   0.05   0.07     0.10  -0.15  -0.22    -0.08   0.00  -0.14
    33   7    -0.00  -0.00  -0.00     0.01   0.01   0.00    -0.01  -0.01  -0.00
    34   6    -0.00   0.00   0.00     0.01  -0.01  -0.00    -0.01   0.01   0.00
    35   6    -0.00   0.00   0.00     0.00   0.01   0.01    -0.00  -0.01  -0.01
    36   1     0.00  -0.00  -0.00    -0.01   0.00  -0.00     0.01  -0.01   0.00
    37   1     0.00   0.01   0.00     0.00  -0.02  -0.01    -0.00   0.02   0.01
    38   1    -0.00   0.01   0.00     0.01  -0.03  -0.01    -0.01   0.03   0.01
    39   1    -0.00   0.00   0.01     0.00   0.00  -0.02     0.00  -0.01   0.02
    40   1     0.01  -0.00  -0.00    -0.02  -0.01   0.02     0.01   0.02  -0.02
    41   1     0.00   0.00   0.01    -0.02  -0.01   0.02     0.01   0.00  -0.02
    42   6     0.04  -0.02   0.01     0.00  -0.00   0.00     0.00   0.00   0.00
    43   6     0.00  -0.03  -0.02     0.00   0.01  -0.00     0.00  -0.01  -0.00
    44   6     0.02  -0.02  -0.01     0.01  -0.00  -0.03    -0.00  -0.00   0.00
    45   1    -0.00   0.06   0.06     0.00   0.02   0.05    -0.00   0.01   0.01
    46   1    -0.07  -0.06  -0.05    -0.01   0.01   0.02    -0.02  -0.01  -0.01
    47   1    -0.06  -0.04  -0.04    -0.03  -0.05  -0.03    -0.01  -0.00  -0.01
    48   1     0.04   0.11  -0.02    -0.02  -0.01   0.10     0.00   0.02   0.02
    49   1     0.03   0.10  -0.15     0.01   0.02   0.01    -0.01  -0.00   0.02
    50   1    -0.01   0.08  -0.09     0.05   0.03  -0.07     0.01  -0.00  -0.00
    51   1    -0.14   0.02   0.19     0.01   0.02   0.01     0.01   0.00   0.00
    52   6    -0.01  -0.01  -0.01     0.01  -0.01  -0.01    -0.00   0.00   0.00
    53   1    -0.03   0.03   0.02     0.01   0.00  -0.00     0.00  -0.00  -0.00
    54   1     0.06  -0.01  -0.01     0.04  -0.01  -0.00    -0.00   0.00   0.00
    55   1    -0.04   0.02   0.03     0.01   0.00   0.00     0.00  -0.00  -0.00
                     67                     68                     69
                      A                      A                      A
 Frequencies --    885.2855               906.0265               910.7095
 Red. masses --      3.1910                 3.0664                 3.2575
 Frc consts  --      1.4735                 1.4831                 1.5918
 IR Inten    --      0.0000                 0.0000                 0.0000
  Atom  AN      X      Y      Z        X      Y      Z        X      Y      Z
     1  26     0.00  -0.00   0.00    -0.00   0.00  -0.00     0.00   0.00  -0.00
     2   6    -0.00   0.01   0.00    -0.00  -0.05   0.05    -0.01   0.02  -0.05
     3  46     0.00  -0.00  -0.00     0.00  -0.00  -0.00     0.00   0.00  -0.00
     4   6     0.23  -0.14   0.06     0.02  -0.02   0.01     0.02  -0.03   0.01
     5   1    -0.03  -0.01   0.01    -0.01  -0.03  -0.02     0.02  -0.01  -0.04
     6   1    -0.02   0.07   0.00    -0.00   0.03   0.01     0.01  -0.04   0.00
     7   1     0.10  -0.15  -0.13     0.01  -0.04  -0.03    -0.01   0.04   0.02
     8   6     0.02  -0.01  -0.00    -0.06   0.01   0.02    -0.12   0.04   0.03
     9   8     0.00  -0.00   0.00     0.01   0.02   0.00    -0.02  -0.02  -0.04
    10   6    -0.01  -0.00   0.04    -0.00   0.00   0.00    -0.01   0.01  -0.00
    11   8     0.02   0.01   0.01    -0.05  -0.04  -0.05    -0.10  -0.08  -0.08
    12   6    -0.01   0.00   0.01    -0.00  -0.00  -0.00    -0.00  -0.01  -0.01
    13   6     0.01   0.02  -0.02     0.00   0.00  -0.00     0.00  -0.00   0.01
    14   6    -0.01   0.01  -0.03    -0.01   0.01  -0.01    -0.02   0.01  -0.01
    15   1     0.04  -0.11   0.00    -0.01   0.00  -0.01    -0.02   0.04   0.01
    16   1     0.02   0.03   0.03     0.03   0.01   0.01     0.05  -0.01  -0.03
    17   1     0.02   0.09  -0.01    -0.00   0.02   0.01    -0.01   0.04   0.00
    18   1    -0.01  -0.04   0.14    -0.05   0.01  -0.15    -0.07  -0.01  -0.33
    19   6    -0.08   0.02   0.00     0.01  -0.00   0.01     0.02  -0.00   0.03
    20   6    -0.01  -0.02  -0.01     0.03   0.22  -0.10     0.14  -0.02   0.16
    21   8     0.00  -0.00  -0.00    -0.05  -0.02   0.00     0.02   0.00   0.02
    22   6    -0.02  -0.01  -0.01    -0.00  -0.01  -0.00     0.01   0.01   0.01
    23   6    -0.01   0.01  -0.00    -0.00   0.00  -0.00    -0.00  -0.02   0.00
    24   6     0.00   0.01  -0.01     0.00   0.01   0.00    -0.01   0.00   0.00
    25   6     0.01  -0.00  -0.00     0.01  -0.00  -0.00    -0.00   0.00  -0.00
    26   6    -0.01   0.00   0.03    -0.00  -0.01   0.01     0.01   0.01  -0.01
    27   1    -0.04   0.07   0.04    -0.04   0.08   0.09     0.05  -0.09  -0.10
    28   7     0.01  -0.01  -0.02    -0.04   0.02   0.07    -0.11   0.09   0.08
    29   1    -0.01  -0.02  -0.01     0.03   0.25  -0.23     0.09  -0.16   0.18
    30   1     0.49   0.11   0.18     0.05   0.01   0.03     0.08   0.02   0.04
    31   1    -0.15   0.02   0.15    -0.03  -0.00   0.02    -0.06  -0.00   0.04
    32   1     0.03  -0.02   0.01    -0.00  -0.01  -0.02     0.01   0.01   0.04
    33   7    -0.10  -0.13  -0.03    -0.01  -0.01  -0.00    -0.01  -0.02  -0.00
    34   6    -0.11   0.20   0.06    -0.01   0.02   0.01    -0.02   0.03   0.01
    35   6     0.03  -0.01  -0.12     0.00   0.00  -0.01    -0.00  -0.00  -0.01
    36   1     0.01   0.04  -0.02     0.00   0.00  -0.00     0.00   0.00  -0.01
    37   1    -0.11   0.32   0.06    -0.02   0.04   0.01    -0.02   0.06   0.01
    38   1    -0.07   0.26   0.05    -0.00   0.02  -0.00    -0.00   0.03  -0.00
    39   1    -0.01   0.01   0.15    -0.00   0.00   0.01    -0.00  -0.00   0.02
    40   1     0.19   0.06  -0.26     0.01   0.00  -0.02     0.02   0.01  -0.03
    41   1     0.13   0.05  -0.11     0.01   0.00  -0.00     0.01   0.01  -0.01
    42   6    -0.01  -0.00   0.00     0.13   0.03  -0.00    -0.06   0.01  -0.01
    43   6     0.00   0.01   0.01    -0.00  -0.13  -0.12    -0.03   0.05   0.02
    44   6     0.00   0.00  -0.01    -0.03  -0.01   0.16    -0.00   0.01  -0.06
    45   1     0.00   0.01   0.01    -0.02   0.15   0.12    -0.00  -0.23  -0.11
    46   1     0.00   0.01   0.00    -0.22  -0.25  -0.21     0.19   0.20   0.23
    47   1     0.00   0.02   0.01    -0.20  -0.20  -0.20     0.10  -0.05   0.03
    48   1    -0.01  -0.00   0.01     0.12   0.16   0.03    -0.06  -0.22  -0.00
    49   1     0.00  -0.00   0.01    -0.01  -0.01  -0.12    -0.02  -0.02   0.12
    50   1     0.02   0.01  -0.02    -0.24  -0.09   0.32     0.12   0.03  -0.12
    51   1     0.01   0.00  -0.01    -0.16  -0.05   0.15     0.10   0.03  -0.07
    52   6    -0.04   0.01   0.01     0.12  -0.02  -0.01     0.23  -0.03  -0.02
    53   1    -0.05   0.01   0.01     0.14  -0.06  -0.05     0.31  -0.12  -0.11
    54   1    -0.04   0.00   0.01     0.07  -0.02  -0.02     0.09  -0.03  -0.03
    55   1    -0.03   0.01   0.01     0.15  -0.05  -0.05     0.30  -0.11  -0.11
                     70                     71                     72
                      A                      A                      A
 Frequencies --    943.6561               959.4147               961.7255
 Red. masses --      2.0347                 1.7207                 1.2694
 Frc consts  --      1.0675                 0.9332                 0.6917
 IR Inten    --      0.0000                 0.0000                 0.0000
  Atom  AN      X      Y      Z        X      Y      Z        X      Y      Z
     1  26     0.00   0.01  -0.00     0.00  -0.01  -0.00     0.00  -0.00   0.00
     2   6     0.00   0.00   0.00     0.00   0.00  -0.00    -0.00   0.00   0.00
     3  46    -0.00  -0.00   0.00    -0.00   0.00   0.00    -0.00   0.00   0.00
     4   6    -0.08  -0.14  -0.04     0.00  -0.08  -0.14    -0.01   0.00   0.02
     5   1     0.05   0.01  -0.05    -0.00   0.03   0.03    -0.01  -0.01  -0.02
     6   1     0.01  -0.05  -0.03     0.01  -0.02  -0.05     0.02  -0.03   0.03
     7   1    -0.02   0.02   0.02    -0.04   0.02   0.02     0.00   0.02   0.00
     8   6     0.02   0.00  -0.01    -0.01  -0.01   0.01     0.01   0.00  -0.00
     9   8     0.00   0.00   0.01     0.00   0.00  -0.00     0.00   0.00   0.00
    10   6     0.03   0.05  -0.00     0.04   0.03   0.09    -0.00  -0.00  -0.01
    11   8     0.01   0.02   0.03     0.00  -0.01  -0.01     0.00   0.00   0.01
    12   6    -0.03  -0.04   0.01     0.02   0.01  -0.00    -0.01  -0.00   0.01
    13   6    -0.02  -0.01   0.01    -0.01  -0.00   0.00    -0.00   0.00  -0.00
    14   6    -0.11   0.09  -0.05     0.01  -0.01  -0.01    -0.01   0.01  -0.00
    15   1    -0.15   0.18  -0.09     0.06  -0.08   0.03    -0.01  -0.04  -0.06
    16   1     0.34   0.01  -0.06    -0.10  -0.01   0.01     0.04   0.01   0.01
    17   1    -0.05   0.22   0.09     0.02   0.00   0.03    -0.01  -0.01   0.00
    18   1     0.06   0.16  -0.47    -0.06  -0.16   0.52     0.02   0.05  -0.12
    19   6     0.16  -0.04   0.03    -0.08   0.02  -0.03     0.02  -0.00   0.01
    20   6    -0.03  -0.01  -0.02     0.01   0.00   0.01     0.00  -0.01  -0.00
    21   8     0.00   0.00  -0.00    -0.00  -0.00   0.00    -0.00  -0.00  -0.00
    22   6     0.01   0.00  -0.00     0.00   0.01   0.00     0.00   0.00   0.01
    23   6    -0.00  -0.01   0.00    -0.00   0.00   0.00    -0.00  -0.00  -0.00
    24   6    -0.00   0.01   0.00     0.00  -0.01   0.00    -0.01   0.01  -0.00
    25   6    -0.00  -0.00   0.00     0.00   0.00   0.00     0.01   0.00  -0.00
    26   6    -0.00  -0.00  -0.00     0.00   0.00  -0.00     0.01   0.01  -0.01
    27   1    -0.00   0.07   0.03     0.01  -0.05  -0.02    -0.01  -0.13   0.00
    28   7     0.02  -0.02  -0.01    -0.02   0.01   0.00     0.01  -0.00  -0.00
    29   1    -0.02   0.01  -0.01     0.01  -0.02   0.02    -0.00  -0.03   0.00
    30   1     0.22   0.14   0.09     0.38   0.30  -0.00    -0.04  -0.03   0.00
    31   1    -0.40  -0.06   0.23    -0.42   0.08   0.05     0.03  -0.01   0.01
    32   1     0.01  -0.04  -0.02    -0.04   0.03  -0.00    -0.01   0.01   0.00
    33   7     0.04  -0.00   0.01     0.04   0.06  -0.02    -0.00  -0.01   0.01
    34   6     0.00   0.02   0.03     0.04  -0.01  -0.01    -0.01   0.00   0.00
    35   6     0.01   0.01   0.01    -0.04   0.01   0.08     0.01  -0.00  -0.01
    36   1    -0.07   0.08  -0.02    -0.10   0.12  -0.01     0.01  -0.01  -0.00
    37   1    -0.09   0.13  -0.01    -0.03  -0.09  -0.04    -0.00   0.03   0.00
    38   1     0.04  -0.15  -0.07     0.02  -0.20  -0.05     0.00   0.01  -0.00
    39   1     0.02  -0.01  -0.09     0.02  -0.02  -0.02     0.00   0.00  -0.00
    40   1    -0.05  -0.02   0.05    -0.00  -0.05   0.03    -0.00   0.01  -0.00
    41   1    -0.04  -0.02   0.02    -0.09  -0.05   0.20     0.01   0.01  -0.03
    42   6    -0.00  -0.01   0.01     0.01   0.01  -0.01     0.01  -0.01  -0.05
    43   6    -0.00  -0.00   0.01     0.01   0.01  -0.02     0.07   0.05  -0.03
    44   6     0.01   0.00  -0.00    -0.02  -0.01   0.01    -0.08  -0.06   0.01
    45   1    -0.00  -0.01  -0.03     0.01   0.03   0.07     0.05   0.24   0.39
    46   1     0.00  -0.01  -0.04    -0.01   0.02   0.06    -0.09   0.03   0.18
    47   1     0.03   0.06   0.03    -0.06  -0.09  -0.06    -0.25  -0.31  -0.20
    48   1     0.00   0.00  -0.03    -0.00   0.01   0.03    -0.01   0.08   0.17
    49   1     0.01   0.01  -0.05    -0.02  -0.01   0.09    -0.10   0.03   0.43
    50   1    -0.03  -0.01   0.03     0.04   0.01  -0.03     0.27   0.13  -0.31
    51   1    -0.01  -0.01  -0.01     0.02   0.01   0.03     0.04   0.05   0.22
    52   6    -0.03  -0.00   0.01     0.01   0.00  -0.01    -0.01  -0.00   0.00
    53   1    -0.02   0.02   0.01    -0.02  -0.00   0.01     0.00   0.00  -0.00
    54   1     0.01   0.01  -0.01     0.01  -0.01   0.01    -0.00   0.00  -0.00
    55   1    -0.07   0.03   0.02     0.05  -0.02  -0.00    -0.02   0.01   0.00
                     73                     74                     75
                      A                      A                      A
 Frequencies --    974.8852               995.9524              1003.0204
 Red. masses --      1.8824                 1.2941                 1.5385
 Frc consts  --      1.0541                 0.7563                 0.9119
 IR Inten    --      0.0000                 0.0000                 0.0000
  Atom  AN      X      Y      Z        X      Y      Z        X      Y      Z
     1  26     0.00   0.00   0.00     0.00   0.00   0.00     0.00   0.00   0.00
     2   6     0.01   0.01  -0.02    -0.01   0.01   0.01     0.00  -0.00  -0.00
     3  46     0.00   0.00  -0.00     0.00  -0.00  -0.00    -0.00   0.00  -0.00
     4   6    -0.01   0.00   0.01     0.00   0.00   0.00    -0.03   0.00   0.01
     5   1     0.01   0.01  -0.00     0.03   0.02   0.00     0.02   0.02  -0.00
     6   1    -0.00  -0.00   0.00    -0.03   0.04  -0.03    -0.00  -0.00  -0.01
     7   1     0.01  -0.00  -0.00     0.00  -0.02  -0.00     0.03  -0.01  -0.01
     8   6     0.02  -0.01  -0.02     0.01  -0.00  -0.00    -0.01  -0.10   0.10
     9   8    -0.00  -0.00  -0.00     0.01   0.00   0.00    -0.00   0.00  -0.00
    10   6    -0.00  -0.00  -0.01    -0.00  -0.00  -0.00     0.01   0.00  -0.02
    11   8     0.02   0.02   0.02     0.01   0.01   0.00    -0.00   0.02  -0.02
    12   6    -0.00  -0.00  -0.00    -0.00  -0.00  -0.00    -0.00  -0.00   0.00
    13   6     0.00  -0.00   0.00     0.00  -0.00   0.00    -0.01  -0.00   0.00
    14   6    -0.00   0.01  -0.00     0.00  -0.00  -0.00    -0.02   0.02  -0.01
    15   1    -0.03   0.06   0.00    -0.01   0.05   0.05    -0.04   0.06  -0.02
    16   1     0.03  -0.00  -0.01    -0.00  -0.01  -0.01     0.09   0.01  -0.01
    17   1     0.00   0.02   0.00     0.01   0.03  -0.01    -0.01   0.01   0.03
    18   1     0.03  -0.01   0.05    -0.00  -0.01   0.04     0.02  -0.03   0.20
    19   6     0.01  -0.01  -0.01    -0.00  -0.00  -0.00     0.03  -0.01  -0.02
    20   6     0.01  -0.12   0.07     0.02   0.02  -0.04     0.00   0.01   0.01
    21   8     0.02   0.01  -0.00    -0.01  -0.01   0.00    -0.00  -0.00   0.00
    22   6    -0.00   0.00  -0.00    -0.00   0.00  -0.01    -0.00   0.00  -0.00
    23   6    -0.00  -0.00   0.00    -0.00  -0.01   0.01    -0.00  -0.00   0.00
    24   6    -0.00   0.00  -0.00     0.01  -0.01   0.00    -0.00   0.00  -0.00
    25   6    -0.00  -0.00   0.00    -0.01  -0.00   0.00    -0.00  -0.00   0.00
    26   6     0.00   0.00   0.00    -0.01  -0.01   0.01     0.00  -0.00   0.00
    27   1    -0.00   0.03   0.01     0.03   0.19  -0.06     0.00   0.01  -0.01
    28   7    -0.01  -0.01  -0.02    -0.01  -0.01  -0.00    -0.01   0.01  -0.01
    29   1    -0.02  -0.32   0.20     0.01   0.05  -0.14     0.00   0.01  -0.00
    30   1    -0.04  -0.02  -0.00    -0.00  -0.00  -0.00    -0.06  -0.02  -0.02
    31   1     0.03  -0.01   0.01     0.01  -0.00   0.00     0.01  -0.02   0.01
    32   1     0.02  -0.01   0.00     0.04  -0.03   0.01     0.01  -0.01   0.01
    33   7    -0.00  -0.01   0.00    -0.00   0.00  -0.00     0.01  -0.02   0.02
    34   6    -0.00   0.00  -0.00     0.00  -0.00  -0.00    -0.01   0.03   0.00
    35   6     0.01  -0.00  -0.01    -0.00   0.00   0.00     0.02  -0.02  -0.01
    36   1     0.01  -0.00   0.00     0.00   0.00   0.00    -0.00   0.01   0.01
    37   1     0.00   0.00   0.00     0.01  -0.01  -0.00    -0.01   0.01   0.00
    38   1    -0.01   0.02   0.01    -0.00   0.01   0.00    -0.02   0.03   0.02
    39   1    -0.01   0.00   0.00    -0.00   0.00   0.00    -0.03   0.02  -0.01
    40   1    -0.01   0.01   0.01     0.00  -0.00  -0.00    -0.06   0.02   0.08
    41   1     0.01   0.01  -0.04     0.00   0.00  -0.00     0.05   0.04  -0.15
    42   6     0.05   0.12  -0.05     0.01  -0.02  -0.04     0.00  -0.00  -0.00
    43   6    -0.04   0.00  -0.12    -0.04   0.08  -0.00     0.00   0.00   0.00
    44   6    -0.03   0.07   0.11     0.04  -0.09   0.05    -0.00  -0.00  -0.00
    45   1    -0.01  -0.18   0.03    -0.00  -0.25  -0.07     0.00   0.00   0.00
    46   1     0.10   0.16   0.29     0.23   0.27   0.34     0.00   0.00   0.00
    47   1    -0.11  -0.40  -0.24     0.07  -0.16  -0.03     0.00   0.00   0.00
    48   1     0.04   0.02  -0.05     0.02  -0.08  -0.22     0.00  -0.01  -0.00
    49   1    -0.02  -0.12  -0.01     0.06   0.18  -0.30    -0.00  -0.00   0.01
    50   1    -0.24  -0.18   0.43    -0.07   0.13  -0.13     0.01   0.00  -0.01
    51   1     0.06  -0.05  -0.24    -0.33  -0.02   0.48     0.00   0.01   0.02
    52   6    -0.03  -0.01  -0.01    -0.01  -0.01  -0.00     0.00   0.10  -0.10
    53   1    -0.06   0.04   0.03    -0.01   0.01   0.01    -0.58   0.01   0.22
    54   1     0.08  -0.00  -0.00     0.03   0.00  -0.01     0.02  -0.18   0.18
    55   1    -0.09   0.04   0.04    -0.03   0.02   0.01     0.59  -0.23   0.01
                     76                     77                     78
                      A                      A                      A
 Frequencies --   1011.9026              1015.8252              1022.3766
 Red. masses --      1.5177                 1.5647                 1.6466
 Frc consts  --      0.9156                 0.9513                 1.0140
 IR Inten    --      0.0000                 0.0000                 0.0000
  Atom  AN      X      Y      Z        X      Y      Z        X      Y      Z
     1  26     0.00   0.00   0.00    -0.00  -0.00   0.00    -0.00  -0.00  -0.00
     2   6     0.00   0.00  -0.00    -0.00  -0.00  -0.00    -0.00   0.00   0.00
     3  46     0.00   0.00  -0.00     0.00   0.00  -0.00     0.00   0.00  -0.00
     4   6    -0.06   0.01  -0.01     0.05  -0.02   0.04    -0.06   0.06  -0.09
     5   1     0.03   0.03  -0.01    -0.02  -0.02   0.00    -0.04  -0.04   0.01
     6   1    -0.02   0.01  -0.03     0.02  -0.03   0.04     0.01  -0.01   0.00
     7   1     0.10  -0.00  -0.01    -0.06   0.01   0.00    -0.06  -0.00  -0.00
     8   6    -0.02   0.03  -0.03    -0.01  -0.00   0.02     0.00   0.00   0.01
     9   8     0.00   0.00  -0.00    -0.00   0.00  -0.00    -0.00  -0.00  -0.00
    10   6     0.03   0.00  -0.02    -0.01  -0.01   0.01    -0.02   0.01   0.01
    11   8     0.02   0.01   0.01     0.05   0.02   0.02     0.02   0.00   0.01
    12   6     0.01   0.01   0.00    -0.00   0.00  -0.00     0.01   0.00  -0.01
    13   6    -0.01  -0.00   0.00     0.00   0.00  -0.00     0.00  -0.01   0.00
    14   6    -0.02   0.02  -0.01    -0.00   0.00  -0.00     0.03  -0.03   0.02
    15   1    -0.07   0.14  -0.05    -0.00   0.00  -0.01     0.11  -0.18   0.07
    16   1     0.08   0.01  -0.01     0.00   0.00  -0.00    -0.24  -0.02   0.03
    17   1    -0.01  -0.00   0.04     0.00   0.03  -0.02     0.02  -0.08  -0.00
    18   1    -0.04  -0.15   0.45     0.02   0.00  -0.16     0.01   0.06  -0.22
    19   6     0.03  -0.02  -0.03     0.00  -0.00   0.01    -0.05   0.02   0.02
    20   6     0.02   0.03   0.00     0.03   0.03   0.00     0.01   0.00  -0.00
    21   8    -0.01  -0.01   0.00    -0.01  -0.00   0.00    -0.00  -0.00   0.00
    22   6    -0.00  -0.00  -0.00     0.00   0.00  -0.00     0.00  -0.00   0.00
    23   6    -0.00  -0.01   0.00     0.00   0.01  -0.00     0.00   0.01  -0.00
    24   6    -0.00   0.00  -0.00    -0.00   0.00   0.00     0.00  -0.00   0.00
    25   6    -0.01  -0.00   0.00     0.00  -0.00   0.00     0.01   0.00  -0.00
    26   6     0.01   0.00   0.00    -0.00   0.00  -0.00    -0.00   0.00  -0.00
    27   1     0.00  -0.01  -0.01    -0.00  -0.03   0.00    -0.01  -0.03   0.02
    28   7    -0.05   0.02   0.03    -0.06   0.02   0.03    -0.01   0.00   0.01
    29   1     0.01   0.00  -0.04     0.01  -0.02  -0.05     0.00  -0.01  -0.02
    30   1    -0.09   0.00  -0.05     0.04  -0.03   0.05    -0.02   0.05  -0.03
    31   1    -0.02  -0.00  -0.02     0.05  -0.04   0.07    -0.07   0.14  -0.21
    32   1     0.02  -0.02   0.02     0.02   0.00   0.00    -0.03   0.03  -0.01
    33   7     0.04  -0.06   0.03    -0.04   0.05  -0.03     0.03  -0.05   0.08
    34   6    -0.02   0.08   0.00     0.02  -0.05  -0.03    -0.00   0.00   0.11
    35   6     0.05  -0.06   0.01    -0.04   0.04  -0.00     0.05   0.01  -0.07
    36   1    -0.04   0.09   0.05     0.03  -0.06  -0.00     0.01  -0.03  -0.20
    37   1     0.00  -0.06   0.01     0.05  -0.08  -0.01    -0.23   0.57   0.02
    38   1    -0.07   0.10   0.06     0.01   0.01   0.01     0.17  -0.34  -0.22
    39   1    -0.11   0.07   0.03     0.06  -0.05   0.02     0.06  -0.01  -0.14
    40   1    -0.19   0.07   0.26     0.14  -0.03  -0.19    -0.00  -0.02  -0.02
    41   1     0.13   0.11  -0.41    -0.08  -0.07   0.28     0.01  -0.02  -0.07
    42   6    -0.00  -0.01   0.01     0.00  -0.01   0.01     0.00   0.00   0.00
    43   6     0.00  -0.01   0.01    -0.00  -0.01   0.01    -0.01   0.00  -0.00
    44   6    -0.00  -0.00  -0.02    -0.00  -0.00  -0.01     0.00  -0.00   0.00
    45   1    -0.00   0.01  -0.01    -0.00  -0.01  -0.02    -0.00  -0.03  -0.02
    46   1    -0.01  -0.02  -0.04     0.00  -0.01  -0.02     0.01   0.01   0.01
    47   1     0.01   0.04   0.02     0.02   0.03   0.02     0.01  -0.00   0.00
    48   1    -0.00  -0.04   0.03    -0.00  -0.05   0.04     0.00  -0.00   0.00
    49   1    -0.01   0.00   0.05    -0.01  -0.01   0.05     0.00  -0.00  -0.02
    50   1     0.04   0.01  -0.05     0.03   0.00  -0.03    -0.00   0.00  -0.00
    51   1     0.03   0.01  -0.01     0.03   0.01  -0.02    -0.01  -0.00   0.01
    52   6     0.00  -0.09  -0.02    -0.02  -0.08  -0.11    -0.01  -0.02  -0.03
    53   1     0.07   0.11   0.01    -0.32   0.21   0.19    -0.11   0.06   0.06
    54   1     0.37   0.02  -0.09     0.66  -0.09  -0.03     0.18  -0.03  -0.00
    55   1    -0.31   0.16   0.10    -0.17   0.14   0.21    -0.04   0.04   0.06
                     79                     80                     81
                      A                      A                      A
 Frequencies --   1033.9602              1052.7221              1061.8582
 Red. masses --      1.4233                 1.2386                 1.2244
 Frc consts  --      0.8965                 0.8088                 0.8134
 IR Inten    --      0.0000                 0.0000                 0.0000
  Atom  AN      X      Y      Z        X      Y      Z        X      Y      Z
     1  26     0.00   0.00   0.00     0.00   0.00  -0.00     0.00  -0.00   0.00
     2   6     0.00   0.00  -0.00     0.00  -0.01   0.00     0.00  -0.00   0.00
     3  46     0.00  -0.00  -0.00     0.00   0.00  -0.00    -0.00   0.00   0.00
     4   6    -0.02  -0.01   0.06     0.00   0.01  -0.01     0.00   0.00  -0.01
     5   1     0.01   0.03   0.01     0.43   0.30  -0.18     0.01   0.06  -0.07
     6   1     0.02  -0.05   0.04    -0.16   0.18  -0.17     0.16  -0.46   0.31
     7   1    -0.05  -0.01  -0.01     0.44   0.05   0.07     0.30   0.14   0.02
     8   6    -0.01   0.00  -0.02    -0.00   0.00   0.00     0.01  -0.00  -0.00
     9   8    -0.00   0.00  -0.00    -0.00  -0.00  -0.00     0.00   0.00   0.00
    10   6     0.03  -0.01  -0.03    -0.00  -0.01   0.00    -0.00  -0.00   0.01
    11   8    -0.01  -0.00  -0.01     0.00  -0.00   0.00    -0.00   0.00   0.00
    12   6    -0.00   0.00   0.01    -0.01   0.00   0.00     0.00   0.00  -0.00
    13   6    -0.01   0.00  -0.00    -0.00  -0.00   0.00    -0.00   0.00   0.00
    14   6    -0.02   0.03  -0.01     0.01  -0.01   0.00     0.00  -0.00   0.00
    15   1    -0.12   0.23  -0.08    -0.00  -0.01   0.01     0.02  -0.03   0.01
    16   1     0.25   0.02  -0.04     0.00   0.01   0.04    -0.07  -0.01  -0.01
    17   1    -0.02  -0.00   0.04     0.01   0.03  -0.04     0.00   0.03  -0.04
    18   1    -0.01  -0.13   0.60    -0.00   0.01  -0.06    -0.00  -0.01  -0.02
    19   6     0.04  -0.02  -0.05    -0.01   0.00   0.01    -0.01   0.00   0.00
    20   6     0.01   0.01   0.01    -0.01   0.00   0.00    -0.01   0.01  -0.01
    21   8    -0.00  -0.00   0.00     0.00   0.00   0.00    -0.00  -0.00  -0.00
    22   6    -0.00   0.00  -0.00    -0.02   0.02  -0.03    -0.06  -0.01  -0.03
    23   6     0.00   0.00  -0.00    -0.04  -0.07   0.03     0.04   0.01   0.01
    24   6    -0.00   0.00  -0.00     0.02   0.01  -0.00    -0.04   0.05  -0.02
    25   6    -0.00  -0.01   0.00    -0.07  -0.01   0.01    -0.03  -0.03   0.03
    26   6    -0.00   0.00  -0.00     0.02  -0.03   0.04     0.01   0.04  -0.05
    27   1     0.00   0.00  -0.01     0.13   0.39  -0.34    -0.14  -0.12   0.15
    28   7    -0.01   0.00   0.00     0.00   0.00   0.00     0.00  -0.01  -0.00
    29   1     0.01   0.01   0.00    -0.00  -0.00   0.03    -0.01   0.01  -0.00
    30   1    -0.11  -0.07  -0.01     0.00   0.00   0.00     0.01   0.02  -0.02
    31   1     0.08  -0.08   0.09     0.02   0.01  -0.03    -0.03   0.01   0.01
    32   1     0.03  -0.02  -0.00     0.06  -0.09   0.10     0.56  -0.23   0.24
    33   7    -0.05   0.02   0.05    -0.01   0.01   0.01     0.00   0.01   0.01
    34   6     0.02  -0.06   0.04     0.02  -0.01   0.01     0.01   0.00   0.00
    35   6     0.01   0.05  -0.09    -0.02  -0.01  -0.01    -0.01  -0.02  -0.01
    36   1     0.07  -0.12  -0.17    -0.03   0.03  -0.01    -0.04   0.06   0.01
    37   1    -0.08   0.28   0.00    -0.03   0.01  -0.01    -0.02  -0.03  -0.01
    38   1     0.11  -0.19  -0.12     0.02  -0.10  -0.04     0.00  -0.07  -0.01
    39   1     0.11  -0.05  -0.10     0.02  -0.04   0.05    -0.01  -0.01   0.08
    40   1     0.16  -0.04  -0.25     0.06   0.03  -0.07     0.03   0.05  -0.04
    41   1    -0.07  -0.07   0.21     0.03   0.01   0.02     0.05   0.02  -0.02
    42   6     0.00  -0.00   0.00     0.01  -0.01  -0.01     0.01  -0.00   0.01
    43   6     0.00  -0.00   0.00     0.01  -0.00   0.01    -0.01   0.00  -0.00
    44   6    -0.00  -0.00  -0.00    -0.02   0.01   0.00     0.01   0.00  -0.00
    45   1     0.00   0.01   0.00     0.01   0.07   0.05    -0.00  -0.03  -0.03
    46   1    -0.01  -0.01  -0.01    -0.03  -0.04  -0.05     0.02   0.02   0.03
    47   1     0.00   0.01   0.00    -0.01   0.02   0.01     0.01  -0.02  -0.01
    48   1    -0.00  -0.02   0.01     0.01  -0.02  -0.04     0.00  -0.06   0.04
    49   1    -0.00   0.00   0.02    -0.03  -0.03   0.11     0.01   0.00  -0.03
    50   1     0.01   0.00  -0.01     0.03  -0.02   0.01    -0.01   0.00   0.00
    51   1     0.01   0.00   0.00     0.05   0.01  -0.06    -0.00  -0.00   0.00
    52   6     0.01  -0.00   0.02     0.00  -0.00  -0.00    -0.00   0.00   0.00
    53   1     0.12  -0.03  -0.05    -0.00   0.01   0.00     0.00  -0.01  -0.00
    54   1    -0.08   0.03  -0.02     0.02  -0.00  -0.00    -0.02   0.00   0.00
    55   1    -0.03  -0.00  -0.03    -0.00   0.00   0.00     0.00  -0.00  -0.00
                     82                     83                     84
                      A                      A                      A
 Frequencies --   1072.2936              1077.2729              1086.0486
 Red. masses --      1.1437                 1.2139                 1.1179
 Frc consts  --      0.7748                 0.8300                 0.7769
 IR Inten    --      0.0000                 0.0000                 0.0000
  Atom  AN      X      Y      Z        X      Y      Z        X      Y      Z
     1  26    -0.00   0.00  -0.00    -0.00   0.00  -0.00    -0.00  -0.00   0.00
     2   6     0.00  -0.01   0.00    -0.00   0.01  -0.00     0.00  -0.01   0.00
     3  46    -0.00  -0.00  -0.00    -0.00  -0.00  -0.00     0.00   0.00  -0.00
     4   6     0.01   0.00  -0.01    -0.00   0.01   0.00    -0.01   0.00   0.00
     5   1    -0.02  -0.08  -0.02    -0.17  -0.15   0.03    -0.40  -0.27   0.21
     6   1     0.05  -0.10   0.09    -0.07   0.21  -0.12    -0.09   0.15  -0.16
     7   1    -0.33  -0.06  -0.04     0.17   0.02   0.00    -0.21  -0.01  -0.03
     8   6    -0.01  -0.00   0.00    -0.01  -0.00   0.00     0.00  -0.00  -0.00
     9   8    -0.00  -0.00  -0.00     0.00   0.00   0.00    -0.00  -0.00  -0.00
    10   6    -0.00  -0.01   0.01    -0.01  -0.01   0.00    -0.01   0.01  -0.01
    11   8    -0.00   0.00   0.00     0.00   0.01   0.00    -0.00  -0.00   0.00
    12   6    -0.01   0.01  -0.00    -0.01   0.01  -0.00     0.02   0.00  -0.01
    13   6    -0.01  -0.02   0.03     0.00  -0.02   0.02     0.01   0.01  -0.01
    14   6     0.05   0.02  -0.00     0.03   0.01  -0.00    -0.02  -0.01   0.00
    15   1    -0.13   0.23  -0.07    -0.15   0.27  -0.09     0.02   0.02   0.03
    16   1    -0.42  -0.06   0.07    -0.20  -0.03   0.03     0.15  -0.00  -0.09
    17   1     0.14   0.51  -0.23     0.09   0.27  -0.11    -0.06  -0.27   0.16
    18   1    -0.06  -0.07   0.03    -0.06  -0.06  -0.04    -0.00  -0.00  -0.03
    19   6     0.01  -0.05   0.02     0.01  -0.05   0.01    -0.01   0.01  -0.00
    20   6    -0.01   0.00  -0.00     0.00  -0.01  -0.00    -0.01   0.02  -0.00
    21   8     0.00   0.00   0.00    -0.00  -0.00   0.00     0.01   0.01   0.00
    22   6    -0.00   0.01  -0.01     0.01  -0.01   0.02     0.03   0.01  -0.01
    23   6     0.01  -0.00   0.00    -0.01  -0.00   0.00     0.03  -0.00   0.02
    24   6     0.01  -0.01   0.01    -0.01  -0.00  -0.00    -0.01  -0.03   0.02
    25   6     0.00  -0.01   0.00     0.02   0.02  -0.02    -0.02  -0.00  -0.01
    26   6    -0.02   0.00  -0.00     0.01   0.00   0.00    -0.01   0.02  -0.02
    27   1     0.09   0.25  -0.21    -0.05  -0.17   0.15     0.14   0.27  -0.25
    28   7     0.01   0.00   0.00     0.01   0.00  -0.00     0.00  -0.00  -0.00
    29   1    -0.01  -0.01   0.02     0.00   0.01  -0.01    -0.02  -0.03   0.05
    30   1     0.01   0.04  -0.06    -0.02  -0.02   0.02     0.00  -0.05   0.08
    31   1     0.01   0.00  -0.00     0.03   0.01  -0.04    -0.01   0.02  -0.04
    32   1     0.17  -0.07   0.08    -0.10   0.05  -0.03     0.40  -0.18   0.19
    33   7     0.00  -0.01  -0.00    -0.02   0.02   0.02     0.00  -0.01  -0.01
    34   6    -0.02  -0.00  -0.01     0.07   0.02   0.01     0.02   0.02   0.01
    35   6     0.02   0.02   0.01    -0.04  -0.04  -0.04    -0.01  -0.01  -0.00
    36   1     0.07  -0.09  -0.02    -0.21   0.28   0.06    -0.07   0.10   0.02
    37   1     0.03   0.05   0.02    -0.08  -0.15  -0.05    -0.03  -0.04  -0.01
    38   1    -0.01   0.11   0.02     0.02  -0.33  -0.07     0.00  -0.10  -0.02
    39   1     0.01   0.02  -0.12    -0.08   0.01   0.34    -0.04   0.01   0.09
    40   1    -0.06  -0.05   0.08     0.18   0.11  -0.21     0.04   0.02  -0.05
    41   1    -0.05  -0.03   0.01     0.15   0.09  -0.08     0.03   0.02  -0.01
    42   6     0.00  -0.01  -0.02    -0.01   0.00   0.00     0.02  -0.01  -0.02
    43   6     0.01   0.00   0.01     0.00   0.00  -0.00     0.00   0.00   0.01
    44   6    -0.02   0.00   0.00     0.01  -0.00  -0.00    -0.03   0.01   0.01
    45   1     0.01   0.05   0.04     0.00   0.01   0.01     0.00   0.02   0.01
    46   1    -0.02  -0.02  -0.03    -0.01  -0.00   0.01     0.01  -0.00  -0.02
    47   1    -0.01   0.02   0.01    -0.01  -0.00  -0.01     0.02   0.02   0.02
    48   1     0.01  -0.04  -0.05    -0.01   0.02   0.01     0.02  -0.08  -0.05
    49   1    -0.02  -0.02   0.08     0.01   0.02  -0.03    -0.03  -0.03   0.11
    50   1     0.01  -0.01   0.01    -0.01   0.01  -0.00     0.03  -0.02   0.01
    51   1     0.03   0.00  -0.03    -0.02  -0.00   0.02     0.05   0.01  -0.04
    52   6     0.00   0.00   0.00     0.00   0.00   0.00    -0.00   0.00   0.00
    53   1     0.01  -0.01  -0.00    -0.00  -0.01  -0.00     0.00   0.00  -0.00
    54   1    -0.01  -0.00   0.00    -0.01  -0.00   0.00    -0.01   0.00   0.00
    55   1     0.01  -0.00  -0.00     0.01  -0.01  -0.01    -0.00   0.00   0.00
                     85                     86                     87
                      A                      A                      A
 Frequencies --   1092.9547              1107.4483              1114.4989
 Red. masses --      1.1414                 1.3612                 1.5959
 Frc consts  --      0.8033                 0.9836                 1.1679
 IR Inten    --      0.0000                 0.0000                 0.0000
  Atom  AN      X      Y      Z        X      Y      Z        X      Y      Z
     1  26     0.00  -0.00  -0.00    -0.00  -0.00  -0.00     0.00  -0.00  -0.00
     2   6    -0.00   0.00  -0.00    -0.00  -0.01   0.00     0.00  -0.01  -0.00
     3  46     0.00   0.00   0.00    -0.00  -0.00   0.00     0.00   0.00  -0.00
     4   6     0.01  -0.00  -0.02     0.02   0.03  -0.03     0.01   0.02  -0.03
     5   1    -0.26  -0.16   0.08     0.14   0.15  -0.00    -0.10  -0.06   0.07
     6   1    -0.16   0.31  -0.24     0.09  -0.17   0.14    -0.02   0.07  -0.04
     7   1     0.47   0.14   0.07    -0.15  -0.04  -0.02    -0.06  -0.02  -0.02
     8   6    -0.00  -0.00   0.00     0.00   0.00   0.01     0.04  -0.01  -0.02
     9   8     0.00   0.00   0.00    -0.00   0.00   0.00    -0.00   0.00  -0.00
    10   6    -0.01  -0.00   0.01    -0.04  -0.03   0.03     0.04  -0.06   0.04
    11   8     0.00   0.00   0.00     0.00  -0.00   0.00    -0.00  -0.01  -0.00
    12   6    -0.01   0.01   0.00    -0.04   0.03   0.00    -0.09  -0.02   0.03
    13   6     0.01  -0.02   0.01     0.05  -0.03   0.01    -0.00  -0.04   0.03
    14   6     0.02  -0.01  -0.00     0.07  -0.05   0.01    -0.00  -0.03   0.01
    15   1    -0.13   0.23  -0.07    -0.31   0.55  -0.16     0.02  -0.27   0.04
    16   1     0.04  -0.03  -0.03     0.52  -0.01  -0.08     0.46  -0.03  -0.09
    17   1     0.04   0.07  -0.01     0.03  -0.15  -0.03     0.11   0.49  -0.20
    18   1    -0.03  -0.02  -0.01    -0.04  -0.01  -0.14     0.21   0.28   0.01
    19   6    -0.02  -0.02   0.01    -0.09   0.00   0.01    -0.04   0.10  -0.03
    20   6    -0.00  -0.00  -0.00    -0.01   0.00  -0.01     0.02   0.05   0.01
    21   8    -0.00  -0.00  -0.00     0.00   0.00  -0.00    -0.00   0.00   0.00
    22   6     0.01  -0.01   0.00    -0.02   0.00  -0.01     0.00   0.00   0.00
    23   6    -0.00  -0.01   0.02     0.00   0.02  -0.01    -0.00   0.00   0.00
    24   6    -0.03   0.00  -0.01     0.01  -0.00   0.00    -0.00  -0.01   0.01
    25   6    -0.02   0.01  -0.02     0.01  -0.01   0.01     0.01   0.01  -0.00
    26   6     0.03   0.02  -0.00    -0.01  -0.00   0.00    -0.00   0.01  -0.00
    27   1    -0.06  -0.20   0.16    -0.03   0.02   0.01     0.01  -0.01  -0.01
    28   7     0.00  -0.00  -0.00     0.01  -0.00  -0.00    -0.04  -0.02  -0.01
    29   1    -0.00   0.00  -0.00    -0.01  -0.01   0.02     0.01  -0.01   0.07
    30   1     0.05   0.02   0.01     0.04  -0.01   0.06    -0.03   0.18  -0.29
    31   1     0.00   0.01  -0.03    -0.01   0.13  -0.20     0.03  -0.04   0.08
    32   1     0.15  -0.07   0.10    -0.07   0.02  -0.07     0.04  -0.01   0.03
    33   7     0.01   0.00  -0.01     0.02  -0.02  -0.03    -0.03   0.04   0.05
    34   6    -0.05  -0.02  -0.00     0.00   0.03   0.01     0.01  -0.04  -0.01
    35   6     0.01   0.02   0.03    -0.01   0.01   0.02     0.03  -0.03  -0.03
    36   1     0.16  -0.22  -0.06    -0.05   0.07   0.01     0.02  -0.04   0.02
    37   1     0.05   0.15   0.04    -0.03   0.01  -0.00     0.03  -0.04  -0.00
    38   1     0.01   0.21   0.02     0.01  -0.04  -0.02    -0.00   0.01   0.01
    39   1     0.11  -0.06  -0.23    -0.01   0.01   0.01    -0.05   0.04   0.06
    40   1    -0.10  -0.06   0.11    -0.01  -0.01   0.02     0.01   0.03  -0.00
    41   1    -0.10  -0.06   0.09    -0.02  -0.01   0.04     0.08   0.05  -0.16
    42   6    -0.00  -0.00   0.00     0.00  -0.01  -0.01     0.02  -0.01   0.01
    43   6     0.00   0.00  -0.00     0.01   0.01   0.00    -0.01  -0.00  -0.00
    44   6     0.01  -0.00  -0.00    -0.00   0.00   0.00    -0.01   0.00  -0.01
    45   1     0.00  -0.00  -0.00     0.01   0.02   0.02    -0.01  -0.06  -0.05
    46   1     0.00   0.00   0.01    -0.00   0.00   0.01     0.03   0.02   0.02
    47   1    -0.01  -0.01  -0.01    -0.01  -0.00  -0.00     0.03  -0.01   0.01
    48   1    -0.01  -0.01   0.02    -0.00  -0.06  -0.01     0.01  -0.08   0.04
    49   1     0.01   0.01  -0.02    -0.00   0.01   0.02    -0.01  -0.02   0.06
    50   1    -0.01   0.00  -0.00    -0.01  -0.01   0.02     0.03  -0.00  -0.02
    51   1    -0.01  -0.00   0.01     0.01   0.00  -0.01     0.03   0.00  -0.03
    52   6     0.00   0.00  -0.00    -0.00   0.00  -0.00    -0.02   0.00   0.00
    53   1    -0.01  -0.00   0.00    -0.02   0.00   0.01    -0.01   0.01   0.00
    54   1     0.00  -0.00   0.00     0.01  -0.00   0.00    -0.03   0.00   0.00
    55   1     0.00  -0.00   0.00     0.01  -0.00   0.00    -0.02   0.00   0.00
                     88                     89                     90
                      A                      A                      A
 Frequencies --   1126.0001              1142.6385              1153.6246
 Red. masses --      1.8894                 1.7148                 2.2666
 Frc consts  --      1.4114                 1.3191                 1.7773
 IR Inten    --      0.0000                 0.0000                 0.0000
  Atom  AN      X      Y      Z        X      Y      Z        X      Y      Z
     1  26    -0.00   0.00   0.00    -0.00  -0.00   0.00    -0.00   0.00  -0.00
     2   6     0.02  -0.05   0.01     0.00  -0.01   0.01    -0.00   0.03  -0.02
     3  46     0.00   0.00   0.00    -0.00  -0.00   0.00     0.00   0.00  -0.00
     4   6    -0.00  -0.01   0.01     0.02  -0.01  -0.05     0.00  -0.01  -0.03
     5   1     0.08   0.04  -0.06    -0.01  -0.00   0.02     0.05   0.03  -0.00
     6   1    -0.00   0.02  -0.01     0.04  -0.06   0.03    -0.01   0.02  -0.03
     7   1     0.05  -0.00   0.01     0.01  -0.01  -0.01    -0.11  -0.03  -0.02
     8   6     0.05  -0.03  -0.03    -0.03   0.02   0.02     0.09  -0.05  -0.05
     9   8    -0.00   0.01   0.00    -0.00   0.00   0.00     0.01   0.00   0.00
    10   6    -0.01   0.01  -0.01     0.01   0.03   0.03    -0.02   0.03   0.01
    11   8    -0.01   0.02   0.01     0.01  -0.00  -0.00    -0.00   0.02   0.02
    12   6     0.02  -0.00  -0.00     0.04   0.02  -0.02     0.03  -0.01  -0.01
    13   6    -0.00   0.01  -0.01     0.02   0.01  -0.01     0.02   0.00  -0.00
    14   6     0.01   0.01  -0.00    -0.01   0.01  -0.01     0.02   0.02  -0.01
    15   1    -0.02   0.06  -0.05    -0.04   0.20  -0.03    -0.10   0.24  -0.09
    16   1    -0.20   0.01   0.05    -0.03   0.01  -0.00    -0.19  -0.01   0.03
    17   1    -0.01  -0.07   0.03    -0.06  -0.26   0.12    -0.04  -0.26   0.10
    18   1     0.02   0.02   0.00    -0.20  -0.21  -0.19     0.07   0.08  -0.08
    19   6     0.02  -0.03   0.01    -0.06  -0.03   0.04    -0.03  -0.04   0.02
    20   6    -0.03   0.17  -0.04    -0.05  -0.01  -0.04     0.10   0.05   0.08
    21   8    -0.00   0.01   0.00     0.01   0.01  -0.00    -0.02  -0.02   0.01
    22   6     0.00  -0.00   0.01    -0.01  -0.01   0.00    -0.00   0.01  -0.01
    23   6    -0.01   0.00  -0.01     0.00   0.00   0.00    -0.01  -0.01   0.01
    24   6    -0.00   0.00  -0.01     0.01   0.00   0.00     0.01  -0.01   0.01
    25   6     0.01   0.00  -0.00     0.01   0.01  -0.00     0.00  -0.00   0.00
    26   6     0.00  -0.01   0.01    -0.01  -0.00  -0.00     0.00   0.00  -0.00
    27   1    -0.03  -0.13   0.08    -0.01   0.03   0.01     0.05   0.06  -0.13
    28   7    -0.03  -0.05  -0.03     0.06   0.02   0.02    -0.13  -0.07  -0.06
    29   1    -0.08  -0.29   0.30    -0.06  -0.17   0.05     0.15   0.51  -0.08
    30   1     0.01  -0.06   0.10     0.02   0.25  -0.36     0.03   0.06  -0.07
    31   1    -0.01   0.02  -0.04    -0.03  -0.20   0.41    -0.03  -0.09   0.18
    32   1    -0.15   0.08  -0.05    -0.07   0.03  -0.04     0.03  -0.02   0.03
    33   7     0.01  -0.01  -0.02    -0.04   0.08   0.10     0.01   0.03   0.03
    34   6    -0.00   0.01   0.00    -0.02  -0.07  -0.03    -0.02  -0.03  -0.01
    35   6    -0.01   0.01   0.01     0.04  -0.05  -0.06    -0.00  -0.03  -0.02
    36   1    -0.01   0.01   0.00     0.13  -0.19  -0.02     0.08  -0.11  -0.01
    37   1    -0.01   0.01  -0.00     0.10   0.01   0.02     0.05   0.05   0.02
    38   1    -0.00  -0.00  -0.00    -0.00   0.15   0.04    -0.00   0.12   0.02
    39   1     0.02  -0.01  -0.03    -0.08   0.05   0.13    -0.06   0.03   0.13
    40   1    -0.01  -0.02   0.01     0.04   0.08  -0.03     0.05   0.05  -0.05
    41   1    -0.03  -0.02   0.06     0.15   0.08  -0.25     0.08   0.05  -0.08
    42   6     0.13  -0.04   0.02     0.02  -0.01  -0.05    -0.04  -0.02   0.14
    43   6    -0.07   0.02   0.01    -0.00   0.01   0.02     0.01  -0.00  -0.07
    44   6    -0.06   0.00  -0.01    -0.02  -0.00   0.02     0.05   0.03  -0.06
    45   1    -0.04  -0.30  -0.24    -0.00  -0.01  -0.04     0.01   0.02   0.15
    46   1     0.19   0.15   0.10     0.03   0.02  -0.01    -0.04   0.01   0.12
    47   1     0.16   0.00   0.06     0.04   0.06   0.04    -0.12  -0.23  -0.15
    48   1     0.08  -0.37   0.14     0.02  -0.04  -0.06    -0.04  -0.07   0.17
    49   1    -0.08  -0.08   0.32    -0.02  -0.02   0.07     0.05   0.01  -0.13
    50   1     0.15  -0.03  -0.06     0.00  -0.01   0.02    -0.01  -0.01   0.00
    51   1     0.14   0.03  -0.08     0.00   0.00   0.01     0.05   0.00  -0.10
    52   6    -0.02   0.02   0.02     0.01  -0.00  -0.01    -0.03   0.02   0.02
    53   1     0.00  -0.02  -0.01    -0.00   0.00   0.01    -0.02  -0.01   0.00
    54   1    -0.12   0.01   0.02     0.05  -0.01   0.00    -0.15   0.02   0.00
    55   1    -0.00  -0.01  -0.01     0.01   0.00   0.00    -0.02  -0.00  -0.01
                     91                     92                     93
                      A                      A                      A
 Frequencies --   1163.0631              1172.7148              1187.2753
 Red. masses --      2.2534                 1.9269                 2.0662
 Frc consts  --      1.7960                 1.5613                 1.7161
 IR Inten    --      0.0000                 0.0000                 0.0000
  Atom  AN      X      Y      Z        X      Y      Z        X      Y      Z
     1  26     0.00   0.00   0.00    -0.00   0.00  -0.00     0.00  -0.00  -0.00
     2   6    -0.03   0.01   0.01    -0.00   0.00   0.00     0.01   0.02  -0.02
     3  46    -0.00  -0.00   0.00    -0.00  -0.00   0.00     0.00   0.00  -0.00
     4   6     0.02  -0.00   0.01    -0.05   0.02  -0.04     0.02  -0.01  -0.00
     5   1     0.08   0.05  -0.03    -0.02  -0.02   0.02    -0.05  -0.03   0.02
     6   1    -0.05   0.11  -0.10     0.02  -0.02   0.04     0.02  -0.07   0.05
     7   1    -0.15  -0.03  -0.01    -0.03  -0.01  -0.02     0.06   0.01   0.01
     8   6    -0.04   0.02   0.02    -0.02   0.01   0.01     0.04  -0.02  -0.02
     9   8    -0.01  -0.01  -0.01    -0.00  -0.00  -0.00     0.01   0.00   0.01
    10   6     0.01  -0.01  -0.00    -0.01   0.00   0.01    -0.01   0.01   0.00
    11   8    -0.00  -0.01  -0.01    -0.00  -0.01  -0.01    -0.00   0.00   0.00
    12   6     0.00   0.02  -0.01    -0.02  -0.01   0.01     0.00  -0.01   0.00
    13   6    -0.01   0.01  -0.00    -0.01  -0.01   0.01     0.01  -0.01   0.00
    14   6    -0.01  -0.01   0.00     0.02  -0.01   0.00     0.01   0.01  -0.01
    15   1     0.02  -0.02  -0.04    -0.02  -0.03  -0.02    -0.09   0.15  -0.06
    16   1     0.08   0.01  -0.02     0.02  -0.01   0.00    -0.06  -0.01   0.01
    17   1     0.00   0.07  -0.02     0.03   0.05  -0.03    -0.01  -0.10   0.04
    18   1    -0.13  -0.16  -0.05     0.08   0.10   0.14     0.09   0.12  -0.03
    19   6    -0.01  -0.00   0.01     0.03   0.01  -0.02    -0.02  -0.01   0.01
    20   6    -0.09  -0.02  -0.03    -0.03  -0.02  -0.01     0.07  -0.04   0.06
    21   8     0.02   0.01  -0.00     0.00   0.00  -0.00    -0.02  -0.02   0.00
    22   6     0.01   0.02  -0.02    -0.00  -0.00   0.00    -0.00  -0.00   0.00
    23   6    -0.02  -0.01  -0.00     0.00  -0.01   0.00     0.01  -0.00   0.01
    24   6    -0.01  -0.02   0.01     0.01  -0.00   0.00     0.01   0.01  -0.00
    25   6    -0.00  -0.01   0.01     0.01   0.00  -0.00    -0.01   0.00  -0.00
    26   6     0.02   0.00   0.01    -0.01   0.00  -0.00    -0.01  -0.00  -0.00
    27   1     0.03  -0.03  -0.09     0.02   0.05  -0.06     0.03   0.11  -0.07
    28   7     0.11   0.03   0.03     0.04   0.02   0.02    -0.03  -0.02  -0.01
    29   1    -0.12  -0.14  -0.52    -0.06  -0.14  -0.16     0.04  -0.11  -0.03
    30   1    -0.00   0.03  -0.06    -0.03  -0.08   0.12     0.02   0.02  -0.02
    31   1     0.01   0.02  -0.04     0.02  -0.08   0.12    -0.02   0.01  -0.00
    32   1     0.12  -0.05   0.08    -0.02   0.01  -0.01     0.01  -0.01  -0.01
    33   7    -0.05  -0.00   0.02     0.17   0.01  -0.05    -0.03   0.01   0.01
    34   6     0.03   0.00  -0.01    -0.08  -0.00   0.02     0.01  -0.00  -0.01
    35   6     0.04   0.02  -0.01    -0.12  -0.05   0.02     0.02   0.00  -0.01
    36   1    -0.07   0.09   0.03     0.19  -0.25  -0.09    -0.03   0.04   0.03
    37   1    -0.02  -0.10  -0.02     0.04   0.30   0.07     0.00  -0.05  -0.01
    38   1    -0.01  -0.10  -0.00     0.04   0.27  -0.00    -0.01  -0.03   0.01
    39   1     0.02   0.01  -0.14    -0.09  -0.02   0.48     0.01   0.01  -0.08
    40   1    -0.07  -0.05   0.08     0.26   0.13  -0.29    -0.05  -0.01   0.06
    41   1    -0.05  -0.03  -0.04     0.15   0.09   0.11    -0.02  -0.01  -0.04
    42   6     0.04   0.02   0.22     0.02   0.04   0.05     0.06   0.21   0.01
    43   6    -0.06  -0.01  -0.10    -0.03  -0.02  -0.02    -0.07  -0.10   0.00
    44   6     0.02   0.00  -0.09    -0.01  -0.01  -0.02    -0.04  -0.09  -0.01
    45   1    -0.04  -0.23  -0.05    -0.02  -0.08  -0.07    -0.07  -0.11  -0.29
    46   1     0.06   0.10   0.17     0.02   0.01  -0.01    -0.01  -0.12  -0.26
    47   1    -0.03  -0.27  -0.14     0.03  -0.02  -0.00     0.11   0.20   0.12
    48   1     0.03   0.06   0.31     0.03   0.10   0.06     0.08   0.46   0.02
    49   1     0.02   0.03   0.02    -0.01   0.02   0.05    -0.04   0.14   0.19
    50   1     0.13   0.04  -0.16     0.06   0.03  -0.09     0.16   0.14  -0.30
    51   1     0.10   0.03  -0.06     0.02   0.02   0.04    -0.05   0.05   0.29
    52   6     0.01  -0.00  -0.00     0.00  -0.00  -0.00    -0.02   0.01   0.01
    53   1     0.00  -0.01   0.00     0.01  -0.00  -0.00    -0.01  -0.00  -0.00
    54   1     0.05   0.00  -0.00     0.03  -0.00  -0.00    -0.04   0.00   0.01
    55   1     0.01  -0.00  -0.01     0.01  -0.00   0.00    -0.01   0.00  -0.00
                     94                     95                     96
                      A                      A                      A
 Frequencies --   1198.3332              1214.4530              1221.3057
 Red. masses --      1.2871                 1.4467                 1.6996
 Frc consts  --      1.0890                 1.2571                 1.4936
 IR Inten    --      0.0000                 0.0000                 0.0000
  Atom  AN      X      Y      Z        X      Y      Z        X      Y      Z
     1  26     0.00  -0.00  -0.00     0.00   0.00  -0.00    -0.00   0.00   0.00
     2   6    -0.01   0.00   0.00    -0.00   0.01  -0.00    -0.01  -0.04   0.03
     3  46    -0.00   0.00   0.00    -0.00   0.00  -0.00     0.00   0.00  -0.00
     4   6     0.01  -0.00   0.01     0.01  -0.01   0.00     0.01  -0.01   0.01
     5   1    -0.33  -0.23   0.13     0.07   0.05  -0.01    -0.02  -0.04   0.05
     6   1     0.14  -0.31   0.25    -0.01   0.05  -0.03     0.04  -0.02   0.04
     7   1     0.43   0.10   0.05    -0.05   0.01  -0.02     0.04   0.04  -0.01
     8   6    -0.00   0.00  -0.00     0.01   0.01  -0.00    -0.03   0.02   0.02
     9   8    -0.00  -0.00  -0.01    -0.01  -0.00  -0.01    -0.00   0.00   0.00
    10   6    -0.00  -0.00  -0.00    -0.03   0.04  -0.01    -0.01   0.02  -0.01
    11   8    -0.00  -0.00  -0.00    -0.01  -0.03  -0.02     0.01  -0.01  -0.01
    12   6    -0.01  -0.01   0.00    -0.02  -0.09   0.03    -0.02  -0.04   0.02
    13   6     0.00  -0.00   0.00     0.03  -0.03   0.01     0.01  -0.02   0.01
    14   6     0.00   0.00  -0.00     0.05   0.04  -0.02     0.03   0.02  -0.01
    15   1    -0.01   0.01  -0.00    -0.15   0.14  -0.04    -0.08   0.06  -0.03
    16   1     0.00  -0.01  -0.01    -0.26  -0.05   0.05    -0.12  -0.03   0.02
    17   1     0.00   0.01  -0.00    -0.00  -0.23   0.07     0.00  -0.11   0.03
    18   1     0.04   0.05   0.02     0.37   0.53   0.15     0.15   0.24   0.10
    19   6    -0.00   0.01  -0.00    -0.00   0.04  -0.03     0.00   0.02  -0.02
    20   6    -0.02   0.01   0.02    -0.03   0.02   0.06     0.01   0.01  -0.14
    21   8     0.01   0.00  -0.00     0.00  -0.00   0.00     0.03   0.02  -0.01
    22   6    -0.01  -0.05   0.04    -0.01   0.01  -0.01    -0.03  -0.00  -0.01
    23   6     0.06  -0.02   0.03    -0.02  -0.01  -0.00    -0.01  -0.03   0.02
    24   6     0.04   0.03  -0.02     0.00  -0.01   0.01     0.03  -0.02   0.01
    25   6    -0.03   0.05  -0.04     0.01  -0.00   0.01     0.02   0.02  -0.01
    26   6    -0.06  -0.01  -0.01     0.01   0.01  -0.01    -0.00   0.02  -0.02
    27   1     0.13   0.28  -0.25    -0.05  -0.07   0.07     0.01   0.08  -0.10
    28   7     0.01   0.01   0.00     0.04   0.03   0.03     0.00   0.01   0.03
    29   1    -0.01   0.06  -0.19    -0.08  -0.18  -0.47    -0.01  -0.34   0.72
    30   1     0.00  -0.00  -0.00     0.03  -0.01   0.03     0.01  -0.01   0.02
    31   1    -0.02   0.02  -0.03    -0.01  -0.03   0.07    -0.00  -0.02   0.03
    32   1    -0.35   0.15  -0.18     0.04  -0.03   0.04    -0.04  -0.01   0.02
    33   7    -0.01  -0.00  -0.00    -0.04   0.02   0.00    -0.02   0.02  -0.02
    34   6     0.01   0.00   0.00     0.01  -0.01  -0.00     0.01  -0.01   0.01
    35   6     0.00   0.00   0.00     0.02  -0.01   0.00     0.01  -0.01   0.01
    36   1    -0.01   0.02   0.00    -0.03   0.03   0.02    -0.01   0.01  -0.01
    37   1    -0.01  -0.01  -0.01    -0.01  -0.02  -0.01    -0.02   0.02  -0.01
    38   1    -0.00  -0.02  -0.00    -0.00  -0.04   0.00     0.01  -0.04  -0.01
    39   1     0.04  -0.03  -0.06    -0.02   0.02  -0.04    -0.02   0.01  -0.02
    40   1    -0.04   0.01   0.04    -0.04  -0.00   0.06    -0.04   0.01   0.06
    41   1    -0.00  -0.01   0.02     0.00   0.01  -0.07     0.01   0.01  -0.06
    42   6     0.01  -0.03   0.03     0.00  -0.03  -0.05    -0.09   0.04   0.09
    43   6    -0.00   0.01  -0.01     0.02   0.01   0.02     0.02  -0.01  -0.03
    44   6    -0.01   0.02  -0.01    -0.00   0.01   0.01     0.06  -0.02  -0.03
    45   1     0.00  -0.03   0.04     0.01   0.03   0.02     0.01   0.05   0.08
    46   1     0.01   0.03   0.05     0.00   0.00   0.00    -0.08  -0.04   0.01
    47   1    -0.00  -0.07  -0.03     0.00   0.03   0.02    -0.10  -0.09  -0.08
    48   1     0.02  -0.03  -0.03    -0.01  -0.12  -0.05    -0.08   0.04   0.12
    49   1    -0.01  -0.03   0.03    -0.01  -0.03   0.02     0.06   0.07  -0.18
    50   1     0.01  -0.02   0.02    -0.04  -0.03   0.06    -0.03   0.05  -0.06
    51   1     0.05   0.00  -0.08     0.01  -0.01  -0.05    -0.09  -0.01   0.08
    52   6    -0.00  -0.00   0.00    -0.01  -0.00  -0.00     0.01  -0.01  -0.01
    53   1    -0.00   0.00   0.00    -0.00   0.00  -0.00     0.01   0.01  -0.00
    54   1     0.01   0.00  -0.00     0.04   0.01  -0.00     0.03  -0.03   0.01
    55   1    -0.00  -0.00  -0.00    -0.00  -0.00  -0.00     0.02   0.00   0.02
                     97                     98                     99
                      A                      A                      A
 Frequencies --   1233.1641              1238.4617              1242.1689
 Red. masses --      2.3688                 4.8174                 1.5311
 Frc consts  --      2.1223                 4.3534                 1.3919
 IR Inten    --      0.0000                 0.0000                 0.0000
  Atom  AN      X      Y      Z        X      Y      Z        X      Y      Z
     1  26     0.00  -0.00  -0.00     0.00  -0.02  -0.02     0.00  -0.00  -0.00
     2   6     0.00  -0.00   0.00    -0.01  -0.01   0.01    -0.01  -0.00   0.01
     3  46     0.00   0.00  -0.00    -0.00  -0.00  -0.00     0.00  -0.00  -0.00
     4   6    -0.07   0.02  -0.07     0.02   0.01  -0.00    -0.00   0.00  -0.01
     5   1    -0.02  -0.00  -0.01    -0.14   0.11  -0.22     0.01   0.02  -0.02
     6   1    -0.02  -0.00  -0.01    -0.23  -0.16  -0.03    -0.02   0.01  -0.01
     7   1     0.03  -0.00   0.02    -0.06  -0.30   0.11    -0.01  -0.02   0.00
     8   6     0.00   0.00   0.00     0.00   0.00  -0.00    -0.05   0.03   0.03
     9   8    -0.00   0.00  -0.00    -0.00  -0.00  -0.01    -0.00  -0.00   0.00
    10   6     0.01   0.00   0.00    -0.01  -0.00   0.02    -0.01   0.02  -0.00
    11   8    -0.00  -0.01  -0.00    -0.00  -0.01  -0.01     0.01  -0.01  -0.00
    12   6    -0.00  -0.02   0.01     0.01  -0.01   0.01    -0.02  -0.04   0.02
    13   6     0.00  -0.01   0.01     0.01   0.00  -0.00     0.01  -0.02   0.01
    14   6     0.01   0.01  -0.01     0.01   0.00   0.00     0.03   0.02  -0.01
    15   1    -0.03   0.03  -0.00    -0.05   0.10  -0.01    -0.07   0.05  -0.03
    16   1    -0.05  -0.02   0.01    -0.05   0.01   0.05    -0.09  -0.03   0.03
    17   1    -0.00  -0.05   0.03     0.01   0.00   0.03     0.01  -0.08   0.03
    18   1     0.07   0.11  -0.01     0.13   0.21   0.05     0.12   0.17   0.07
    19   6    -0.01   0.01  -0.00    -0.01  -0.01   0.00    -0.00   0.03  -0.01
    20   6     0.00   0.02  -0.01     0.01   0.02  -0.02    -0.04  -0.10  -0.07
    21   8     0.00   0.00   0.00     0.01   0.01  -0.00     0.02   0.01  -0.01
    22   6     0.02   0.00   0.00     0.25   0.01   0.08     0.01   0.00   0.00
    23   6     0.01   0.01  -0.00     0.13   0.19  -0.09     0.00   0.01  -0.01
    24   6    -0.01   0.01  -0.01    -0.17   0.16  -0.12    -0.01   0.01  -0.01
    25   6    -0.02  -0.00   0.00    -0.23  -0.08   0.06    -0.01  -0.01   0.01
    26   6    -0.00  -0.01   0.01    -0.01  -0.18   0.18     0.00  -0.01   0.01
    27   1     0.03  -0.00  -0.02     0.32  -0.07  -0.03    -0.01  -0.03   0.05
    28   7     0.01   0.00   0.01     0.00   0.01   0.01    -0.00   0.02   0.02
    29   1    -0.03  -0.18   0.03    -0.03  -0.23   0.08     0.13   0.74   0.29
    30   1    -0.01   0.08  -0.08     0.01   0.02  -0.02    -0.01   0.01  -0.02
    31   1    -0.03  -0.01  -0.02    -0.02   0.00   0.03     0.01  -0.05   0.09
    32   1     0.01   0.01  -0.01     0.18   0.13  -0.17     0.03  -0.00   0.00
    33   7     0.07  -0.14   0.20    -0.01   0.03  -0.03    -0.01  -0.02   0.01
    34   6    -0.01   0.08  -0.10    -0.00  -0.02   0.02     0.00   0.01  -0.01
    35   6    -0.03   0.10  -0.09     0.01  -0.02   0.01     0.00   0.01  -0.00
    36   1    -0.04   0.09   0.25     0.01  -0.02  -0.04    -0.02   0.02   0.03
    37   1     0.18  -0.42  -0.01    -0.02   0.08   0.00    -0.00  -0.04  -0.01
    38   1    -0.19   0.20   0.18     0.04  -0.03  -0.03    -0.02  -0.01   0.02
    39   1     0.20  -0.12  -0.09    -0.06   0.05   0.07     0.02  -0.01  -0.02
    40   1     0.20  -0.11  -0.32    -0.03   0.02   0.05     0.01  -0.02  -0.01
    41   1    -0.12  -0.11   0.41     0.03   0.03  -0.12    -0.02  -0.01   0.02
    42   6    -0.03   0.01   0.01    -0.05   0.01   0.03     0.09  -0.05   0.01
    43   6     0.01  -0.00  -0.00     0.02  -0.01  -0.02    -0.05   0.02  -0.01
    44   6     0.01  -0.00  -0.00     0.02  -0.00  -0.01    -0.04   0.01  -0.00
    45   1     0.01   0.03   0.03     0.01   0.04   0.08    -0.03  -0.13  -0.09
    46   1    -0.03  -0.02  -0.01    -0.05  -0.02   0.02     0.12   0.11   0.09
    47   1    -0.03  -0.01  -0.01    -0.05  -0.03  -0.03     0.09  -0.02   0.02
    48   1    -0.03  -0.04   0.02    -0.04  -0.03   0.02     0.10   0.27  -0.04
    49   1     0.01   0.02  -0.05     0.02   0.02  -0.08    -0.04  -0.05   0.14
    50   1    -0.02   0.01  -0.00    -0.02   0.01  -0.01     0.07  -0.03   0.00
    51   1    -0.02  -0.01   0.02    -0.03  -0.01   0.01     0.09   0.02  -0.08
    52   6    -0.00   0.00  -0.00    -0.00  -0.00  -0.00     0.02  -0.02  -0.01
    53   1    -0.00  -0.00   0.00    -0.00   0.00  -0.00     0.03   0.03  -0.00
    54   1     0.01  -0.00   0.00     0.01  -0.01   0.01     0.05  -0.00  -0.02
    55   1     0.00   0.00   0.00     0.00   0.00   0.01     0.03  -0.01   0.02
                    100                    101                    102
                      A                      A                      A
 Frequencies --   1251.9877              1276.2123              1301.3253
 Red. masses --      1.4782                 9.4247                 2.2853
 Frc consts  --      1.3652                 9.0440                 2.2801
 IR Inten    --      0.0000                 0.0000                 0.0000
  Atom  AN      X      Y      Z        X      Y      Z        X      Y      Z
     1  26     0.00  -0.00  -0.00    -0.00   0.00   0.00     0.00   0.00   0.01
     2   6     0.00   0.00  -0.00    -0.35  -0.25   0.39     0.01   0.00  -0.00
     3  46     0.00   0.00   0.00    -0.00  -0.00   0.00    -0.00   0.00  -0.00
     4   6     0.00   0.07  -0.02    -0.00   0.01  -0.00     0.01   0.01   0.02
     5   1    -0.01  -0.01   0.01     0.03   0.02  -0.02     0.02  -0.01  -0.00
     6   1    -0.01   0.02  -0.01    -0.00   0.04  -0.03     0.01   0.01  -0.03
     7   1     0.03   0.02   0.02     0.02   0.02  -0.01    -0.00   0.01   0.00
     8   6     0.01  -0.00  -0.00     0.07  -0.03  -0.03    -0.00   0.01  -0.00
     9   8     0.00   0.00   0.00    -0.13  -0.08  -0.24     0.00   0.00   0.00
    10   6     0.02   0.02   0.02     0.00  -0.00   0.00     0.03  -0.12   0.05
    11   8     0.00   0.00   0.00     0.00   0.01   0.01    -0.01  -0.02  -0.01
    12   6    -0.00  -0.00   0.00     0.01   0.03  -0.01     0.12   0.07  -0.05
    13   6    -0.00  -0.01   0.01    -0.00   0.01  -0.01     0.01   0.10  -0.05
    14   6     0.01   0.00  -0.00    -0.02  -0.01   0.00    -0.14  -0.00   0.00
    15   1    -0.01   0.01   0.00     0.02   0.01  -0.01     0.10   0.16  -0.01
    16   1     0.01  -0.02  -0.00     0.02   0.02   0.00     0.02   0.12  -0.02
    17   1     0.01  -0.02   0.01    -0.01   0.04  -0.01    -0.12   0.12   0.02
    18   1    -0.05  -0.05  -0.05    -0.15   0.04   0.05     0.40   0.58   0.12
    19   6    -0.02   0.01   0.01     0.00  -0.05   0.01    -0.06  -0.17   0.04
    20   6     0.01   0.01   0.01     0.11   0.02   0.07    -0.01  -0.02  -0.02
    21   8    -0.00  -0.00   0.00     0.37   0.26  -0.05    -0.00  -0.00   0.00
    22   6     0.00   0.00  -0.00    -0.02  -0.01  -0.00    -0.02   0.00  -0.01
    23   6     0.00  -0.00   0.00    -0.01   0.00  -0.00     0.00  -0.01   0.01
    24   6    -0.00  -0.00   0.00    -0.00  -0.00   0.00     0.00  -0.01   0.01
    25   6    -0.00   0.00  -0.00     0.02  -0.00   0.01     0.01   0.01  -0.01
    26   6     0.00  -0.00   0.00     0.01   0.02  -0.01     0.00   0.01  -0.00
    27   1     0.00  -0.00  -0.00    -0.07  -0.08   0.12    -0.02   0.00  -0.00
    28   7    -0.00  -0.01  -0.00    -0.07  -0.02  -0.02     0.00   0.03   0.03
    29   1    -0.01  -0.06  -0.03     0.07   0.05  -0.30     0.00   0.03   0.04
    30   1    -0.19   0.07  -0.31    -0.01   0.01  -0.02    -0.05   0.26  -0.40
    31   1     0.21  -0.42   0.68     0.02  -0.02   0.03     0.07   0.08  -0.19
    32   1    -0.00  -0.00   0.00     0.00  -0.01  -0.00    -0.00  -0.01   0.00
    33   7     0.00  -0.10  -0.10     0.01  -0.01  -0.00     0.03  -0.02  -0.03
    34   6     0.02   0.05   0.04    -0.01   0.01   0.00     0.00   0.01   0.01
    35   6    -0.02   0.03   0.05    -0.00   0.00  -0.00    -0.02   0.00   0.02
    36   1    -0.09   0.11  -0.03     0.01  -0.01   0.01    -0.03   0.04   0.02
    37   1    -0.11   0.02  -0.02     0.02  -0.01   0.01    -0.01   0.04   0.00
    38   1     0.02  -0.19  -0.05     0.01  -0.01  -0.01     0.02  -0.02  -0.01
    39   1     0.06  -0.04  -0.07     0.01  -0.01   0.04     0.01  -0.01   0.01
    40   1    -0.02  -0.10   0.02    -0.00  -0.01  -0.01     0.04  -0.03  -0.05
    41   1    -0.10  -0.05   0.12    -0.01  -0.01   0.03    -0.01  -0.00   0.02
    42   6    -0.01   0.01  -0.00    -0.01   0.01  -0.03     0.00  -0.01  -0.00
    43   6     0.00  -0.00   0.00    -0.00  -0.01   0.01    -0.00   0.00  -0.00
    44   6     0.00  -0.00  -0.00    -0.01  -0.01   0.01    -0.00   0.00   0.00
    45   1     0.00   0.01   0.01    -0.01   0.02  -0.02    -0.00  -0.01  -0.00
    46   1    -0.01  -0.01  -0.01    -0.01  -0.02  -0.06     0.01   0.01   0.02
    47   1    -0.01   0.00  -0.00     0.03   0.05   0.03     0.00   0.00   0.00
    48   1    -0.01  -0.03   0.00     0.03   0.36  -0.14     0.00   0.04   0.00
    49   1     0.00   0.01  -0.01    -0.01   0.02   0.01    -0.00  -0.01  -0.01
    50   1    -0.01   0.00  -0.00     0.00   0.01  -0.02     0.00  -0.01   0.01
    51   1    -0.01  -0.00   0.01    -0.02   0.00   0.04     0.01   0.00  -0.01
    52   6    -0.00   0.00   0.00    -0.01   0.00   0.00    -0.01  -0.00  -0.00
    53   1    -0.01  -0.00   0.00    -0.06   0.02   0.03     0.03   0.01  -0.01
    54   1    -0.01   0.00   0.00    -0.08   0.00  -0.00     0.04  -0.00  -0.00
    55   1    -0.01   0.00  -0.00    -0.04   0.02   0.01     0.03  -0.01   0.01
                    103                    104                    105
                      A                      A                      A
 Frequencies --   1334.0597              1350.2792              1369.2784
 Red. masses --      1.9877                 1.3602                 1.2393
 Frc consts  --      2.0842                 1.4612                 1.3690
 IR Inten    --      0.0000                 0.0000                 0.0000
  Atom  AN      X      Y      Z        X      Y      Z        X      Y      Z
     1  26    -0.00   0.00   0.00     0.00  -0.00  -0.00    -0.00   0.00  -0.00
     2   6     0.00   0.00  -0.00     0.02   0.01  -0.02    -0.00  -0.00   0.00
     3  46     0.00  -0.00  -0.00    -0.00  -0.00   0.00    -0.00  -0.00   0.00
     4   6     0.04   0.08  -0.14    -0.00  -0.00   0.00    -0.00  -0.00   0.01
     5   1     0.01  -0.00   0.00     0.00   0.01  -0.00     0.00   0.00   0.00
     6   1     0.00  -0.01   0.02    -0.00   0.01  -0.01     0.00  -0.00   0.00
     7   1    -0.01   0.00  -0.01    -0.02   0.00  -0.00     0.00  -0.00   0.00
     8   6    -0.02  -0.00  -0.01     0.02  -0.01  -0.01    -0.03  -0.01  -0.01
     9   8     0.00   0.00   0.00     0.00   0.00   0.01    -0.00  -0.00  -0.00
    10   6    -0.10   0.03   0.03     0.01   0.00  -0.00     0.00   0.00  -0.00
    11   8     0.00   0.00   0.00    -0.01  -0.00  -0.00     0.02   0.01   0.02
    12   6     0.02   0.07  -0.02    -0.00   0.01  -0.00    -0.01   0.00   0.00
    13   6    -0.00   0.05  -0.02    -0.00  -0.01   0.00     0.00  -0.01   0.00
    14   6    -0.01  -0.12   0.05     0.01   0.01  -0.00     0.00   0.00  -0.00
    15   1     0.09  -0.04   0.01    -0.01   0.02  -0.01     0.00  -0.01   0.00
    16   1     0.17   0.07  -0.03     0.01  -0.01   0.00    -0.00  -0.01   0.00
    17   1     0.05   0.16  -0.09     0.00  -0.01   0.00     0.00  -0.01   0.00
    18   1     0.17   0.20   0.12    -0.03  -0.04  -0.02     0.01  -0.03  -0.01
    19   6     0.06  -0.10  -0.00    -0.01   0.00   0.00    -0.00   0.00   0.00
    20   6    -0.00   0.00  -0.00     0.05   0.06   0.01     0.00   0.00   0.01
    21   8    -0.00  -0.00   0.00    -0.02  -0.01   0.01     0.00   0.00  -0.00
    22   6    -0.01  -0.01   0.01    -0.01  -0.00  -0.00     0.00   0.00  -0.00
    23   6     0.00   0.00  -0.00     0.00   0.00   0.00    -0.00   0.00  -0.00
    24   6     0.00  -0.01   0.00    -0.00   0.00  -0.00     0.00  -0.00   0.00
    25   6    -0.00   0.00  -0.00     0.00  -0.00   0.00    -0.00   0.00  -0.00
    26   6     0.01   0.01  -0.01     0.01   0.00  -0.00    -0.00  -0.00   0.00
    27   1    -0.00   0.02  -0.01    -0.01   0.03   0.01     0.00  -0.00   0.00
    28   7     0.00   0.01   0.01    -0.00  -0.00  -0.00    -0.00  -0.01  -0.01
    29   1    -0.00  -0.02   0.01    -0.02  -0.32   0.01     0.00   0.01  -0.00
    30   1     0.12  -0.37   0.60    -0.01   0.00  -0.01    -0.01   0.02  -0.03
    31   1    -0.01  -0.18   0.40    -0.00   0.00  -0.01    -0.00   0.01  -0.01
    32   1    -0.00  -0.00  -0.01     0.04  -0.03   0.00     0.00   0.00   0.00
    33   7    -0.05   0.01   0.05     0.00  -0.00  -0.00     0.00  -0.00  -0.00
    34   6     0.01  -0.01  -0.02     0.00  -0.00   0.00    -0.00   0.00   0.00
    35   6     0.03  -0.00  -0.03    -0.00  -0.00   0.00    -0.00   0.00   0.00
    36   1     0.02  -0.02   0.05    -0.00   0.00   0.00     0.00  -0.00  -0.01
    37   1     0.01  -0.05  -0.01     0.00   0.00   0.00    -0.00  -0.00  -0.00
    38   1    -0.04  -0.02   0.04     0.00   0.00  -0.00    -0.00   0.00   0.00
    39   1    -0.03   0.03   0.01    -0.00   0.00   0.00     0.00  -0.00  -0.00
    40   1    -0.11   0.03   0.12     0.00   0.00  -0.00     0.01  -0.00  -0.01
    41   1    -0.00  -0.02   0.00    -0.00  -0.00   0.00     0.00   0.00  -0.00
    42   6    -0.00  -0.01  -0.00    -0.03  -0.14   0.01    -0.00   0.01   0.00
    43   6    -0.00   0.00  -0.00    -0.03   0.02  -0.01     0.00  -0.00   0.00
    44   6    -0.00   0.00   0.00    -0.01   0.03  -0.00    -0.00   0.00  -0.00
    45   1    -0.00   0.00   0.00    -0.01  -0.04   0.04     0.00   0.00  -0.00
    46   1     0.00   0.01   0.01     0.06   0.09   0.12    -0.00  -0.00  -0.00
    47   1     0.00   0.00   0.00     0.07   0.01   0.02    -0.01   0.00  -0.00
    48   1     0.00   0.05  -0.01     0.05   0.89  -0.10    -0.00  -0.03   0.00
    49   1     0.00  -0.01  -0.01    -0.01  -0.07   0.02     0.00  -0.01  -0.02
    50   1     0.01  -0.00   0.00     0.00  -0.05   0.06     0.02  -0.01   0.01
    51   1     0.00  -0.00  -0.01     0.00  -0.01  -0.08    -0.00   0.01   0.03
    52   6    -0.00   0.00   0.00    -0.01   0.01   0.00    -0.13   0.03   0.03
    53   1     0.03  -0.01  -0.02     0.00  -0.02  -0.01     0.49  -0.03  -0.30
    54   1     0.03   0.00   0.00     0.03  -0.01   0.01     0.55   0.02   0.03
    55   1     0.03  -0.02  -0.01     0.00  -0.01  -0.01     0.48  -0.31  -0.02
                    106                    107                    108
                      A                      A                      A
 Frequencies --   1375.7539              1390.6399              1392.2318
 Red. masses --      4.0727                 1.5689                 3.0896
 Frc consts  --      4.5416                 1.7876                 3.5284
 IR Inten    --      0.0000                 0.0000                 0.0000
  Atom  AN      X      Y      Z        X      Y      Z        X      Y      Z
     1  26    -0.00  -0.00  -0.01    -0.00   0.00   0.00     0.00   0.00  -0.00
     2   6     0.00   0.00   0.00    -0.00  -0.00   0.01    -0.00  -0.00   0.00
     3  46     0.00   0.00  -0.00    -0.00   0.00   0.00     0.00  -0.00   0.00
     4   6    -0.05  -0.00  -0.00     0.00   0.01  -0.02     0.00  -0.02   0.03
     5   1     0.03   0.04  -0.03    -0.04  -0.03   0.02     0.07   0.02   0.00
     6   1     0.05   0.01   0.03     0.03  -0.03   0.03     0.01  -0.05   0.03
     7   1     0.03  -0.04   0.02     0.04  -0.01   0.01    -0.05  -0.06   0.01
     8   6     0.08   0.01   0.01     0.01   0.00   0.01    -0.14  -0.01  -0.02
     9   8    -0.00  -0.00   0.00    -0.00  -0.00  -0.00    -0.00  -0.00  -0.00
    10   6     0.25  -0.02  -0.06     0.01  -0.03   0.01    -0.03   0.05  -0.01
    11   8    -0.03  -0.03  -0.03    -0.01  -0.00  -0.00     0.05   0.04   0.04
    12   6    -0.06   0.19  -0.06     0.06  -0.06   0.00    -0.14   0.11  -0.00
    13   6    -0.00  -0.18   0.09    -0.08   0.03  -0.00     0.16  -0.05   0.00
    14   6     0.03   0.18  -0.07     0.02   0.01  -0.00    -0.04  -0.02   0.01
    15   1     0.15  -0.21   0.07    -0.01   0.07  -0.05    -0.02  -0.18  -0.02
    16   1     0.04  -0.20   0.01     0.05   0.04  -0.01    -0.12  -0.08   0.02
    17   1    -0.01  -0.10   0.06     0.02   0.04  -0.02    -0.05  -0.09   0.05
    18   1     0.05   0.20  -0.02    -0.03  -0.01  -0.03     0.15   0.01   0.06
    19   6    -0.17  -0.11   0.07    -0.02   0.03  -0.00     0.04  -0.05  -0.01
    20   6    -0.01  -0.02  -0.02    -0.01  -0.01   0.00     0.00   0.01   0.02
    21   8    -0.00  -0.00   0.00     0.00   0.00  -0.00     0.00   0.00  -0.00
    22   6     0.00   0.06  -0.06     0.05   0.07  -0.04    -0.07  -0.06   0.02
    23   6     0.07  -0.02   0.04    -0.02  -0.04   0.02     0.07   0.05  -0.01
    24   6    -0.07  -0.03   0.02     0.03   0.02  -0.01    -0.07  -0.09   0.05
    25   6     0.04   0.03  -0.03     0.02  -0.01   0.01    -0.06   0.10  -0.10
    26   6    -0.04  -0.03   0.04    -0.07  -0.03   0.01     0.13  -0.00   0.04
    27   1    -0.03  -0.02   0.01     0.05  -0.05  -0.07    -0.00   0.07  -0.11
    28   7    -0.00   0.03   0.03     0.00   0.00   0.00     0.01  -0.04  -0.04
    29   1     0.00   0.05   0.02     0.00   0.05  -0.01    -0.01   0.01  -0.04
    30   1     0.04  -0.35   0.55     0.01  -0.05   0.08    -0.03   0.11  -0.19
    31   1     0.05  -0.12   0.13     0.01  -0.01   0.02    -0.02   0.03  -0.05
    32   1    -0.03   0.02  -0.01    -0.00  -0.04   0.05     0.04   0.05  -0.04
    33   7    -0.02   0.02   0.01    -0.00   0.00   0.00     0.01  -0.00  -0.00
    34   6    -0.00  -0.01  -0.01    -0.00   0.00  -0.00     0.01  -0.01  -0.00
    35   6     0.01  -0.00  -0.03     0.00  -0.00  -0.01    -0.01   0.00   0.01
    36   1    -0.01   0.01   0.04     0.00  -0.00   0.01    -0.03   0.03  -0.01
    37   1     0.02   0.03   0.00     0.01  -0.00   0.00    -0.07   0.05  -0.03
    38   1    -0.01   0.01   0.01     0.00  -0.01  -0.01    -0.04   0.06   0.07
    39   1    -0.04   0.03   0.10    -0.00   0.00   0.02     0.00  -0.00  -0.02
    40   1    -0.11   0.05   0.11    -0.03   0.01   0.03     0.05  -0.03  -0.05
    41   1     0.01  -0.03   0.08     0.00  -0.00   0.02    -0.02   0.00  -0.04
    42   6     0.00   0.00  -0.01    -0.00  -0.01  -0.08    -0.00  -0.01  -0.07
    43   6    -0.00   0.00   0.00    -0.04  -0.02  -0.01    -0.03  -0.02  -0.00
    44   6    -0.00  -0.00   0.01     0.06   0.01  -0.04     0.05   0.01  -0.02
    45   1    -0.00  -0.01  -0.02    -0.03   0.10   0.04    -0.02   0.08   0.01
    46   1     0.00   0.00  -0.00     0.14   0.10   0.12     0.11   0.07   0.07
    47   1    -0.01  -0.00   0.00     0.10   0.17   0.08     0.07   0.11   0.06
    48   1    -0.01  -0.05   0.08    -0.09   0.06   0.75    -0.08   0.06   0.62
    49   1     0.01  -0.01  -0.05     0.02  -0.03   0.16     0.02  -0.04   0.11
    50   1     0.02   0.01  -0.02    -0.21  -0.11   0.22    -0.16  -0.07   0.16
    51   1     0.01  -0.01  -0.02    -0.20   0.02   0.22    -0.17   0.00   0.16
    52   6    -0.02  -0.00  -0.00    -0.01  -0.00   0.00     0.05   0.00   0.01
    53   1     0.02   0.06   0.01     0.01   0.01  -0.00    -0.06  -0.10   0.01
    54   1     0.00  -0.00  -0.00     0.01   0.01  -0.01    -0.02   0.01  -0.01
    55   1     0.02   0.01   0.06     0.01  -0.01   0.00    -0.06   0.00  -0.11
                    109                    110                    111
                      A                      A                      A
 Frequencies --   1396.9693              1398.9916              1401.3087
 Red. masses --      4.6452                 1.9260                 2.4540
 Frc consts  --      5.3411                 2.2209                 2.8392
 IR Inten    --      0.0000                 0.0000                 0.0000
  Atom  AN      X      Y      Z        X      Y      Z        X      Y      Z
     1  26     0.00  -0.00   0.00     0.00  -0.00   0.00    -0.00   0.00  -0.00
     2   6     0.01   0.00  -0.00     0.00   0.00  -0.00    -0.00  -0.00  -0.00
     3  46    -0.00   0.00  -0.00     0.00   0.00   0.00     0.00  -0.00   0.00
     4   6    -0.02   0.00  -0.00     0.00   0.00  -0.00     0.00  -0.02   0.02
     5   1    -0.07  -0.06   0.04     0.07   0.05  -0.03    -0.10  -0.07   0.05
     6   1    -0.17  -0.00  -0.08     0.06  -0.01   0.03    -0.03  -0.02  -0.01
     7   1    -0.20   0.07  -0.05     0.02  -0.06   0.00     0.00   0.04  -0.01
     8   6     0.17   0.02   0.03     0.12   0.01   0.02    -0.08  -0.01  -0.02
     9   8    -0.00  -0.00   0.00     0.00   0.00   0.00     0.00   0.00   0.00
    10   6     0.09  -0.02  -0.02    -0.03   0.01   0.00    -0.02   0.05  -0.02
    11   8    -0.07  -0.05  -0.05    -0.05  -0.03  -0.04     0.03   0.02   0.02
    12   6     0.02  -0.02   0.00    -0.01  -0.02   0.01    -0.06   0.12  -0.03
    13   6    -0.02   0.00   0.00     0.04   0.03  -0.02     0.03  -0.07   0.03
    14   6    -0.01   0.03  -0.01    -0.02  -0.04   0.02     0.04   0.01  -0.01
    15   1    -0.01   0.05   0.00    -0.04   0.02  -0.01     0.08  -0.16   0.03
    16   1    -0.01   0.00  -0.00    -0.05   0.02   0.01     0.06  -0.08  -0.00
    17   1    -0.01   0.05  -0.01    -0.01   0.02  -0.00     0.02  -0.09   0.02
    18   1    -0.19   0.01  -0.05    -0.13  -0.04   0.01     0.18   0.11   0.05
    19   6    -0.05   0.00   0.01     0.04   0.01  -0.01     0.00  -0.08   0.01
    20   6    -0.02  -0.03  -0.03    -0.01  -0.02  -0.02     0.00   0.01   0.01
    21   8    -0.00  -0.00   0.00    -0.00  -0.00  -0.00    -0.00   0.00  -0.00
    22   6    -0.12  -0.24   0.17    -0.01   0.04  -0.04     0.05   0.02   0.02
    23   6    -0.09   0.11  -0.09     0.09  -0.01   0.03    -0.12  -0.02  -0.02
    24   6     0.12   0.06  -0.04    -0.10  -0.07   0.04     0.13   0.10  -0.05
    25   6    -0.14  -0.05   0.05     0.02   0.07  -0.06     0.01  -0.09   0.09
    26   6     0.26   0.11  -0.07    -0.01  -0.03   0.03    -0.07   0.01  -0.03
    27   1     0.05   0.15  -0.17    -0.04   0.01   0.02     0.06  -0.06  -0.01
    28   7    -0.01   0.05   0.05    -0.01   0.04   0.03     0.01  -0.02  -0.02
    29   1     0.01   0.08   0.04     0.00   0.03   0.02    -0.00  -0.02  -0.02
    30   1     0.06  -0.09   0.21     0.02   0.02   0.01    -0.00   0.06  -0.08
    31   1     0.07  -0.06   0.03     0.00   0.01  -0.00    -0.03   0.02  -0.02
    32   1    -0.02   0.07  -0.07     0.01   0.02  -0.02     0.00  -0.05   0.06
    33   7    -0.01   0.01   0.00    -0.01   0.01   0.01    -0.00   0.00   0.01
    34   6    -0.03   0.03   0.01    -0.06   0.08   0.02    -0.05   0.06   0.02
    35   6     0.00  -0.00  -0.00    -0.02  -0.00   0.04    -0.03  -0.00   0.06
    36   1     0.10  -0.10  -0.02     0.27  -0.28  -0.08     0.24  -0.25  -0.08
    37   1     0.15  -0.14   0.06     0.28  -0.40   0.13     0.19  -0.33   0.09
    38   1     0.09  -0.13  -0.16     0.17  -0.34  -0.34     0.11  -0.29  -0.25
    39   1    -0.02   0.01  -0.00     0.05  -0.04  -0.22     0.07  -0.06  -0.29
    40   1    -0.01   0.02   0.01     0.17  -0.02  -0.16     0.22  -0.01  -0.20
    41   1    -0.01  -0.00  -0.00     0.03   0.09  -0.23     0.06   0.11  -0.26
    42   6     0.00   0.00  -0.02    -0.00  -0.00   0.00    -0.00  -0.00  -0.01
    43   6    -0.01  -0.02  -0.01     0.00   0.00  -0.00    -0.00  -0.00  -0.00
    44   6     0.03   0.01  -0.04     0.00   0.00  -0.01     0.00   0.00   0.01
    45   1    -0.01   0.07   0.05     0.00   0.00  -0.00    -0.00   0.02   0.01
    46   1     0.07   0.05   0.07    -0.00   0.00   0.01     0.02   0.01   0.02
    47   1     0.05   0.08   0.04    -0.00   0.00  -0.00     0.02   0.02   0.01
    48   1    -0.04  -0.05   0.23     0.01  -0.00  -0.02    -0.01   0.02   0.09
    49   1    -0.00  -0.02   0.19    -0.00   0.00   0.03     0.01  -0.01  -0.03
    50   1    -0.15  -0.10   0.16    -0.02  -0.01   0.02     0.01   0.01  -0.01
    51   1    -0.12   0.04   0.19    -0.01   0.01   0.02    -0.01  -0.01  -0.02
    52   6    -0.05  -0.01  -0.01    -0.04  -0.00  -0.01     0.03   0.00   0.00
    53   1     0.07   0.13  -0.00     0.04   0.09   0.00    -0.05  -0.06   0.01
    54   1     0.02   0.00  -0.00    -0.00  -0.00   0.00    -0.02   0.00  -0.01
    55   1     0.07  -0.00   0.13     0.04   0.00   0.09    -0.04   0.01  -0.07
                    112                    113                    114
                      A                      A                      A
 Frequencies --   1404.2796              1409.4034              1413.4502
 Red. masses --      3.2122                 1.3511                 2.7822
 Frc consts  --      3.7322                 1.5812                 3.2749
 IR Inten    --      0.0000                 0.0000                 0.0000
  Atom  AN      X      Y      Z        X      Y      Z        X      Y      Z
     1  26    -0.00   0.00  -0.00     0.00  -0.00   0.00     0.00   0.00   0.00
     2   6     0.01   0.00  -0.00    -0.00   0.00   0.00    -0.00  -0.00  -0.00
     3  46     0.00  -0.00   0.00     0.00  -0.00  -0.00    -0.00  -0.00  -0.00
     4   6     0.02  -0.03   0.03    -0.01   0.01  -0.01    -0.03   0.03  -0.03
     5   1    -0.03  -0.03   0.03     0.02   0.03  -0.03     0.01  -0.05   0.06
     6   1     0.01  -0.01   0.02     0.00   0.05  -0.03     0.05  -0.10   0.09
     7   1     0.07   0.02   0.02     0.01   0.02  -0.01     0.08  -0.01   0.03
     8   6     0.20   0.01   0.02    -0.05  -0.00  -0.01    -0.02   0.00   0.00
     9   8     0.00  -0.00   0.00     0.00   0.00   0.00     0.00   0.00  -0.00
    10   6    -0.08   0.10  -0.02     0.03  -0.03   0.00     0.10  -0.10   0.02
    11   8    -0.09  -0.05  -0.06     0.02   0.01   0.02     0.01   0.01   0.01
    12   6    -0.12   0.11  -0.01    -0.00  -0.01   0.00    -0.08  -0.04   0.03
    13   6     0.15  -0.02  -0.01     0.02   0.00  -0.00     0.22   0.05  -0.05
    14   6    -0.02  -0.08   0.03    -0.02   0.01  -0.00    -0.16  -0.01   0.01
    15   1     0.00  -0.16   0.02     0.00   0.01   0.03    -0.18   0.11  -0.05
    16   1    -0.06  -0.04   0.01    -0.03   0.00   0.01    -0.32   0.03   0.04
    17   1    -0.01  -0.04   0.01    -0.02   0.00   0.01    -0.15   0.05   0.04
    18   1    -0.18  -0.03   0.11     0.06   0.00  -0.01    -0.06  -0.10  -0.03
    19   6     0.08  -0.06  -0.01    -0.02   0.01   0.00    -0.03   0.07  -0.01
    20   6    -0.02  -0.03  -0.03     0.01   0.01   0.00     0.00   0.01   0.01
    21   8    -0.00  -0.00  -0.00    -0.00  -0.00   0.00     0.00   0.00   0.00
    22   6     0.06   0.05  -0.02    -0.00  -0.00  -0.00     0.07   0.03   0.00
    23   6    -0.06  -0.02  -0.00     0.02   0.00   0.00    -0.12   0.01  -0.04
    24   6     0.06   0.03  -0.02    -0.03   0.00  -0.00     0.09  -0.00   0.01
    25   6     0.02  -0.03   0.03     0.03  -0.02   0.02    -0.01   0.02  -0.02
    26   6    -0.08  -0.02  -0.00    -0.03   0.01  -0.01    -0.06  -0.03   0.02
    27   1     0.03  -0.07   0.05    -0.03   0.01   0.06     0.05  -0.09   0.04
    28   7    -0.02   0.07   0.07     0.00  -0.02  -0.01     0.00  -0.01  -0.01
    29   1     0.01   0.05   0.04     0.00  -0.02  -0.00    -0.00  -0.02  -0.01
    30   1    -0.09   0.12  -0.31     0.02  -0.03   0.08     0.10  -0.05   0.25
    31   1    -0.11   0.06  -0.02     0.03  -0.02   0.01     0.16  -0.08   0.01
    32   1     0.03  -0.05   0.06    -0.02   0.01  -0.02     0.11  -0.08   0.09
    33   7     0.01  -0.02  -0.00    -0.00   0.00   0.00    -0.01   0.01  -0.01
    34   6     0.04  -0.05  -0.01    -0.00   0.01   0.00    -0.03   0.03   0.01
    35   6     0.00   0.00  -0.01     0.00  -0.00  -0.00     0.03  -0.00  -0.06
    36   1    -0.22   0.23   0.06     0.04  -0.04  -0.01     0.12  -0.12  -0.03
    37   1    -0.16   0.28  -0.07     0.01  -0.04   0.00     0.12  -0.14   0.05
    38   1    -0.08   0.26   0.20     0.00  -0.04  -0.02     0.07  -0.16  -0.14
    39   1    -0.00   0.00   0.08    -0.00   0.00   0.00    -0.07   0.06   0.29
    40   1    -0.04  -0.03   0.03    -0.01   0.02   0.02    -0.25   0.05   0.24
    41   1    -0.02  -0.03   0.07     0.01   0.00   0.01    -0.02  -0.10   0.28
    42   6    -0.00   0.00   0.01    -0.00   0.02   0.06    -0.00  -0.00  -0.00
    43   6    -0.00  -0.02  -0.02     0.01  -0.02  -0.03    -0.00   0.00   0.00
    44   6     0.02   0.01  -0.04     0.02   0.02  -0.11    -0.01  -0.01   0.02
    45   1    -0.00   0.07   0.07     0.01   0.07   0.10    -0.00  -0.01  -0.01
    46   1     0.03   0.03   0.09    -0.01   0.01   0.10    -0.00  -0.00  -0.01
    47   1     0.02   0.08   0.02    -0.00   0.09   0.01     0.00  -0.01  -0.00
    48   1     0.01  -0.04  -0.08     0.06  -0.07  -0.49    -0.00   0.04   0.03
    49   1    -0.02  -0.03   0.20    -0.05  -0.08   0.50     0.01   0.03  -0.10
    50   1    -0.11  -0.09   0.13    -0.20  -0.24   0.30     0.04   0.06  -0.08
    51   1    -0.09   0.04   0.16    -0.19   0.11   0.38     0.06  -0.03  -0.10
    52   6    -0.06  -0.01  -0.01     0.02   0.00   0.00     0.00   0.00   0.00
    53   1     0.07   0.17   0.01    -0.03  -0.05   0.00    -0.00  -0.03  -0.01
    54   1    -0.03  -0.01   0.00     0.01   0.01  -0.01     0.02  -0.00   0.01
    55   1     0.06   0.02   0.18    -0.03  -0.00  -0.06    -0.00  -0.01  -0.02
                    115                    116                    117
                      A                      A                      A
 Frequencies --   1417.0847              1421.4069              1426.0227
 Red. masses --      3.1489                 1.4326                 1.2901
 Frc consts  --      3.7256                 1.7054                 1.5457
 IR Inten    --      0.0000                 0.0000                 0.0000
  Atom  AN      X      Y      Z        X      Y      Z        X      Y      Z
     1  26     0.01  -0.00   0.00    -0.00   0.00  -0.00     0.00  -0.00   0.00
     2   6     0.00  -0.00  -0.00     0.00   0.00  -0.00     0.00   0.00   0.00
     3  46    -0.00   0.00   0.00     0.00  -0.00  -0.00    -0.00  -0.00  -0.00
     4   6    -0.02  -0.00   0.00    -0.03  -0.03   0.03    -0.00   0.00  -0.00
     5   1    -0.18   0.02  -0.11     0.01  -0.01   0.02     0.03   0.04  -0.04
     6   1    -0.15   0.21  -0.21     0.02  -0.04   0.02    -0.00   0.06  -0.04
     7   1    -0.22   0.05  -0.05     0.03  -0.00   0.02     0.02   0.04  -0.01
     8   6    -0.00   0.00   0.00    -0.00  -0.00  -0.00    -0.00  -0.00  -0.00
     9   8     0.00   0.00   0.00     0.00   0.00   0.00    -0.00  -0.00  -0.00
    10   6    -0.02  -0.01   0.01    -0.07   0.06  -0.01     0.00  -0.00   0.00
    11   8     0.00   0.00   0.00    -0.00   0.00   0.00     0.00   0.00   0.00
    12   6    -0.05   0.01   0.01     0.02   0.03  -0.01    -0.01  -0.00   0.00
    13   6     0.09   0.01  -0.02    -0.08  -0.03   0.02     0.01   0.00  -0.00
    14   6    -0.05  -0.02   0.01     0.07  -0.00  -0.00    -0.01  -0.00   0.00
    15   1    -0.05  -0.01  -0.03     0.08  -0.07   0.02    -0.01   0.00  -0.00
    16   1    -0.10  -0.00   0.02     0.12  -0.02  -0.02    -0.02   0.00   0.00
    17   1    -0.04  -0.01   0.02     0.06  -0.05  -0.00    -0.01  -0.00   0.00
    18   1    -0.01  -0.05   0.02     0.04   0.04   0.03    -0.00  -0.01  -0.00
    19   6     0.02   0.02  -0.01     0.03  -0.04  -0.00     0.00   0.01  -0.00
    20   6    -0.00  -0.00   0.00    -0.00  -0.00  -0.00    -0.00   0.00  -0.00
    21   8    -0.00  -0.00  -0.00    -0.00  -0.00   0.00    -0.00  -0.00  -0.00
    22   6    -0.11   0.03  -0.07     0.01   0.00   0.00    -0.01  -0.02   0.01
    23   6     0.19  -0.10   0.12    -0.01   0.01  -0.01     0.03   0.01   0.00
    24   6    -0.08   0.14  -0.10     0.00  -0.02   0.02    -0.04   0.00  -0.00
    25   6     0.03  -0.16   0.15    -0.01   0.03  -0.03     0.03  -0.02   0.02
    26   6     0.04   0.06  -0.06     0.01  -0.01   0.01    -0.02   0.02  -0.02
    27   1    -0.11   0.11  -0.09     0.00  -0.02   0.02     0.01   0.04  -0.02
    28   7     0.00  -0.00  -0.00     0.00   0.00   0.00     0.00  -0.00  -0.00
    29   1     0.00   0.02  -0.01    -0.00  -0.00   0.00    -0.01  -0.01   0.00
    30   1     0.14   0.17   0.01     0.21   0.36  -0.12     0.01   0.01   0.00
    31   1     0.21  -0.08  -0.06     0.30  -0.10  -0.14     0.01  -0.01  -0.00
    32   1    -0.35   0.12  -0.15     0.04  -0.01   0.02    -0.03   0.03  -0.04
    33   7    -0.00  -0.00  -0.01     0.00   0.00  -0.01    -0.00  -0.00  -0.00
    34   6    -0.01   0.01   0.00    -0.03   0.03   0.01     0.00   0.00   0.00
    35   6     0.02   0.00  -0.03     0.03   0.00  -0.08     0.00  -0.00  -0.00
    36   1     0.04  -0.03   0.01     0.08  -0.08   0.01     0.00  -0.00  -0.00
    37   1     0.08  -0.04   0.03     0.17  -0.11   0.08    -0.00  -0.00  -0.00
    38   1     0.04  -0.07  -0.08     0.10  -0.15  -0.18    -0.00  -0.00   0.00
    39   1    -0.08   0.07   0.20    -0.10   0.09   0.40     0.00  -0.00   0.00
    40   1    -0.12  -0.01   0.11    -0.29  -0.00   0.26    -0.01   0.01   0.01
    41   1    -0.08  -0.09   0.14    -0.09  -0.15   0.33     0.01  -0.00   0.01
    42   6    -0.00  -0.00  -0.03     0.00   0.00   0.01     0.01   0.01   0.01
    43   6     0.00   0.03   0.03     0.00  -0.01  -0.01    -0.03  -0.10  -0.08
    44   6     0.01  -0.00   0.01    -0.00   0.00  -0.01    -0.02  -0.01   0.04
    45   1     0.00  -0.11  -0.11    -0.00   0.03   0.02    -0.03   0.40   0.30
    46   1    -0.04  -0.05  -0.14     0.01   0.01   0.03     0.25   0.20   0.44
    47   1    -0.03  -0.15  -0.03     0.00   0.03   0.01     0.14   0.49   0.15
    48   1    -0.03   0.01   0.25     0.01  -0.01  -0.06     0.01  -0.08  -0.07
    49   1     0.01  -0.00  -0.05    -0.00  -0.01   0.03     0.01   0.06  -0.18
    50   1    -0.01   0.02  -0.01    -0.00  -0.02   0.02     0.10   0.10  -0.14
    51   1    -0.02  -0.02  -0.03    -0.01   0.01   0.03     0.12  -0.03  -0.16
    52   6    -0.00   0.00   0.00     0.00  -0.00   0.00     0.00   0.00  -0.00
    53   1     0.00  -0.00  -0.00    -0.01   0.00   0.00     0.01  -0.00  -0.00
    54   1     0.01   0.00  -0.00    -0.01   0.00  -0.00    -0.01  -0.01   0.01
    55   1     0.00  -0.00  -0.00    -0.01   0.00  -0.00     0.00   0.00   0.01
                    118                    119                    120
                      A                      A                      A
 Frequencies --   1436.5578              1440.3895              1455.5917
 Red. masses --      3.0901                 1.1233                 1.0614
 Frc consts  --      3.7572                 1.3731                 1.3250
 IR Inten    --      0.0000                 0.0000                 0.0000
  Atom  AN      X      Y      Z        X      Y      Z        X      Y      Z
     1  26    -0.00  -0.00   0.00     0.00   0.00  -0.00    -0.00  -0.00   0.00
     2   6    -0.00  -0.00  -0.00    -0.00  -0.00   0.00     0.00   0.00   0.00
     3  46    -0.00   0.00   0.00    -0.00  -0.00  -0.00     0.00  -0.00  -0.00
     4   6     0.01  -0.00   0.00    -0.07  -0.01  -0.00    -0.01   0.00  -0.01
     5   1     0.26   0.21  -0.14     0.02   0.01   0.00     0.00   0.00  -0.00
     6   1     0.07   0.23  -0.12     0.03  -0.04   0.00     0.00  -0.00   0.00
     7   1     0.28   0.22  -0.04     0.02   0.00  -0.00     0.02   0.01   0.00
     8   6     0.00   0.00   0.00     0.01   0.00   0.00    -0.01   0.00   0.00
     9   8     0.00   0.00   0.00    -0.00  -0.00  -0.00    -0.00  -0.00  -0.00
    10   6    -0.01  -0.00   0.01     0.01   0.01  -0.01     0.01   0.00  -0.00
    11   8    -0.00  -0.00  -0.00    -0.00  -0.00  -0.00     0.00   0.00   0.00
    12   6    -0.01   0.01  -0.00    -0.00  -0.00   0.00    -0.00  -0.00   0.00
    13   6     0.01  -0.00  -0.00     0.01   0.01  -0.01     0.00   0.00  -0.00
    14   6     0.00   0.01  -0.00    -0.01  -0.01   0.00    -0.00  -0.00   0.00
    15   1    -0.00  -0.01  -0.01    -0.01   0.01  -0.01    -0.00   0.00  -0.00
    16   1    -0.01  -0.01   0.01    -0.01   0.01  -0.00    -0.01   0.00   0.00
    17   1    -0.01  -0.02   0.01    -0.00   0.01  -0.00    -0.00   0.01  -0.00
    18   1     0.01   0.00   0.01    -0.02  -0.01  -0.00     0.01  -0.01   0.01
    19   6     0.01  -0.00  -0.00    -0.00   0.00   0.00    -0.00   0.00  -0.00
    20   6    -0.00  -0.00   0.00     0.00   0.00   0.00     0.00   0.00   0.00
    21   8    -0.00  -0.00  -0.00     0.00   0.00   0.00    -0.00   0.00   0.00
    22   6     0.05  -0.13   0.15     0.01  -0.00   0.01     0.00  -0.00   0.00
    23   6     0.02   0.13  -0.09    -0.01   0.01  -0.01    -0.00   0.00  -0.00
    24   6    -0.13  -0.07   0.04    -0.00  -0.01   0.01    -0.00  -0.00   0.00
    25   6     0.18  -0.05   0.06     0.01   0.00  -0.00     0.00  -0.00   0.00
    26   6    -0.18   0.07  -0.12    -0.02  -0.00  -0.00    -0.01   0.00  -0.00
    27   1     0.25   0.21  -0.25     0.02   0.01  -0.01     0.01   0.00  -0.00
    28   7     0.00   0.00   0.00    -0.00   0.00   0.00     0.00  -0.00  -0.00
    29   1     0.00   0.01  -0.00     0.00   0.00  -0.00     0.00   0.00   0.00
    30   1    -0.04   0.00  -0.07     0.42   0.34   0.25     0.03  -0.00   0.05
    31   1    -0.05   0.03   0.00     0.55  -0.26  -0.11     0.03  -0.03   0.02
    32   1     0.17   0.06  -0.05     0.03  -0.00   0.01     0.00  -0.00   0.00
    33   7    -0.00  -0.00  -0.00    -0.01  -0.00   0.00    -0.01  -0.01   0.01
    34   6    -0.00   0.01   0.00     0.02  -0.02  -0.02    -0.03  -0.05   0.02
    35   6    -0.00  -0.00  -0.02    -0.01  -0.01   0.04     0.00   0.01   0.01
    36   1     0.02  -0.02  -0.03    -0.05   0.05   0.14    -0.38   0.36  -0.10
    37   1     0.00  -0.04   0.00    -0.06   0.17  -0.03     0.41   0.02   0.17
    38   1     0.01  -0.02  -0.02    -0.09   0.02   0.12     0.44   0.36  -0.36
    39   1     0.06  -0.05   0.04    -0.02   0.01  -0.27     0.04  -0.03   0.01
    40   1    -0.10   0.04   0.10     0.18   0.11  -0.14     0.03  -0.13  -0.05
    41   1     0.08   0.02   0.12     0.03   0.06  -0.16    -0.05   0.00  -0.11
    42   6    -0.00  -0.01  -0.03    -0.00  -0.00  -0.00     0.00   0.00   0.00
    43   6    -0.00   0.04   0.03    -0.00   0.00   0.00     0.00  -0.00  -0.00
    44   6     0.02   0.00   0.00     0.00  -0.00   0.00     0.00   0.00  -0.00
    45   1     0.00  -0.14  -0.07     0.00  -0.01  -0.00     0.00  -0.00  -0.00
    46   1    -0.05  -0.06  -0.20    -0.00  -0.00  -0.01    -0.00  -0.00   0.00
    47   1     0.02  -0.21  -0.04     0.00  -0.01  -0.00    -0.00   0.00  -0.00
    48   1    -0.04   0.05   0.28    -0.00   0.01   0.01     0.00  -0.00  -0.00
    49   1     0.01  -0.01  -0.01     0.00   0.00  -0.00    -0.00  -0.00   0.00
    50   1    -0.03   0.01   0.01    -0.00   0.00  -0.00    -0.00   0.00  -0.00
    51   1    -0.04  -0.02  -0.00     0.00  -0.00  -0.00    -0.00  -0.00  -0.00
    52   6    -0.00  -0.00   0.00    -0.00  -0.00  -0.00     0.00   0.00   0.00
    53   1     0.00   0.00   0.00     0.01   0.00  -0.00    -0.02  -0.04  -0.00
    54   1     0.00   0.00  -0.00     0.00  -0.00   0.00     0.03   0.00  -0.00
    55   1     0.00  -0.00   0.00     0.00   0.00   0.01    -0.02  -0.01  -0.04
                    121                    122                    123
                      A                      A                      A
 Frequencies --   1462.2535              1463.3154              1464.5847
 Red. masses --      1.5418                 1.3177                 1.7265
 Frc consts  --      1.9423                 1.6624                 2.1819
 IR Inten    --      0.0000                 0.0000                 0.0000
  Atom  AN      X      Y      Z        X      Y      Z        X      Y      Z
     1  26     0.00   0.00   0.00    -0.00  -0.00  -0.00    -0.00  -0.00  -0.00
     2   6    -0.00   0.00  -0.00    -0.00   0.00   0.00    -0.00   0.00  -0.00
     3  46    -0.00  -0.00   0.00     0.00   0.00   0.00     0.00   0.00   0.00
     4   6     0.02   0.03  -0.04    -0.02  -0.03   0.03    -0.03  -0.04   0.04
     5   1    -0.00  -0.00   0.00    -0.00   0.00  -0.00     0.00   0.00  -0.00
     6   1    -0.00  -0.01   0.00     0.00   0.01  -0.00     0.00   0.01  -0.00
     7   1    -0.00  -0.00   0.00     0.00   0.00  -0.00     0.00   0.00  -0.00
     8   6    -0.03   0.00  -0.01    -0.01   0.01  -0.01    -0.06  -0.00  -0.00
     9   8     0.00   0.00   0.00    -0.00  -0.00  -0.00     0.00   0.00   0.00
    10   6    -0.07  -0.12   0.07     0.05   0.09  -0.05     0.08   0.13  -0.08
    11   8     0.01   0.01   0.01     0.00  -0.00   0.00     0.02   0.01   0.01
    12   6    -0.01   0.02  -0.01     0.01  -0.02   0.00     0.02  -0.03   0.01
    13   6    -0.00  -0.03   0.02     0.00   0.02  -0.01     0.00   0.04  -0.02
    14   6     0.01   0.09  -0.04    -0.00  -0.07   0.03    -0.01  -0.10   0.04
    15   1     0.03  -0.06   0.02    -0.02   0.04  -0.01    -0.03   0.06  -0.02
    16   1    -0.02  -0.04   0.01     0.02   0.03  -0.01     0.02   0.04  -0.01
    17   1    -0.04  -0.12   0.06     0.03   0.09  -0.04     0.05   0.14  -0.06
    18   1    -0.01  -0.06   0.01     0.03   0.05  -0.01     0.08   0.07  -0.03
    19   6     0.06   0.01  -0.02    -0.05  -0.00   0.01    -0.07  -0.00   0.02
    20   6     0.00   0.01   0.01    -0.00  -0.00   0.00     0.01   0.01   0.01
    21   8    -0.00  -0.00   0.00     0.00  -0.00   0.00    -0.00  -0.00   0.00
    22   6    -0.00  -0.00   0.00     0.00   0.00  -0.00     0.00   0.00  -0.00
    23   6    -0.01  -0.00  -0.00     0.00   0.00   0.00     0.01   0.00   0.00
    24   6     0.00  -0.00  -0.00    -0.00   0.00   0.00    -0.00   0.00   0.00
    25   6    -0.00   0.00  -0.00     0.00  -0.00   0.00     0.00  -0.00   0.00
    26   6     0.00  -0.00   0.00    -0.00   0.00  -0.00    -0.01   0.00  -0.00
    27   1    -0.00  -0.00   0.00     0.00  -0.00  -0.00     0.00   0.00  -0.00
    28   7     0.00  -0.02  -0.01     0.00  -0.00  -0.00     0.01  -0.03  -0.02
    29   1    -0.01  -0.03  -0.04     0.00   0.03  -0.01    -0.01  -0.05  -0.03
    30   1     0.04   0.03   0.01    -0.03  -0.02  -0.00    -0.04  -0.03   0.01
    31   1     0.04   0.01  -0.02    -0.03  -0.01   0.01    -0.04  -0.01   0.02
    32   1     0.00  -0.00   0.00    -0.00   0.00  -0.00     0.00   0.00  -0.00
    33   7    -0.00  -0.00   0.00     0.00   0.00  -0.00     0.00   0.00   0.00
    34   6     0.00  -0.00   0.00    -0.00   0.00   0.00    -0.00   0.00   0.00
    35   6     0.00  -0.00   0.00    -0.00   0.00  -0.00    -0.00   0.00  -0.01
    36   1    -0.03   0.02  -0.03     0.01  -0.01  -0.00    -0.01   0.00  -0.04
    37   1     0.01  -0.01   0.00     0.00  -0.01   0.00     0.00  -0.03   0.00
    38   1     0.03   0.04  -0.02    -0.00  -0.01  -0.00     0.02   0.02  -0.02
    39   1    -0.01   0.01  -0.01     0.01  -0.01   0.01     0.02  -0.02   0.02
    40   1     0.01  -0.00  -0.00    -0.01  -0.00   0.00    -0.02  -0.01   0.01
    41   1    -0.01  -0.00  -0.01     0.01   0.00   0.01     0.02   0.01   0.01
    42   6    -0.00  -0.00   0.00     0.00  -0.00  -0.00    -0.00  -0.00  -0.00
    43   6    -0.00   0.00   0.00    -0.00   0.00   0.00     0.00   0.00  -0.00
    44   6    -0.00  -0.00  -0.00     0.00  -0.00  -0.00    -0.00   0.00  -0.00
    45   1     0.00  -0.00   0.00    -0.00   0.00   0.01     0.00  -0.01  -0.00
    46   1     0.00  -0.00  -0.01     0.01   0.00  -0.02    -0.01  -0.00   0.00
    47   1     0.01  -0.01  -0.00     0.02  -0.02   0.00    -0.00   0.00  -0.00
    48   1     0.00   0.01  -0.01     0.00  -0.01   0.01    -0.00   0.03   0.00
    49   1    -0.00   0.02   0.01    -0.00   0.04   0.04     0.00  -0.00  -0.02
    50   1    -0.02  -0.02   0.02    -0.06   0.03  -0.00     0.02  -0.03   0.02
    51   1     0.02   0.01   0.02     0.00  -0.01  -0.02     0.02   0.02   0.03
    52   6     0.00  -0.01  -0.06     0.00   0.05  -0.04     0.01  -0.06  -0.02
    53   1     0.31   0.29  -0.07     0.11  -0.43  -0.25     0.20   0.64   0.14
    54   1    -0.31  -0.28   0.24     0.03  -0.50   0.52    -0.33   0.16  -0.21
    55   1     0.15   0.18   0.66    -0.17   0.23   0.28     0.29  -0.03   0.38
                    124                    125                    126
                      A                      A                      A
 Frequencies --   1474.4166              1485.7099              1486.3559
 Red. masses --      1.0615                 1.0554                 1.0591
 Frc consts  --      1.3596                 1.3726                 1.3785
 IR Inten    --      0.0000                 0.0000                 0.0000
  Atom  AN      X      Y      Z        X      Y      Z        X      Y      Z
     1  26    -0.00  -0.00   0.00     0.00   0.00  -0.00    -0.00  -0.00   0.00
     2   6     0.00   0.00  -0.00    -0.00  -0.00  -0.01    -0.00  -0.00   0.00
     3  46     0.00  -0.00  -0.00     0.00  -0.00  -0.00     0.00   0.00   0.00
     4   6     0.01   0.00   0.00    -0.00  -0.00  -0.00     0.01   0.00   0.00
     5   1     0.00   0.00  -0.00    -0.00  -0.00   0.00    -0.00  -0.00  -0.00
     6   1    -0.00   0.01  -0.00     0.00  -0.01   0.00    -0.00   0.01  -0.00
     7   1     0.02   0.01   0.01    -0.01  -0.00   0.00     0.02   0.00  -0.00
     8   6    -0.01   0.00   0.00    -0.00  -0.00   0.00    -0.00  -0.00   0.00
     9   8     0.00   0.00   0.00     0.00   0.00   0.00     0.00   0.00   0.00
    10   6     0.00  -0.00  -0.00     0.00  -0.00   0.00     0.00   0.01  -0.00
    11   8     0.00   0.00   0.00     0.00   0.00  -0.00     0.00  -0.00   0.00
    12   6    -0.00  -0.00   0.00     0.00  -0.00  -0.00     0.00   0.00  -0.00
    13   6     0.00   0.00  -0.00    -0.00  -0.00   0.00    -0.00   0.00   0.00
    14   6    -0.00   0.00   0.00    -0.00   0.00  -0.00     0.00  -0.00   0.00
    15   1    -0.00  -0.00   0.00     0.00   0.00   0.01     0.00   0.00   0.00
    16   1    -0.00  -0.00   0.00     0.00  -0.00  -0.00     0.00   0.00   0.00
    17   1    -0.00   0.00  -0.00    -0.00  -0.00   0.00     0.00   0.00  -0.00
    18   1    -0.01  -0.03   0.02     0.00  -0.00   0.00     0.01   0.01  -0.00
    19   6    -0.00   0.00  -0.00    -0.00   0.00  -0.00    -0.00  -0.00   0.00
    20   6     0.00   0.00   0.00     0.00   0.00  -0.00     0.00   0.00  -0.00
    21   8    -0.00  -0.00   0.00     0.00   0.00   0.00     0.00   0.00  -0.00
    22   6     0.00  -0.00   0.00     0.00   0.00  -0.00     0.00   0.00  -0.00
    23   6    -0.00   0.00  -0.00    -0.00  -0.00   0.00     0.00  -0.00   0.00
    24   6    -0.00  -0.00   0.00     0.00   0.00  -0.00    -0.00  -0.00  -0.00
    25   6     0.00  -0.00   0.00    -0.00   0.00  -0.00    -0.00   0.00  -0.00
    26   6    -0.00   0.00  -0.00     0.00  -0.00   0.00     0.00  -0.00   0.00
    27   1     0.00   0.00  -0.00    -0.01  -0.03   0.02    -0.00  -0.01   0.01
    28   7     0.00  -0.00  -0.01     0.00  -0.00   0.00     0.00  -0.00  -0.00
    29   1    -0.00  -0.00  -0.00    -0.00  -0.02   0.00    -0.00  -0.00  -0.00
    30   1    -0.09  -0.07  -0.05     0.02   0.01   0.02    -0.07  -0.03  -0.06
    31   1    -0.10   0.05   0.03     0.02  -0.01  -0.01    -0.07   0.02   0.03
    32   1     0.00   0.00  -0.00    -0.01  -0.00  -0.00    -0.00  -0.00  -0.00
    33   7    -0.00  -0.00  -0.02    -0.00   0.00  -0.00     0.01  -0.02   0.00
    34   6    -0.02  -0.01  -0.06     0.00  -0.00  -0.00    -0.00   0.00   0.01
    35   6     0.01  -0.00   0.01    -0.01   0.01  -0.00     0.02  -0.06   0.00
    36   1     0.03   0.02   0.68     0.01  -0.01   0.02    -0.05   0.05  -0.09
    37   1     0.40   0.42   0.15    -0.01   0.02  -0.00     0.03  -0.07   0.01
    38   1    -0.07  -0.30  -0.05    -0.02  -0.01   0.01     0.08   0.07  -0.06
    39   1    -0.10   0.08   0.00     0.10  -0.08   0.08    -0.40   0.32  -0.33
    40   1     0.04  -0.01  -0.03    -0.04  -0.16   0.00     0.16   0.61  -0.01
    41   1    -0.12  -0.07  -0.03     0.02   0.04  -0.08    -0.08  -0.15   0.30
    42   6     0.00   0.00   0.00    -0.01   0.00   0.02    -0.00   0.00   0.00
    43   6    -0.00  -0.00  -0.00    -0.05  -0.01   0.02    -0.01  -0.00   0.01
    44   6     0.00   0.00  -0.00     0.01   0.00  -0.00     0.00   0.00   0.00
    45   1     0.00   0.00   0.00    -0.04   0.43   0.09    -0.01   0.11   0.02
    46   1     0.00   0.00   0.00     0.52   0.13  -0.42     0.13   0.03  -0.11
    47   1     0.00   0.00   0.00     0.27  -0.42  -0.02     0.07  -0.11  -0.01
    48   1     0.00  -0.00  -0.00    -0.00  -0.02  -0.09    -0.00  -0.01  -0.02
    49   1    -0.00  -0.00   0.00    -0.00  -0.03   0.06    -0.00  -0.01   0.02
    50   1    -0.00  -0.00   0.00    -0.07   0.07  -0.04    -0.02   0.02  -0.01
    51   1    -0.00  -0.00   0.00    -0.08  -0.05  -0.06    -0.02  -0.01  -0.02
    52   6     0.00  -0.00  -0.00    -0.00  -0.00   0.00     0.00  -0.00   0.00
    53   1     0.01   0.02   0.00     0.00   0.02   0.01    -0.00   0.01   0.00
    54   1    -0.01  -0.00   0.00    -0.00   0.02  -0.02    -0.00   0.00  -0.01
    55   1     0.01   0.00   0.02     0.01  -0.01  -0.01     0.00  -0.00  -0.00
                    127                    128                    129
                      A                      A                      A
 Frequencies --   1503.0434              1505.1002              1508.7756
 Red. masses --      1.0592                 1.0592                 1.0566
 Frc consts  --      1.4098                 1.4137                 1.4172
 IR Inten    --      0.0000                 0.0000                 0.0000
  Atom  AN      X      Y      Z        X      Y      Z        X      Y      Z
     1  26     0.00   0.00  -0.00     0.00   0.00  -0.00    -0.00  -0.00  -0.00
     2   6    -0.00  -0.00  -0.00    -0.00  -0.00  -0.00     0.00   0.00   0.00
     3  46     0.00   0.00  -0.00     0.00  -0.00   0.00     0.00   0.00   0.00
     4   6    -0.00  -0.00  -0.00     0.01  -0.00   0.00    -0.00  -0.00   0.00
     5   1    -0.00  -0.00   0.00    -0.01  -0.00   0.00     0.00   0.00  -0.00
     6   1    -0.00  -0.00   0.00    -0.01   0.00  -0.00     0.00   0.00  -0.00
     7   1     0.00  -0.00   0.00    -0.10  -0.04  -0.02     0.01   0.00   0.00
     8   6    -0.00  -0.00  -0.00    -0.00   0.00   0.00     0.00   0.00  -0.00
     9   8     0.00   0.00   0.00     0.00   0.00   0.00    -0.00  -0.00  -0.00
    10   6    -0.00   0.00  -0.00    -0.01  -0.00   0.00     0.00   0.00  -0.00
    11   8     0.00   0.00   0.00     0.00   0.00  -0.00    -0.00  -0.00  -0.00
    12   6    -0.00   0.00  -0.00    -0.00   0.00  -0.00    -0.00  -0.00   0.00
    13   6    -0.00  -0.00   0.00    -0.00  -0.00   0.00     0.00   0.00  -0.00
    14   6     0.00   0.00  -0.00     0.00   0.00  -0.00    -0.00  -0.00   0.00
    15   1     0.01  -0.02   0.00     0.00  -0.01   0.00    -0.00  -0.00  -0.00
    16   1     0.00  -0.00  -0.00     0.00  -0.00  -0.00    -0.00  -0.00   0.00
    17   1     0.00  -0.00   0.00     0.00  -0.00   0.00    -0.00   0.00  -0.00
    18   1     0.01   0.00   0.00    -0.00  -0.01   0.01     0.00  -0.00  -0.00
    19   6     0.00  -0.00   0.00     0.00  -0.00  -0.00     0.00   0.00  -0.00
    20   6     0.00   0.00   0.00     0.00   0.00   0.00     0.00   0.00  -0.00
    21   8    -0.00   0.00  -0.00     0.00  -0.00  -0.00    -0.00  -0.00   0.00
    22   6    -0.00   0.00  -0.00    -0.01   0.01  -0.01     0.00  -0.00   0.00
    23   6     0.00  -0.00   0.00     0.01  -0.01   0.01    -0.00   0.00  -0.00
    24   6     0.00   0.00  -0.00     0.00   0.00  -0.00    -0.00  -0.00   0.00
    25   6    -0.00   0.00  -0.00    -0.01  -0.00  -0.00     0.00  -0.00   0.00
    26   6     0.00  -0.00   0.00     0.02  -0.00   0.01    -0.00   0.00  -0.00
    27   1    -0.00  -0.02   0.01    -0.02  -0.01   0.01     0.01   0.01  -0.02
    28   7     0.00   0.00   0.00    -0.00  -0.00  -0.00     0.00   0.00   0.00
    29   1    -0.00  -0.01   0.01    -0.00  -0.00   0.00    -0.00  -0.02   0.00
    30   1    -0.00  -0.00   0.00    -0.01   0.02  -0.05    -0.00   0.00  -0.00
    31   1    -0.00   0.00  -0.00    -0.01  -0.00   0.01     0.00  -0.00  -0.00
    32   1    -0.00  -0.00   0.00    -0.01   0.00  -0.00     0.00   0.00  -0.00
    33   7     0.00   0.00   0.00    -0.01  -0.01  -0.01     0.00  -0.00   0.00
    34   6     0.00   0.00   0.00    -0.01  -0.01  -0.01    -0.00  -0.00   0.00
    35   6     0.00   0.00   0.00    -0.05  -0.02  -0.02     0.00   0.00   0.00
    36   1     0.00  -0.00  -0.01    -0.04   0.05   0.12    -0.00   0.00  -0.00
    37   1    -0.00  -0.00  -0.00     0.12   0.08   0.05     0.00  -0.00   0.00
    38   1    -0.00   0.00   0.00     0.04  -0.03  -0.06     0.00   0.00  -0.00
    39   1    -0.02   0.02   0.01     0.34  -0.28  -0.21    -0.01   0.01   0.00
    40   1     0.01  -0.02  -0.01    -0.17   0.32   0.21     0.00  -0.00  -0.00
    41   1    -0.04  -0.02  -0.02     0.59   0.29   0.29    -0.01  -0.01  -0.01
    42   6    -0.01  -0.00  -0.01    -0.00  -0.00  -0.00    -0.01  -0.01  -0.00
    43   6    -0.02   0.03  -0.03    -0.00   0.00  -0.00     0.01  -0.02   0.03
    44   6    -0.02  -0.05  -0.01    -0.00  -0.00  -0.00    -0.05  -0.01  -0.02
    45   1     0.02  -0.19   0.39     0.00  -0.00   0.01    -0.03   0.26  -0.33
    46   1    -0.12  -0.07  -0.13    -0.00  -0.00  -0.01     0.21   0.09   0.01
    47   1     0.41  -0.05   0.09     0.02  -0.00   0.00    -0.31  -0.05  -0.09
    48   1    -0.01  -0.00   0.02    -0.00  -0.00  -0.00    -0.01   0.02   0.04
    49   1     0.01   0.54  -0.01     0.00   0.04  -0.01     0.02   0.19  -0.25
    50   1    -0.22  -0.06   0.14    -0.01  -0.01   0.01     0.24  -0.34   0.24
    51   1     0.44   0.14   0.06     0.04   0.01   0.01     0.41   0.24   0.31
    52   6    -0.00  -0.00   0.00     0.00  -0.00   0.00     0.00   0.00   0.00
    53   1    -0.01   0.00   0.01    -0.00  -0.00  -0.00    -0.01  -0.03  -0.01
    54   1     0.01   0.02  -0.02     0.00   0.00  -0.00     0.01  -0.02   0.02
    55   1     0.01  -0.02  -0.03     0.00  -0.00  -0.00    -0.03   0.01  -0.01
                    130                    131                    132
                      A                      A                      A
 Frequencies --   1517.1168              1657.8766              1720.8343
 Red. masses --      1.0588                 8.3606                12.4838
 Frc consts  --      1.4358                13.5392                21.7809
 IR Inten    --      0.0000                 0.0000                 0.0000
  Atom  AN      X      Y      Z        X      Y      Z        X      Y      Z
     1  26     0.00  -0.00  -0.00    -0.00   0.00   0.00     0.00  -0.00  -0.00
     2   6    -0.00  -0.00  -0.00    -0.02  -0.01  -0.02     0.55   0.35   0.51
     3  46     0.00   0.00   0.00    -0.00   0.00   0.00    -0.00   0.00   0.00
     4   6    -0.00  -0.00   0.00     0.00  -0.00  -0.00    -0.00   0.00  -0.00
     5   1    -0.00  -0.00   0.00     0.00  -0.00  -0.00    -0.00   0.00   0.00
     6   1    -0.00  -0.00   0.00     0.00  -0.00  -0.00    -0.00   0.00  -0.00
     7   1    -0.00  -0.00  -0.00     0.00  -0.00  -0.00    -0.01   0.01   0.01
     8   6     0.00   0.00  -0.00     0.01   0.44   0.43    -0.00   0.02   0.02
     9   8     0.00   0.00   0.00     0.01   0.01   0.02    -0.26  -0.16  -0.37
    10   6     0.00   0.00  -0.00    -0.01   0.00   0.00    -0.01   0.00   0.00
    11   8    -0.00  -0.00  -0.00    -0.08  -0.09  -0.09    -0.00  -0.00  -0.00
    12   6    -0.00  -0.00   0.00    -0.00   0.01  -0.01    -0.00   0.00  -0.00
    13   6     0.00   0.00  -0.00    -0.00   0.00  -0.00     0.00  -0.00   0.00
    14   6    -0.00  -0.00   0.00    -0.00  -0.00   0.00     0.00  -0.00   0.00
    15   1    -0.01   0.02  -0.01     0.01  -0.01   0.01     0.00  -0.00   0.00
    16   1    -0.00   0.00   0.00    -0.00   0.00   0.00     0.00  -0.00  -0.00
    17   1    -0.00   0.00  -0.00     0.00   0.00   0.00    -0.00  -0.00  -0.00
    18   1    -0.00  -0.00  -0.00    -0.33   0.36   0.19     0.01  -0.02  -0.02
    19   6    -0.00   0.00  -0.00     0.03  -0.04  -0.01     0.00  -0.00   0.00
    20   6     0.00  -0.00   0.00     0.04   0.05   0.06    -0.02  -0.01  -0.01
    21   8     0.00   0.00  -0.00     0.00   0.00   0.00    -0.13  -0.09  -0.00
    22   6    -0.00   0.00  -0.00    -0.00   0.00   0.00     0.00  -0.00  -0.00
    23   6     0.00  -0.00   0.00    -0.00  -0.00   0.00    -0.00  -0.00   0.00
    24   6     0.00   0.00   0.00     0.00  -0.00   0.00     0.00  -0.00  -0.00
    25   6    -0.00   0.00  -0.00    -0.00   0.00  -0.00    -0.00  -0.00   0.00
    26   6     0.00  -0.00   0.00     0.00   0.00   0.00    -0.00  -0.00  -0.00
    27   1    -0.00  -0.01   0.00     0.00  -0.01  -0.01    -0.01   0.02   0.00
    28   7    -0.00   0.00   0.00     0.05  -0.32  -0.31     0.00  -0.02  -0.04
    29   1     0.00  -0.00  -0.00     0.01  -0.04  -0.03     0.02  -0.00   0.13
    30   1    -0.00  -0.00   0.00    -0.00   0.00  -0.01     0.00   0.01  -0.00
    31   1    -0.00   0.00   0.00    -0.01   0.01   0.01     0.00  -0.00  -0.00
    32   1     0.00  -0.00   0.00     0.00  -0.00  -0.00     0.00  -0.00   0.00
    33   7    -0.00  -0.00   0.00     0.00  -0.00  -0.00     0.00   0.00  -0.00
    34   6    -0.00  -0.00   0.00     0.00   0.00   0.00     0.00   0.00  -0.00
    35   6    -0.00  -0.00  -0.00    -0.00  -0.00   0.00     0.00   0.00   0.00
    36   1    -0.00   0.00  -0.00     0.01  -0.01  -0.02     0.01  -0.01   0.00
    37   1     0.00  -0.00   0.00    -0.05  -0.01  -0.02    -0.01  -0.01  -0.00
    38   1     0.00   0.00  -0.00    -0.01   0.00   0.02    -0.01  -0.02   0.00
    39   1     0.00  -0.00  -0.00     0.00   0.00   0.00     0.00  -0.01   0.00
    40   1     0.00   0.00   0.00     0.00   0.00  -0.00    -0.01  -0.01   0.01
    41   1     0.00   0.00   0.00     0.00   0.00  -0.00     0.00   0.00   0.00
    42   6    -0.01   0.02  -0.01     0.01   0.02   0.01    -0.00   0.01   0.01
    43   6    -0.02   0.01  -0.02    -0.00  -0.00  -0.00    -0.01   0.01   0.00
    44   6    -0.03   0.04  -0.00    -0.00  -0.00  -0.00     0.00  -0.00  -0.00
    45   1     0.01  -0.13   0.34    -0.00   0.01   0.00     0.01  -0.03   0.04
    46   1    -0.08  -0.06  -0.12     0.00   0.00   0.01     0.01  -0.02  -0.07
    47   1     0.35  -0.04   0.08    -0.00   0.01  -0.00     0.08  -0.13  -0.02
    48   1    -0.01  -0.03   0.02    -0.00  -0.00  -0.01     0.01  -0.00  -0.01
    49   1     0.01  -0.44  -0.28    -0.00   0.00   0.01     0.00   0.00   0.00
    50   1     0.52  -0.27   0.07    -0.01  -0.01   0.01     0.00   0.01  -0.01
    51   1    -0.10   0.08   0.26     0.00   0.00   0.01    -0.01   0.00   0.01
    52   6     0.00   0.00  -0.00    -0.00  -0.03  -0.03     0.00  -0.00   0.00
    53   1    -0.01  -0.03  -0.01    -0.05  -0.02   0.01    -0.00   0.01   0.00
    54   1    -0.01  -0.03   0.03     0.30  -0.01   0.00     0.00   0.00  -0.00
    55   1    -0.03   0.03   0.01    -0.06   0.02  -0.02    -0.00   0.00   0.00
                    133                    134                    135
                      A                      A                      A
 Frequencies --   2824.6106              2868.9528              2879.3734
 Red. masses --      1.0733                 1.0746                 1.0714
 Frc consts  --      5.0452                 5.2110                 5.2336
 IR Inten    --      0.0000                 0.0000                 0.0000
  Atom  AN      X      Y      Z        X      Y      Z        X      Y      Z
     1  26     0.00   0.00   0.00     0.00   0.00  -0.00    -0.00   0.00   0.00
     2   6    -0.00  -0.00  -0.00     0.00   0.00   0.00     0.00   0.00   0.00
     3  46     0.00   0.00  -0.00     0.00  -0.00   0.00    -0.00  -0.00  -0.00
     4   6    -0.00   0.00   0.00     0.01   0.01   0.01    -0.03  -0.06  -0.03
     5   1    -0.00   0.00  -0.00    -0.00   0.00  -0.00     0.00   0.00   0.00
     6   1    -0.00  -0.00  -0.00    -0.00  -0.00   0.00     0.00   0.00  -0.00
     7   1     0.00  -0.00   0.00    -0.00   0.00  -0.00    -0.00   0.00  -0.00
     8   6    -0.00   0.00   0.00     0.00  -0.00  -0.00    -0.00  -0.00  -0.00
     9   8     0.00   0.00   0.00    -0.00  -0.00  -0.00    -0.00  -0.00  -0.00
    10   6     0.00   0.00   0.00     0.00   0.00   0.00    -0.00  -0.00  -0.00
    11   8    -0.00  -0.00  -0.00     0.00   0.00   0.00     0.00   0.00   0.00
    12   6    -0.00  -0.00  -0.00     0.00   0.00  -0.00     0.00  -0.00   0.00
    13   6     0.00  -0.00   0.00    -0.00  -0.00   0.00    -0.00   0.00  -0.00
    14   6     0.00   0.00   0.00     0.00  -0.00   0.00    -0.00   0.00  -0.00
    15   1    -0.00  -0.00  -0.00    -0.00  -0.00  -0.00    -0.00  -0.00   0.00
    16   1    -0.00   0.00   0.00     0.00   0.00  -0.00     0.00  -0.00   0.00
    17   1    -0.00   0.00   0.00    -0.00   0.00   0.00    -0.00  -0.00   0.00
    18   1     0.00   0.00   0.00     0.00  -0.00  -0.00    -0.00  -0.00  -0.00
    19   6    -0.00   0.00   0.00    -0.00   0.00   0.00     0.00   0.00  -0.00
    20   6     0.00   0.00  -0.00    -0.00   0.00   0.00    -0.00   0.00   0.00
    21   8     0.00   0.00  -0.00    -0.00  -0.00  -0.00    -0.00  -0.00   0.00
    22   6    -0.00  -0.00   0.00     0.00  -0.00  -0.00     0.00  -0.00   0.00
    23   6    -0.00   0.00  -0.00    -0.00   0.00   0.00    -0.00   0.00  -0.00
    24   6     0.00  -0.00  -0.00     0.00  -0.00   0.00    -0.00   0.00  -0.00
    25   6     0.00  -0.00  -0.00     0.00   0.00  -0.00    -0.00  -0.00   0.00
    26   6     0.00   0.00  -0.00    -0.00  -0.00   0.00     0.00  -0.00   0.00
    27   1    -0.00   0.00   0.01    -0.00   0.00  -0.00    -0.00   0.00  -0.00
    28   7     0.00  -0.00   0.00    -0.00   0.00   0.00    -0.00   0.00   0.00
    29   1    -0.05   0.01   0.00     0.01  -0.00  -0.00     0.01  -0.00  -0.00
    30   1     0.00   0.00  -0.00     0.01  -0.00  -0.00    -0.04  -0.01   0.00
    31   1     0.00   0.00   0.00    -0.08  -0.16  -0.08     0.42   0.78   0.39
    32   1    -0.01   0.00   0.00     0.00  -0.00   0.00     0.00   0.00  -0.00
    33   7    -0.00   0.00  -0.00     0.00  -0.01  -0.00    -0.00  -0.00  -0.00
    34   6     0.00  -0.00   0.00    -0.06  -0.05   0.00    -0.01  -0.01   0.01
    35   6    -0.00   0.00   0.00     0.00   0.00   0.00     0.01   0.01   0.00
    36   1     0.00   0.00  -0.00     0.69   0.68  -0.05     0.13   0.14  -0.01
    37   1    -0.00   0.00   0.00    -0.02  -0.02  -0.05     0.00  -0.00  -0.03
    38   1    -0.00   0.00  -0.00     0.05  -0.05   0.08    -0.03   0.00  -0.02
    39   1     0.00   0.00   0.00    -0.02  -0.03  -0.00    -0.08  -0.10  -0.00
    40   1    -0.00   0.00  -0.00     0.00  -0.00   0.00    -0.00   0.01  -0.01
    41   1     0.00  -0.00  -0.00     0.01  -0.01  -0.00     0.01  -0.00   0.00
    42   6    -0.08   0.00  -0.01     0.00   0.00   0.00     0.00   0.00   0.00
    43   6     0.00  -0.00   0.00    -0.00  -0.00   0.00    -0.00  -0.00   0.00
    44   6     0.00  -0.00   0.00    -0.00  -0.00   0.00    -0.00  -0.00  -0.00
    45   1    -0.03  -0.00   0.00     0.00   0.00  -0.00     0.00   0.00   0.00
    46   1    -0.00   0.01  -0.00    -0.00   0.00  -0.00    -0.00   0.00  -0.00
    47   1     0.00  -0.00   0.00     0.00   0.00   0.00     0.00   0.00  -0.00
    48   1     0.99  -0.06   0.11    -0.00   0.00  -0.00    -0.00   0.00  -0.00
    49   1    -0.03   0.00  -0.00     0.00  -0.00   0.00     0.00  -0.00   0.00
    50   1    -0.00  -0.01  -0.01     0.00   0.00   0.00     0.00   0.00   0.00
    51   1    -0.00   0.01  -0.00    -0.00   0.00  -0.00    -0.00   0.00  -0.00
    52   6     0.00  -0.00  -0.00    -0.00   0.00   0.00     0.00   0.00   0.00
    53   1    -0.00  -0.00  -0.00    -0.00   0.00  -0.00    -0.00   0.00  -0.00
    54   1     0.00   0.00   0.00    -0.00  -0.00  -0.00    -0.00  -0.00  -0.00
    55   1    -0.00   0.00  -0.00    -0.00  -0.00   0.00    -0.00  -0.00   0.00
                    136                    137                    138
                      A                      A                      A
 Frequencies --   2894.6863              2901.3055              2916.2799
 Red. masses --      1.0728                 1.0707                 1.0651
 Frc consts  --      5.2965                 5.3102                 5.3371
 IR Inten    --      0.0000                 0.0000                 0.0000
  Atom  AN      X      Y      Z        X      Y      Z        X      Y      Z
     1  26     0.00   0.00   0.00     0.00   0.00  -0.00    -0.00  -0.00  -0.00
     2   6    -0.00  -0.00  -0.00     0.00   0.00   0.00     0.00   0.00   0.00
     3  46    -0.00  -0.00  -0.00     0.00   0.00   0.00     0.00   0.00  -0.00
     4   6     0.00   0.00   0.00    -0.00  -0.01  -0.00    -0.00  -0.00  -0.00
     5   1     0.00  -0.00  -0.00    -0.00   0.00  -0.00    -0.00  -0.00  -0.00
     6   1     0.00  -0.00  -0.00     0.00  -0.00  -0.00    -0.00  -0.00  -0.00
     7   1     0.00  -0.00   0.00     0.00   0.00  -0.00    -0.00   0.00  -0.00
     8   6    -0.00   0.00   0.00     0.00  -0.00  -0.00     0.00   0.00  -0.00
     9   8     0.00   0.00   0.00    -0.00  -0.00  -0.00    -0.00  -0.00  -0.00
    10   6     0.00   0.00   0.00    -0.00  -0.00  -0.00    -0.00  -0.00   0.00
    11   8     0.00  -0.00  -0.00     0.00   0.00   0.00    -0.00  -0.00   0.00
    12   6    -0.00  -0.00   0.00     0.00   0.00  -0.00    -0.00  -0.00   0.00
    13   6     0.00  -0.00   0.00    -0.00   0.00  -0.00     0.00  -0.00   0.00
    14   6     0.00  -0.00   0.00     0.00   0.00  -0.00     0.00  -0.00  -0.00
    15   1     0.00   0.00  -0.00    -0.00  -0.00   0.00     0.00   0.00  -0.00
    16   1    -0.00   0.00   0.00     0.00  -0.00  -0.00    -0.00   0.00  -0.00
    17   1     0.00   0.00   0.00    -0.00  -0.00   0.00    -0.00   0.00   0.00
    18   1    -0.00   0.00   0.00     0.00  -0.00  -0.00     0.00  -0.00  -0.00
    19   6     0.00  -0.00   0.00    -0.00   0.00   0.00     0.00   0.00   0.00
    20   6    -0.07   0.01   0.00     0.00  -0.00  -0.00     0.00  -0.00  -0.00
    21   8     0.00   0.00   0.00    -0.00  -0.00  -0.00    -0.00  -0.00  -0.00
    22   6    -0.00   0.00   0.00     0.00  -0.00   0.00    -0.00   0.00  -0.00
    23   6    -0.00  -0.00   0.00    -0.00   0.00  -0.00    -0.00  -0.00   0.00
    24   6     0.00  -0.00   0.00     0.00   0.00   0.00     0.00  -0.00   0.00
    25   6     0.00  -0.00   0.00    -0.00  -0.00   0.00     0.00   0.00  -0.00
    26   6     0.00   0.00  -0.00    -0.00  -0.00   0.00     0.00  -0.00   0.00
    27   1     0.00  -0.00   0.00    -0.00   0.00  -0.00     0.00  -0.00   0.00
    28   7    -0.00  -0.00  -0.00     0.00   0.00   0.00     0.00   0.00   0.00
    29   1     0.98  -0.17  -0.05    -0.06   0.01   0.00    -0.01   0.00   0.00
    30   1    -0.00   0.00   0.00    -0.01   0.00   0.01    -0.01   0.00   0.00
    31   1    -0.00  -0.00  -0.00     0.05   0.10   0.05     0.02   0.04   0.02
    32   1    -0.00   0.00  -0.00     0.00   0.00  -0.00     0.00   0.00  -0.00
    33   7    -0.00  -0.00   0.00    -0.00  -0.00   0.00    -0.00   0.00  -0.00
    34   6    -0.00   0.00  -0.00    -0.00  -0.00  -0.00    -0.05   0.02  -0.05
    35   6    -0.00  -0.00  -0.00    -0.05  -0.06  -0.01     0.00   0.00   0.00
    36   1    -0.01  -0.01   0.00     0.04   0.05  -0.00    -0.10  -0.07  -0.02
    37   1     0.00   0.00  -0.00    -0.01  -0.00   0.02    -0.00   0.01  -0.06
    38   1     0.01  -0.00   0.01     0.03  -0.01   0.03     0.71  -0.22   0.64
    39   1     0.04   0.05   0.00     0.62   0.76   0.01    -0.03  -0.03  -0.00
    40   1     0.00  -0.00   0.00     0.01  -0.04   0.03    -0.01   0.01  -0.01
    41   1    -0.00   0.00  -0.00    -0.05   0.00  -0.00    -0.00   0.01   0.00
    42   6    -0.01   0.00  -0.00     0.00  -0.00   0.00    -0.00  -0.00  -0.00
    43   6     0.00  -0.00   0.00    -0.00  -0.00   0.00     0.00  -0.00  -0.00
    44   6     0.00  -0.00   0.00    -0.00  -0.00   0.00     0.00   0.00   0.00
    45   1    -0.02   0.00   0.00     0.00   0.00  -0.00     0.00  -0.00  -0.00
    46   1    -0.00   0.01  -0.00    -0.00   0.00  -0.00    -0.00   0.00  -0.00
    47   1     0.00   0.00  -0.00     0.00   0.00   0.00    -0.00  -0.00   0.00
    48   1     0.05  -0.00   0.01    -0.00   0.00  -0.00     0.01  -0.00   0.00
    49   1    -0.02   0.00  -0.00     0.00  -0.00   0.00     0.00   0.00   0.00
    50   1     0.00   0.00   0.00    -0.00  -0.00  -0.00    -0.00  -0.00  -0.00
    51   1    -0.00   0.01  -0.00    -0.00   0.00  -0.00    -0.00   0.00  -0.00
    52   6     0.00   0.00   0.00    -0.00   0.00   0.00    -0.00  -0.00   0.00
    53   1    -0.00   0.00  -0.01     0.00  -0.00   0.00    -0.00   0.00  -0.00
    54   1     0.00  -0.00  -0.00    -0.00  -0.00  -0.00    -0.00   0.00   0.00
    55   1    -0.00  -0.01   0.00     0.00   0.00  -0.00     0.00   0.00  -0.00
                    139                    140                    141
                      A                      A                      A
 Frequencies --   2965.4818              3007.9437              3011.1858
 Red. masses --      1.0722                 1.0718                 1.0659
 Frc consts  --      5.5556                 5.7136                 5.6942
 IR Inten    --      0.0000                 0.0000                 0.0000
  Atom  AN      X      Y      Z        X      Y      Z        X      Y      Z
     1  26     0.00   0.00   0.00     0.00  -0.00  -0.00    -0.00   0.00   0.00
     2   6    -0.00  -0.00  -0.00     0.00  -0.00  -0.00     0.00   0.00   0.00
     3  46    -0.00  -0.00  -0.00     0.00   0.00  -0.00    -0.00   0.00  -0.00
     4   6    -0.00  -0.00   0.00     0.04  -0.03  -0.02    -0.04   0.03   0.02
     5   1     0.00  -0.00   0.00    -0.00   0.00  -0.00    -0.00   0.00  -0.00
     6   1     0.00   0.00  -0.00     0.00  -0.00  -0.00    -0.00   0.00   0.00
     7   1     0.00  -0.00   0.00     0.00  -0.00   0.00     0.00  -0.00   0.00
     8   6     0.00   0.00   0.00    -0.00  -0.00  -0.00     0.00   0.00   0.00
     9   8     0.00   0.00   0.00    -0.00   0.00   0.00    -0.00  -0.00  -0.00
    10   6    -0.00  -0.00   0.00     0.00  -0.00  -0.00    -0.00   0.00   0.00
    11   8    -0.00  -0.00  -0.00     0.00   0.00   0.00     0.00  -0.00   0.00
    12   6     0.00   0.00  -0.00    -0.00  -0.00   0.00     0.00   0.00  -0.00
    13   6     0.00   0.00  -0.00     0.00  -0.00  -0.00    -0.00  -0.00   0.00
    14   6    -0.00   0.00  -0.00    -0.00   0.00   0.00     0.00  -0.00  -0.00
    15   1    -0.00  -0.00  -0.00     0.00   0.00  -0.00    -0.00  -0.00   0.00
    16   1     0.00  -0.00   0.00    -0.00   0.00  -0.00     0.00  -0.00   0.00
    17   1    -0.00  -0.00  -0.00     0.00  -0.00  -0.00    -0.01   0.00   0.00
    18   1     0.00   0.01  -0.00     0.00  -0.00   0.00    -0.00   0.00   0.00
    19   6     0.00   0.00  -0.00    -0.00   0.00  -0.00     0.00   0.00   0.00
    20   6    -0.00   0.00   0.00     0.00  -0.00  -0.00     0.00  -0.00  -0.00
    21   8     0.00  -0.00   0.00    -0.00   0.00  -0.00    -0.00  -0.00   0.00
    22   6     0.00  -0.00   0.00     0.00  -0.00   0.00     0.00  -0.00  -0.00
    23   6     0.00   0.00  -0.00    -0.00   0.00  -0.00    -0.00  -0.00   0.00
    24   6    -0.00   0.00  -0.00     0.00   0.00   0.00    -0.00  -0.00   0.00
    25   6    -0.00  -0.00   0.00    -0.00  -0.00  -0.00     0.00   0.00   0.00
    26   6    -0.00   0.00  -0.00     0.00   0.00  -0.00    -0.00   0.00  -0.00
    27   1    -0.00   0.00  -0.00    -0.00   0.00  -0.00    -0.00   0.00  -0.00
    28   7    -0.00  -0.00  -0.00     0.00   0.00  -0.00     0.00  -0.00  -0.00
    29   1     0.00  -0.00  -0.00    -0.00   0.00   0.00    -0.00   0.00   0.00
    30   1     0.01  -0.01  -0.01    -0.46   0.39   0.31     0.49  -0.42  -0.33
    31   1     0.01   0.01   0.01     0.01  -0.03  -0.02    -0.00   0.04   0.03
    32   1    -0.00  -0.00   0.00    -0.00  -0.00   0.00     0.00   0.00  -0.00
    33   7     0.00  -0.00  -0.00     0.00  -0.00  -0.00    -0.00   0.00  -0.00
    34   6     0.02   0.00  -0.07     0.00   0.00  -0.00    -0.00   0.00  -0.00
    35   6     0.00   0.00   0.00    -0.04   0.01  -0.04    -0.03   0.00  -0.04
    36   1     0.04   0.04  -0.03    -0.00   0.00  -0.00    -0.01  -0.01  -0.00
    37   1    -0.36  -0.03   0.92    -0.01  -0.00   0.03     0.00  -0.00  -0.00
    38   1     0.04  -0.01   0.00     0.01  -0.00   0.01     0.01  -0.00   0.01
    39   1    -0.02  -0.02   0.00    -0.05  -0.02  -0.01    -0.04  -0.02  -0.01
    40   1    -0.01   0.00  -0.01     0.51  -0.11   0.51     0.47  -0.10   0.47
    41   1     0.00  -0.00  -0.00     0.00  -0.04  -0.02    -0.06   0.08   0.00
    42   6     0.00   0.00   0.00    -0.00   0.00  -0.00     0.00  -0.00   0.00
    43   6     0.00   0.00   0.00    -0.00   0.00  -0.00     0.00  -0.00  -0.00
    44   6     0.00  -0.00  -0.00    -0.00   0.00  -0.00     0.00  -0.00   0.00
    45   1    -0.00  -0.00   0.00     0.00   0.00  -0.00    -0.00  -0.00   0.00
    46   1     0.00  -0.00   0.00     0.00  -0.00   0.00    -0.00   0.00  -0.00
    47   1     0.00   0.00  -0.00     0.00   0.00  -0.00    -0.00  -0.00   0.00
    48   1    -0.00   0.00  -0.00     0.00  -0.00  -0.00    -0.00   0.00   0.00
    49   1    -0.00  -0.00  -0.00     0.00   0.00   0.00     0.00  -0.00   0.00
    50   1     0.00   0.00   0.00    -0.00  -0.00  -0.00     0.00   0.00   0.00
    51   1     0.00  -0.00   0.00     0.00  -0.00   0.00    -0.00   0.01  -0.00
    52   6    -0.00   0.00  -0.00     0.00   0.00   0.00    -0.00  -0.00   0.00
    53   1     0.00  -0.00   0.00    -0.00   0.00  -0.00    -0.00   0.00  -0.00
    54   1     0.00   0.00   0.00    -0.00  -0.00  -0.00    -0.00  -0.00   0.00
    55   1    -0.00  -0.00   0.00    -0.00  -0.00   0.00     0.00   0.00  -0.00
                    142                    143                    144
                      A                      A                      A
 Frequencies --   3019.8765              3020.2644              3021.4352
 Red. masses --      1.0914                 1.0894                 1.0931
 Frc consts  --      5.8645                 5.8550                 5.8795
 IR Inten    --      0.0000                 0.0000                 0.0000
  Atom  AN      X      Y      Z        X      Y      Z        X      Y      Z
     1  26    -0.00   0.00  -0.00     0.00  -0.00  -0.00    -0.00  -0.00   0.00
     2   6    -0.00  -0.00  -0.00     0.00   0.00   0.00    -0.00  -0.00   0.00
     3  46     0.00   0.00  -0.00    -0.00   0.00  -0.00     0.00   0.00  -0.00
     4   6     0.00  -0.00  -0.00    -0.00   0.00   0.00    -0.00   0.00   0.00
     5   1     0.00  -0.00   0.00    -0.00   0.00  -0.00    -0.00   0.00  -0.00
     6   1    -0.00  -0.00   0.00     0.00   0.00   0.00     0.00   0.00   0.00
     7   1     0.00  -0.00   0.00    -0.00  -0.00   0.00    -0.00   0.00   0.00
     8   6    -0.00   0.00  -0.00    -0.00   0.00  -0.00     0.00   0.00  -0.00
     9   8     0.00   0.00   0.00    -0.00  -0.00  -0.00     0.00   0.00   0.00
    10   6     0.00  -0.00  -0.00    -0.00  -0.00   0.00     0.00  -0.00   0.00
    11   8    -0.00   0.00   0.00     0.00   0.00   0.00     0.00  -0.00   0.00
    12   6    -0.00  -0.00   0.00     0.00   0.00  -0.00     0.00   0.00  -0.00
    13   6     0.00   0.00  -0.00     0.00  -0.00   0.00     0.00  -0.00   0.00
    14   6    -0.00   0.00   0.00     0.00   0.00  -0.00    -0.00   0.00   0.00
    15   1     0.00   0.00  -0.00     0.00  -0.00  -0.00    -0.01  -0.00   0.00
    16   1    -0.00  -0.00   0.00     0.00   0.00  -0.00     0.00   0.00  -0.00
    17   1     0.00  -0.00  -0.00    -0.00  -0.00   0.00     0.00  -0.00  -0.00
    18   1     0.00  -0.00   0.00     0.00   0.00  -0.00    -0.00   0.00   0.00
    19   6    -0.00   0.00   0.00    -0.00   0.00   0.00    -0.00   0.00   0.00
    20   6     0.00  -0.00   0.00    -0.00   0.00  -0.00    -0.00   0.00  -0.00
    21   8    -0.00  -0.00   0.00    -0.00  -0.00  -0.00     0.00   0.00   0.00
    22   6    -0.00  -0.00  -0.00     0.00   0.00   0.00    -0.00   0.00  -0.00
    23   6     0.00  -0.00  -0.00    -0.00   0.00   0.00    -0.00  -0.00   0.00
    24   6    -0.00   0.00  -0.00     0.00  -0.00   0.00     0.00  -0.00   0.00
    25   6     0.00   0.00   0.00    -0.00   0.00  -0.00    -0.00  -0.00  -0.00
    26   6     0.00   0.00  -0.00     0.00  -0.00   0.00     0.00  -0.00   0.00
    27   1     0.00   0.00   0.00    -0.00  -0.00   0.00     0.00  -0.00   0.00
    28   7     0.00   0.00   0.00    -0.00  -0.00  -0.00    -0.00  -0.00   0.00
    29   1    -0.01   0.00  -0.00     0.01  -0.00   0.00     0.01  -0.00  -0.00
    30   1    -0.00   0.00   0.00     0.00  -0.00  -0.00     0.00  -0.00  -0.00
    31   1     0.00  -0.00  -0.00     0.00   0.00   0.00    -0.00  -0.00  -0.00
    32   1    -0.00   0.00   0.00     0.00   0.00  -0.00     0.00   0.00  -0.00
    33   7    -0.00  -0.00   0.00    -0.00   0.00  -0.00     0.00   0.00  -0.00
    34   6    -0.00   0.00   0.00    -0.00   0.00   0.00    -0.00   0.00   0.00
    35   6     0.00   0.00   0.00    -0.00  -0.00  -0.00     0.00  -0.00  -0.00
    36   1    -0.00  -0.00   0.00     0.00  -0.00   0.00    -0.00  -0.00   0.00
    37   1     0.00   0.00  -0.00     0.00   0.00  -0.00     0.00   0.00  -0.00
    38   1     0.00  -0.00   0.00     0.00  -0.00   0.00     0.00  -0.00   0.00
    39   1     0.00  -0.00   0.00    -0.00  -0.00  -0.00    -0.00  -0.00  -0.00
    40   1    -0.00   0.00  -0.00     0.00  -0.00   0.00     0.00  -0.00   0.00
    41   1     0.00  -0.00  -0.00    -0.00   0.00   0.00    -0.00   0.00   0.00
    42   6     0.00  -0.00  -0.00    -0.00   0.00   0.00    -0.00  -0.00  -0.00
    43   6    -0.01   0.02  -0.01     0.00  -0.00   0.00     0.01  -0.00  -0.00
    44   6     0.02  -0.08  -0.01    -0.00   0.01   0.00    -0.08  -0.01  -0.04
    45   1    -0.03   0.01  -0.00     0.00  -0.00   0.00    -0.15  -0.01   0.01
    46   1     0.11  -0.23   0.06    -0.02   0.05  -0.01    -0.01   0.03  -0.01
    47   1    -0.01   0.00   0.02     0.00  -0.00  -0.00    -0.00  -0.01   0.03
    48   1    -0.01   0.00  -0.00     0.00  -0.00  -0.00     0.03  -0.00   0.00
    49   1    -0.18  -0.04  -0.02     0.02   0.01   0.00     0.74  -0.02   0.06
    50   1     0.18   0.38   0.38    -0.03  -0.05  -0.06     0.14   0.42   0.38
    51   1    -0.21   0.65  -0.26     0.04  -0.12   0.05     0.04  -0.25   0.07
    52   6    -0.01   0.00  -0.01    -0.01   0.05  -0.07     0.00   0.00   0.00
    53   1     0.08  -0.06   0.15     0.40  -0.27   0.73    -0.01   0.01  -0.03
    54   1    -0.00   0.01  -0.00    -0.00   0.02  -0.04     0.00   0.00   0.00
    55   1    -0.01  -0.01  -0.00    -0.22  -0.36   0.12    -0.02  -0.04   0.02
                    145                    146                    147
                      A                      A                      A
 Frequencies --   3026.6489              3027.7578              3030.5796
 Red. masses --      1.0522                 1.0726                 1.0360
 Frc consts  --      5.6791                 5.7933                 5.6060
 IR Inten    --      0.0000                 0.0000                 0.0000
  Atom  AN      X      Y      Z        X      Y      Z        X      Y      Z
     1  26     0.00   0.00  -0.00    -0.00   0.00  -0.00     0.00   0.00  -0.00
     2   6     0.00   0.00   0.00     0.00   0.00  -0.00     0.00   0.00  -0.00
     3  46    -0.00  -0.00   0.00     0.00  -0.00  -0.00     0.00  -0.00   0.00
     4   6     0.00  -0.00  -0.00     0.00  -0.00  -0.00     0.00  -0.00  -0.00
     5   1    -0.00   0.00  -0.00    -0.00   0.00  -0.00    -0.00   0.00  -0.00
     6   1    -0.00  -0.00  -0.00    -0.00  -0.00   0.00    -0.00  -0.00  -0.00
     7   1     0.00  -0.00   0.00     0.00   0.00  -0.00     0.00  -0.00   0.00
     8   6    -0.00  -0.00  -0.00     0.00   0.00   0.00     0.00   0.00   0.00
     9   8     0.00  -0.00  -0.00    -0.00  -0.00  -0.00    -0.00  -0.00   0.00
    10   6     0.00  -0.00  -0.00     0.00  -0.00  -0.00     0.00   0.00  -0.00
    11   8     0.00   0.00   0.00    -0.00  -0.00  -0.00    -0.00  -0.00  -0.00
    12   6     0.00  -0.00   0.00     0.00   0.00  -0.00    -0.00  -0.00   0.00
    13   6    -0.00   0.00  -0.00    -0.00   0.00  -0.00     0.00   0.00  -0.00
    14   6     0.00  -0.00  -0.00    -0.00   0.00   0.00     0.00  -0.00  -0.00
    15   1    -0.00  -0.00  -0.00    -0.00  -0.00   0.00     0.01   0.00  -0.00
    16   1     0.00  -0.00   0.00    -0.00  -0.00   0.00    -0.00  -0.00   0.00
    17   1    -0.00   0.00   0.00     0.00  -0.00   0.00    -0.00   0.00   0.00
    18   1     0.00  -0.00  -0.00     0.00  -0.00  -0.00     0.00   0.00   0.00
    19   6    -0.00   0.00   0.00    -0.00   0.00  -0.00     0.00   0.00  -0.00
    20   6    -0.00   0.00   0.00     0.00  -0.00  -0.00    -0.00   0.00   0.00
    21   8    -0.00  -0.00  -0.00    -0.00  -0.00   0.00    -0.00  -0.00   0.00
    22   6    -0.00  -0.00   0.00     0.00   0.00  -0.00     0.00   0.00   0.00
    23   6     0.00   0.00  -0.00     0.00   0.00  -0.00     0.00   0.00  -0.00
    24   6     0.00  -0.00   0.00    -0.00  -0.00  -0.00    -0.00  -0.00   0.00
    25   6     0.00   0.00  -0.00     0.00   0.00   0.00     0.00   0.00  -0.00
    26   6    -0.00   0.00  -0.00     0.00  -0.00   0.00     0.00   0.00  -0.00
    27   1    -0.00  -0.00   0.00    -0.00  -0.00   0.00    -0.00  -0.00   0.00
    28   7     0.00  -0.00  -0.00     0.00  -0.00   0.00    -0.00  -0.00  -0.00
    29   1     0.01  -0.00   0.00    -0.02   0.00   0.00    -0.00  -0.00   0.00
    30   1    -0.00   0.00   0.00    -0.00   0.00   0.00    -0.00   0.00   0.00
    31   1    -0.00  -0.00  -0.00     0.00  -0.00  -0.00    -0.00  -0.00  -0.00
    32   1    -0.00  -0.00   0.00    -0.00  -0.00   0.00    -0.00  -0.00   0.00
    33   7    -0.00  -0.00   0.00    -0.00  -0.00   0.00    -0.00  -0.00   0.00
    34   6     0.00   0.00  -0.00     0.00   0.00   0.00     0.00   0.00  -0.00
    35   6     0.00   0.00   0.00    -0.00   0.00   0.00    -0.00   0.00   0.00
    36   1     0.00  -0.00  -0.00    -0.00  -0.00   0.00    -0.00  -0.00   0.00
    37   1    -0.00   0.00   0.00     0.00   0.00   0.00    -0.00   0.00   0.00
    38   1    -0.00   0.00  -0.00    -0.00   0.00  -0.00    -0.00   0.00  -0.00
    39   1    -0.00  -0.00   0.00    -0.00  -0.00   0.00    -0.00  -0.00   0.00
    40   1    -0.00   0.00  -0.00     0.00   0.00   0.00    -0.00   0.00  -0.00
    41   1     0.00  -0.00  -0.00     0.00  -0.00  -0.00     0.00  -0.00  -0.00
    42   6     0.00  -0.00   0.00     0.00  -0.00   0.00     0.00  -0.00   0.00
    43   6     0.01  -0.01   0.00     0.04  -0.06   0.02     0.03  -0.01  -0.00
    44   6    -0.01   0.00   0.00     0.02  -0.02  -0.01    -0.02  -0.01   0.03
    45   1    -0.06  -0.01   0.00    -0.12  -0.04   0.01    -0.22  -0.02   0.01
    46   1    -0.07   0.17  -0.05    -0.35   0.78  -0.21    -0.09   0.21  -0.06
    47   1     0.00  -0.01   0.01     0.02  -0.03   0.01    -0.00  -0.02   0.06
    48   1    -0.00  -0.00   0.00    -0.02   0.00  -0.00    -0.00   0.00   0.00
    49   1     0.10  -0.00   0.01    -0.29  -0.00  -0.03     0.51  -0.02   0.06
    50   1    -0.02  -0.04  -0.03     0.09   0.20   0.19    -0.15  -0.36  -0.31
    51   1    -0.01   0.03  -0.01    -0.00   0.02  -0.02    -0.17   0.54  -0.18
    52   6    -0.04  -0.04  -0.00     0.01   0.00   0.00     0.01   0.01   0.00
    53   1     0.17  -0.16   0.36    -0.03   0.03  -0.07    -0.02   0.02  -0.05
    54   1    -0.02  -0.05  -0.03     0.00   0.02   0.01     0.00   0.00  -0.00
    55   1     0.40   0.71  -0.29    -0.05  -0.10   0.04    -0.07  -0.13   0.05
                    148                    149                    150
                      A                      A                      A
 Frequencies --   3039.2384              3052.0834              3059.9524
 Red. masses --      1.0719                 1.0700                 1.0745
 Frc consts  --      5.8336                 5.8725                 5.9278
 IR Inten    --      0.0000                 0.0000                 0.0000
  Atom  AN      X      Y      Z        X      Y      Z        X      Y      Z
     1  26     0.00   0.00  -0.00     0.00  -0.00  -0.00    -0.00   0.00  -0.00
     2   6    -0.00  -0.00  -0.00    -0.00  -0.00  -0.00    -0.00  -0.00   0.00
     3  46     0.00   0.00   0.00     0.00  -0.00  -0.00    -0.00  -0.00  -0.00
     4   6     0.00   0.00   0.00     0.00  -0.00  -0.00     0.00  -0.00  -0.00
     5   1     0.00  -0.00   0.00     0.00  -0.00   0.00    -0.00   0.00  -0.00
     6   1     0.00   0.00  -0.00    -0.00  -0.00   0.00    -0.00  -0.00   0.00
     7   1     0.00  -0.00   0.00    -0.00   0.00  -0.00    -0.00   0.00  -0.00
     8   6    -0.00   0.00   0.00    -0.00  -0.00   0.00     0.00  -0.00  -0.00
     9   8     0.00   0.00   0.00     0.00   0.00   0.00     0.00   0.00  -0.00
    10   6     0.00   0.00   0.00     0.00  -0.00  -0.00     0.00   0.00  -0.00
    11   8    -0.00  -0.00  -0.00     0.00   0.00   0.00     0.00   0.00   0.00
    12   6    -0.00  -0.00   0.00    -0.00  -0.00   0.00    -0.00  -0.00   0.00
    13   6     0.00  -0.00   0.00     0.00   0.00  -0.00     0.00   0.00   0.00
    14   6     0.00  -0.00   0.00    -0.00   0.00   0.00    -0.00  -0.00   0.00
    15   1     0.00   0.00  -0.00     0.00   0.00  -0.00     0.00   0.00  -0.00
    16   1    -0.00   0.00   0.00     0.00   0.00  -0.00    -0.00  -0.00  -0.00
    17   1    -0.00   0.00   0.00     0.00  -0.00  -0.00     0.00   0.00  -0.00
    18   1    -0.00   0.00   0.00     0.00  -0.00  -0.00     0.00  -0.00  -0.00
    19   6     0.00  -0.00  -0.00     0.00   0.00  -0.00    -0.00   0.00   0.00
    20   6    -0.00   0.00   0.00     0.00  -0.00  -0.00    -0.00   0.00   0.00
    21   8     0.00   0.00   0.00    -0.00   0.00  -0.00     0.00   0.00   0.00
    22   6     0.00  -0.00   0.00     0.00   0.00   0.00     0.00  -0.00   0.00
    23   6    -0.00  -0.00   0.00    -0.00   0.00  -0.00     0.00   0.00  -0.00
    24   6     0.00  -0.00  -0.00     0.00   0.00   0.00     0.00  -0.00   0.00
    25   6    -0.00  -0.00  -0.00     0.00  -0.00  -0.00     0.00   0.00  -0.00
    26   6     0.00   0.00  -0.00    -0.00  -0.00   0.00    -0.00  -0.00   0.00
    27   1    -0.00   0.00  -0.00    -0.00   0.00  -0.00     0.00   0.00   0.00
    28   7     0.00  -0.00  -0.00     0.00   0.00  -0.00    -0.00   0.00   0.00
    29   1     0.01  -0.00  -0.00    -0.00   0.00   0.00     0.00   0.00   0.00
    30   1    -0.00   0.00   0.00    -0.06   0.06   0.04    -0.00   0.00   0.00
    31   1    -0.00  -0.00  -0.00     0.00  -0.01  -0.00     0.00   0.00   0.00
    32   1     0.00   0.00  -0.00     0.00  -0.00   0.00    -0.00   0.00   0.00
    33   7     0.00   0.00   0.00     0.00  -0.00  -0.00     0.00  -0.00  -0.00
    34   6     0.00   0.00  -0.00    -0.00  -0.00  -0.00    -0.00  -0.00   0.00
    35   6     0.00   0.00   0.00     0.04  -0.06  -0.01     0.00  -0.00  -0.00
    36   1    -0.00  -0.00   0.00     0.01   0.01   0.00     0.00   0.00   0.00
    37   1    -0.00   0.00   0.00    -0.00  -0.00   0.00     0.00  -0.00  -0.00
    38   1    -0.00   0.00  -0.00    -0.01   0.00  -0.00    -0.00   0.00  -0.00
    39   1    -0.00  -0.00   0.00    -0.00  -0.06  -0.00     0.00   0.00  -0.00
    40   1    -0.00   0.00  -0.00    -0.00  -0.02  -0.02     0.00  -0.00   0.00
    41   1     0.00  -0.00  -0.00    -0.50   0.83   0.20    -0.00   0.00   0.00
    42   6    -0.00  -0.00   0.00    -0.00  -0.00  -0.00    -0.00   0.00   0.00
    43   6    -0.07  -0.02   0.02     0.00  -0.00   0.00    -0.00   0.00   0.00
    44   6    -0.01  -0.01   0.00     0.00  -0.00   0.00    -0.00   0.00   0.00
    45   1     0.91   0.05  -0.02    -0.00  -0.00   0.00     0.00   0.00   0.00
    46   1    -0.12   0.17  -0.04    -0.00   0.00  -0.00     0.00  -0.00   0.00
    47   1     0.03   0.05  -0.20     0.00   0.00  -0.00     0.00   0.00  -0.01
    48   1     0.03  -0.00   0.00     0.00   0.00  -0.00    -0.00  -0.00   0.00
    49   1     0.21  -0.01   0.02     0.00  -0.00   0.00     0.01   0.00   0.00
    50   1     0.00   0.02   0.02    -0.00  -0.00  -0.00    -0.01  -0.01  -0.01
    51   1    -0.05   0.12  -0.05    -0.00   0.00  -0.00    -0.00   0.00   0.00
    52   6    -0.00   0.00   0.00    -0.00   0.00   0.00     0.00  -0.06  -0.05
    53   1     0.00  -0.00   0.00    -0.00   0.00  -0.00     0.01  -0.03  -0.00
    54   1     0.00  -0.00  -0.00     0.00  -0.00  -0.00    -0.03   0.71   0.70
    55   1    -0.00  -0.00  -0.00     0.00   0.00  -0.00     0.01   0.00  -0.04
                    151                    152                    153
                      A                      A                      A
 Frequencies --   3065.3381              3202.7529              3207.5105
 Red. masses --      1.0605                 1.0819                 1.0831
 Frc consts  --      5.8713                 6.5384                 6.5653
 IR Inten    --      0.0000                 0.0000                 0.0000
  Atom  AN      X      Y      Z        X      Y      Z        X      Y      Z
     1  26     0.00   0.00   0.00     0.00  -0.00  -0.00     0.00   0.00   0.00
     2   6     0.00   0.00   0.00     0.00  -0.00  -0.00     0.00   0.00   0.00
     3  46     0.00  -0.00  -0.00     0.00  -0.00  -0.00    -0.00   0.00  -0.00
     4   6     0.00  -0.00  -0.00    -0.00  -0.00  -0.00    -0.00   0.00   0.00
     5   1    -0.00   0.00  -0.00    -0.10   0.08  -0.10    -0.03   0.03  -0.03
     6   1    -0.00  -0.00   0.00     0.78   0.31  -0.06     0.16   0.06  -0.01
     7   1     0.00  -0.00   0.00     0.03  -0.31   0.31     0.01  -0.05   0.05
     8   6    -0.00   0.00  -0.00     0.00  -0.00  -0.00    -0.00   0.00  -0.00
     9   8     0.00   0.00  -0.00     0.00   0.00   0.00    -0.00  -0.00  -0.00
    10   6     0.00   0.00  -0.00    -0.00   0.00  -0.00    -0.00  -0.00   0.00
    11   8    -0.00   0.00   0.00     0.00   0.00   0.00    -0.00   0.00   0.00
    12   6     0.00   0.00  -0.00    -0.00  -0.00   0.00     0.03   0.01  -0.01
    13   6    -0.00  -0.00   0.00    -0.00   0.01  -0.00     0.00  -0.02   0.01
    14   6     0.00   0.00   0.00     0.01  -0.00  -0.00    -0.07   0.02   0.01
    15   1    -0.00  -0.00   0.00     0.03   0.01  -0.01    -0.33  -0.15   0.08
    16   1    -0.00   0.00  -0.00     0.01  -0.07   0.02    -0.03   0.32  -0.08
    17   1    -0.00   0.00   0.00    -0.18   0.05   0.03     0.80  -0.22  -0.13
    18   1     0.00   0.00   0.00     0.00   0.00   0.00     0.00  -0.00  -0.00
    19   6    -0.00   0.00   0.00     0.00   0.00  -0.00     0.00  -0.00  -0.00
    20   6    -0.00   0.00  -0.00     0.00  -0.00  -0.00    -0.00   0.00  -0.00
    21   8    -0.00  -0.00  -0.00    -0.00   0.00   0.00    -0.00  -0.00   0.00
    22   6    -0.00   0.00  -0.00     0.01  -0.00   0.00     0.00  -0.00   0.00
    23   6     0.00   0.00  -0.00     0.00   0.00  -0.00     0.00   0.00  -0.00
    24   6     0.00  -0.00   0.00     0.01  -0.01   0.01     0.00  -0.00   0.00
    25   6     0.00   0.00  -0.00    -0.07  -0.03   0.01    -0.01  -0.00   0.00
    26   6     0.00   0.00  -0.00    -0.00   0.02  -0.03    -0.00   0.00  -0.00
    27   1     0.01  -0.00   0.01    -0.13   0.01  -0.05    -0.03   0.00  -0.01
    28   7    -0.00  -0.00  -0.00    -0.00   0.00   0.00     0.00  -0.00   0.00
    29   1     0.01  -0.00  -0.00    -0.00   0.00   0.00     0.00  -0.00  -0.00
    30   1    -0.00   0.00   0.00     0.00   0.00  -0.00     0.01  -0.00  -0.01
    31   1     0.00  -0.00  -0.00     0.00  -0.00  -0.00     0.00   0.00   0.00
    32   1    -0.00  -0.00   0.00    -0.01  -0.02   0.01    -0.03  -0.03   0.03
    33   7     0.00  -0.00  -0.00     0.00   0.00   0.00     0.00  -0.00  -0.00
    34   6     0.00   0.00  -0.00    -0.00  -0.00   0.00    -0.00   0.00  -0.00
    35   6     0.00  -0.00  -0.00     0.00  -0.00   0.00    -0.00   0.00   0.00
    36   1     0.00   0.00  -0.00     0.00   0.00   0.00     0.00   0.00  -0.00
    37   1    -0.00   0.00   0.00     0.00  -0.00  -0.00     0.00  -0.00  -0.00
    38   1    -0.00   0.00  -0.00     0.00  -0.00   0.00     0.00  -0.00   0.00
    39   1    -0.00  -0.00   0.00     0.00   0.00  -0.00     0.00   0.00  -0.00
    40   1    -0.00  -0.00  -0.00    -0.00   0.00  -0.00     0.00   0.00   0.00
    41   1    -0.00   0.00   0.00     0.00   0.01   0.00     0.00  -0.00   0.00
    42   6    -0.00  -0.00  -0.00     0.00  -0.00  -0.00    -0.00   0.00   0.00
    43   6     0.00   0.02  -0.07     0.00   0.00  -0.00    -0.00  -0.00  -0.00
    44   6    -0.00   0.00  -0.00    -0.00  -0.00  -0.00     0.00  -0.00   0.00
    45   1     0.24   0.03  -0.04    -0.00  -0.00   0.00     0.00   0.00   0.00
    46   1    -0.01   0.04  -0.04    -0.00   0.00   0.00    -0.00   0.00   0.00
    47   1    -0.26  -0.25   0.90     0.00   0.00   0.00     0.00   0.00  -0.00
    48   1     0.00  -0.00   0.00    -0.00   0.00  -0.00     0.00  -0.00   0.00
    49   1    -0.01   0.00  -0.00    -0.00   0.00   0.00    -0.00  -0.00  -0.00
    50   1     0.00   0.01   0.01     0.00   0.00   0.00     0.00  -0.00  -0.00
    51   1     0.01  -0.02   0.01     0.00  -0.00   0.00    -0.00   0.00  -0.00
    52   6    -0.00  -0.00  -0.00     0.00  -0.00  -0.00     0.00   0.00  -0.00
    53   1     0.00  -0.00   0.00    -0.00   0.00  -0.00     0.00   0.00  -0.00
    54   1    -0.00   0.01   0.01    -0.00   0.00   0.00    -0.00   0.00   0.00
    55   1     0.00   0.00  -0.00    -0.00  -0.00  -0.00    -0.00  -0.00   0.00
                    154                    155                    156
                      A                      A                      A
 Frequencies --   3214.1369              3214.7321              3223.4981
 Red. masses --      1.0846                 1.0856                 1.0888
 Frc consts  --      6.6019                 6.6101                 6.6658
 IR Inten    --      0.0000                 0.0000                 0.0000
  Atom  AN      X      Y      Z        X      Y      Z        X      Y      Z
     1  26     0.00   0.00  -0.00     0.00   0.00  -0.00    -0.00  -0.00   0.00
     2   6     0.00   0.00   0.00     0.00  -0.00   0.00     0.00   0.00   0.00
     3  46    -0.00  -0.00   0.00    -0.00  -0.00   0.00     0.00  -0.00  -0.00
     4   6    -0.00   0.00   0.00    -0.00   0.00   0.00     0.00  -0.00  -0.00
     5   1    -0.13   0.11  -0.13    -0.02   0.01  -0.02    -0.10   0.09  -0.11
     6   1     0.32   0.13  -0.02    -0.07  -0.03   0.00    -0.28  -0.11   0.02
     7   1    -0.04   0.41  -0.42     0.01  -0.13   0.13     0.04  -0.41   0.42
     8   6     0.00  -0.00  -0.00     0.00  -0.00  -0.00    -0.00   0.00   0.00
     9   8    -0.00  -0.00  -0.00     0.00   0.00  -0.00    -0.00  -0.00  -0.00
    10   6    -0.00  -0.00   0.00    -0.00  -0.00   0.00     0.00   0.00  -0.00
    11   8    -0.00  -0.00  -0.00     0.00   0.00  -0.00    -0.00   0.00  -0.00
    12   6    -0.01  -0.01   0.00    -0.06  -0.03   0.02     0.00   0.00  -0.00
    13   6    -0.00   0.00  -0.00    -0.00   0.01  -0.00     0.00  -0.01   0.00
    14   6    -0.01   0.00   0.00    -0.04   0.01   0.01     0.01  -0.00  -0.00
    15   1     0.16   0.07  -0.04     0.76   0.34  -0.19    -0.04  -0.02   0.01
    16   1     0.01  -0.06   0.01     0.01  -0.15   0.04    -0.01   0.08  -0.02
    17   1     0.07  -0.02  -0.01     0.41  -0.11  -0.07    -0.07   0.02   0.01
    18   1     0.00  -0.00  -0.00    -0.00  -0.00  -0.00     0.00  -0.00   0.00
    19   6    -0.00   0.00  -0.00    -0.00   0.00  -0.00    -0.00   0.00   0.00
    20   6     0.00   0.00   0.00     0.00  -0.00   0.00     0.00  -0.00   0.00
    21   8    -0.00   0.00  -0.00    -0.00  -0.00  -0.00    -0.00   0.00   0.00
    22   6    -0.04   0.00  -0.02     0.01  -0.00   0.00    -0.03   0.00  -0.01
    23   6     0.02   0.02  -0.02    -0.00  -0.00   0.00     0.03   0.03  -0.03
    24   6     0.01  -0.01   0.01     0.00  -0.00   0.00     0.01  -0.01   0.01
    25   6    -0.03  -0.01   0.00     0.01   0.00  -0.00     0.03   0.01  -0.00
    26   6     0.01  -0.03   0.04    -0.00   0.01  -0.01    -0.00   0.04  -0.04
    27   1     0.50  -0.03   0.21    -0.10   0.01  -0.04     0.33  -0.02   0.13
    28   7     0.00   0.00  -0.00    -0.00   0.00  -0.00     0.00  -0.00  -0.00
    29   1    -0.00   0.00  -0.00    -0.00   0.00   0.00    -0.00   0.00   0.00
    30   1     0.00  -0.00  -0.00     0.00  -0.00  -0.00    -0.00   0.00   0.00
    31   1     0.00  -0.00  -0.00     0.00   0.00   0.00     0.00   0.00   0.00
    32   1    -0.21  -0.25   0.21     0.01   0.01  -0.01    -0.33  -0.40   0.34
    33   7    -0.00   0.00  -0.00     0.00   0.00  -0.00     0.00  -0.00  -0.00
    34   6     0.00  -0.00  -0.00    -0.00  -0.00   0.00    -0.00  -0.00  -0.00
    35   6    -0.00  -0.00  -0.00     0.00   0.00   0.00     0.00   0.00   0.00
    36   1     0.00  -0.00  -0.00     0.00   0.00  -0.00     0.00   0.00   0.00
    37   1    -0.00  -0.00   0.00    -0.00  -0.00  -0.00    -0.00   0.00   0.00
    38   1    -0.00   0.00  -0.00    -0.00   0.00  -0.00     0.00   0.00   0.00
    39   1    -0.00  -0.00  -0.00     0.00   0.00  -0.00     0.00   0.00   0.00
    40   1     0.00  -0.00   0.00    -0.00   0.00  -0.00    -0.00   0.00  -0.00
    41   1    -0.00  -0.00  -0.00     0.00  -0.00   0.00     0.00   0.00   0.00
    42   6    -0.00  -0.00   0.00     0.00  -0.00  -0.00     0.00  -0.00   0.00
    43   6    -0.00  -0.00   0.00     0.00   0.00  -0.00    -0.00   0.00   0.00
    44   6    -0.00   0.00  -0.00    -0.00   0.00  -0.00     0.00   0.00   0.00
    45   1     0.00   0.00  -0.00    -0.00  -0.00   0.00     0.00   0.00  -0.00
    46   1     0.00  -0.00   0.00     0.00  -0.00  -0.00     0.00  -0.00   0.00
    47   1    -0.00  -0.00  -0.01     0.00  -0.00   0.00    -0.00   0.00  -0.01
    48   1     0.00   0.00   0.00     0.00   0.00  -0.00    -0.01   0.00   0.00
    49   1    -0.00   0.00   0.00    -0.00   0.00   0.00    -0.00   0.00   0.00
    50   1    -0.00   0.00  -0.00    -0.00   0.01   0.00    -0.00  -0.00  -0.00
    51   1     0.00  -0.00   0.00     0.00  -0.01   0.00     0.00  -0.00   0.00
    52   6    -0.00   0.00   0.00    -0.00  -0.00   0.00     0.00   0.00  -0.00
    53   1     0.00  -0.00   0.00    -0.00   0.00  -0.00    -0.00   0.00  -0.00
    54   1    -0.00  -0.00  -0.00    -0.00  -0.00  -0.00    -0.00   0.00   0.00
    55   1     0.00   0.00  -0.00     0.00   0.00  -0.00    -0.00  -0.00   0.00
                    157                    158                    159
                      A                      A                      A
 Frequencies --   3230.7272              3234.6240              3241.8961
 Red. masses --      1.0916                 1.0923                 1.0923
 Frc consts  --      6.7132                 6.7336                 6.7637
 IR Inten    --      0.0000                 0.0000                 0.0000
  Atom  AN      X      Y      Z        X      Y      Z        X      Y      Z
     1  26     0.00   0.00   0.00    -0.00  -0.00  -0.00     0.00  -0.00  -0.00
     2   6     0.00   0.00   0.00    -0.00  -0.00  -0.00     0.00   0.00  -0.00
     3  46    -0.00  -0.00  -0.00    -0.00   0.00   0.00     0.00  -0.00   0.00
     4   6     0.00  -0.00  -0.00     0.00  -0.00   0.00    -0.00  -0.00   0.00
     5   1     0.20  -0.17   0.20     0.07  -0.06   0.07     0.54  -0.44   0.53
     6   1     0.08   0.03  -0.01     0.06   0.02  -0.00     0.14   0.06  -0.01
     7   1     0.01  -0.16   0.16    -0.01   0.08  -0.08    -0.00   0.01  -0.00
     8   6     0.00  -0.00  -0.00    -0.00  -0.00   0.00     0.00  -0.00  -0.00
     9   8    -0.00  -0.00  -0.00     0.00   0.00   0.00    -0.00  -0.00   0.00
    10   6    -0.00   0.00   0.00     0.00   0.00  -0.00    -0.00  -0.00   0.00
    11   8    -0.00   0.00   0.00     0.00  -0.00  -0.00    -0.00   0.00   0.00
    12   6    -0.01  -0.00   0.00    -0.02  -0.01   0.01     0.00   0.00  -0.00
    13   6     0.00  -0.02   0.01     0.01  -0.07   0.02    -0.00   0.02  -0.00
    14   6     0.00   0.00  -0.00     0.02  -0.00  -0.00    -0.01   0.00   0.00
    15   1     0.08   0.04  -0.02     0.25   0.11  -0.06    -0.02  -0.01   0.00
    16   1    -0.02   0.22  -0.05    -0.08   0.84  -0.21     0.02  -0.19   0.05
    17   1    -0.00   0.00   0.00    -0.21   0.06   0.04     0.07  -0.02  -0.01
    18   1     0.00   0.00   0.00    -0.00   0.00   0.00     0.00  -0.00   0.00
    19   6    -0.00   0.00   0.00    -0.00   0.00  -0.00     0.00  -0.00  -0.00
    20   6     0.00   0.00   0.00     0.00  -0.00  -0.00    -0.00   0.00   0.00
    21   8    -0.00   0.00   0.00     0.00  -0.00  -0.00    -0.00  -0.00   0.00
    22   6    -0.06   0.00  -0.02     0.02  -0.00   0.01     0.01  -0.00   0.00
    23   6    -0.02  -0.03   0.02     0.01   0.01  -0.01     0.02   0.02  -0.02
    24   6    -0.02   0.01  -0.02    -0.01   0.01  -0.01    -0.05   0.04  -0.05
    25   6    -0.01  -0.00   0.00    -0.01  -0.00   0.00    -0.01  -0.01   0.00
    26   6    -0.00   0.01  -0.02     0.00  -0.01   0.01     0.00  -0.00   0.00
    27   1     0.65  -0.04   0.27    -0.20   0.01  -0.08    -0.06   0.01  -0.03
    28   7    -0.00   0.00  -0.00    -0.00   0.00  -0.00     0.00  -0.00   0.00
    29   1    -0.00   0.00   0.00    -0.00   0.00   0.00     0.00  -0.00  -0.00
    30   1     0.00   0.00   0.00     0.00  -0.00   0.00     0.00  -0.00  -0.00
    31   1     0.00   0.00   0.00     0.00   0.00   0.00    -0.00  -0.00  -0.00
    32   1     0.28   0.33  -0.28    -0.09  -0.11   0.09    -0.22  -0.25   0.22
    33   7     0.00   0.00  -0.00    -0.00   0.00  -0.00    -0.00  -0.00   0.00
    34   6     0.00  -0.00  -0.00     0.00   0.00   0.00    -0.00  -0.00   0.00
    35   6     0.00  -0.00   0.00    -0.00  -0.00  -0.00    -0.00   0.00  -0.00
    36   1     0.00   0.00  -0.00    -0.00  -0.00   0.00     0.00  -0.00  -0.00
    37   1    -0.00   0.00   0.00     0.00   0.00  -0.00     0.00  -0.00  -0.00
    38   1    -0.00   0.00  -0.00    -0.00   0.00  -0.00     0.00  -0.00   0.00
    39   1     0.00   0.00  -0.00    -0.00  -0.00  -0.00     0.00   0.00   0.00
    40   1    -0.00   0.00  -0.00     0.00  -0.00   0.00     0.00  -0.00   0.00
    41   1     0.00   0.00   0.00    -0.00  -0.00  -0.00    -0.00  -0.00   0.00
    42   6    -0.00   0.00   0.00     0.00  -0.00  -0.00    -0.00  -0.00  -0.00
    43   6    -0.00  -0.00   0.00     0.00   0.00  -0.00    -0.00   0.00  -0.00
    44   6     0.00  -0.00   0.00    -0.00  -0.00  -0.00    -0.00   0.00  -0.00
    45   1    -0.00   0.00  -0.00    -0.00  -0.00   0.00     0.00   0.00   0.00
    46   1    -0.00   0.00  -0.00    -0.00  -0.00   0.00     0.00  -0.00   0.00
    47   1    -0.00  -0.00  -0.00     0.00   0.00   0.00     0.00   0.00   0.00
    48   1     0.00  -0.00  -0.00    -0.00   0.00   0.00     0.00   0.00   0.00
    49   1    -0.00   0.00   0.00    -0.00   0.00   0.00     0.00   0.00  -0.00
    50   1    -0.00  -0.00  -0.00    -0.00   0.00   0.00     0.00   0.00   0.00
    51   1    -0.00   0.00  -0.00     0.00  -0.00   0.00     0.00  -0.00   0.00
    52   6    -0.00  -0.00   0.00     0.00  -0.00   0.00    -0.00   0.00  -0.00
    53   1    -0.00   0.00  -0.00    -0.00  -0.00   0.00     0.00  -0.00   0.00
    54   1    -0.00   0.00   0.00     0.00  -0.00  -0.00    -0.00   0.00   0.00
    55   1     0.00   0.00  -0.00     0.00   0.00  -0.00    -0.00   0.00  -0.00

 -------------------
 - Thermochemistry -
 -------------------
 Temperature   298.150 Kelvin.  Pressure   1.00000 Atm.
 Atom     1 has atomic number 26 and mass  55.93494
 Atom     2 has atomic number  6 and mass  12.00000
 Atom     3 has atomic number 46 and mass 105.90320
 Atom     4 has atomic number  6 and mass  12.00000
 Atom     5 has atomic number  1 and mass   1.00783
 Atom     6 has atomic number  1 and mass   1.00783
 Atom     7 has atomic number  1 and mass   1.00783
 Atom     8 has atomic number  6 and mass  12.00000
 Atom     9 has atomic number  8 and mass  15.99491
 Atom    10 has atomic number  6 and mass  12.00000
 Atom    11 has atomic number  8 and mass  15.99491
 Atom    12 has atomic number  6 and mass  12.00000
 Atom    13 has atomic number  6 and mass  12.00000
 Atom    14 has atomic number  6 and mass  12.00000
 Atom    15 has atomic number  1 and mass   1.00783
 Atom    16 has atomic number  1 and mass   1.00783
 Atom    17 has atomic number  1 and mass   1.00783
 Atom    18 has atomic number  1 and mass   1.00783
 Atom    19 has atomic number  6 and mass  12.00000
 Atom    20 has atomic number  6 and mass  12.00000
 Atom    21 has atomic number  8 and mass  15.99491
 Atom    22 has atomic number  6 and mass  12.00000
 Atom    23 has atomic number  6 and mass  12.00000
 Atom    24 has atomic number  6 and mass  12.00000
 Atom    25 has atomic number  6 and mass  12.00000
 Atom    26 has atomic number  6 and mass  12.00000
 Atom    27 has atomic number  1 and mass   1.00783
 Atom    28 has atomic number  7 and mass  14.00307
 Atom    29 has atomic number  1 and mass   1.00783
 Atom    30 has atomic number  1 and mass   1.00783
 Atom    31 has atomic number  1 and mass   1.00783
 Atom    32 has atomic number  1 and mass   1.00783
 Atom    33 has atomic number  7 and mass  14.00307
 Atom    34 has atomic number  6 and mass  12.00000
 Atom    35 has atomic number  6 and mass  12.00000
 Atom    36 has atomic number  1 and mass   1.00783
 Atom    37 has atomic number  1 and mass   1.00783
 Atom    38 has atomic number  1 and mass   1.00783
 Atom    39 has atomic number  1 and mass   1.00783
 Atom    40 has atomic number  1 and mass   1.00783
 Atom    41 has atomic number  1 and mass   1.00783
 Atom    42 has atomic number  6 and mass  12.00000
 Atom    43 has atomic number  6 and mass  12.00000
 Atom    44 has atomic number  6 and mass  12.00000
 Atom    45 has atomic number  1 and mass   1.00783
 Atom    46 has atomic number  1 and mass   1.00783
 Atom    47 has atomic number  1 and mass   1.00783
 Atom    48 has atomic number  1 and mass   1.00783
 Atom    49 has atomic number  1 and mass   1.00783
 Atom    50 has atomic number  1 and mass   1.00783
 Atom    51 has atomic number  1 and mass   1.00783
 Atom    52 has atomic number  6 and mass  12.00000
 Atom    53 has atomic number  1 and mass   1.00783
 Atom    54 has atomic number  1 and mass   1.00783
 Atom    55 has atomic number  1 and mass   1.00783
 Molecular mass:   506.04813 amu.
 Principal axes and moments of inertia in atomic units:
                           1         2         3
     Eigenvalues --  6903.688299299.59222**********
           X            0.99685   0.06812  -0.04062
           Y           -0.06917   0.99729  -0.02488
           Z            0.03881   0.02762   0.99886
 This molecule is an asymmetric top.
 Rotational symmetry number  1.
 Warning -- assumption of classical behavior for rotation
           may cause significant error
 Rotational temperatures (Kelvin)      0.01255     0.00931     0.00817
 Rotational constants (GHZ):           0.26142     0.19407     0.17018
    1 imaginary frequencies ignored.
 Zero-point vibrational energy    1156909.4 (Joules/Mol)
                                  276.50799 (Kcal/Mol)
 Warning -- explicit consideration of  46 degrees of freedom as
           vibrations may cause significant error
 Vibrational temperatures:     61.63    71.03    82.35    94.98   119.27
          (Kelvin)            141.78   147.54   152.25   176.10   187.41
                              194.83   200.94   227.57   235.82   260.93
                              263.62   285.96   305.88   329.30   339.24
                              355.06   369.69   399.03   406.87   419.20
                              428.08   465.24   481.55   501.23   520.13
                              540.31   563.89   597.72   622.14   642.37
                              656.26   673.40   685.08   699.77   729.24
                              751.92   796.79   812.16   825.62   848.48
                              886.22   911.42   917.96   937.16   958.02
                              970.34  1007.33  1065.93  1090.48  1112.12
                             1128.85  1140.94  1145.90  1161.72  1176.25
                             1197.72  1232.90  1235.99  1252.88  1261.01
                             1273.73  1303.57  1310.31  1357.71  1380.38
                             1383.71  1402.64  1432.95  1443.12  1455.90
                             1461.55  1470.97  1487.64  1514.63  1527.78
                             1542.79  1549.96  1562.58  1572.52  1593.37
                             1603.52  1620.06  1644.00  1659.81  1673.39
                             1687.28  1708.22  1724.13  1747.33  1757.19
                             1774.25  1781.87  1787.20  1801.33  1836.18
                             1872.32  1919.41  1942.75  1970.09  1979.40
                             2000.82  2003.11  2009.93  2012.84  2016.17
                             2020.45  2027.82  2033.64  2038.87  2045.09
                             2051.73  2066.89  2072.40  2094.27  2103.86
                             2105.38  2107.21  2121.36  2137.61  2138.53
                             2162.54  2165.50  2170.79  2182.79  2385.31
                             2475.90  4063.98  4127.78  4142.78  4164.81
                             4174.33  4195.88  4266.67  4327.76  4332.42
                             4344.93  4345.49  4347.17  4354.67  4356.27
                             4360.33  4372.79  4391.27  4402.59  4410.34
                             4608.05  4614.89  4624.43  4625.28  4637.89
                             4648.30  4653.90  4664.37
 
 Zero-point correction=                           0.440644 (Hartree/Particle)
 Thermal correction to Energy=                    0.467915
 Thermal correction to Enthalpy=                  0.468859
 Thermal correction to Gibbs Free Energy=         0.385848
 Sum of electronic and zero-point Energies=            -82.530693
 Sum of electronic and thermal Energies=               -82.503421
 Sum of electronic and thermal Enthalpies=             -82.502477
 Sum of electronic and thermal Free Energies=          -82.585488
 
                     E (Thermal)             CV                S
                      KCal/Mol        Cal/Mol-Kelvin    Cal/Mol-Kelvin
 Total                  293.621            108.247            174.711
 Electronic               0.000              0.000              0.000
 Translational            0.889              2.981             44.551
 Rotational               0.889              2.981             34.875
 Vibrational            291.844            102.286             95.285
 Vibration     1          0.595              1.980              5.123
 Vibration     2          0.595              1.978              4.843
 Vibration     3          0.596              1.975              4.550
 Vibration     4          0.597              1.970              4.269
 Vibration     5          0.600              1.961              3.821
 Vibration     6          0.604              1.950              3.483
 Vibration     7          0.605              1.947              3.405
 Vibration     8          0.605              1.945              3.344
 Vibration     9          0.610              1.930              3.062
 Vibration    10          0.612              1.923              2.942
 Vibration    11          0.613              1.918              2.868
 Vibration    12          0.615              1.914              2.809
 Vibration    13          0.621              1.893              2.572
 Vibration    14          0.623              1.887              2.504
 Vibration    15          0.630              1.865              2.314
 Vibration    16          0.631              1.863              2.295
 Vibration    17          0.637              1.842              2.145
 Vibration    18          0.644              1.822              2.021
 Vibration    19          0.652              1.797              1.888
 Vibration    20          0.655              1.786              1.834
 Vibration    21          0.661              1.768              1.753
 Vibration    22          0.667              1.751              1.682
 Vibration    23          0.678              1.715              1.550
 Vibration    24          0.682              1.706              1.517
 Vibration    25          0.687              1.690              1.466
 Vibration    26          0.691              1.678              1.431
 Vibration    27          0.708              1.629              1.293
 Vibration    28          0.716              1.606              1.237
 Vibration    29          0.726              1.579              1.174
 Vibration    30          0.736              1.552              1.116
 Vibration    31          0.746              1.522              1.057
 Vibration    32          0.759              1.487              0.993
 Vibration    33          0.779              1.437              0.908
 Vibration    34          0.793              1.400              0.851
 Vibration    35          0.806              1.369              0.807
 Vibration    36          0.814              1.347              0.777
 Vibration    37          0.825              1.321              0.743
 Vibration    38          0.833              1.303              0.721
 Vibration    39          0.842              1.280              0.693
 Vibration    40          0.862              1.235              0.641
 Vibration    41          0.878              1.200              0.604
 Vibration    42          0.909              1.131              0.536
 Vibration    43          0.920              1.108              0.515
 Vibration    44          0.930              1.088              0.497
 Vibration    45          0.947              1.054              0.468
 Vibration    46          0.976              0.998              0.423
                       Q            Log10(Q)             Ln(Q)
 Total Bot       0.332839-177       -177.477766       -408.657658
 Total V=0       0.159958D+26         25.204005         58.034367
 Vib (Bot)       0.796376-193       -193.098882       -444.626607
 Vib (Bot)    1  0.482906D+01          0.683862          1.574651
 Vib (Bot)    2  0.418779D+01          0.621985          1.432174
 Vib (Bot)    3  0.360901D+01          0.557388          1.283434
 Vib (Bot)    4  0.312580D+01          0.494962          1.139692
 Vib (Bot)    5  0.248315D+01          0.395004          0.909529
 Vib (Bot)    6  0.208319D+01          0.318728          0.733899
 Vib (Bot)    7  0.200039D+01          0.301115          0.693342
 Vib (Bot)    8  0.193720D+01          0.287174          0.661242
 Vib (Bot)    9  0.166870D+01          0.222377          0.512043
 Vib (Bot)   10  0.156497D+01          0.194506          0.447867
 Vib (Bot)   11  0.150346D+01          0.177091          0.407766
 Vib (Bot)   12  0.145605D+01          0.163176          0.375727
 Vib (Bot)   13  0.127887D+01          0.106826          0.245977
 Vib (Bot)   14  0.123194D+01          0.090588          0.208588
 Vib (Bot)   15  0.110699D+01          0.044144          0.101646
 Vib (Bot)   16  0.109497D+01          0.039401          0.090723
 Vib (Bot)   17  0.100372D+01          0.001612          0.003712
 Vib (Bot)   18  0.933261D+00         -0.029997         -0.069070
 Vib (Bot)   19  0.860978D+00         -0.065008         -0.149686
 Vib (Bot)   20  0.833210D+00         -0.079246         -0.182470
 Vib (Bot)   21  0.792070D+00         -0.101237         -0.233106
 Vib (Bot)   22  0.757038D+00         -0.120882         -0.278342
 Vib (Bot)   23  0.694213D+00         -0.158507         -0.364976
 Vib (Bot)   24  0.678878D+00         -0.168208         -0.387314
 Vib (Bot)   25  0.655859D+00         -0.183190         -0.421810
 Vib (Bot)   26  0.640064D+00         -0.193777         -0.446187
 Vib (Bot)   27  0.580179D+00         -0.236438         -0.544418
 Vib (Bot)   28  0.556643D+00         -0.254423         -0.585831
 Vib (Bot)   29  0.530166D+00         -0.275589         -0.634566
 Vib (Bot)   30  0.506504D+00         -0.295417         -0.680224
 Vib (Bot)   31  0.482955D+00         -0.316093         -0.727831
 Vib (Bot)   32  0.457449D+00         -0.339657         -0.782090
 Vib (Bot)   33  0.424131D+00         -0.372500         -0.857714
 Vib (Bot)   34  0.402187D+00         -0.395572         -0.910838
 Vib (Bot)   35  0.385194D+00         -0.414320         -0.954007
 Vib (Bot)   36  0.374090D+00         -0.427024         -0.983258
 Vib (Bot)   37  0.360981D+00         -0.442516         -1.018930
 Vib (Bot)   38  0.352404D+00         -0.452960         -1.042978
 Vib (Bot)   39  0.341987D+00         -0.465990         -1.072982
 Vib (Bot)   40  0.322290D+00         -0.491753         -1.132304
 Vib (Bot)   41  0.308123D+00         -0.511276         -1.177257
 Vib (Bot)   42  0.282343D+00         -0.549222         -1.264631
 Vib (Bot)   43  0.274134D+00         -0.562037         -1.294137
 Vib (Bot)   44  0.267186D+00         -0.573186         -1.319810
 Vib (Bot)   45  0.255876D+00         -0.591971         -1.363064
 Vib (Bot)   46  0.238434D+00         -0.622632         -1.433664
 Vib (V=0)       0.382727D+10          9.582889         22.065418
 Vib (V=0)    1  0.535487D+01          0.728749          1.678007
 Vib (V=0)    2  0.471754D+01          0.673715          1.551287
 Vib (V=0)    3  0.414348D+01          0.617366          1.421537
 Vib (V=0)    4  0.366554D+01          0.564138          1.298976
 Vib (V=0)    5  0.303299D+01          0.481871          1.109550
 Vib (V=0)    6  0.264235D+01          0.421990          0.971669
 Vib (V=0)    7  0.256193D+01          0.408568          0.940762
 Vib (V=0)    8  0.250068D+01          0.398058          0.916564
 Vib (V=0)    9  0.224200D+01          0.350635          0.807366
 Vib (V=0)   10  0.214290D+01          0.331003          0.762162
 Vib (V=0)   11  0.208442D+01          0.318985          0.734490
 Vib (V=0)   12  0.203951D+01          0.309525          0.712708
 Vib (V=0)   13  0.187314D+01          0.272570          0.627615
 Vib (V=0)   14  0.182954D+01          0.262341          0.604063
 Vib (V=0)   15  0.171467D+01          0.234181          0.539222
 Vib (V=0)   16  0.170372D+01          0.231399          0.532816
 Vib (V=0)   17  0.162136D+01          0.209880          0.483266
 Vib (V=0)   18  0.155876D+01          0.192780          0.443892
 Vib (V=0)   19  0.149563D+01          0.174825          0.402549
 Vib (V=0)   20  0.147172D+01          0.167825          0.386431
 Vib (V=0)   21  0.143668D+01          0.157361          0.362337
 Vib (V=0)   22  0.140725D+01          0.148372          0.341639
 Vib (V=0)   23  0.135553D+01          0.132109          0.304193
 Vib (V=0)   24  0.134313D+01          0.128119          0.295006
 Vib (V=0)   25  0.132471D+01          0.122122          0.281196
 Vib (V=0)   26  0.131221D+01          0.118003          0.271711
 Vib (V=0)   27  0.126590D+01          0.102401          0.235786
 Vib (V=0)   28  0.124823D+01          0.096295          0.221728
 Vib (V=0)   29  0.122875D+01          0.089463          0.205997
 Vib (V=0)   30  0.121172D+01          0.083402          0.192041
 Vib (V=0)   31  0.119516D+01          0.077426          0.178279
 Vib (V=0)   32  0.117769D+01          0.071030          0.163552
 Vib (V=0)   33  0.115566D+01          0.062829          0.144669
 Vib (V=0)   34  0.114168D+01          0.057545          0.132502
 Vib (V=0)   35  0.113117D+01          0.053528          0.123252
 Vib (V=0)   36  0.112445D+01          0.050942          0.117298
 Vib (V=0)   37  0.111669D+01          0.047933          0.110369
 Vib (V=0)   38  0.111171D+01          0.045991          0.105899
 Vib (V=0)   39  0.110577D+01          0.043664          0.100540
 Vib (V=0)   40  0.109487D+01          0.039363          0.090636
 Vib (V=0)   41  0.108732D+01          0.036356          0.083712
 Vib (V=0)   42  0.107421D+01          0.031089          0.071586
 Vib (V=0)   43  0.107022D+01          0.029473          0.067863
 Vib (V=0)   44  0.106691D+01          0.028128          0.064768
 Vib (V=0)   45  0.106167D+01          0.025989          0.059842
 Vib (V=0)   46  0.105394D+01          0.022816          0.052537
 Electronic      0.100000D+01          0.000000          0.000000
 Translational   0.447447D+09          8.650742         19.919069
 Rotational      0.934059D+07          6.970374         16.049880
 ***** Axes restored to original set *****
 -------------------------------------------------------------------
 Center     Atomic                   Forces (Hartrees/Bohr)
 Number     Number              X              Y              Z
 -------------------------------------------------------------------
      1       26          -0.000029608    0.000009802    0.000002235
      2        6           0.000007874    0.000006612   -0.000024616
      3       46          -0.002170278   -0.007974809   -0.036351604
      4        6           0.000007892   -0.000004895   -0.000024524
      5        1           0.000007438    0.000004686    0.000007476
      6        1          -0.000000889   -0.000002845    0.000000935
      7        1           0.000002615    0.000000761   -0.000007033
      8        6          -0.000012160    0.000016370   -0.000017753
      9        8          -0.000004384   -0.000008148    0.000011161
     10        6           0.000006082   -0.000013568    0.000015422
     11        8          -0.018870075    0.011991824   -0.001622219
     12        6          -0.000004038   -0.000006135    0.000001331
     13        6          -0.000011052   -0.000005048    0.000003305
     14        6          -0.000003942   -0.000003342   -0.000003747
     15        1           0.000003390    0.000000613    0.000003871
     16        1           0.000006944   -0.000000424    0.000001382
     17        1           0.000002320   -0.000001694    0.000002892
     18        1           0.032106833   -0.024901294    0.004651472
     19        6          -0.019749353    0.016062852    0.012404841
     20        6           0.000007309   -0.000007388    0.000002974
     21        8          -0.009535431   -0.000231135    0.014596376
     22        6           0.000025501   -0.000022351    0.000017441
     23        6          -0.000003053    0.000007819    0.000010848
     24        6          -0.000004512   -0.000006913   -0.000019533
     25        6           0.000002969    0.000004426   -0.000004465
     26        6          -0.000008700    0.000002000    0.000009705
     27        1          -0.000002538    0.000004377   -0.000015140
     28        7           0.011896281    0.001858416    0.004987300
     29        1          -0.000001855    0.000001080   -0.000000941
     30        1           0.000000669    0.000002747   -0.000000715
     31        1          -0.000003813    0.000001296    0.000001453
     32        1           0.000002906   -0.000001674   -0.000003748
     33        7           0.006332814    0.003228325    0.001371864
     34        6           0.000006563   -0.000007962    0.000000972
     35        6           0.000002196   -0.000009247   -0.000004508
     36        1          -0.000000929    0.000001655    0.000001729
     37        1          -0.000000224   -0.000001017    0.000000487
     38        1           0.000001315   -0.000000394   -0.000002651
     39        1           0.000000835    0.000001165    0.000000268
     40        1          -0.000003264   -0.000000600    0.000001927
     41        1          -0.000001513    0.000003889   -0.000000275
     42        6          -0.000016526    0.000006312    0.000004628
     43        6          -0.000003518    0.000001069    0.000002942
     44        6          -0.000007828   -0.000005229   -0.000005865
     45        1           0.000001353   -0.000000430   -0.000001702
     46        1           0.000001019   -0.000000639    0.000000750
     47        1           0.000001586    0.000001331   -0.000000559
     48        1           0.000006245    0.000000674   -0.000010257
     49        1           0.000001832   -0.000000758    0.000002590
     50        1           0.000003214    0.000005095   -0.000000067
     51        1           0.000001586    0.000003487    0.000002320
     52        6           0.000007164   -0.000006089    0.000007035
     53        1          -0.000000212   -0.000001833   -0.000003020
     54        1          -0.000000503    0.000002129   -0.000004021
     55        1          -0.000004546   -0.000004952   -0.000000971
 -------------------------------------------------------------------
 Cartesian Forces:  Max     0.036351604 RMS     0.005445627
 Z-matrix is all fixed cartesians, so copy forces.
 Leave Link  716 at Mon Oct 14 18:08:58 2024, MaxMem=   104857600 cpu:               0.1 elap:               0.4
 (Enter /home/echo/g16/l103.exe)

 GradGradGradGradGradGradGradGradGradGradGradGradGradGradGradGradGradGrad
 Berny optimization.
 Search for a local minimum.
 Step number   1 out of a maximum of    2
 All quantities printed in internal units (Hartrees-Bohrs-Radians)
 Second derivative matrix not updated -- analytic derivatives used.
 ITU=  0
     Eigenvalues ---   -0.04965   0.00037   0.00044   0.00046   0.00050
     Eigenvalues ---    0.00060   0.00087   0.00159   0.00189   0.00194
     Eigenvalues ---    0.00244   0.00299   0.00305   0.00327   0.00363
     Eigenvalues ---    0.00486   0.00606   0.00680   0.00710   0.00833
     Eigenvalues ---    0.00903   0.00943   0.01061   0.01103   0.01219
     Eigenvalues ---    0.01325   0.01505   0.01535   0.01740   0.01815
     Eigenvalues ---    0.01869   0.01946   0.02178   0.02256   0.02363
     Eigenvalues ---    0.02404   0.02608   0.03019   0.03528   0.03595
     Eigenvalues ---    0.03805   0.04135   0.04259   0.04313   0.04429
     Eigenvalues ---    0.04624   0.04784   0.04888   0.05069   0.05142
     Eigenvalues ---    0.05293   0.05364   0.05582   0.05799   0.05946
     Eigenvalues ---    0.06217   0.06306   0.06414   0.06538   0.06805
     Eigenvalues ---    0.07101   0.07504   0.07638   0.08125   0.08423
     Eigenvalues ---    0.09200   0.09885   0.10101   0.10494   0.10534
     Eigenvalues ---    0.10749   0.11048   0.11296   0.11439   0.11551
     Eigenvalues ---    0.11905   0.12030   0.12316   0.12462   0.12791
     Eigenvalues ---    0.13224   0.13801   0.13907   0.14494   0.14675
     Eigenvalues ---    0.15000   0.15243   0.15491   0.16773   0.17069
     Eigenvalues ---    0.17864   0.18465   0.18534   0.18742   0.19267
     Eigenvalues ---    0.20075   0.20665   0.20971   0.21624   0.22259
     Eigenvalues ---    0.22445   0.23025   0.23240   0.24287   0.26470
     Eigenvalues ---    0.30475   0.30788   0.32591   0.33829   0.35482
     Eigenvalues ---    0.36895   0.38210   0.39078   0.40639   0.42641
     Eigenvalues ---    0.43691   0.43764   0.47103   0.49970   0.50014
     Eigenvalues ---    0.54568   0.57427   0.59340   0.61399   0.64157
     Eigenvalues ---    0.65211   0.65890   0.67856   0.68558   0.69715
     Eigenvalues ---    0.70255   0.70605   0.71054   0.71451   0.72670
     Eigenvalues ---    0.73248   0.73941   0.74587   0.74739   0.76480
     Eigenvalues ---    0.77603   0.77743   0.78583   0.79146   0.79525
     Eigenvalues ---    0.84270   0.86638   0.93498   0.95813   1.01138
     Eigenvalues ---    1.02159   1.02582   1.10274   1.14005   1.17179
     Eigenvalues ---    1.17585   1.22021   1.29438   1.49637
 Eigenvalue     1 is  -4.96D-02 should be greater than     0.000000 Eigenvector:
                          X18       Y18       Z19       Z11       Y11
   1                    0.77281  -0.53227  -0.17643   0.14114   0.13475
                          Y8        X11       X10       X1        X19
   1                    0.08039  -0.07068  -0.06024  -0.05411  -0.04377
 Quadratic step=4.452D+00 exceeds max=3.000D-01 adjusted using Lamda=-1.132D-01.
 Angle between NR and scaled steps=  72.76 degrees.
 Angle between quadratic step and forces=  27.66 degrees.
 Linear search not attempted -- first point.
 B after Tr=    -0.003451    0.000945   -0.003373
         Rot=    1.000000    0.000024   -0.000131   -0.000142 Ang=   0.02 deg.
 Variable       Old X    -DE/DX   Delta X   Delta X   Delta X     New X
                                 (Linear)    (Quad)   (Total)
    X1        2.64242  -0.00003   0.00000   0.00083  -0.00225   2.64018
    Y1       -1.87565   0.00001   0.00000  -0.00126   0.00041  -1.87524
    Z1       -0.63219   0.00000   0.00000   0.01434   0.01036  -0.62182
    X2       -4.21452   0.00001   0.00000  -0.00692  -0.00952  -4.22405
    Y2        0.24323   0.00001   0.00000  -0.00272  -0.00280   0.24043
    Z2        3.48165  -0.00002   0.00000   0.00868   0.00640   3.48805
    X3       -0.18364  -0.00217   0.00000  -0.00960  -0.01341  -0.19705
    Y3        1.68163  -0.00797   0.00000  -0.02262  -0.02171   1.65992
    Z3        0.52170  -0.03635   0.00000  -0.08486  -0.08826   0.43344
    X4        5.20546   0.00001   0.00000   0.01033   0.00595   5.21141
    Y4        2.67289  -0.00000   0.00000   0.00003   0.00243   2.67531
    Z4       -0.65551  -0.00002   0.00000   0.00555   0.00069  -0.65482
    X5        5.64497   0.00001   0.00000   0.00268   0.00068   5.64565
    Y5       -5.87605   0.00000   0.00000  -0.00409  -0.00158  -5.87762
    Z5       -0.82048   0.00001   0.00000   0.00393  -0.00064  -0.82112
    X6        6.96528  -0.00000   0.00000   0.00297   0.00065   6.96594
    Y6       -2.06865  -0.00000   0.00000  -0.00294   0.00008  -2.06856
    Z6        2.08779   0.00000   0.00000   0.00406  -0.00104   2.08675
    X7        2.73060   0.00000   0.00000   0.00028  -0.00183   2.72876
    Y7       -0.50467   0.00000   0.00000   0.00008   0.00202  -0.50265
    Z7        4.56887  -0.00001   0.00000  -0.00092  -0.00498   4.56388
    X8       -4.25753  -0.00001   0.00000   0.00185  -0.00308  -4.26061
    Y8        2.86619   0.00002   0.00000   0.01335   0.01296   2.87915
    Z8       -2.51793  -0.00002   0.00000  -0.00697  -0.00937  -2.52730
    X9       -5.46707  -0.00000   0.00000  -0.00798  -0.00990  -5.47697
    Y9       -0.52610  -0.00001   0.00000  -0.00774  -0.00809  -0.53419
    Z9        5.25470   0.00001   0.00000   0.00496   0.00304   5.25775
   X10        3.98734   0.00001   0.00000  -0.01585  -0.02023   3.96711
   Y10        0.97139  -0.00001   0.00000   0.00683   0.00879   0.98018
   Z10       -2.51989   0.00002   0.00000   0.01239   0.00793  -2.51196
   X11       -2.53979  -0.01887   0.00000  -0.08210  -0.08770  -2.62749
   Y11        4.04052   0.01199   0.00000   0.04809   0.04811   4.08863
   Z11       -3.76244  -0.00162   0.00000  -0.01046  -0.01334  -3.77578
   X12        0.91083  -0.00000   0.00000  -0.00428  -0.00829   0.90254
   Y12       -1.61271  -0.00001   0.00000   0.01226   0.01328  -1.59943
   Z12       -3.88902   0.00000   0.00000   0.01757   0.01404  -3.87498
   X13        3.20199  -0.00001   0.00000  -0.00461  -0.00830   3.19369
   Y13       -2.93669  -0.00001   0.00000   0.01105   0.01270  -2.92399
   Z13       -4.08857   0.00000   0.00000   0.00429   0.00022  -4.08835
   X14        5.13068  -0.00000   0.00000  -0.00613  -0.01004   5.12064
   Y14       -1.33475  -0.00000   0.00000   0.00941   0.01165  -1.32310
   Z14       -3.22295  -0.00000   0.00000   0.00483   0.00018  -3.22277
   X15       -0.87978   0.00000   0.00000   0.00244  -0.00147  -0.88125
   Y15       -2.41734   0.00000   0.00000   0.00116   0.00164  -2.41569
   Z15       -4.35708   0.00000   0.00000   0.00696   0.00393  -4.35315
   X16        3.39691   0.00001   0.00000  -0.00275  -0.00602   3.39089
   Y16       -4.88003  -0.00000   0.00000   0.00967   0.01136  -4.86867
   Z16       -4.57807   0.00000   0.00000  -0.00063  -0.00466  -4.58273
   X17        7.05095   0.00000   0.00000  -0.00308  -0.00677   7.04418
   Y17       -1.85821  -0.00000   0.00000   0.00341   0.00622  -1.85199
   Z17       -2.90075   0.00000   0.00000  -0.00154  -0.00667  -2.90742
   X18       -0.43745   0.03211   0.00000   0.20095   0.19584  -0.24161
   Y18        2.70450  -0.02490   0.00000  -0.14291  -0.14220   2.56230
   Z18       -3.58045   0.00465   0.00000   0.03427   0.03083  -3.54961
   X19        1.37695  -0.01975   0.00000  -0.04727  -0.05182   1.32513
   Y19        0.93371   0.01606   0.00000   0.03543   0.03661   0.97032
   Z19       -3.16591   0.01240   0.00000   0.02904   0.02528  -3.14064
   X20       -5.08794   0.00001   0.00000   0.01411   0.01097  -5.07697
   Y20       -0.42757  -0.00001   0.00000   0.00463   0.00417  -0.42340
   Z20        0.70468   0.00000   0.00000   0.00394   0.00192   0.70660
   X21       -2.25766  -0.00954   0.00000  -0.01259  -0.01553  -2.27319
   Y21        1.63006  -0.00023   0.00000   0.00323   0.00371   1.63377
   Z21        3.69428   0.01460   0.00000   0.03026   0.02740   3.72169
   X22        0.84854   0.00003   0.00000   0.00398   0.00209   0.85064
   Y22       -3.39289  -0.00002   0.00000  -0.00457  -0.00327  -3.39616
   Z22        2.29585   0.00002   0.00000   0.00307  -0.00036   2.29548
   X23        1.77704  -0.00000   0.00000   0.00315   0.00134   1.77838
   Y23       -5.21449   0.00001   0.00000  -0.00651  -0.00503  -5.21952
   Z23        0.60605   0.00001   0.00000   0.00764   0.00405   0.61010
   X24        4.40746  -0.00000   0.00000   0.00365   0.00169   4.40916
   Y24       -4.86956  -0.00001   0.00000  -0.00431  -0.00209  -4.87165
   Z24        0.40674  -0.00002   0.00000   0.00465   0.00036   0.40710
   X25        5.09410   0.00000   0.00000   0.00475   0.00261   5.09671
   Y25       -2.80689   0.00000   0.00000  -0.00661  -0.00412  -2.81101
   Z25        1.94392  -0.00000   0.00000   0.00961   0.00504   1.94896
   X26        2.90203  -0.00001   0.00000   0.00550   0.00341   2.90544
   Y26       -1.89528   0.00000   0.00000  -0.00367  -0.00174  -1.89703
   Z26        3.11854   0.00001   0.00000   0.00419   0.00014   3.11868
   X27       -0.99974  -0.00000   0.00000   0.00232   0.00061  -0.99913
   Y27       -3.28319   0.00000   0.00000   0.00154   0.00235  -3.28084
   Z27        3.09424  -0.00002   0.00000  -0.00042  -0.00338   3.09086
   X28       -3.61850   0.01190   0.00000   0.03107   0.02705  -3.59145
   Y28        1.14374   0.00186   0.00000   0.00814   0.00802   1.15176
   Z28       -0.91398   0.00499   0.00000   0.00784   0.00536  -0.90863
   X29       -7.13077  -0.00000   0.00000   0.01232   0.00905  -7.12172
   Y29       -0.07820   0.00000   0.00000   0.00566   0.00461  -0.07358
   Z29        0.59734  -0.00000   0.00000  -0.00248  -0.00399   0.59336
   X30        6.63061   0.00000   0.00000   0.00807   0.00426   6.63488
   Y30        1.49755   0.00000   0.00000  -0.00235   0.00049   1.49804
   Z30        0.25502  -0.00000   0.00000   0.00512  -0.00007   0.25495
   X31        6.13811  -0.00000   0.00000   0.00927   0.00420   6.14232
   Y31        4.33197   0.00000   0.00000  -0.00255   0.00007   4.33204
   Z31       -1.48500   0.00000   0.00000   0.00054  -0.00465  -1.48966
   X32        0.69030   0.00000   0.00000   0.00203   0.00029   0.69059
   Y32       -6.50115  -0.00000   0.00000  -0.00117  -0.00006  -6.50120
   Z32       -0.50068  -0.00000   0.00000   0.00241  -0.00084  -0.50152
   X33        3.35825   0.00633   0.00000   0.02047   0.01636   3.37462
   Y33        3.47065   0.00323   0.00000   0.00327   0.00524   3.47589
   Z33        1.27866   0.00137   0.00000   0.00252  -0.00190   1.27676
   X34        2.27810   0.00001   0.00000   0.00825   0.00328   2.28138
   Y34        5.94869  -0.00001   0.00000  -0.00252  -0.00090   5.94779
   Z34        0.61703   0.00000   0.00000   0.00308  -0.00118   0.61586
   X35        4.59976   0.00000   0.00000   0.00554   0.00201   4.60177
   Y35        3.72011  -0.00001   0.00000  -0.00233   0.00010   3.72022
   Z35        3.72563  -0.00000   0.00000   0.00603   0.00128   3.72691
   X36        3.73348  -0.00000   0.00000   0.00395  -0.00143   3.73205
   Y36        7.43261   0.00000   0.00000   0.00115   0.00319   7.43580
   Z36        0.71218   0.00000   0.00000   0.00495   0.00024   0.71242
   X37        1.51061  -0.00000   0.00000   0.00638   0.00090   1.51151
   Y37        5.92448  -0.00000   0.00000   0.00127   0.00258   5.92706
   Z37       -1.30302   0.00000   0.00000   0.00251  -0.00154  -1.30456
   X38        0.76853   0.00000   0.00000   0.00474  -0.00002   0.76852
   Y38        6.42592  -0.00000   0.00000  -0.00489  -0.00363   6.42229
   Z38        1.95855  -0.00000   0.00000   0.00118  -0.00271   1.95584
   X39        5.91938   0.00000   0.00000   0.00329  -0.00069   5.91869
   Y39        5.32243   0.00000   0.00000  -0.00145   0.00135   5.32379
   Z39        3.73977   0.00000   0.00000   0.00623   0.00105   3.74082
   X40        3.17928  -0.00000   0.00000   0.00037  -0.00287   3.17641
   Y40        4.02750  -0.00000   0.00000  -0.00254  -0.00044   4.02705
   Z40        5.18588   0.00000   0.00000   0.00091  -0.00349   5.18239
   X41        5.65841  -0.00000   0.00000   0.00227  -0.00066   5.65774
   Y41        2.01473   0.00000   0.00000  -0.00337  -0.00062   2.01411
   Z41        4.15989  -0.00000   0.00000   0.00471  -0.00024   4.15965
   X42       -4.49636  -0.00002   0.00000   0.00330   0.00070  -4.49566
   Y42       -3.15654   0.00001   0.00000   0.00179   0.00145  -3.15509
   Z42       -0.17516   0.00000   0.00000   0.00220   0.00015  -0.17501
   X43       -5.36386  -0.00000   0.00000   0.00166   0.00012  -5.36374
   Y43       -5.15684   0.00000   0.00000   0.00142   0.00093  -5.15591
   Z43        1.70911   0.00000   0.00000   0.00113  -0.00060   1.70851
   X44       -5.73972  -0.00001   0.00000   0.00336   0.00023  -5.73949
   Y44       -3.63767  -0.00001   0.00000   0.00160   0.00079  -3.63688
   Z44       -2.74298  -0.00001   0.00000   0.00163  -0.00007  -2.74304
   X45       -7.41200   0.00000   0.00000   0.00140  -0.00011  -7.41210
   Y45       -5.32321  -0.00000   0.00000   0.00204   0.00097  -5.32224
   Z45        1.66468  -0.00000   0.00000   0.00013  -0.00105   1.66363
   X46       -4.54919   0.00000   0.00000   0.00058  -0.00057  -4.54976
   Y46       -6.98473  -0.00000   0.00000   0.00105   0.00076  -6.98397
   Z46        1.23940   0.00000   0.00000   0.00046  -0.00138   1.23801
   X47       -4.84295   0.00000   0.00000   0.00036  -0.00082  -4.84377
   Y47       -4.66511   0.00000   0.00000   0.00116   0.00091  -4.66420
   Z47        3.63135  -0.00000   0.00000   0.00129  -0.00060   3.63076
   X48       -2.42577   0.00001   0.00000   0.00256  -0.00010  -2.42587
   Y48       -3.22172   0.00000   0.00000  -0.00242  -0.00218  -3.22390
   Z48       -0.46973  -0.00001   0.00000   0.00134  -0.00124  -0.47097
   X49       -7.78968   0.00000   0.00000   0.00290  -0.00020  -7.78988
   Y49       -3.59938  -0.00000   0.00000   0.00203   0.00064  -3.59874
   Z49       -2.58250   0.00000   0.00000   0.00108  -0.00009  -2.58259
   X50       -5.16681   0.00000   0.00000   0.00186  -0.00204  -5.16886
   Y50       -2.21459   0.00001   0.00000   0.00120   0.00048  -2.21411
   Z50       -4.11286  -0.00000   0.00000   0.00044  -0.00147  -4.11433
   X51       -5.18720   0.00000   0.00000   0.00149  -0.00131  -5.18851
   Y51       -5.48661   0.00000   0.00000   0.00087   0.00018  -5.48643
   Z51       -3.45361   0.00000   0.00000   0.00161  -0.00014  -3.45375
   X52       -6.98790   0.00001   0.00000  -0.00719  -0.01243  -7.00034
   Y52        3.47819  -0.00001   0.00000  -0.00548  -0.00667   3.47152
   Z52       -3.08229   0.00001   0.00000   0.00706   0.00535  -3.07695
   X53       -7.92124  -0.00000   0.00000  -0.00130  -0.00629  -7.92753
   Y53        4.14583  -0.00000   0.00000   0.00241   0.00105   4.14688
   Z53       -1.37534  -0.00000   0.00000   0.00429   0.00280  -1.37255
   X54       -7.06211  -0.00000   0.00000   0.00652   0.00048  -7.06163
   Y54        4.93791   0.00000   0.00000  -0.00200  -0.00327   4.93464
   Z54       -4.52312  -0.00000   0.00000   0.00525   0.00348  -4.51963
   X55       -7.96487  -0.00000   0.00000  -0.00417  -0.00911  -7.97399
   Y55        1.79796  -0.00000   0.00000  -0.00038  -0.00187   1.79609
   Z55       -3.75237  -0.00000   0.00000  -0.00021  -0.00158  -3.75396
         Item               Value     Threshold  Converged?
 Maximum Force            0.036352     0.000450     NO 
 RMS     Force            0.005446     0.000300     NO 
 Maximum Displacement     0.195842     0.001800     NO 
 RMS     Displacement     0.023156     0.001200     NO 
 Predicted change in Energy=-1.729278D-02
 GradGradGradGradGradGradGradGradGradGradGradGradGradGradGradGradGradGrad

 Leave Link  103 at Mon Oct 14 18:08:58 2024, MaxMem=   104857600 cpu:               0.0 elap:               0.1
 (Enter /home/echo/g16/l9999.exe)
 Unable to Open any file for archive entry.
 1\1\GINC-ECHO\Freq\External='./xtb.sh'\ZDO\C20H28Fe1N2O3Pd1\ECHO\14-Oc
 t-2024\0\\#p freq external='./xtb.sh'\\Generate automatically by rxnb\
 \0,1\Fe,1.39831,-0.99255,-0.33454\C,-2.23023,0.12871,1.84241\Pd,-0.097
 18,0.88988,0.27607\C,2.75461,1.41443,-0.34688\H,2.98719,-3.10947,-0.43
 418\H,3.68587,-1.09468,1.10481\H,1.44497,-0.26706,2.41774\C,-2.25299,1
 .51672,-1.33243\O,-2.89305,-0.2784,2.78067\C,2.11001,0.51404,-1.33347\
 O,-1.344,2.13815,-1.991\C,0.48199,-0.85341,-2.05798\C,1.69442,-1.55403
 ,-2.16358\C,2.71504,-0.70632,-1.70551\H,-0.46556,-1.2792,-2.30567\H,1.
 79757,-2.5824,-2.42261\H,3.7312,-0.98332,-1.53501\H,-0.23149,1.43116,-
 1.89469\C,0.72865,0.4941,-1.67533\C,-2.69242,-0.22626,0.3729\O,-1.1947
 ,0.86259,1.95493\C,0.44903,-1.79544,1.21491\C,0.94037,-2.75939,0.32071
 \C,2.33233,-2.57686,0.21524\C,2.69568,-1.48534,1.02868\C,1.53569,-1.00
 294,1.65026\H,-0.52904,-1.73739,1.6374\N,-1.91483,0.60524,-0.48366\H,-
 3.77344,-0.04138,0.3161\H,3.50877,0.79247,0.13495\H,3.24815,2.29238,-0
 .78583\H,0.36529,-3.44026,-0.26495\N,1.77711,1.83659,0.67664\C,1.20552
 ,3.14791,0.32652\C,2.43409,1.9686,1.97152\H,1.97567,3.93317,0.37687\H,
 0.79938,3.1351,-0.68953\H,0.40669,3.40045,1.03642\H,3.1324,2.81651,1.9
 79\H,1.6824,2.13126,2.74425\H,2.9943,1.06615,2.20132\C,-2.37937,-1.670
 37,-0.09269\C,-2.83843,-2.72888,0.90442\C,-3.03733,-1.92497,-1.45152\H
 ,-3.92226,-2.81692,0.88091\H,-2.40733,-3.69616,0.65586\H,-2.56278,-2.4
 6867,1.92163\H,-1.28366,-1.70486,-0.24857\H,-4.12212,-1.90471,-1.3666\
 H,-2.73416,-1.17191,-2.17643\H,-2.74495,-2.90339,-1.82757\C,-3.69784,1
 .84058,-1.63108\H,-4.19174,2.19388,-0.7278\H,-3.73711,2.61303,-2.39353
 \H,-4.21483,0.95144,-1.98567\\Version=ES64L-G16RevC.01\HF=-82.9713363\
 RMSD=0.000e+00\RMSF=5.446e-03\ZeroPoint=0.4406435\Thermal=0.4679152\ET
 ot=-82.5034211\HTot=-82.5024769\GTot=-82.585488\Dipole=0.,0.,0.\PG=C01
  [X(C20H28Fe1N2O3Pd1)]\NImag=1\\0.37314925,-0.03704683,0.48191416,0.00
 269730,-0.13645460,0.57478080,0.00051322,-0.00242004,0.00062132,0.5877
 1331,-0.00009903,-0.00212615,0.00080314,0.25942213,0.37220692,-0.00069
 325,0.00028188,-0.00045071,-0.19995533,-0.12251272,0.58797018,-0.03547
 748,0.04146175,0.00153907,-0.01436011,-0.00724062,0.00310789,0.2110447
 5,0.03784020,-0.04966111,-0.01251811,0.00056288,0.00136458,0.00395320,
 -0.02431024,0.11854226,0.01255072,-0.02305548,0.00274196,0.00877616,0.
 00801377,0.01516205,-0.02276171,0.03289419,0.19988123,-0.00475630,-0.0
 0064300,-0.00485868,-0.00109025,-0.00069078,-0.00004558,-0.00425928,0.
 00008233,0.00416829,0.47084043,-0.00089156,-0.00069583,-0.00508277,-0.
 00002017,0.00003215,-0.00011674,-0.00073150,0.00208869,0.00249963,-0.0
 0735371,0.51965848,0.00507009,0.00605580,-0.00091312,0.00053258,0.0003
 1639,-0.00026683,0.00154978,0.00110332,-0.00064068,0.04490381,-0.02127
 057,0.45149903,-0.00204466,-0.00024274,0.00113674,0.00013861,-0.000026
 81,-0.00001875,0.00017539,-0.00051451,0.00004992,-0.00006950,-0.000364
 22,-0.00004194,0.16682061,0.00042868,-0.00292587,-0.00249507,-0.000076
 22,-0.00004800,-0.00000671,-0.00038826,0.00064830,-0.00012892,0.000401
 82,0.00061872,0.00004141,-0.09749418,0.11725054,-0.00171573,0.00175063
 ,-0.00051560,-0.00026893,-0.00013630,-0.00002835,0.00017018,-0.0002054
 3,0.00002382,-0.00002082,-0.00014678,-0.00007952,-0.12491201,0.1092614
 2,0.15660237,-0.00123294,-0.00099066,0.00240548,0.00008446,-0.00009820
 ,-0.00011043,-0.00083215,-0.00031485,-0.00039811,-0.00044717,-0.000647
 67,-0.00000078,0.00014992,0.00007079,-0.00053080,0.31841282,0.00358403
 ,0.00084809,-0.00021298,0.00000275,0.00002238,-0.00006905,0.00028274,-
 0.00009398,0.00004997,0.00068658,-0.00103768,0.00095231,0.00026767,-0.
 00058468,0.00046185,0.11140441,0.08168260,-0.00229680,-0.00189981,0.00
 016948,0.00003019,0.00010099,0.00000389,0.00059282,-0.00047141,-0.0000
 6562,-0.00072534,0.00000993,-0.00049262,-0.00038033,0.00034064,-0.0005
 2918,0.01794256,0.01852911,0.03159344,-0.00030420,-0.00143647,0.000003
 72,-0.00132975,-0.00039320,-0.00049879,0.00055841,0.00109470,-0.001791
 16,-0.00001219,-0.00010118,0.00005697,0.00034287,0.00076087,0.00072140
 ,-0.00004487,0.00014572,-0.00037640,0.04552983,0.00004345,0.00418903,0
 .00194131,0.00001536,0.00036098,-0.00009917,0.00073930,0.00089006,0.00
 007553,-0.00020578,-0.00007034,0.00018171,-0.00031261,-0.00003796,-0.0
 0072382,0.00012712,-0.00015427,0.00062597,-0.01197068,0.19342019,-0.00
 026963,-0.00491489,0.00242451,-0.00107333,-0.00027322,0.00024384,-0.00
 345273,0.00161283,-0.00477212,0.00018787,-0.00034216,-0.00053217,-0.00
 038488,-0.00009281,0.00024300,-0.00001359,0.00046425,-0.00065568,-0.02
 017184,0.17005760,0.19483269,0.00132766,-0.00064936,-0.00247233,0.0035
 1696,0.00028914,0.00279185,-0.01058129,0.00996993,-0.01071699,-0.00030
 932,-0.00044061,-0.00020740,0.00000837,-0.00001279,-0.00001265,0.00012
 205,-0.00002901,0.00004888,0.00020611,-0.00014209,0.00029335,0.5792000
 0,0.00243528,-0.00200060,-0.00309896,0.00481633,0.00495881,0.00590961,
 0.00497021,0.00335833,-0.00673373,0.00023615,-0.00043084,-0.00044737,-
 0.00012401,0.00007806,0.00004435,-0.00021852,-0.00010798,-0.00001858,0
 .00018472,-0.00022671,0.00008224,-0.00211393,0.47237763,-0.00254016,0.
 00148550,0.00273444,-0.00250926,-0.00057010,-0.00943195,-0.00642068,-0
 .00165937,0.00471663,-0.00041748,0.00046978,0.00064994,0.00012823,-0.0
 0007609,-0.00008130,0.00019643,0.00009010,-0.00001120,-0.00026241,0.00
 026880,-0.00015404,-0.02141961,-0.30268826,0.46164554,-0.00023097,0.00
 098676,0.00003911,-0.22823703,-0.10046010,0.23632046,-0.00033374,-0.00
 317865,-0.00208162,0.00037792,-0.00002755,-0.00026395,-0.00001700,0.00
 001287,0.00012585,-0.00001116,-0.00004176,0.00000913,0.00044237,-0.000
 10886,0.00033455,-0.00127510,0.00049251,0.00002822,0.27053839,-0.00057
 774,0.00157606,0.00019700,-0.09894363,-0.12307566,0.14177116,0.0001097
 0,-0.00101929,-0.00279173,0.00027915,-0.00001171,-0.00016701,0.0000518
 9,-0.00000993,0.00005503,0.00007868,0.00001655,-0.00001333,0.00007388,
 -0.00019119,0.00015931,0.00012912,0.00009308,-0.00049352,0.15379775,0.
 12264407,0.00070297,-0.00121518,0.00023794,0.23449865,0.14327710,-0.41
 398262,-0.00000629,0.00123153,-0.00403387,-0.00029324,-0.00000528,0.00
 022985,-0.00002702,0.00001210,-0.00005504,0.00000485,0.00006883,0.0000
 0379,0.00004674,0.00023510,-0.00025651,0.00010812,-0.00500673,0.002767
 37,-0.28753063,-0.17198009,0.48515686,-0.03020590,-0.03865891,0.017629
 39,-0.00270991,-0.00218320,-0.00009783,-0.00759289,0.00129350,0.007684
 95,-0.09926720,-0.04163687,-0.06014718,-0.00016278,0.00040630,-0.00034
 822,-0.00047675,-0.00041663,0.00032297,-0.00006934,0.00060454,-0.00068
 236,-0.00062351,0.00055822,-0.00045798,0.00094317,0.00115450,-0.000872
 08,0.54023160,-0.04041617,-0.07565217,0.03997600,0.00162919,0.00147895
 ,0.00027471,0.00772094,-0.00195048,-0.00282293,-0.04734149,-0.11862607
 ,-0.07557603,-0.00038716,0.00014795,-0.00006682,-0.00057788,0.00019583
 ,-0.00037980,0.00043153,-0.00043089,-0.00003659,-0.00032704,-0.0008556
 6,0.00093275,-0.00054956,-0.00074441,0.00042313,0.02244235,0.56926235,
 0.01659817,0.03049885,-0.04407428,-0.00113414,-0.00105541,-0.00007460,
 0.00277970,0.00282419,-0.00081930,-0.05735223,-0.06987293,-0.12350201,
 0.00012468,-0.00037483,0.00025857,-0.00001437,-0.00015968,0.00026964,0
 .00011451,-0.00009224,0.00029436,-0.00023165,-0.00009986,-0.00004896,0
 .00033322,0.00036945,-0.00022849,0.10836847,0.17660525,0.30369936,-0.0
 0556119,0.00453482,0.00706523,-0.01159411,-0.00775463,-0.01032228,-0.0
 0290807,-0.00293499,0.00280056,-0.00026535,0.00116979,0.00102444,0.000
 09507,-0.00029212,0.00016359,0.00003744,-0.00005812,0.00009601,-0.0003
 2721,0.00030291,-0.00028888,-0.22760133,-0.08848002,0.10054541,0.00144
 283,0.00065682,0.00574539,-0.00296293,0.00566940,0.00088084,0.29657958
 ,0.00147490,-0.00089848,-0.00200272,-0.00292279,-0.00426610,-0.0034981
 8,0.00341560,-0.00571597,0.00477641,0.00007287,-0.00059763,-0.00027778
 ,-0.00007749,0.00010391,-0.00014942,0.00005001,0.00001227,-0.00009416,
 -0.00010711,-0.00010437,-0.00008442,-0.11393962,-0.15530987,0.10226103
 ,-0.00074055,0.00009241,0.00404113,0.00270083,-0.00389292,-0.00035647,
 0.11136418,0.22502911,0.00289129,-0.00139323,-0.00214458,0.00396623,0.
 00274494,0.00613019,-0.00034618,0.00063536,-0.01053660,0.00016153,-0.0
 0023307,-0.00039936,-0.00006286,0.00006704,-0.00012066,0.00001952,-0.0
 0005637,-0.00009461,0.00020474,-0.00005325,0.00038151,0.12632994,0.096
 01292,-0.15001359,-0.00010339,-0.00019578,-0.00287255,-0.00005012,-0.0
 0050824,-0.00010319,-0.14050189,-0.17289450,0.19009053,-0.04817805,-0.
 01013174,-0.04721174,-0.00030734,-0.00018101,-0.00009752,0.00004361,0.
 00513717,0.00231750,-0.00468961,0.00224065,-0.00184076,-0.00007912,-0.
 00020222,-0.00020061,0.00045665,-0.00020510,0.00077346,-0.00002924,-0.
 00011450,0.00032210,-0.00010316,-0.00005272,0.00050248,0.00001345,0.00
 017092,-0.00001299,-0.01874273,-0.02489004,-0.01179750,-0.00141812,0.0
 0083089,-0.00077288,0.72421276,-0.00953065,-0.01091104,0.01060440,0.00
 208590,0.00178899,-0.00015799,0.00351168,-0.00638699,-0.00617990,-0.00
 090840,0.00164709,-0.00151854,0.00007368,-0.00019201,0.00028680,-0.000
 02620,-0.00060993,0.00036020,-0.00006414,0.00026902,-0.00046570,0.0011
 4015,0.00136330,-0.00087562,-0.00072628,-0.00101258,0.00074084,-0.0368
 5806,-0.00497915,-0.02057743,-0.00067146,-0.00035351,0.00111006,0.0519
 7651,0.50995016,-0.03493476,0.00050383,-0.09412258,-0.00004715,-0.0001
 9299,0.00044661,-0.00392119,-0.00057122,0.00008973,-0.00064713,0.00062
 742,0.00114205,0.00024106,-0.00060367,0.00030294,0.00018414,0.00023510
 ,0.00004020,0.00000672,-0.00015540,0.00077927,0.00031267,0.00134984,-0
 .00132665,0.00009795,0.00001723,-0.00026938,-0.00409976,-0.00767247,-0
 .00626753,-0.00094598,-0.00023997,0.00052458,0.12936482,0.12652393,0.2
 0854070,0.00145331,0.00017066,0.02029468,0.00148709,0.00121235,0.00074
 774,0.00134657,-0.00049833,-0.00015770,-0.00019427,0.00228698,-0.00078
 954,-0.00036419,0.00088313,-0.00084792,-0.00007759,-0.00012988,-0.0004
 5286,-0.00022609,-0.00004228,0.00015484,-0.00007761,0.00029546,0.00004
 631,-0.00054159,-0.00046062,0.00017846,0.01832814,-0.01981936,-0.01452
 517,-0.00105602,0.00023248,-0.00020622,-0.26223745,0.09513863,-0.01263
 672,0.53486499,0.00424780,-0.02533703,-0.03817445,-0.00054338,-0.00040
 495,-0.00034656,-0.00086551,-0.00122227,0.00094099,0.00366845,-0.00224
 410,-0.00205674,0.00113563,-0.00088557,0.00212816,0.00010801,-0.000178
 20,0.00005789,0.00017090,-0.00050096,0.00072761,0.00021107,-0.00010214
 ,-0.00041157,0.00020449,0.00021468,0.00010454,-0.00358836,-0.04314544,
 -0.02326901,0.00131601,-0.00069062,0.00068206,0.12203491,-0.12866022,-
 0.01211376,-0.03973237,0.70915965,0.01708776,-0.02188582,-0.10648269,-
 0.00007533,-0.00012085,0.00022878,-0.00037938,-0.00084752,-0.00188586,
 0.00051744,-0.00052526,0.00019387,0.00024169,-0.00018308,-0.00082416,0
 .00055461,-0.00039936,0.00081816,-0.00040951,0.00082003,-0.00041561,-0
 .00007004,0.00025928,-0.00032809,0.00001993,0.00000397,-0.00010140,-0.
 00266474,-0.01085629,-0.00404551,-0.00002698,-0.00006847,0.00009674,0.
 02763571,-0.03293266,-0.03644417,0.03879024,0.21449354,0.25371332,-0.0
 7264689,-0.01341126,0.06655050,0.00002704,0.00000826,-0.00013780,-0.00
 237988,0.00011830,-0.00011253,0.00560141,-0.00957024,-0.00599757,0.000
 22718,0.00140667,-0.00054770,-0.00047583,-0.00013701,-0.00116471,-0.00
 006553,0.00010520,-0.00044231,0.00039495,0.00015669,-0.00012413,0.0000
 5690,-0.00001124,-0.00004607,-0.11014890,0.11255478,0.01912944,-0.0025
 7936,0.00160117,-0.00000312,-0.05167114,-0.00029884,-0.00058880,-0.208
 53966,-0.12527450,-0.08308788,0.77451306,-0.01116002,-0.00223204,0.016
 77785,-0.00118100,-0.00100184,-0.00033469,0.00052845,0.00159296,0.0004
 0850,0.00625585,-0.02143088,-0.01146415,-0.00017246,-0.00109782,0.0008
 5260,-0.00012354,-0.00011047,0.00049237,0.00000496,0.00024679,-0.00037
 213,-0.00016640,-0.00005773,0.00007226,0.00040244,0.00038264,-0.000244
 49,0.07091866,-0.23777121,-0.06063660,0.00106550,-0.00095130,0.0000434
 7,-0.01004387,0.01331479,0.01222413,-0.09545990,-0.16281326,-0.0718754
 5,-0.05363433,0.49280531,0.04288396,0.01735804,-0.07179966,-0.00058941
 ,-0.00054971,-0.00006729,-0.00068169,0.00016643,-0.00074199,0.00523074
 ,-0.01167387,-0.00720548,0.00061904,0.00010888,-0.00049158,0.00069969,
 0.00008803,-0.00004080,-0.00014733,-0.00000904,0.00040201,0.00015688,0
 .00012985,-0.00022234,0.00019892,0.00011065,-0.00017954,0.01457284,-0.
 07269469,-0.05150304,-0.00055512,0.00028430,-0.00002531,-0.02340299,0.
 00928088,0.00992222,-0.05021985,-0.05902910,-0.05968005,0.05404416,0.1
 1816240,0.21881975,0.00032972,-0.00048450,0.00199058,0.00005520,-0.000
 04176,-0.00000562,0.00004243,-0.00058259,-0.00139918,-0.00001813,0.000
 37997,-0.00012280,0.00008886,-0.00032980,0.00005592,0.00018105,0.00005
 373,0.00032694,0.00005325,0.00007536,0.00009415,0.00026476,0.00012200,
 -0.00010084,-0.00000230,-0.00000003,-0.00002938,-0.00110116,-0.0002531
 3,-0.00118068,-0.00008248,-0.00003234,0.00007644,-0.26753243,-0.102112
 93,-0.06223136,-0.02123356,-0.00882026,-0.00590033,-0.00489099,0.00180
 365,-0.00148920,0.29957854,0.00107086,-0.00123013,-0.00005957,-0.00006
 439,-0.00010987,-0.00025623,-0.00069006,-0.00072500,-0.00186519,-0.001
 51748,0.00041496,-0.00051967,-0.00000775,0.00012086,0.00004579,-0.0000
 5759,-0.00016951,-0.00004209,-0.00003963,-0.00010937,0.00002817,0.0005
 7784,-0.00095038,-0.00012863,-0.00001856,0.00001247,0.00017879,-0.0022
 9322,-0.00486932,-0.00342778,0.00089325,-0.00010414,0.00044424,-0.1020
 3342,-0.08526270,-0.03048523,0.01192734,0.00598318,0.00382313,0.002087
 65,-0.00126982,-0.00054798,0.11251807,0.09279350,-0.00641037,-0.005143
 27,0.00157558,-0.00048248,-0.00034509,-0.00053865,-0.00116871,-0.00120
 057,-0.00112677,0.00023392,0.00038826,0.00068403,0.00028854,-0.0002362
 9,0.00007701,0.00015716,0.00005609,0.00012110,0.00010305,0.00013636,0.
 00026370,0.00020370,-0.00074534,0.00035937,0.00012281,0.00014045,0.000
 21152,-0.00074124,-0.00020983,0.00148626,0.00015744,0.00038748,-0.0002
 1448,-0.06826313,-0.03139559,-0.04138626,0.00571840,0.00288852,0.00029
 396,0.00158634,-0.00122800,0.00198618,0.06625034,0.03552478,0.04124098
 ,-0.00234414,0.00072221,-0.00037119,0.00022999,0.00013214,0.00002763,0
 .00015800,0.00038124,0.00002436,0.00059331,-0.00074993,-0.00038309,-0.
 00043839,0.00055918,-0.00122043,-0.00001058,-0.00015387,-0.00010420,-0
 .00014031,-0.00005271,0.00000188,0.00014276,-0.00000588,0.00002841,-0.
 00007199,-0.00008012,0.00002323,-0.00314242,-0.00244902,-0.00258221,-0
 .00048140,0.00013834,-0.00008379,-0.00057937,0.02191561,0.00615924,-0.
 04161414,0.02797891,0.00631520,0.00403987,-0.02005592,-0.00476940,0.00
 003485,0.00029295,-0.00007124,0.04696634,-0.00034013,-0.00123386,0.002
 01827,-0.00035374,-0.00028389,0.00000007,-0.00045305,-0.00037297,0.000
 07186,0.00077766,-0.00006422,-0.00037983,0.00008232,0.00044713,0.00035
 757,0.00014690,-0.00006788,0.00018564,-0.00007814,0.00009416,0.0000257
 4,-0.00014942,0.00001639,-0.00012319,0.00014732,0.00010976,-0.00009824
 ,-0.00090395,-0.00302368,-0.00314890,0.00030088,-0.00012854,0.00018686
 ,0.00130201,-0.01196969,-0.00278111,0.02689257,-0.31424125,-0.07477825
 ,0.00207248,-0.01377914,-0.00269298,0.00026908,0.00026373,0.00035304,-
 0.03134384,0.34592585,-0.00031497,-0.00459666,0.00030102,0.00012650,0.
 00013322,0.00006932,0.00008594,0.00076781,0.00004844,0.00014655,0.0002
 9430,0.00037506,-0.00146663,0.00035632,-0.00138444,0.00036485,-0.00001
 790,0.00031839,-0.00003730,0.00019872,0.00035823,-0.00010125,-0.000141
 10,0.00011282,-0.00006374,-0.00007778,0.00004752,-0.00073763,-0.000408
 45,0.00207813,0.00010468,0.00012415,-0.00023231,0.00138929,0.00198103,
 -0.00123100,0.00604921,-0.07529140,-0.04150277,0.00034404,-0.00452191,
 -0.00384707,0.00017647,0.00023472,-0.00117517,-0.00436398,0.08125876,0
 .04420273,-0.00184648,0.00204390,-0.00207003,0.00019839,0.00016655,-0.
 00019345,-0.00015725,-0.00029818,-0.00028628,0.00003132,-0.00090005,-0
 .00010732,0.00004129,-0.00084462,0.00016472,0.00022690,0.00018469,0.00
 013925,0.00013111,-0.00011257,-0.00026542,0.00027015,-0.00015027,0.000
 05998,-0.00007339,-0.00002212,0.00011989,-0.00841653,0.00231793,-0.000
 98239,-0.00028385,0.00020391,-0.00002706,-0.00361451,-0.00088489,-0.00
 065372,-0.01566766,0.00452838,-0.00147369,-0.30318669,0.07365117,-0.04
 780653,-0.00034975,0.00041385,0.00068329,-0.00017432,-0.00041352,0.000
 21552,0.33405402,-0.00051824,-0.00109763,-0.00024812,-0.00025694,-0.00
 019405,0.00002148,0.00092227,-0.00026742,-0.00003535,0.00044039,-0.000
 15783,0.00113710,-0.00043549,-0.00133854,0.00056823,-0.00009511,0.0003
 3239,-0.00010363,0.00009321,-0.00010097,-0.00001025,-0.00019742,-0.000
 08686,0.00001130,0.00008358,0.00010026,-0.00006292,0.02212272,-0.00504
 978,0.00494248,0.00065608,-0.00047629,0.00008361,-0.00193424,-0.002282
 50,-0.00173256,-0.01585636,0.00512424,-0.00073793,0.07414864,-0.055968
 83,0.00622694,-0.00070639,0.00037370,0.00003092,-0.00024920,0.00005931
 ,0.00011144,-0.08082286,0.06386889,0.00435856,-0.00184276,-0.00071056,
 0.00017484,0.00013731,-0.00001296,-0.00036872,0.00002603,-0.00022665,0
 .00134679,0.00085949,-0.00019375,0.00039209,0.00053680,0.00018053,-0.0
 0011802,-0.00010521,-0.00125152,-0.00000965,0.00008373,0.00027367,-0.0
 0006572,-0.00018974,0.00016078,-0.00007457,-0.00007303,0.00006708,0.00
 308871,0.00019901,-0.00155537,0.00022920,0.00002392,-0.00025258,-0.004
 43549,-0.00145336,0.00216709,-0.00984495,0.00571952,-0.00330011,-0.046
 83196,0.00370353,-0.03138044,-0.00074908,0.00017761,0.00059756,0.00034
 346,0.00014583,-0.00108193,0.05335298,-0.00664477,0.03436643,0.0082072
 2,-0.00715717,-0.00952571,0.00925589,0.00526973,0.00628885,0.00687583,
 0.00160795,-0.00566759,0.00003994,-0.00155387,-0.00099566,-0.00006366,
 0.00037060,-0.00031702,0.00014570,0.00020402,-0.00009632,0.00017783,-0
 .00015846,0.00060980,-0.04425110,-0.03711614,0.04213562,-0.00159278,-0
 .00082939,-0.00312618,-0.00097709,-0.00000263,-0.00116148,0.03519799,0
 .00526412,-0.02724529,0.00286078,0.00007339,0.00066315,0.00160355,-0.0
 0181273,-0.00064115,0.00131289,-0.00083627,-0.00045591,0.00006143,-0.0
 0170124,0.00021267,0.00068417,-0.00038325,-0.00023527,0.00014496,-0.00
 029774,-0.00019834,0.00084475,-0.00392415,0.00442442,0.00428628,-0.006
 72967,-0.00375459,-0.00381945,-0.00510014,0.00309912,0.00737182,-0.000
 09869,0.00099341,0.00084915,0.00007345,-0.00006878,0.00015790,-0.00009
 473,0.00004043,0.00007202,-0.00009137,0.00012940,-0.00044462,0.0109297
 8,0.03420960,-0.02743444,0.00141612,0.00057735,0.00159718,-0.00413778,
 0.00757801,0.00039120,-0.01890061,-0.02423144,0.02302577,0.00574694,-0
 .00761021,0.00106554,-0.00041900,-0.00102865,-0.00006610,-0.00287433,0
 .00070219,-0.00029415,-0.00006655,0.00040527,-0.00035680,0.00013091,0.
 00014915,-0.00000381,-0.00049108,0.00080146,0.00022471,0.03936997,0.02
 703021,-0.00403433,0.00228932,0.00488960,0.00219136,0.00175841,0.00029
 042,0.00366304,0.00023476,-0.00553189,0.00008505,0.00002414,0.00012339
 ,0.00003942,-0.00012531,0.00031647,0.00003714,0.00000932,0.00021700,-0
 .00016686,0.00032675,-0.00008588,0.00249858,-0.01059245,0.00950646,-0.
 00073817,-0.00034582,-0.00001563,0.00327394,-0.00156565,-0.00098585,0.
 00502904,0.00689195,-0.01445874,0.00457404,-0.00639871,0.00001893,-0.0
 0022983,-0.00169520,-0.00008884,0.00077409,-0.00005225,0.00070145,0.00
 018027,-0.00009330,-0.00017439,0.00041636,-0.00050757,0.00024791,0.000
 23367,-0.00037514,0.00048031,-0.00548152,-0.00109081,0.03708351,-0.022
 52774,0.02763801,0.00100939,0.00051055,0.00126606,-0.00033819,-0.01079
 920,-0.00613072,0.01326285,-0.00922291,-0.00171455,-0.00221629,0.00026
 287,-0.00110220,0.00041212,0.00027341,0.00011651,0.00012367,-0.0000036
 4,-0.00033481,0.00021616,0.01156226,0.01414935,-0.01325410,-0.00043097
 ,-0.00083532,0.00107695,-0.26971261,-0.00893229,-0.04863903,-0.0412400
 8,0.02177217,0.00624357,-0.07341241,-0.02606714,-0.01408124,-0.0014216
 5,0.01651088,0.00423512,-0.03271452,0.04116770,-0.00337957,-0.00178960
 ,-0.02126585,-0.00251077,-0.00361566,0.00187781,-0.00143477,-0.0019399
 4,0.00405343,-0.00137426,-0.00635629,-0.01724258,-0.01135030,0.4612376
 6,0.04071006,-0.05251692,0.00179553,0.00256998,0.00101377,0.00073300,-
 0.01054515,0.00293727,0.00151218,-0.01752566,0.00155469,-0.00555776,-0
 .00094388,0.00138665,-0.00070741,-0.00044424,0.00054096,-0.00126595,0.
 00005890,-0.00083659,0.00081551,-0.00899560,-0.01352527,0.01355512,0.0
 0002724,0.00049221,-0.00101091,0.01535794,-0.05863777,-0.01009454,0.03
 389122,-0.00797066,-0.00712278,-0.04369644,-0.26517383,-0.08566766,0.0
 3099096,-0.04172880,0.00372835,0.01499984,-0.00418952,0.00117296,-0.00
 116682,-0.00667181,-0.00094865,0.00311245,-0.00217445,0.00075582,0.000
 16027,-0.00312050,-0.00116901,-0.01652482,-0.02417006,0.01097549,-0.03
 167478,0.45381445,-0.02710813,0.03890787,-0.01453305,-0.00720530,-0.00
 529846,-0.00306142,0.02610787,-0.00582941,-0.04040512,-0.01011352,0.00
 251570,-0.00775031,0.00022718,-0.00059652,0.00015747,0.00057942,-0.000
 39596,0.00054407,0.00005554,-0.00010453,0.00052256,0.00429188,0.010220
 82,-0.01029930,0.00238206,0.00147742,0.00027910,-0.06716844,-0.0141634
 8,-0.04392753,-0.02155316,0.00737634,0.01405268,-0.01368679,-0.0492415
 2,-0.05045602,0.02125665,-0.02078333,0.00780125,0.00261601,-0.00749342
 ,0.00042495,-0.00030858,-0.00364079,-0.00371498,0.00130510,-0.00253606
 ,0.00260793,0.00050902,-0.00219182,0.00144178,0.01983966,-0.01561735,-
 0.02462022,0.06430401,0.07953211,0.16712102,0.00073207,-0.00071967,-0.
 00066726,-0.06308446,0.00469731,-0.01548086,-0.00733250,-0.00304802,0.
 00544204,0.00013796,-0.00003723,-0.00022462,0.00003887,0.00000368,-0.0
 0000247,0.00009453,-0.00004557,0.00001056,0.00008880,-0.00021721,-0.00
 000397,0.00682820,0.00048886,-0.00093599,0.00769674,-0.00397169,0.0221
 8372,-0.00039506,0.00018053,-0.00013426,0.00367230,0.00217650,-0.00240
 194,-0.00005065,0.00032170,-0.00038675,0.00005719,0.00022802,-0.000054
 51,-0.00000810,0.00007450,-0.00015003,-0.00004011,0.00033116,0.0002003
 7,0.00003424,-0.00000461,-0.00006200,0.00009425,-0.00003663,-0.0000017
 5,-0.00188390,0.00053822,0.00022660,0.00034362,-0.00078316,0.00073214,
 0.52026701,-0.00026682,-0.00040203,-0.00009133,0.01033979,-0.05993238,
 0.00172121,-0.00127455,0.00014249,-0.00058788,-0.00002633,0.00010656,0
 .00006614,0.00000166,0.00000744,0.00000779,0.00002068,-0.00000387,0.00
 002819,0.00014435,-0.00001161,0.00004776,-0.00774744,-0.01792821,0.010
 32752,-0.00426300,0.01467125,0.00880213,-0.00016605,0.00017473,-0.0001
 2956,-0.00276947,0.00047336,0.00956085,0.00000141,-0.00002413,-0.00005
 124,0.00007083,-0.00000652,-0.00002402,-0.00002422,0.00001045,-0.00010
 807,0.00004392,0.00001843,-0.00007149,-0.00001290,-0.00002315,0.000004
 63,0.00005525,-0.00001695,-0.00000237,-0.00003736,-0.00030934,0.000270
 82,0.00002780,0.00027745,0.00002921,0.01346302,0.39818214,-0.00019258,
 0.00030695,0.00010446,-0.01081626,-0.00802587,-0.06625420,0.00691011,0
 .00069946,-0.00339728,0.00035081,-0.00002864,-0.00019468,-0.00001685,0
 .00002058,0.00002215,0.00000478,0.00001921,-0.00003463,0.00013160,-0.0
 0008124,0.00007421,0.00602555,0.00468871,-0.01403938,0.00743361,0.0035
 7182,-0.05735877,0.00080389,-0.00046007,0.00026780,0.00968906,0.011799
 74,-0.00185103,0.00004610,-0.00023254,0.00010667,-0.00038669,0.0001093
 5,-0.00004894,-0.00002799,0.00026210,0.00010621,0.00000391,-0.00025931
 ,-0.00005246,-0.00006991,0.00008480,-0.00003923,-0.00004719,0.00004440
 ,-0.00003375,-0.00452962,0.00336065,-0.00119201,0.00013884,-0.00109855
 ,0.00267627,-0.03117358,-0.02323440,0.39235286,-0.00243046,0.00382089,
 -0.00087500,-0.27915411,-0.15680509,-0.02304928,-0.01840930,0.00302711
 ,0.03487145,0.00068895,0.00035896,-0.00012963,-0.00006609,0.00000532,0
 .00015730,0.00009812,-0.00003690,-0.00005034,0.00031898,0.00030556,0.0
 0055438,0.00025206,-0.00358293,0.00427358,-0.05247344,-0.04996537,0.02
 867968,0.00374919,-0.00257536,0.00155461,0.00722870,0.00105272,-0.0026
 5489,0.00069962,-0.00341827,0.00043934,-0.00192650,0.00027302,0.000395
 03,-0.00002200,0.00175350,0.00086201,-0.00017397,0.00009927,0.00032390
 ,-0.00020123,0.00027714,-0.00032257,-0.00011921,0.00027209,-0.00033035
 ,-0.00670598,0.00532163,-0.00258504,-0.00004203,-0.00057468,0.00109978
 ,-0.01887739,-0.02761460,-0.02520665,0.37705842,0.00232206,-0.00203696
 ,-0.00089504,-0.16145919,-0.17215806,-0.02369994,-0.00076438,-0.004463
 12,-0.00627804,0.00035269,-0.00023563,-0.00023469,-0.00002823,0.000040
 53,0.00001012,0.00000057,0.00001010,-0.00008778,-0.00007591,-0.0003850
 9,-0.00020954,-0.00135641,-0.00253017,0.00136777,-0.04636582,-0.012487
 03,0.01966264,0.00029531,0.00032103,0.00009169,0.00466207,0.00215286,-
 0.00210145,-0.00113931,0.00022107,0.00053759,0.00024057,0.00046152,0.0
 0007792,-0.00016498,-0.00040462,0.00008906,-0.00006580,-0.00014355,0.0
 0011255,-0.00017134,0.00017817,0.00006894,-0.00024064,0.00000868,0.000
 04893,-0.00310927,0.00183955,-0.00028684,0.00204426,0.00079358,0.00165
 263,-0.02558445,-0.00495608,-0.01506845,0.23209376,0.19259593,0.003017
 14,-0.00135755,-0.00054925,-0.02777972,-0.02413840,-0.08632796,0.00826
 726,-0.01576053,-0.08123609,-0.00035166,-0.00030091,0.00012397,-0.0001
 0468,0.00018160,-0.00006273,-0.00007644,0.00003960,-0.00005407,0.00095
 092,0.00001821,0.00027953,-0.00139451,0.00079525,-0.00153870,0.0440947
 6,0.03133133,0.00497363,-0.00259552,0.00102528,-0.00169376,-0.00139196
 ,0.00045949,0.00122892,-0.00056006,0.00249171,-0.00041596,0.00120317,-
 0.00031504,0.00009137,0.00044882,-0.00130032,-0.00018014,0.00002452,0.
 00009170,-0.00003093,0.00005022,-0.00005859,0.00025660,-0.00003768,-0.
 00031145,0.00022098,0.00258803,-0.00233258,0.00026067,0.00538376,0.000
 45033,0.00189091,-0.02813691,-0.02203438,-0.01242288,-0.00959036,0.028
 17114,0.18096021,-0.05040749,-0.01613953,0.03387126,-0.00031184,0.0009
 3209,-0.00010961,0.00029777,0.00125039,0.00057758,-0.00027596,0.000538
 42,-0.00022828,-0.00531154,-0.00237499,0.00154723,-0.00426139,-0.00002
 569,0.00470491,0.00264606,0.00125649,-0.00024417,-0.00037791,-0.000484
 17,0.00053373,-0.00001970,-0.00028730,0.00011349,-0.00111180,0.0040117
 5,-0.00138442,0.00067450,0.00000747,-0.00033873,0.00567523,-0.00311978
 ,-0.00024975,-0.00052471,-0.00040485,-0.00244983,0.00139984,-0.0029439
 4,0.00175150,-0.00011536,-0.00001583,0.00014052,-0.00005162,-0.0000261
 2,-0.00052834,0.00063530,0.00033247,-0.00098733,-0.00070102,0.00058758
 ,0.00029631,0.00583193,0.00141879,0.00249172,0.00001315,-0.00052447,0.
 00025029,-0.00086148,0.00066096,0.00060750,0.72980554,-0.01299425,-0.0
 2179005,0.03024168,-0.00018868,-0.00045552,0.00041195,0.00669738,-0.00
 637134,0.00322196,0.00030534,0.00060377,-0.00024648,0.00065086,0.00139
 050,-0.00314818,0.00049490,-0.00030883,-0.00183620,-0.01424335,-0.0120
 0472,-0.00231124,0.00057909,0.00119225,-0.00101055,-0.00017910,-0.0003
 3076,-0.00012339,-0.00708108,0.00362429,0.00271469,-0.00185931,0.00043
 125,0.00060157,0.00515267,-0.00092984,0.00224981,0.00183786,-0.0006961
 0,-0.00441417,-0.00207731,-0.00770595,-0.00089452,-0.00021491,-0.00017
 934,0.00019930,0.00018917,0.00023380,-0.00099764,0.00009611,-0.0001602
 6,-0.00021270,0.00229636,-0.00124594,-0.00079832,-0.00104533,0.0082436
 3,-0.00213670,-0.00024638,0.00009258,-0.00025697,0.00090109,-0.0009554
 3,-0.00048777,0.05087729,0.36744115,0.03419007,0.02847031,-0.05151766,
 0.00113467,0.00003855,-0.00093017,0.00138265,0.00095636,-0.00117664,-0
 .00112804,-0.00127292,0.00022667,0.00118664,-0.00052928,-0.00000899,0.
 00086259,-0.00231307,0.00061671,-0.01397714,-0.01054881,-0.00370366,0.
 00068798,0.00017479,0.00006818,-0.00041520,-0.00030188,0.00068175,-0.0
 0213506,-0.00522476,0.00356498,-0.00139802,0.00052540,0.00011966,0.001
 15424,0.00380690,0.00473388,0.00686820,0.00224732,-0.00114258,-0.00110
 986,-0.00433329,-0.00392565,0.00040736,-0.00036181,0.00134114,-0.00009
 651,0.00020295,0.00067514,-0.00049991,-0.00025549,0.00008378,0.0024320
 1,-0.00137881,-0.00062669,-0.00682877,0.00475708,-0.00541879,0.0006835
 6,-0.00008096,-0.00017529,-0.00049565,-0.00017542,0.00068286,-0.181338
 92,0.19875535,0.37727912,-0.01202083,-0.03193205,0.00114169,0.00021860
 ,0.00010322,0.00015570,0.00096435,0.00141147,-0.00096484,-0.00026516,0
 .00043316,-0.00051950,-0.01372882,-0.00265713,0.00098231,-0.00128968,-
 0.00376693,0.00050334,-0.00282241,-0.00233613,0.00015704,0.00011298,0.
 00055121,-0.00035351,-0.00006124,0.00017632,-0.00001297,-0.00598086,0.
 00633856,0.00080337,-0.00104384,0.00034546,0.00024883,0.00477030,0.000
 50551,0.00269326,0.00204551,-0.00444590,0.00008446,-0.00202838,-0.0064
 1009,0.00193953,-0.00021812,0.00008449,0.00059515,0.00037719,0.0003561
 2,-0.00031713,0.00005053,-0.00033557,-0.00022549,0.00146773,-0.0007824
 7,-0.00032896,0.00228278,0.00661303,-0.00095876,-0.00027799,0.00007313
 ,0.00013790,-0.00054427,-0.00017232,0.00024046,-0.10104127,0.03791764,
 0.06679678,0.59559322,-0.02926312,-0.10902987,0.04138214,0.00026038,-0
 .00043661,0.00032951,-0.00006643,-0.00296927,0.00025941,-0.00020297,-0
 .00002797,0.00013060,0.01343490,0.00341114,-0.00010161,-0.00028749,-0.
 00231359,-0.00253509,-0.00249074,-0.00164478,-0.00070086,-0.00007193,0
 .00008397,-0.00009774,-0.00002557,0.00014450,-0.00021319,0.00273771,-0
 .00143408,0.00240045,-0.00042924,0.00038353,0.00007041,-0.00224285,0.0
 0457766,-0.00092515,0.00372131,0.00181554,-0.00093045,0.00204990,-0.00
 145362,-0.00312694,-0.00056692,0.00036839,-0.00067753,0.00058449,-0.00
 031942,-0.00077441,0.00052424,0.00020538,-0.00087916,0.00065220,-0.000
 19979,-0.00034781,-0.00585328,-0.00004861,-0.00353173,0.00007444,-0.00
 018843,-0.00012945,-0.00064991,0.00073464,0.00053990,0.07006990,-0.172
 66337,-0.15183828,0.14113652,0.52850866,-0.00319126,0.02854189,-0.0288
 4262,-0.00014624,-0.00052445,-0.00037242,-0.00135486,-0.00115751,0.001
 55411,0.00069657,0.00065347,-0.00028377,0.01486175,0.00578749,-0.00289
 637,-0.00038470,-0.00425340,-0.00069170,-0.00184971,-0.00360801,0.0003
 5667,-0.00028617,-0.00074991,0.00077385,0.00009653,0.00029004,-0.00008
 150,0.00539172,-0.00115603,-0.00033905,0.00119266,-0.00029388,-0.00058
 277,-0.00271729,0.00205223,0.00073717,0.00097248,0.00175068,0.00154749
 ,0.00137870,0.00696793,-0.00054693,0.00015808,0.00038481,-0.00017815,0
 .00042015,0.00050954,-0.00054569,-0.00028441,-0.00007932,0.00040687,-0
 .00142033,0.00083109,0.00057477,0.00170661,-0.00338159,0.00062753,0.00
 015874,-0.00019779,0.00018642,0.00056783,0.00034887,-0.00059584,0.0692
 5293,-0.11286123,-0.15682035,0.00974293,0.26654435,0.37010798,-0.03670
 377,0.05737884,-0.02184367,0.00028384,0.00024349,0.00017982,-0.0008946
 0,0.00031325,0.00000978,0.00044472,-0.00026905,0.00075073,-0.15203531,
 0.09047703,0.11341453,-0.00453155,-0.02134375,-0.01358752,-0.00346114,
 0.00112724,0.00073341,0.00000931,-0.00002700,0.00007910,-0.00003610,-0
 .00010374,-0.00013683,0.00118517,-0.00488567,0.00342273,0.00025488,-0.
 00037031,-0.00000636,-0.00303224,0.00659336,-0.00026241,0.00449639,0.0
 0477718,0.00166535,0.00182139,-0.00267128,0.00062457,0.00006337,0.0000
 2698,0.00027002,0.00040099,0.00016531,0.00053033,-0.00077823,-0.000981
 58,0.00090985,-0.00042407,0.00032088,0.00010645,-0.00411523,-0.0058075
 8,-0.00163389,0.00025020,0.00003958,-0.00011664,-0.00006384,-0.0002371
 4,-0.00024895,-0.03341127,0.03848470,0.01952537,-0.31355296,-0.0612034
 6,0.02339898,0.63759001,0.04836627,-0.09344175,0.03830731,-0.00014120,
 -0.00013617,-0.00006233,-0.00041154,-0.00016847,0.00146750,0.00115719,
 0.00137000,0.00034101,0.09024111,-0.10754551,-0.09963338,-0.00204906,-
 0.00829564,-0.00403265,0.00128498,-0.00061088,-0.00115283,-0.00024283,
 -0.00022911,0.00014928,0.00002368,0.00003322,0.00000459,0.00652759,-0.
 00454831,0.00133674,0.00035253,-0.00006916,-0.00023544,-0.00247873,0.0
 0117930,-0.00243978,0.00195930,0.00118832,-0.00038569,0.00342309,0.000
 73070,0.00069262,-0.00034521,0.00039019,-0.00095151,-0.00005222,-0.000
 35668,-0.00098525,0.00043162,-0.00000563,0.00026217,-0.00048489,0.0004
 2992,0.00024381,-0.00421066,-0.00385361,-0.00137186,-0.00001447,-0.000
 01226,0.00006584,0.00003228,0.00025504,-0.00028719,0.01018092,0.014112
 41,-0.00247892,-0.01348734,-0.06195354,-0.02285762,-0.07200836,0.48883
 659,-0.01090040,0.02566506,-0.01692008,-0.00006825,0.00008589,-0.00003
 600,0.00283701,-0.00248587,-0.00230051,0.00009955,-0.00040249,-0.00000
 137,0.11411867,-0.10017078,-0.13938449,-0.00108484,0.00014177,-0.00236
 779,0.00319335,-0.00345183,0.00019680,0.00048697,0.00057126,-0.0005344
 5,-0.00007922,-0.00002105,0.00013380,-0.00210651,-0.00086401,0.0006555
 7,-0.00173788,0.00053360,0.00039951,-0.00101198,0.00433825,0.00072091,
 -0.00238952,-0.00029748,-0.00249726,0.00302119,0.00377928,0.00155846,0
 .00018121,-0.00016508,0.00045707,-0.00074592,0.00093874,-0.00234762,0.
 00009957,0.00110593,-0.00077776,0.00247785,-0.00140561,-0.00067736,-0.
 00479300,0.00386639,-0.00411529,0.00011381,0.00005839,-0.00002258,-0.0
 0029977,-0.00009041,0.00053851,0.02084311,-0.01265012,-0.01368378,0.02
 130354,-0.01734263,-0.04752139,-0.11957196,0.25274814,0.37620246,-0.06
 820949,0.01559453,-0.05923688,-0.00074482,-0.00026767,-0.00032629,-0.0
 0211617,0.00078771,-0.00159794,-0.00093907,-0.00096393,-0.00063286,0.0
 0668609,0.01161365,0.01063130,-0.29029574,-0.09719278,-0.01908481,0.00
 035467,0.00126164,-0.00063372,0.00018523,-0.00008490,-0.00004710,0.000
 31497,0.00015407,0.00004503,0.00485172,-0.00262649,0.00113061,0.000088
 94,-0.00023442,0.00024609,0.00060417,0.00443559,0.00101894,0.00108816,
 0.00048491,0.00262027,0.00086771,0.00205413,0.00239058,0.00023581,-0.0
 0018418,0.00049463,-0.00020897,0.00005864,0.00063090,-0.00052103,-0.00
 002991,0.00149881,-0.00004863,0.00003052,0.00003314,-0.00211381,-0.004
 79798,0.00025116,0.00006731,0.00004603,0.00010800,0.00090956,-0.000320
 83,0.00013423,-0.05078310,-0.00684155,-0.00950567,-0.02234961,-0.01983
 485,-0.01259385,-0.09047212,-0.07096907,-0.04288640,0.76746582,0.00743
 830,-0.02046369,0.02353754,-0.00015529,-0.00016900,-0.00002687,0.00159
 670,-0.00070794,0.00114315,-0.00117423,-0.00044063,-0.00006350,-0.0035
 8974,-0.00993553,-0.00594304,-0.10038927,-0.06983175,-0.01711106,0.016
 16714,-0.00792762,-0.00353996,-0.00012833,-0.00005130,0.00005127,0.000
 07289,-0.00008426,-0.00014371,0.00291705,0.00421454,-0.00133138,0.0003
 5792,-0.00008442,-0.00016124,0.00443016,-0.00507751,-0.00104822,-0.003
 67542,-0.00037727,-0.00288007,-0.00182509,0.00380294,-0.00105925,-0.00
 002265,-0.00023076,0.00073254,-0.00019727,0.00000212,-0.00060383,0.000
 53299,0.00007999,0.00066386,-0.00062617,0.00042140,0.00001800,0.004042
 71,0.00217185,0.00324875,-0.00008501,-0.00006739,0.00003999,-0.0000896
 7,0.00027163,0.00010237,-0.00700075,-0.00172460,0.00706667,-0.04369039
 ,-0.00364609,-0.01012483,-0.03507048,-0.20111527,-0.11911209,0.0986201
 3,0.39273590,-0.04701418,0.02841563,-0.06073731,0.00022746,0.00014556,
 -0.00006758,0.00069442,0.00062614,0.00141061,0.00059495,0.00034187,0.0
 0000521,-0.00532299,-0.00959521,-0.01047483,-0.01783781,-0.01593630,-0
 .03021943,0.01485155,-0.00584007,-0.00502055,-0.00020025,-0.00048322,0
 .00043953,-0.00003564,-0.00010827,-0.00001562,0.00261392,0.00141454,0.
 00079162,0.00128130,-0.00050118,-0.00045475,0.00138539,-0.00528904,-0.
 00294617,-0.00826458,0.00085730,-0.00347269,-0.00262056,0.00380539,0.0
 0173982,0.00060266,-0.00000835,-0.00073513,-0.00033625,0.00007347,0.00
 056823,-0.00032202,0.00030565,-0.00046353,-0.00175910,0.00083076,0.000
 79636,0.00292876,-0.00524836,0.00364169,0.00000251,0.00004587,-0.00008
 052,0.00032689,-0.00027168,-0.00058402,0.01810976,0.00739504,0.0185887
 1,-0.01543967,-0.00357561,-0.00445258,-0.02362583,-0.14518762,-0.12877
 580,0.00230765,0.20197817,0.32794627,-0.00282800,0.00165155,-0.0112642
 7,0.00017011,0.00020920,0.00038290,-0.00366327,0.00605417,-0.00197263,
 0.00139291,0.00134589,0.00017628,-0.00072950,-0.00098981,0.00214340,-0
 .01762206,0.00759728,0.01194996,-0.03968788,0.01533362,0.02281311,-0.0
 0080951,-0.00034317,0.00020419,0.00002561,0.00011421,-0.00014843,0.004
 39284,0.00337249,-0.00087991,0.00180413,-0.00079322,-0.00055404,0.0002
 5214,-0.00395027,-0.00688487,-0.01022319,-0.00077044,-0.00085218,-0.00
 034990,0.00467874,0.00610155,0.00000179,0.00012178,-0.00023389,-0.0002
 3942,-0.00019420,0.00012802,-0.00005474,-0.00013844,0.00063041,-0.0030
 4503,0.00150274,0.00098782,0.00532938,-0.00793893,0.00569738,-0.000203
 87,-0.00008669,0.00013471,-0.00057366,-0.00017661,-0.00072826,-0.21259
 628,-0.11497440,-0.02659351,0.00547901,-0.01174561,-0.02282711,0.01052
 408,0.02115169,0.03163591,-0.24737624,0.06626281,0.07627532,0.53046627
 ,-0.00076467,-0.02401444,-0.01283912,-0.00094990,-0.00041752,0.0001366
 0,0.00296355,-0.00231329,0.00317049,0.00047304,-0.00019279,-0.00041824
 ,-0.00195478,-0.00184952,-0.00496413,-0.00756027,0.00248771,0.00847648
 ,0.01610615,-0.16526639,-0.15941883,0.00033973,0.00041884,-0.00039688,
 0.00017435,0.00008512,-0.00011555,0.00008247,0.00310825,0.00012663,-0.
 00039623,-0.00019819,0.00046336,-0.00088096,0.00061381,0.00079120,-0.0
 0026849,0.00176474,-0.00001078,-0.00008228,0.00030939,0.00143747,0.000
 05939,-0.00004509,-0.00012040,-0.00016051,-0.00006424,0.00079887,0.000
 10512,-0.00002367,-0.00018996,0.00051085,-0.00009964,-0.00032242,0.000
 47226,0.00250255,0.00003291,-0.00009199,-0.00002167,0.00013251,0.00148
 382,-0.00000953,-0.00075959,-0.11039287,-0.12532415,-0.04580144,-0.001
 71618,-0.02938362,-0.03655413,0.00374588,-0.02606939,-0.03046630,0.074
 16916,-0.07882191,-0.05220447,0.02467776,0.44997456,-0.00911288,-0.013
 06462,-0.09160432,0.00106071,0.00118756,-0.00026185,0.00015487,0.00276
 418,-0.00172400,-0.00066853,-0.00092660,0.00012223,-0.00092477,-0.0026
 9038,-0.00127481,-0.00289708,0.00245232,0.00086922,0.01961005,-0.15102
 893,-0.18748520,0.00042915,0.00047229,-0.00034797,-0.00039780,-0.00053
 004,0.00058638,-0.00558236,0.00457121,0.00130398,-0.00113008,0.0001333
 2,0.00013215,0.00656148,-0.00569582,0.00439537,-0.00058561,0.00222175,
 -0.00347908,-0.00270603,-0.00405496,-0.00037488,0.00042748,-0.00032895
 ,0.00115465,-0.00007903,0.00038261,0.00074949,-0.00064578,-0.00030952,
 0.00084965,0.00179688,-0.00093415,-0.00045067,0.00314729,0.00964949,0.
 00014099,0.00016015,0.00013494,-0.00022228,-0.00091434,-0.00062145,0.0
 0021531,-0.07057931,-0.07820308,-0.07732339,-0.01355438,-0.01379935,-0
 .00989747,0.01458729,-0.01388994,-0.01829748,0.12492826,-0.07181828,-0
 .10653059,-0.07220987,0.33194826,0.48775538,0.00144801,0.00014008,-0.0
 0204016,0.00143762,0.00207836,-0.00032538,0.00009930,-0.00239633,0.001
 87813,0.00001067,0.00029010,-0.00001866,-0.00013036,-0.00046503,0.0001
 3793,-0.00040756,0.00015151,0.00074945,0.00020619,0.00008610,-0.000491
 36,0.00009274,0.00019646,-0.00022431,-0.00109964,-0.00083096,0.0007314
 1,0.00016570,-0.00008044,-0.00004999,-0.00061949,-0.00003311,0.0001450
 8,-0.00015017,0.00007268,-0.00016911,0.00019093,0.00001617,-0.00016855
 ,0.00004872,0.00022758,-0.00033696,-0.00006887,0.00005158,-0.00028100,
 0.00003096,-0.00005584,-0.00029124,0.00020739,0.00007440,-0.00024777,0
 .00051798,-0.00012771,-0.00013059,-0.00034276,0.00030939,-0.00021820,-
 0.00028308,0.00022864,-0.00045063,-0.00088494,0.00095250,-0.00015206,-
 0.28470182,0.01280056,0.11139395,-0.00682088,0.00146272,0.00260753,-0.
 00153654,0.00001566,0.00184421,-0.00360540,-0.00235547,0.00062657,-0.0
 1755523,0.00151190,0.00643113,0.31962960,-0.00416963,0.00124405,-0.001
 89146,0.00296875,-0.00064658,0.00034147,-0.00159281,-0.00272618,0.0023
 2577,-0.00001081,0.00012201,0.00007815,0.00107375,0.00032467,-0.000431
 90,-0.00050381,0.00049038,0.00004760,-0.00013267,-0.00030187,0.0004687
 3,-0.00025056,-0.00045255,0.00051871,-0.00009666,0.00008362,-0.0003551
 3,-0.00000475,0.00025322,-0.00036746,0.00047638,0.00018483,-0.00036757
 ,0.00056759,-0.00039763,-0.00037919,-0.00019828,-0.00015193,0.00001696
 ,0.00013897,-0.00041684,0.00074811,-0.00004294,0.00005183,0.00000036,0
 .00011297,0.00002970,0.00005394,-0.00006327,-0.00005874,-0.00011876,-0
 .00044102,0.00017172,0.00024539,0.00072300,0.00011826,0.00001147,0.000
 28283,0.00000579,0.00016889,-0.00067298,-0.00117855,-0.00093620,0.0070
 0408,-0.03157385,-0.01130030,0.01979437,-0.00175324,-0.00604518,0.0022
 7275,-0.00155204,-0.00447245,-0.00174393,-0.00060454,-0.00130420,-0.01
 092015,0.00133688,0.00539853,-0.01376218,0.03593672,0.00414336,-0.0018
 4304,0.00280064,0.00006519,0.00007318,0.00221161,0.00154253,0.00328763
 ,-0.00131558,-0.00005173,-0.00018195,0.00007059,0.00037980,0.00011577,
 0.00040394,-0.00081260,-0.00009997,0.00046338,-0.00011998,0.00081041,-
 0.00042365,0.00014309,0.00071418,-0.00061931,0.00002172,0.00018643,-0.
 00090369,-0.00008696,-0.00058637,0.00041795,-0.00058120,-0.00019459,0.
 00041654,-0.00035250,0.00033576,0.00088385,0.00021222,0.00010310,0.000
 37222,-0.00040117,0.00008275,-0.00080076,0.00016901,-0.00003172,-0.000
 13511,-0.00008895,0.00010413,0.00025277,-0.00011552,-0.00016343,0.0001
 5261,0.00061530,-0.00037668,-0.00012116,-0.00101800,-0.00010892,-0.000
 18562,-0.00048682,0.00029530,-0.00029683,-0.00008076,-0.00041634,-0.00
 023271,0.11822406,-0.01599990,-0.07862680,0.01087848,0.00127364,-0.003
 87962,0.00094620,-0.00205242,-0.00064461,-0.00253849,-0.00228698,0.000
 44861,-0.01116845,0.00217956,0.00388885,-0.11526105,0.01627456,0.08277
 357,0.00388768,-0.00215835,0.00067938,0.00871603,0.00635732,0.00691509
 ,-0.06387076,-0.02075506,-0.02295591,0.00032144,-0.00021970,-0.0002383
 4,0.00002068,-0.00001470,0.00001688,0.00008420,-0.00012595,0.00001184,
 -0.00012721,0.00007647,0.00027525,-0.11324693,0.07296283,-0.06844607,0
 .00127652,-0.00041365,-0.00285964,-0.00013005,0.00027515,0.00015278,0.
 00761608,-0.03261534,0.02894311,-0.00186424,0.00216884,0.00072205,0.00
 058778,-0.00008862,-0.00021852,0.00013252,-0.00020312,-0.00023376,-0.0
 0025684,0.00012061,-0.00018774,0.00010010,-0.00004649,-0.00019906,0.00
 001633,-0.00006537,-0.00011283,-0.00558875,0.00190532,0.00198589,-0.00
 146853,-0.00254382,0.00473870,-0.12566111,-0.05038202,0.04842168,-0.00
 418268,-0.00309086,0.00125925,-0.00054188,0.00060634,0.00006461,0.0001
 8152,-0.00031462,0.00001186,0.00017007,0.00000415,0.00013738,0.0002575
 9,-0.00019880,-0.00038226,-0.00022185,0.00045257,0.00031034,0.00014223
 ,-0.00004954,0.00028767,0.34502002,-0.00118941,0.00175519,0.00274323,-
 0.00240468,-0.00093636,0.00816998,0.00142206,-0.01565856,-0.00162280,-
 0.00039336,-0.00050815,-0.00015990,0.00002715,0.00000423,-0.00000034,0
 .00012595,0.00012266,-0.00000780,-0.00009939,0.00020739,0.00015843,0.0
 8562295,-0.24639787,0.20431426,-0.00031801,0.00021058,0.00145803,0.000
 19598,-0.00081981,0.00054660,-0.02414403,-0.03407812,0.04251963,0.0008
 5133,-0.00120166,-0.00084476,-0.00062182,0.00012744,0.00025288,0.00006
 666,0.00017186,0.00015125,0.00046070,0.00052056,0.00024103,0.00001576,
 0.00011455,0.00006615,0.00005256,0.00005574,0.00011476,0.01291273,-0.0
 1218994,0.00156193,-0.00575567,0.00644830,-0.00309950,-0.06055921,-0.1
 0758791,0.06393823,-0.00320100,0.00096968,-0.00088171,0.00081483,-0.00
 145715,-0.00056396,-0.00046843,0.00029119,0.00051015,-0.00000209,0.000
 21304,-0.00029975,0.00011507,0.00004680,0.00009060,0.00060547,-0.00023
 489,-0.00079923,-0.00010861,-0.00001518,-0.00044863,0.01786299,0.46608
 665,0.00164590,0.00068432,-0.00166808,0.01444320,0.02127540,-0.0282897
 3,-0.01216529,-0.00955601,-0.03328806,-0.00082543,-0.00083770,0.000105
 07,-0.00002080,-0.00000515,0.00006293,0.00003287,-0.00006953,0.0000975
 1,-0.00000110,-0.00011979,0.00002000,-0.07785759,0.20584064,-0.2263128
 7,-0.00051530,-0.00213130,-0.01279756,0.00001885,-0.00020525,0.0001465
 7,0.02111101,0.03961994,-0.03496040,-0.00035715,0.00022368,0.00015838,
 -0.00020136,0.00046059,0.00012445,0.00019643,-0.00008865,-0.00000839,0
 .00034707,0.00010080,0.00009941,-0.00001077,0.00011740,-0.00006430,0.0
 0011719,-0.00003468,-0.00000467,-0.01372987,0.00963605,-0.00456192,0.0
 0647890,-0.00478650,0.00397986,0.05732930,0.06171360,-0.11245719,0.000
 47512,0.00206126,-0.00209285,-0.00058829,0.00096019,0.00020275,0.00013
 946,0.00013423,-0.00043939,-0.00005556,-0.00025556,0.00035242,0.000229
 24,0.00000452,-0.00022702,-0.00090785,0.00026790,0.00000886,0.00010134
 ,-0.00002356,-0.00018192,0.01182576,-0.35912019,0.45071927,0.00037973,
 -0.00001410,-0.00004248,-0.01389260,0.00117157,-0.00286887,-0.00158951
 ,-0.00073009,0.00217344,0.00012154,0.00000312,-0.00010159,0.00001297,-
 0.00000778,0.00001419,0.00000907,-0.00001592,0.00000799,0.00004315,-0.
 00000304,0.00009863,-0.00100482,0.00081288,-0.00093517,0.00251840,-0.0
 0000704,0.00091543,0.00013001,0.00001912,-0.00004260,0.00104318,-0.000
 12406,-0.00015360,-0.00013637,0.00008996,0.00002485,0.00008160,-0.0000
 1031,-0.00002674,0.00006360,-0.00005836,-0.00003695,-0.00012368,-0.000
 03899,-0.00003465,-0.00000009,-0.00000354,-0.00002915,0.00000590,0.000
 00048,-0.00001445,-0.00032042,0.00034252,-0.00014491,0.00014777,-0.000
 24755,0.00007660,-0.24477117,0.04085924,-0.01592226,0.00033566,-0.0012
 4709,-0.00185125,-0.00014953,-0.00000727,-0.00001353,-0.00000027,-0.00
 003213,-0.00004079,0.00006188,-0.00004593,0.00000156,0.00010394,-0.000
 02585,-0.00005757,0.00003150,0.00009478,0.00001156,-0.00012724,-0.0000
 9316,0.00008175,-0.02753334,-0.00616729,0.00660877,0.29233403,0.000099
 63,0.00016371,0.00009143,-0.00376349,0.00227084,-0.00311599,-0.0013289
 0,-0.00063400,0.00129885,0.00004029,-0.00002074,-0.00002356,-0.0000174
 7,0.00000542,0.00000090,0.00001191,0.00000758,-0.00000174,0.00000428,-
 0.00002451,0.00000866,-0.00067560,0.00108983,-0.00082559,-0.00057882,-
 0.00075407,0.00057914,0.00006452,-0.00004144,0.00002451,0.00063075,0.0
 0010222,-0.00037803,0.00004460,0.00001975,-0.00014492,-0.00007526,-0.0
 0000701,-0.00000125,0.00000334,-0.00001796,0.00000567,0.00005448,-0.00
 004547,0.00007609,-0.00002277,0.00002338,0.00002384,-0.00000348,0.0000
 0366,0.00000557,-0.00006822,-0.00007649,0.00003462,-0.00001337,0.00005
 080,-0.00003048,0.03767779,-0.04588451,0.00518482,0.00032227,-0.000404
 45,-0.00038912,0.00017186,-0.00008114,0.00006939,0.00011050,-0.0000117
 0,0.00006239,-0.00007954,0.00002070,0.00001618,0.00000103,0.00000464,-
 0.00004086,-0.00002120,0.00000032,-0.00005132,0.00004094,-0.00003213,-
 0.00012645,-0.02057117,0.00182446,0.00079636,-0.04104594,0.05725126,-0
 .00011336,0.00010913,0.00000926,-0.02247058,0.00632490,-0.00074647,-0.
 00070463,-0.00014594,-0.00148986,-0.00004484,0.00004862,0.00004905,-0.
 00000993,0.00000050,-0.00000258,0.00000419,0.00000322,0.00000064,0.000
 06947,0.00003008,0.00002933,0.00093993,-0.00122161,0.00129800,0.001154
 83,-0.00143887,0.00075798,-0.00000311,-0.00003727,-0.00005896,-0.00074
 964,0.00002892,0.00001545,0.00007066,-0.00006807,-0.00004682,0.0000240
 0,-0.00002856,0.00000232,-0.00001690,0.00004414,0.00002389,0.00002594,
 0.00000108,-0.00002204,-0.00000585,-0.00001578,0.00001055,0.00000606,-
 0.00000682,-0.00000029,0.00028130,-0.00007931,-0.00002472,0.00006499,0
 .00006971,-0.00012796,-0.01812025,0.00688959,-0.04270301,-0.00330983,-
 0.00489160,-0.00477765,-0.00000651,0.00007436,0.00007232,0.00000651,-0
 .00009067,-0.00004192,0.00001970,-0.00003236,0.00000516,0.00006400,-0.
 00001714,0.00003827,0.00000081,0.00000738,0.00004439,0.00002931,-0.000
 18827,0.00003890,0.02137633,0.00122835,-0.00049756,0.01266447,-0.00289
 276,0.04817521,0.00189865,0.00283153,0.00047864,0.00006979,0.00015253,
 -0.00012284,-0.00199858,0.00053404,0.00015245,-0.14669604,0.09237738,-
 0.06890038,-0.00005493,0.00022515,-0.00003381,0.00101318,0.00000374,-0
 .00009416,-0.00020225,-0.00006073,0.00023529,0.00028335,0.00000087,0.0
 0009290,0.00000766,-0.00005215,0.00003843,-0.01677388,0.00278341,-0.01
 480027,0.00013049,-0.00029250,-0.00003815,-0.00072983,-0.00031617,0.00
 035394,-0.00043337,0.00009711,0.00029990,0.00098145,0.00080088,0.00138
 036,0.00019224,-0.00018617,0.00032187,0.00006569,0.00015723,0.00020172
 ,0.00033820,-0.00019864,-0.00000119,-0.00040431,0.00015974,0.00013579,
 0.00005329,-0.00175761,-0.00190908,0.00009532,0.00005048,-0.00001149,0
 .00011759,-0.00024151,-0.00023940,-0.00001046,-0.00005516,-0.00022520,
 0.00005788,0.00041305,-0.00004941,-0.00032454,-0.00001687,-0.00034420,
 0.00051336,0.00037089,-0.00071984,-0.00097222,-0.00001921,-0.00034328,
 0.00013371,0.00007580,-0.00012813,-0.00007596,-0.00019005,-0.00016911,
 0.00002027,-0.00000455,0.00001868,0.17585491,0.00402736,0.00194662,0.0
 0005355,0.00008701,0.00003987,0.00000142,0.00068789,-0.00003326,-0.000
 23323,0.09379757,-0.11734102,0.06392164,-0.00024557,0.00015218,-0.0002
 1630,0.00105150,-0.00223815,0.00179357,0.00003213,0.00001286,-0.000266
 07,-0.00010039,-0.00023330,0.00017580,0.00000468,0.00000834,0.00001416
 ,-0.01365266,0.00501347,-0.00964658,0.00011326,0.00010875,-0.00010065,
 -0.00032435,-0.00063768,0.00055020,-0.00005415,0.00015935,0.00047251,-
 0.00292478,-0.00032832,-0.00122325,0.00017235,-0.00027330,0.00028371,-
 0.00003688,0.00012999,0.00042723,0.00012255,-0.00056352,-0.00065257,0.
 00004363,-0.00006091,0.00015810,0.00042674,-0.00152411,-0.00117608,-0.
 00000719,0.00002073,-0.00004975,0.00007719,-0.00014474,0.00003460,0.00
 036993,0.00020278,-0.00092288,-0.00016819,0.00056287,0.00003660,-0.000
 05735,0.00058330,-0.00060978,-0.00248709,-0.00263586,0.00038339,-0.000
 19998,0.00011895,-0.00024264,0.00027674,0.00004696,-0.00012938,-0.0000
 2873,0.00005353,-0.00000941,-0.00000916,-0.00000176,0.00000680,-0.1101
 1134,0.14221908,0.00185560,0.00156551,-0.00168340,0.00014489,0.0001031
 7,-0.00002240,0.00014568,-0.00028317,-0.00004574,-0.07305377,0.0657222
 8,-0.08871530,-0.00003086,-0.00013580,-0.00004707,-0.00052290,0.001651
 27,0.00016611,0.00023378,-0.00001898,-0.00022964,0.00009776,-0.0000311
 7,-0.00004595,-0.00003336,-0.00002881,0.00002403,-0.02170433,0.0063961
 0,-0.01472113,-0.00004027,0.00001273,-0.00004079,-0.00118836,-0.000503
 11,0.00008314,-0.00041121,-0.00024271,-0.00012658,-0.00080344,0.000479
 33,-0.00026230,0.00014004,-0.00034898,0.00016350,-0.00006642,0.0000375
 0,0.00007945,0.00077186,-0.00114345,-0.00044945,-0.00012013,-0.0000383
 7,0.00016048,-0.00026364,-0.00203371,-0.00211713,0.00003891,0.00001386
 ,-0.00002583,-0.00020662,-0.00008471,-0.00000390,0.00015343,0.00006153
 ,0.00028721,0.00008897,-0.00015904,-0.00017150,-0.00046039,-0.00014193
 ,0.00014093,0.00070295,0.00154002,-0.00031061,0.00010600,0.00025739,-0
 .00022382,-0.00002155,-0.00003288,0.00006039,-0.00001057,0.00010327,0.
 00019594,-0.00000077,-0.00000412,0.00000301,0.08268158,-0.06644623,0.1
 1367107,-0.00051579,-0.00033269,-0.00000360,0.00021878,0.00008395,-0.0
 0012695,-0.00073513,-0.00027425,0.00181660,-0.07737369,-0.07212937,0.0
 3178374,0.00000895,0.00003692,-0.00002612,0.00016012,-0.00012731,0.000
 06978,-0.00002161,-0.00002792,0.00000810,-0.00012674,-0.00043299,0.000
 38213,-0.00005399,-0.00003723,0.00002800,-0.00465359,-0.01423632,0.002
 36362,0.00025128,0.00033366,-0.00020212,0.00000989,-0.00010357,-0.0002
 2685,-0.00008948,-0.00034172,-0.00012968,-0.00040417,-0.00041965,0.000
 38559,0.00007745,-0.00002230,0.00007917,-0.00008941,0.00005638,-0.0000
 0659,0.00004676,-0.00004598,0.00003430,-0.00019900,-0.00027517,0.00006
 748,-0.00044860,-0.00006548,-0.00021128,0.00009495,0.00004878,-0.00006
 170,-0.00003728,0.00000530,-0.00022015,0.00011350,-0.00008994,-0.00009
 205,0.00011725,0.00005392,0.00013183,-0.00013955,-0.00008951,-0.000090
 05,0.00004815,0.00046589,-0.00031176,-0.00017315,0.00025969,-0.0001117
 8,0.00007455,0.00007115,-0.00006861,-0.00026312,0.00002590,-0.00042175
 ,-0.00001329,0.00000140,-0.00000249,0.00789535,0.01584990,-0.00839604,
 0.09683188,-0.00138229,-0.00124839,-0.00166838,0.00037082,0.00013847,-
 0.00011311,-0.00033389,-0.00058115,0.00023363,-0.06932954,-0.17979742,
 0.07071040,-0.00007010,0.00014185,-0.00000238,-0.00020623,-0.00002965,
 -0.00002088,0.00002264,-0.00015232,-0.00009202,0.00002398,-0.00029826,
 0.00021778,-0.00011355,-0.00003160,0.00006747,-0.01004862,-0.01766076,
 0.00050762,-0.00004603,0.00021526,-0.00010278,0.00014021,-0.00063673,-
 0.00016181,-0.00026679,-0.00037342,-0.00020862,-0.00076839,-0.00050075
 ,-0.00038019,0.00015942,0.00003100,0.00000757,-0.00003354,0.00013084,0
 .00005869,-0.00004267,-0.00029232,0.00026257,0.00018511,-0.00018092,0.
 00003592,0.00015266,0.00015764,0.00079711,0.00010348,0.00003628,-0.000
 06333,-0.00025118,-0.00008522,-0.00008429,0.00013530,-0.00018839,-0.00
 045906,0.00004635,-0.00011565,0.00060014,-0.00020168,0.00031203,-0.000
 09474,-0.00043245,-0.00019066,0.00017258,0.00047992,0.00047459,-0.0003
 4047,0.00011427,0.00005365,-0.00005715,-0.00004050,0.00018025,0.000092
 21,-0.00002208,0.00000749,-0.00000339,-0.00561815,-0.01749075,0.010191
 08,0.08491421,0.21026880,-0.00158573,-0.00210878,-0.00108503,-0.000089
 95,-0.00005001,0.00011238,0.00014126,-0.00044831,-0.00109302,0.0330674
 0,0.06852477,-0.07343824,0.00000055,-0.00001510,-0.00000174,0.00013389
 ,-0.00000789,0.00003855,-0.00001061,0.00002287,0.00006822,0.00005358,0
 .00014707,-0.00017189,0.00005040,0.00004205,-0.00004269,-0.00765891,-0
 .01526305,0.00772653,-0.00026593,0.00013383,0.00004483,-0.00008390,-0.
 00014048,-0.00018429,-0.00008531,-0.00029166,-0.00018941,-0.00037733,-
 0.00030005,-0.00038297,0.00001605,-0.00009751,-0.00003095,-0.00007917,
 -0.00002974,-0.00003020,0.00006721,-0.00000478,0.00009726,0.00032483,-
 0.00027053,-0.00000141,-0.00062882,-0.00039592,0.00006542,-0.00002282,
 -0.00004233,0.00003753,-0.00015491,0.00000570,0.00016753,-0.00010552,0
 .00004837,-0.00003027,0.00012582,-0.00033649,0.00011402,-0.00012259,-0
 .00013915,-0.00010177,0.00018870,0.00053918,0.00017418,0.00022566,0.00
 018227,0.00008981,-0.00002778,-0.00003411,0.00003337,0.00012767,0.0000
 9752,0.00033193,0.00001948,0.00001111,-0.00000833,0.00444897,0.0148336
 9,-0.00605380,-0.04737334,-0.07913082,0.09028942,-0.00051624,0.0011853
 1,0.00006978,0.00011988,0.00000790,0.00012307,-0.00013557,0.00026120,0
 .00005169,-0.00006377,0.00023506,0.00003390,-0.00027066,0.00018518,-0.
 00009741,-0.00003002,-0.00134198,-0.00031953,0.00041465,0.00028460,0.0
 0035492,0.00000959,0.00009741,-0.00008209,-0.00001219,-0.00004321,-0.0
 0007599,-0.00009110,0.00039650,-0.00016787,-0.00014289,-0.00006521,0.0
 0005224,0.00024720,-0.00006816,-0.00024668,-0.00002796,-0.00060529,-0.
 00036837,-0.00003433,-0.00008083,-0.00027796,0.00003097,0.00009988,-0.
 00028247,-0.00031601,-0.00008205,0.00072494,0.00016906,-0.00003411,-0.
 00024251,0.00015822,0.00012059,-0.00000369,-0.00019862,0.00039585,-0.0
 0006119,0.00003865,0.00002010,-0.00003005,-0.00009232,-0.00002299,0.00
 001348,0.00703121,0.00633764,0.00444499,-0.12464487,-0.10266828,-0.086
 02221,-0.01294443,-0.01760168,-0.01441208,-0.00505840,-0.00276526,0.00
 052146,-0.00136411,0.00125172,0.00157610,0.00023291,-0.00000248,-0.000
 05562,-0.00002572,-0.00001131,0.00004127,-0.00001465,-0.00002814,-0.00
 001398,0.00009567,0.00026852,0.00001829,0.00001424,0.00005209,0.000008
 01,0.13908916,-0.00219645,-0.00304849,-0.00470271,-0.00039411,-0.00033
 663,-0.00029867,-0.00086876,-0.00026610,0.00003601,0.00031774,0.000563
 51,-0.00004838,-0.00000977,-0.00058568,0.00074417,0.00049649,0.0003270
 8,0.00001667,-0.00072895,-0.00012088,0.00010554,-0.00010946,-0.0002820
 8,0.00012204,0.00010902,0.00013945,0.00008747,0.00047379,0.00052807,0.
 00048920,0.00019273,0.00018208,-0.00012052,-0.00049488,0.00020412,-0.0
 0066936,0.00007573,-0.00042302,-0.00058001,0.00060066,0.00027721,-0.00
 061818,0.00013166,-0.00029671,0.00029594,-0.00037809,0.00005475,0.0001
 6302,0.00044160,0.00017341,-0.00026000,-0.00010843,0.00015574,-0.00011
 037,-0.00049755,0.00082264,-0.00100706,-0.00012838,-0.00004065,0.00013
 504,0.00014534,0.00023176,0.00021369,-0.00772412,-0.01121689,-0.006237
 31,-0.10412840,-0.15277129,-0.11231265,-0.00107706,-0.00106110,0.00147
 388,0.00039239,0.00124044,-0.00060811,0.00062681,-0.00084085,-0.002330
 19,0.00009211,-0.00052465,0.00035009,-0.00030780,0.00027324,0.00007115
 ,-0.00004951,0.00011432,-0.00001213,0.00020891,0.00036118,-0.00000252,
 0.00005917,0.00007087,0.00001803,0.11300843,0.16654191,0.00190355,0.00
 230716,0.00125924,-0.00032476,-0.00028831,-0.00016957,0.00011388,-0.00
 081372,-0.00004709,-0.00020788,-0.00026951,-0.00004123,-0.00015941,0.0
 0072004,-0.00020637,0.00004856,-0.00040418,0.00035078,-0.00062360,-0.0
 0093076,0.00023989,-0.00003372,-0.00009610,0.00008657,0.00014505,0.000
 16629,-0.00004194,-0.00030327,-0.00031803,-0.00060607,0.00024600,-0.00
 005285,-0.00015582,0.00034741,-0.00016842,-0.00006370,-0.00013282,0.00
 076397,-0.00007923,-0.00027300,0.00005286,0.00054474,-0.00013997,0.000
 27645,-0.00012606,0.00059050,0.00016541,-0.00041925,-0.00018312,-0.000
 00345,0.00004567,-0.00025307,0.00017082,0.00015971,0.00060625,-0.00047
 732,0.00065978,0.00002077,0.00001978,0.00007104,0.00023468,0.00012017,
 -0.00000606,-0.01138373,-0.00885223,-0.00937760,-0.08563346,-0.1120306
 5,-0.11819844,0.00099456,0.00260129,-0.00035855,0.00021294,-0.00294353
 ,-0.00005920,-0.00039673,-0.00577618,-0.00136569,-0.00009818,0.0006478
 0,-0.00061268,0.00000120,0.00013329,0.00002884,-0.00000036,0.00004771,
 -0.00001517,-0.00001048,-0.00010706,-0.00012052,-0.00003068,-0.0000627
 7,-0.00002813,0.09444190,0.12542369,0.12814270,0.00091357,-0.00024378,
 0.00204353,-0.00018521,-0.00025207,-0.00242295,-0.02970947,0.00583060,
 -0.01923208,-0.12207902,0.00900146,0.04221842,-0.00002879,-0.00005882,
 -0.00001094,-0.00004312,-0.00002118,-0.00008430,-0.00009424,-0.0007733
 0,-0.00022573,-0.00263578,-0.00372201,0.00367105,-0.00003922,-0.000175
 48,0.00056045,0.01067711,-0.00037754,-0.00304308,0.00403459,0.00098053
 ,-0.00248474,0.00080305,0.00030151,0.00023946,-0.00053311,-0.00037076,
 -0.00005127,-0.00038593,-0.00141242,-0.00035562,0.00010316,0.00030362,
 0.00037898,-0.00002823,0.00001732,-0.00003342,0.00010005,-0.00022477,-
 0.00001040,-0.00334365,0.00187489,-0.00050435,0.00114029,0.00041335,-0
 .00193749,-0.00213944,0.00074106,-0.00116747,-0.00080414,0.00192763,0.
 00502036,0.00062909,-0.00094554,-0.00024103,-0.00037871,0.00029925,0.0
 0041096,0.00020483,-0.00005845,-0.00030708,-0.00024005,0.00027614,0.00
 014219,0.00148604,-0.00196421,0.00040427,0.00014680,0.00017771,-0.0002
 8568,0.00158175,-0.01054290,0.00176059,-0.00070948,-0.00056266,0.00072
 799,-0.01974670,0.00969492,0.01332673,-0.02072502,-0.00081283,0.020478
 38,0.00001260,0.00026802,0.00006428,0.38361958,0.00083011,0.00374126,0
 .00287539,0.00067281,0.00024625,-0.00103604,-0.01455026,-0.01073115,-0
 .01405483,0.03059095,-0.06899233,-0.01898054,-0.00012671,0.00042422,-0
 .00017330,-0.00002096,0.00006317,-0.00026440,-0.00001777,-0.00114029,0
 .00035947,-0.00204493,-0.00185326,0.00150019,-0.00033592,-0.00016351,0
 .00037811,0.00909490,-0.01044616,-0.01778165,0.00134900,0.00108928,-0.
 00032497,0.00084081,-0.00051004,0.00120258,-0.00060519,-0.00080089,0.0
 0021569,-0.00191895,-0.00040054,-0.00143968,0.00025529,0.00009270,0.00
 038747,-0.00022309,-0.00002113,0.00045428,-0.00027039,0.00007620,0.000
 28967,-0.00022176,-0.00009501,-0.00030224,0.00026948,0.00125748,-0.000
 69380,-0.00094702,0.00035980,-0.00046327,-0.00093219,0.00031412,0.0030
 5094,0.00091916,-0.00020738,-0.00011452,-0.00012744,0.00091440,-0.0002
 0899,0.00000424,0.00058657,-0.00042752,-0.00067898,0.00001624,0.000149
 71,0.00101770,-0.00486140,0.00062257,0.00015187,0.00019740,-0.00034713
 ,0.00477906,0.00146107,0.00351008,-0.00021879,-0.00018831,0.00031122,0
 .01703046,-0.00840125,-0.01107083,-0.01276560,0.00460703,0.01393772,0.
 00006935,0.00039632,-0.00016098,-0.07217833,0.39490613,0.00038801,0.00
 248873,-0.00109857,0.00130822,0.00102988,-0.00040538,-0.00181206,-0.00
 178551,-0.02797095,0.05966272,-0.00508805,-0.11986386,-0.00006642,0.00
 016406,-0.00009872,0.00000365,0.00000410,-0.00011251,-0.00026623,0.000
 60196,-0.00072805,0.00045867,-0.00021552,0.00074562,-0.00024268,-0.000
 28915,0.00006962,0.01313069,-0.01895228,-0.02443534,0.00059128,0.00035
 034,-0.00024604,0.00027245,-0.00087802,0.00026871,-0.00071413,-0.00143
 386,0.00023249,-0.00170420,0.00057678,-0.00224991,0.00007610,0.0000531
 4,0.00022713,-0.00031583,-0.00015564,0.00031143,-0.00010137,-0.0000654
 9,0.00011762,-0.00121531,0.00081660,-0.00050435,-0.00015203,-0.0000549
 0,0.00095626,-0.00161610,0.00032347,-0.00121225,-0.00108061,0.00091337
 ,0.00506413,0.00018536,-0.00010255,0.00000941,0.00001341,-0.00006544,-
 0.00002301,-0.00010387,0.00008252,-0.00014728,-0.00026121,0.00034233,-
 0.00040398,0.00009063,0.00038292,-0.00003660,0.00010770,0.00009252,-0.
 00013423,-0.00450833,-0.00420976,0.00672076,-0.00022516,-0.00028626,0.
 00049199,-0.00447237,0.00080668,0.00508398,0.01976816,0.00091376,-0.01
 729764,0.00005830,0.00016204,-0.00008835,0.02875838,0.01958864,0.49295
 263,0.00008732,0.00003570,0.00004184,-0.00015022,-0.00029338,-0.000051
 87,-0.00319153,-0.00930544,0.00069165,-0.01651964,0.02098143,-0.000324
 76,-0.00001695,-0.00001163,-0.00000276,-0.00006358,0.00006435,-0.00001
 174,0.00009857,-0.00002013,0.00001375,-0.00022663,-0.00019048,-0.00005
 906,0.00000340,0.00009652,0.00005965,-0.00006661,-0.00021426,-0.000167
 72,0.00014364,-0.00002208,-0.00003742,0.00004382,-0.00022567,0.0001804
 7,-0.00014422,0.00000833,0.00006495,0.00024654,0.00035937,0.00059375,0
 .00004761,0.00001977,0.00004746,-0.00001077,0.00004168,0.00000503,-0.0
 0003385,0.00002183,-0.00000541,-0.00014203,-0.00073318,-0.00042316,-0.
 00023946,0.00047658,-0.00079446,0.00013527,0.00008298,0.00007730,-0.00
 052484,-0.00006834,0.00026342,0.00001601,-0.00002791,-0.00012767,-0.00
 010163,0.00007982,-0.00003498,-0.00003471,0.00007875,-0.00003994,-0.00
 010668,0.00025291,0.00003912,0.00016707,-0.00014236,-0.00012289,0.0000
 4254,-0.00005227,-0.00003849,-0.00029860,0.00002789,-0.00060777,0.0000
 1663,-0.00003305,-0.00000413,-0.00351966,0.00296468,0.00247585,0.00070
 812,0.00325508,-0.00099970,-0.00000276,0.00008907,-0.00001451,-0.07375
 352,0.02898815,-0.00579211,0.49182693,0.00020517,-0.00024849,0.0001308
 0,-0.00066799,-0.00010246,0.00095979,-0.00204493,-0.00746186,-0.000844
 93,0.00765809,-0.01321275,0.00002352,-0.00001705,0.00000777,0.00007560
 ,-0.00007990,-0.00006223,-0.00004050,-0.00001219,-0.00019310,0.0003643
 5,0.00051561,0.00160622,-0.00137010,0.00007679,0.00002902,-0.00026831,
 -0.00046468,0.00011474,0.00054950,-0.00087153,-0.00062621,0.00070543,0
 .00036415,-0.00047357,0.00016246,-0.00000248,-0.00018318,0.00015878,-0
 .00007963,-0.00006415,0.00006733,0.00004022,0.00003388,0.00008322,-0.0
 0001926,0.00006380,0.00001641,-0.00006856,0.00002800,0.00002615,0.0003
 6825,-0.00080241,-0.00071852,-0.00061011,-0.00027204,-0.00170985,-0.00
 010153,-0.00030717,0.00020524,-0.00131220,-0.00109277,0.00212504,-0.00
 011931,-0.00016731,-0.00029408,-0.00003994,0.00000637,-0.00003162,0.00
 001626,0.00012809,-0.00019334,0.00012619,0.00030841,-0.00010261,0.0001
 3858,0.00049797,-0.00060991,0.00003657,-0.00008677,-0.00001048,0.00076
 792,-0.00025616,0.00066674,0.00018046,0.00001178,-0.00009306,0.0004752
 5,-0.00067968,-0.00107555,-0.00140605,0.00246080,0.00149818,0.00002317
 ,0.00011102,0.00007295,0.05666168,-0.16936321,0.02918665,0.00544772,0.
 41759936,-0.00021560,-0.00011347,-0.00017378,0.00019379,0.00017124,-0.
 00018714,-0.00124648,0.00005533,0.00265844,0.01038838,-0.01740641,0.00
 350067,0.00000319,0.00002727,-0.00002287,0.00001924,-0.00000336,-0.000
 08444,-0.00016369,0.00004992,-0.00007654,-0.00061811,-0.00053241,0.000
 53030,-0.00006163,-0.00009649,0.00000301,0.00051994,-0.00050809,-0.000
 68018,0.00040988,0.00069297,0.00000159,-0.00006027,0.00002500,-0.00006
 928,-0.00000252,-0.00027766,-0.00001345,-0.00018430,0.00007308,-0.0003
 6078,-0.00000709,-0.00006353,-0.00000678,-0.00003252,-0.00005000,0.000
 06322,-0.00002272,0.00001183,0.00003243,0.00033282,-0.00067006,-0.0000
 0041,-0.00004109,0.00046406,0.00031286,0.00000602,0.00007950,-0.000083
 26,-0.00003548,-0.00057106,-0.00005945,0.00000288,0.00003362,-0.000047
 13,0.00005232,0.00001201,-0.00000064,-0.00000715,0.00000624,0.00001001
 ,-0.00004142,-0.00005887,0.00009569,0.00013746,-0.00002636,0.00003505,
 0.00000861,0.00003637,0.00001347,-0.00010193,0.00005128,-0.00024682,-0
 .00001169,0.00000176,0.00001664,0.00299220,-0.00213498,-0.00178297,0.0
 0019194,-0.00120085,0.00059421,-0.00000199,0.00000749,-0.00001840,-0.0
 0976597,0.02351621,-0.08142409,-0.00041866,0.01581237,0.52597030,-0.00
 053134,0.00022876,0.00000503,-0.00035932,-0.00016567,0.00000669,0.0005
 2423,0.00018885,-0.00480630,0.00540723,0.00262756,0.01847962,0.0000046
 8,0.00000616,0.00001907,-0.00016665,0.00010082,0.00009904,0.00017632,-
 0.00194229,-0.00041385,-0.00011270,-0.00010068,0.00007869,0.00019108,0
 .00010451,-0.00005199,-0.00104495,0.00038473,0.00284240,0.00049792,-0.
 00019911,0.00003443,-0.00001617,-0.00001879,0.00002021,0.00004018,0.00
 019048,-0.00003959,0.00038530,0.00021117,0.00062472,0.00000622,0.00004
 829,0.00001412,0.00004501,0.00007964,-0.00007044,-0.00002526,0.0000035
 6,0.00001734,-0.00073004,0.00055319,-0.00036631,-0.00018637,0.00008694
 ,0.00016486,-0.00020290,0.00007021,-0.00008768,0.00001093,0.00038054,0
 .00096700,0.00025953,-0.00025696,-0.00035927,-0.00017374,0.00000585,-0
 .00017925,0.00009310,0.00015372,0.00004062,-0.00038924,-0.00011858,0.0
 0001848,-0.00132424,-0.00153810,0.00020019,-0.00003953,-0.00004692,-0.
 00001738,-0.00118205,-0.00087662,0.00031357,-0.00002097,-0.00006037,0.
 00008406,0.00106618,0.00022019,0.00301578,-0.00077213,0.00015639,0.001
 77865,-0.00001164,-0.00002615,-0.00004786,-0.10007378,0.00191177,-0.06
 658278,-0.01117053,0.00217236,-0.01699729,0.50044260,0.00070796,0.0014
 4659,0.00147595,0.00013001,0.00014428,-0.00005104,0.00091103,0.0004647
 9,-0.00425627,-0.00161708,-0.00282022,-0.00805752,-0.00005499,0.000033
 23,-0.00004560,0.00023104,-0.00028036,-0.00029061,-0.00186979,-0.00287
 942,-0.00018761,-0.00024530,-0.00045401,0.00037474,0.00000039,-0.00005
 405,0.00001890,0.00149023,-0.00149780,-0.00207287,0.00039532,0.0002862
 1,-0.00013433,0.00008141,0.00005278,0.00008962,-0.00006754,-0.00008882
 ,0.00006679,-0.00029651,-0.00005255,-0.00011983,0.00002226,0.00003706,
 0.00006112,-0.00000888,-0.00001677,0.00002823,-0.00006020,-0.00003309,
 0.00000338,-0.00010471,0.00006389,-0.00003479,-0.00023829,-0.00012569,
 -0.00006278,-0.00016230,0.00009665,-0.00020612,-0.00019159,0.00017094,
 0.00075593,0.00028928,-0.00039781,-0.00015330,-0.00016200,-0.00004388,
 -0.00021082,0.00007970,0.00000268,-0.00010697,-0.00014135,0.00019819,-
 0.00010823,-0.00108691,-0.00061243,0.00087060,-0.00001620,-0.00001793,
 -0.00010100,-0.00116836,-0.00051504,0.00022376,-0.00004868,-0.00004878
 ,0.00008552,0.00001055,0.00041822,-0.00270643,-0.00050732,0.00009796,0
 .00068061,0.00005443,0.00004585,-0.00003146,-0.00709983,-0.06688131,-0
 .02535686,0.01500155,-0.00618996,0.02791836,-0.03702651,0.51698784,-0.
 00013887,0.00108751,-0.00009197,-0.00041642,-0.00020858,0.00087201,-0.
 00062878,-0.00094902,0.00026734,-0.00536235,-0.00681064,-0.03145218,-0
 .00001593,0.00007116,0.00002827,-0.00025704,0.00001358,0.00007891,0.00
 017719,0.00069446,0.00032844,-0.00013287,0.00036596,-0.00035740,0.0001
 4303,0.00009782,-0.00038672,0.00243565,-0.00098521,-0.00284805,0.00010
 705,-0.00011431,0.00022812,-0.00016418,-0.00030572,0.00017419,0.000045
 95,-0.00039672,0.00012349,-0.00032878,-0.00013151,-0.00034557,0.000031
 77,0.00001191,-0.00004237,-0.00004335,0.00001189,0.00002625,-0.0001034
 3,-0.00003222,0.00001214,-0.00024299,0.00014818,-0.00037225,0.00042807
 ,-0.00011210,0.00025132,-0.00009054,-0.00017588,0.00004153,-0.00007685
 ,0.00004100,-0.00044153,0.00011956,0.00038457,-0.00015951,0.00006227,0
 .00002658,-0.00009318,-0.00006155,0.00020534,0.00014597,-0.00006712,-0
 .00004394,-0.00033300,-0.00015274,-0.00036510,-0.00068174,-0.00004476,
 -0.00002274,0.00004409,0.00020750,0.00018997,0.00019977,0.00007436,0.0
 0002078,-0.00006153,-0.00187882,0.00072109,-0.00027872,0.00029352,-0.0
 0010026,0.00000071,-0.00003142,-0.00003086,0.00002391,-0.04873301,-0.0
 0823576,-0.17567330,-0.01104669,0.00338324,-0.01529353,-0.03738229,-0.
 01336611,0.47153840,0.00032485,0.00017193,0.00055965,0.00070018,0.0004
 8211,-0.00000103,-0.00049035,-0.00114358,-0.00103676,0.00171437,0.0016
 5593,-0.00098652,0.00001464,-0.00000942,-0.00000467,0.00004861,-0.0000
 1666,-0.00001207,-0.00006299,-0.00001019,-0.00004151,0.00034862,-0.000
 13164,0.00026688,-0.00034323,-0.00021481,0.00021860,-0.00028831,-0.000
 23402,0.00001316,-0.00003317,0.00029228,-0.00015024,0.00018004,0.00004
 392,0.00002026,-0.00005184,0.00002182,0.00003979,-0.00005513,0.0000157
 9,0.00004888,0.00003956,0.00002090,0.00005241,0.00001447,-0.00001107,0
 .00002143,0.00003235,-0.00003202,0.00001628,0.00005466,-0.00043652,0.0
 0014480,-0.00029766,0.00019583,-0.00052288,0.00002051,0.00001989,-0.00
 018257,-0.00060275,-0.00036389,0.00068517,0.00005515,-0.00016928,-0.00
 000552,-0.00008461,0.00009256,0.00007222,-0.00000749,0.00005733,-0.000
 09434,-0.00005589,0.00001657,-0.00004287,-0.00002373,0.00012849,-0.000
 11608,0.00006220,0.00005099,-0.00006490,-0.00004825,-0.00015968,0.0001
 0418,-0.00003036,-0.00001666,0.00001028,0.00007223,0.00005571,-0.00014
 778,0.00031303,-0.00052459,-0.00020981,0.00001339,0.00002793,0.0000006
 6,0.00809843,0.00099636,0.00105443,-0.15351535,-0.09752613,-0.00910446
 ,0.00200613,0.00272299,0.00048245,0.17340679,0.00014976,0.00033050,0.0
 0035278,0.00044452,0.00015133,-0.00014027,0.00059739,-0.00212963,0.000
 35069,-0.00195947,0.00051226,0.00156481,-0.00000438,0.00001657,-0.0000
 1785,-0.00002511,-0.00002575,0.00000130,0.00000426,-0.00007925,-0.0000
 9666,-0.00008006,-0.00040038,0.00021980,-0.00014599,-0.00006899,0.0001
 0715,0.00003736,0.00007468,-0.00010913,0.00002247,0.00035471,-0.000024
 57,0.00008880,0.00004933,0.00003868,-0.00008555,0.00005441,0.00002318,
 0.00005967,-0.00000088,0.00009470,0.00003917,0.00003159,0.00003859,0.0
 0001235,0.00002073,0.00002072,0.00000011,-0.00002587,0.00002488,0.0002
 3868,-0.00027066,0.00007147,-0.00028839,0.00032405,-0.00030427,0.00009
 312,0.00006191,-0.00011542,-0.00019024,-0.00007713,0.00015915,0.000113
 47,-0.00007503,0.00005542,-0.00006722,0.00008629,0.00004207,0.00002478
 ,0.00005743,-0.00002325,-0.00004302,0.00002508,0.00004037,0.00000420,-
 0.00028582,0.00004987,0.00006845,0.00004244,-0.00006134,-0.00014259,0.
 00048673,-0.00008109,-0.00002006,-0.00000003,0.00001388,-0.00041968,0.
 00042444,0.00005143,0.00101022,0.00040529,-0.00098550,0.00000367,0.000
 01648,-0.00000394,-0.01286821,-0.04493606,0.00494083,-0.10161257,-0.13
 454758,-0.00965904,-0.00125464,0.00065577,-0.00190472,0.11973589,0.175
 67463,0.00011144,0.00004030,0.00001255,-0.00008833,-0.00008420,-0.0000
 0475,-0.00040948,0.00066674,0.00082473,-0.00114332,-0.00103743,0.00072
 618,-0.00000018,-0.00000875,-0.00000309,0.00001269,-0.00000531,0.00000
 950,0.00001854,0.00004062,0.00001367,0.00025403,0.00005601,-0.00004471
 ,0.00005285,0.00004593,-0.00001300,-0.00020654,0.00009561,-0.00006181,
 -0.00010479,0.00002109,-0.00007297,0.00011245,-0.00000595,0.00000495,-
 0.00002060,-0.00001811,0.00002333,0.00000680,-0.00007333,0.00002479,0.
 00002160,0.00002078,0.00001058,0.00001801,0.00000134,0.00000098,0.0000
 1592,-0.00000774,0.00000335,0.00031460,-0.00045547,-0.00006076,-0.0004
 0597,-0.00020756,-0.00041608,0.00001264,-0.00002413,0.00002020,-0.0000
 0276,-0.00014857,-0.00015918,-0.00001590,0.00001558,-0.00001231,-0.000
 00494,0.00000818,-0.00002798,0.00001463,-0.00001068,0.00000123,0.00000
 863,-0.00000429,-0.00000481,-0.00000454,0.00004347,-0.00000941,0.00000
 432,-0.00001493,0.00000086,0.00003523,-0.00008591,0.00008566,-0.000007
 53,-0.00000742,-0.00000570,0.00009408,0.00006778,-0.00008524,0.0006333
 8,-0.00011000,-0.00015312,-0.00000111,-0.00000151,-0.00000626,0.002859
 53,0.00771654,-0.00129985,-0.00840090,-0.00922425,-0.04621940,0.002000
 38,0.00286192,0.00135975,0.01067992,0.00657207,0.04857081,-0.00048911,
 0.00005048,0.00003595,0.00012823,-0.00000723,0.00030225,0.00077959,-0.
 00184918,-0.00024170,0.00022102,-0.00010743,-0.00062826,0.00001202,-0.
 00001830,0.00000470,-0.00000707,0.00001331,-0.00002561,-0.00002104,-0.
 00002603,0.00000362,-0.00133624,-0.00133020,0.00063371,-0.00003122,0.0
 0004142,-0.00013640,0.00022959,0.00032948,0.00013209,0.00020901,0.0013
 4144,-0.00013291,0.00003553,-0.00005763,0.00000822,-0.00006093,-0.0000
 4299,0.00003929,-0.00015403,0.00017527,-0.00004234,-0.00001095,-0.0000
 5765,-0.00003632,-0.00003984,-0.00001686,-0.00002087,-0.00003334,0.000
 01477,-0.00000060,0.00097362,-0.00229871,-0.00096417,-0.00014000,0.000
 07428,-0.00046420,-0.00007235,-0.00004399,-0.00012931,-0.00025227,0.00
 024979,0.00010562,-0.00003188,-0.00006382,-0.00003296,-0.00003889,-0.0
 0007881,0.00004771,0.00001094,-0.00005871,0.00001865,0.00001432,0.0000
 4097,0.00012321,0.00016728,-0.00000798,0.00007750,-0.00003702,-0.00000
 065,0.00001901,-0.00002837,0.00046089,-0.00024556,-0.00000805,0.000027
 35,-0.00002762,0.00014968,-0.00034295,-0.00000632,-0.00109642,0.000054
 85,-0.00017006,-0.00001224,-0.00000186,-0.00000194,-0.00560781,0.00223
 213,-0.01142652,-0.07254172,-0.00089939,-0.07352403,-0.00115528,0.0029
 5801,-0.00154072,-0.01050530,-0.00515585,-0.02271904,0.08188268,-0.000
 60227,0.00115965,0.00029580,-0.00012438,-0.00012682,0.00024847,-0.0012
 0583,-0.00353673,0.00220823,0.00001273,0.00083024,0.00037539,-0.000001
 22,0.00005646,-0.00000754,-0.00011685,0.00004316,-0.00003514,0.0000497
 1,0.00001631,-0.00011468,-0.00067283,-0.00016633,0.00008947,0.00013013
 ,0.00008001,-0.00021862,0.00051046,-0.00009021,0.00036058,0.00017853,0
 .00005554,0.00005805,-0.00004573,-0.00049896,-0.00004494,-0.00005964,0
 .00004953,0.00012505,0.00006112,-0.00022505,0.00005907,0.00002509,-0.0
 0000535,0.00006344,-0.00004733,0.00011146,0.00005540,-0.00009389,0.000
 04184,0.00005124,-0.00072156,-0.00165815,-0.00160060,-0.00033885,-0.00
 049048,-0.00110742,-0.00000705,-0.00002951,0.00000542,-0.00006482,0.00
 000008,-0.00007853,0.00006243,-0.00007165,-0.00022977,-0.00005727,0.00
 006028,0.00006926,0.00001973,0.00013150,-0.00003248,-0.00008528,0.0000
 0090,-0.00004696,0.00013483,-0.00005760,-0.00026084,0.00005044,0.00004
 324,-0.00005240,-0.00024639,-0.00001381,0.00001869,0.00008753,0.000028
 97,-0.00002609,-0.00026671,0.00010878,0.00011899,0.00023193,0.00002381
 ,0.00001750,-0.00001712,0.00007256,-0.00002624,0.01009378,-0.00180787,
 0.02554771,-0.00224640,-0.04074984,-0.01009827,0.00302983,-0.00446733,
 0.00179617,-0.00939487,-0.00172817,-0.01904042,0.00279020,0.05226200,-
 0.00028254,-0.00031393,0.00015952,0.00046239,0.00034450,-0.00011053,0.
 00136123,0.00336345,-0.00196057,0.00067646,-0.00048056,0.00076766,0.00
 003032,-0.00003652,-0.00000600,0.00005604,0.00001903,-0.00001440,-0.00
 000635,-0.00005844,0.00000047,0.00045284,-0.00021802,0.00065410,-0.000
 24508,-0.00008752,0.00026269,-0.00009322,0.00010848,0.00011884,-0.0000
 8337,-0.00053088,-0.00074317,0.00008766,-0.00017347,0.00000925,0.00000
 001,-0.00019049,-0.00006494,0.00013207,-0.00004754,-0.00006158,-0.0000
 1695,-0.00000730,-0.00005858,0.00001175,-0.00003751,-0.00002424,0.0000
 4217,-0.00001002,-0.00002308,-0.00086769,-0.00139566,-0.00023107,-0.00
 052649,-0.00028138,-0.00109159,0.00004071,0.00007213,-0.00005833,-0.00
 036109,-0.00007866,0.00022796,-0.00002350,0.00000400,0.00006217,-0.000
 05169,-0.00012510,0.00006048,0.00006890,-0.00008736,-0.00001317,-0.000
 00366,0.00004997,0.00020351,0.00014635,-0.00011070,0.00007336,-0.00016
 570,0.00001517,0.00005246,0.00046512,0.00051391,-0.00028072,-0.0000836
 9,0.00001974,-0.00000505,0.00019315,-0.00024054,-0.00006800,0.00021548
 ,-0.00019950,0.00025996,-0.00004170,-0.00006063,-0.00003440,-0.0036411
 1,0.00239574,-0.00874143,-0.07913962,-0.00621070,-0.24192541,-0.001190
 36,0.00286904,-0.00059826,-0.00292540,-0.00232424,-0.00351766,0.090909
 74,0.00565837,0.27773038,-0.00035760,-0.00058761,0.00006817,0.00024555
 ,-0.00009775,0.00011140,0.00061181,0.00172506,0.00038388,-0.00138265,0
 .00291108,-0.00076494,-0.00001398,-0.00002638,-0.00001781,-0.00000114,
 -0.00001856,0.00003558,0.00002604,0.00004388,-0.00008994,0.00004833,-0
 .00005884,-0.00017488,-0.00010773,0.00001384,-0.00005251,-0.00034536,0
 .00029179,0.00008080,-0.00023939,0.00026087,0.00022023,-0.00004023,0.0
 0002173,0.00009066,0.00007783,-0.00006363,0.00002939,0.00001174,0.0002
 0014,0.00003544,-0.00004915,-0.00006714,0.00000080,-0.00001537,-0.0000
 3412,0.00002038,0.00005637,-0.00005431,-0.00000281,0.00050798,-0.00047
 089,0.00013410,0.00003268,0.00039970,-0.00008903,-0.00007411,-0.000078
 40,0.00003558,-0.00060745,-0.00045127,0.00042313,0.00005360,0.00009027
 ,0.00000170,-0.00001225,-0.00007992,-0.00017011,0.00004501,0.00001062,
 -0.00003479,-0.00010753,0.00003733,0.00007479,0.00013567,-0.00011917,0
 .00011825,-0.00000792,-0.00004106,-0.00000378,0.00008413,0.00021790,0.
 00008351,-0.00002351,0.00002707,0.00000330,-0.00036299,0.00035141,0.00
 048783,0.00040916,0.00025192,-0.00052572,-0.00001768,0.00000509,-0.000
 03284,-0.00942233,0.00680582,0.00805026,-0.15681651,0.03361888,0.10150
 006,0.00012019,-0.00012905,0.00031113,-0.02065673,0.00072016,0.0169703
 4,0.00859054,-0.00240774,-0.00571338,0.17959878,-0.00058144,0.00068540
 ,0.00012093,-0.00088920,-0.00082853,0.00024018,0.00016706,-0.00468104,
 -0.00235615,0.00358886,-0.00417651,0.00175726,-0.00001125,0.00004892,0
 .00002999,-0.00008200,0.00000941,-0.00005485,0.00006948,-0.00006856,0.
 00005895,-0.00009901,0.00002229,-0.00039109,0.00042178,0.00031181,-0.0
 0034857,0.00025790,-0.00024357,-0.00005162,-0.00005830,0.00004186,0.00
 031769,0.00000805,-0.00013524,0.00006268,-0.00007450,0.00006964,0.0001
 2651,-0.00014564,0.00018412,-0.00007637,0.00003841,0.00000114,0.000058
 27,-0.00003860,0.00004318,0.00002027,-0.00009126,0.00005987,0.00005358
 ,0.00008548,-0.00006701,-0.00012143,0.00009200,-0.00025779,0.00030564,
 0.00012623,0.00004373,0.00010258,-0.00005711,0.00074510,0.00069695,0.0
 0001789,-0.00003197,-0.00016157,-0.00002606,0.00008624,0.00001237,-0.0
 0001211,0.00013795,0.00006388,-0.00000371,-0.00004629,-0.00006635,0.00
 003189,0.00000833,-0.00025725,0.00003145,-0.00002094,-0.00004110,-0.00
 030475,-0.00004008,0.00012433,0.00007339,0.00001587,0.00002416,0.00129
 849,-0.00071161,-0.00106659,-0.00022027,-0.00009501,0.00027698,-0.0000
 0149,0.00006144,0.00000905,0.02145315,-0.01105792,-0.01758627,0.033032
 62,-0.04927576,-0.02893997,-0.00004432,0.00037825,-0.00092583,-0.01601
 513,0.00373996,0.01274879,0.00109982,0.00061454,-0.00240761,-0.0431442
 4,0.06459374,-0.00000030,0.00067086,-0.00025932,-0.00020496,-0.0001999
 5,0.00027157,-0.00018539,-0.00381422,-0.00022589,-0.00026222,0.0002838
 3,0.00062695,-0.00000108,0.00001563,-0.00001507,-0.00002078,0.00001351
 ,-0.00003806,-0.00002052,0.00003234,0.00004569,-0.00069423,-0.00041512
 ,-0.00015166,0.00013645,0.00007728,-0.00019763,0.00035495,0.00006036,0
 .00021402,0.00028089,0.00047525,0.00016641,0.00002569,-0.00019394,-0.0
 0000126,-0.00006151,0.00009693,0.00007342,-0.00008495,0.00001811,0.000
 08940,0.00005860,0.00003695,-0.00000157,-0.00002415,0.00006270,-0.0000
 1636,-0.00007728,0.00004033,-0.00000128,0.00011533,0.00008656,-0.00041
 043,-0.00003925,-0.00023029,0.00041294,-0.00005714,-0.00008427,-0.0000
 6693,0.00021469,0.00048382,-0.00037642,0.00005904,-0.00004179,-0.00000
 474,-0.00002935,0.00006966,0.00009432,-0.00000687,0.00006296,0.0000460
 1,-0.00005682,0.00002822,-0.00005245,-0.00000891,0.00001627,-0.0001324
 0,0.00004579,0.00002660,-0.00002664,-0.00027536,-0.00028151,0.00005427
 ,0.00002102,-0.00001477,-0.00002216,-0.00026279,-0.00000200,0.00017501
 ,-0.00034941,-0.00028546,0.00014838,0.00001103,0.00000903,0.00000505,-
 0.00415140,0.00012231,0.00323687,0.10706792,-0.03071326,-0.14006785,-0
 .00092566,0.00071872,0.00104449,0.00051399,0.00059247,0.00076374,0.020
 66819,-0.00548054,-0.02123320,-0.12118411,0.03694181,0.15629028,0.0003
 4934,0.00034260,0.00019315,0.00051731,0.00027028,-0.00020652,0.0008155
 2,0.00022435,-0.00171166,0.00058787,0.00062321,0.00066293,0.00000393,0
 .00000939,-0.00002373,0.00012736,-0.00006119,-0.00005740,-0.00029770,0
 .00004329,0.00002178,0.00000958,-0.00041381,0.00040696,-0.00020855,-0.
 00012623,0.00018059,0.00012220,-0.00013510,-0.00004696,0.00023005,0.00
 024185,-0.00014201,0.00004415,0.00001954,0.00004349,-0.00007576,0.0000
 2442,0.00002033,-0.00001860,0.00002519,0.00003794,0.00003584,0.0000178
 7,0.00004123,-0.00000391,0.00000359,0.00002438,0.00001068,-0.00002520,
 -0.00000660,-0.00012096,-0.00010466,-0.00000411,-0.00006290,0.00010762
 ,0.00002061,-0.00006892,0.00005572,-0.00015833,-0.00011235,0.00011451,
 0.00034571,0.00005344,0.00001883,0.00005258,-0.00002691,0.00010260,0.0
 0007815,0.00000979,0.00001431,-0.00004796,-0.00007304,-0.00000772,-0.0
 0002748,0.00013788,0.00015767,-0.00000801,0.00004446,0.00006030,-0.000
 04412,-0.00056136,-0.00029389,0.00000335,-0.00007439,-0.00002934,0.000
 04043,0.00004530,0.00004762,-0.00006811,0.00015752,0.00001284,-0.00038
 611,0.00000981,0.00003698,-0.00000934,-0.01833267,-0.01412625,-0.01556
 354,0.00043213,-0.00174165,0.00059945,-0.12503131,-0.10087613,0.009070
 48,0.00020724,0.00127435,-0.00083253,0.00025363,-0.00002500,0.00045814
 ,-0.00033284,-0.00013373,-0.00007802,0.14994962,0.00032405,0.00037835,
 0.00028550,0.00057410,0.00027320,-0.00021718,0.00078352,0.00001285,-0.
 00047874,-0.00002775,0.00061125,0.00070383,-0.00000741,0.00001096,-0.0
 0002016,-0.00010470,-0.00008850,0.00003504,0.00004377,-0.00045586,-0.0
 0041718,-0.00000348,-0.00038586,0.00034469,-0.00021954,-0.00010755,0.0
 0019332,0.00009322,-0.00008625,0.00016913,0.00011242,0.00010097,-0.000
 20320,0.00003391,0.00007031,0.00001971,-0.00001100,-0.00001291,0.00002
 958,0.00002288,-0.00000885,0.00006935,0.00003553,0.00003174,0.00000953
 ,0.00002301,0.00001120,0.00001442,0.00000592,-0.00005938,0.00001018,0.
 00006224,0.00007770,0.00015734,-0.00022123,0.00014361,-0.00015308,-0.0
 0001346,0.00004917,-0.00013272,-0.00025753,-0.00003314,0.00019182,0.00
 027734,-0.00011855,-0.00014103,-0.00006876,0.00012034,0.00002173,-0.00
 003702,0.00009084,0.00001713,-0.00021740,0.00001716,-0.00000602,-0.000
 68053,-0.00026248,0.00012119,0.00008255,0.00005208,-0.00004999,-0.0002
 8109,0.00000252,-0.00004037,-0.00006884,-0.00001727,0.00002361,-0.0000
 3620,-0.00065098,-0.00011964,0.00016125,0.00025783,-0.00046887,0.00001
 875,-0.00000682,-0.00002594,-0.01129473,-0.00685535,-0.01153586,0.0028
 8320,0.00281818,0.00130082,-0.09903016,-0.17148847,0.00825365,-0.00036
 662,0.00048704,-0.00024094,0.00020775,-0.00004989,0.00033307,-0.000132
 97,-0.00022978,-0.00007525,0.12348537,0.20027414,0.00029842,0.00011320
 ,0.00003322,-0.00006242,-0.00001080,-0.00027707,0.00075559,0.00076729,
 -0.00194313,-0.00113897,-0.00051512,0.00131201,-0.00000048,0.00002264,
 0.00001282,0.00007967,-0.00003810,-0.00000741,-0.00007503,-0.00010188,
 0.00016926,0.00001850,-0.00025826,0.00026995,0.00008125,0.00001926,0.0
 0005178,0.00017179,-0.00005858,-0.00016858,0.00026752,0.00000027,-0.00
 013827,0.00005270,0.00014643,0.00000012,-0.00002819,0.00005032,0.00000
 436,0.00001266,-0.00001933,-0.00000053,0.00001105,0.00002876,0.0000281
 3,0.00001518,0.00001224,0.00000473,0.00000292,-0.00001711,-0.00000352,
 -0.00027242,0.00014446,0.00006102,-0.00016004,-0.00016111,0.00000316,-
 0.00007364,0.00009805,-0.00008378,0.00009963,0.00004078,0.00044234,-0.
 00005862,0.00000623,0.00011701,0.00002022,-0.00001240,0.00007732,0.000
 00698,-0.00005018,0.00001640,0.00012528,0.00001243,-0.00000121,0.00014
 142,0.00008045,-0.00001327,-0.00002863,0.00000901,-0.00001740,-0.00064
 498,-0.00037366,0.00012136,-0.00004074,-0.00002505,0.00006307,0.000129
 34,-0.00013648,-0.00003998,-0.00018620,0.00036951,0.00006934,-0.000001
 61,0.00001006,0.00003622,-0.02647821,-0.02241813,-0.01078559,-0.000517
 38,-0.00264540,0.00068176,0.00579641,0.00498656,-0.04369463,0.00048856
 ,0.00091516,-0.00019209,0.00029081,-0.00025461,0.00032300,0.00023678,0
 .00021089,-0.00022085,0.00248694,-0.00215693,0.05383618,-0.00024836,0.
 00002061,0.00008194,-0.00037426,-0.00031937,-0.00004480,0.00096554,0.0
 0008812,0.00005737,0.00007583,0.00053646,-0.00194042,0.00000246,-0.000
 03022,-0.00000253,0.00003655,-0.00009224,-0.00003264,0.00048512,0.0001
 0197,-0.00001665,0.00005692,0.00003953,-0.00006786,0.00014575,0.000120
 79,-0.00010565,0.00033520,-0.00020284,-0.00033025,-0.00002276,0.000071
 83,0.00005740,0.00001558,0.00009025,-0.00003748,-0.00007206,-0.0000553
 0,-0.00006106,-0.00001714,0.00006073,-0.00007090,-0.00001314,0.0000098
 6,0.00001563,0.00000644,-0.00002103,-0.00002519,0.00001857,-0.00001038
 ,-0.00000044,-0.00005620,-0.00008506,-0.00009314,0.00009431,-0.0000554
 7,0.00019017,0.00008702,0.00004274,0.00010424,0.00017544,0.00026221,0.
 00026489,0.00007185,-0.00011752,-0.00007917,-0.00006408,0.00000598,-0.
 00001822,0.00005608,-0.00000600,-0.00000729,-0.00013355,-0.00000899,0.
 00002992,-0.00025470,-0.00000894,0.00014250,0.00002831,-0.00002322,-0.
 00002019,-0.00007511,0.00002756,0.00009032,-0.00000203,0.00000473,0.00
 000772,0.00011261,-0.00028419,0.00025179,0.00045035,0.00002633,-0.0004
 9501,0.00000809,-0.00000660,-0.00000889,0.00906490,-0.00135865,-0.0088
 4115,0.00066160,-0.00062087,-0.00095506,-0.16227859,0.02538443,0.11809
 286,-0.00043289,0.00006530,0.00009406,0.00000062,-0.00006006,-0.000023
 78,0.00003211,0.00020127,-0.00040257,-0.01757800,0.00020802,0.01485872
 ,0.18209791,-0.00013225,0.00026555,0.00038010,-0.00051807,-0.00015190,
 -0.00016993,-0.00029300,0.00004456,-0.00090020,0.00003922,0.00056645,-
 0.00161904,-0.00001611,0.00007159,0.00005964,-0.00011800,0.00009061,0.
 00003969,-0.00005411,-0.00183949,-0.00023767,0.00013454,0.00007347,-0.
 00005008,0.00019621,0.00003842,0.00000037,0.00011846,0.00004522,-0.000
 14049,-0.00005367,-0.00021310,0.00000735,-0.00003748,0.00002955,0.0000
 4505,0.00005033,0.00001492,0.00004844,-0.00003406,0.00007834,0.0000006
 5,-0.00000613,0.00000003,0.00001582,0.00000319,-0.00000889,0.00000631,
 -0.00005620,0.00002577,0.00005877,-0.00001368,0.00011627,0.00015300,-0
 .00000020,-0.00013872,-0.00000533,0.00006188,0.00007192,0.00007315,0.0
 0042134,-0.00003465,0.00040495,-0.00012152,0.00003311,0.00002208,0.000
 05449,0.00004860,0.00001445,-0.00012211,0.00008266,0.00005338,0.000292
 84,-0.00009068,-0.00011207,0.00015336,-0.00003291,-0.00028933,-0.00007
 487,-0.00004944,-0.00000225,0.00005026,0.00007168,0.00003945,0.0000216
 1,0.00000239,0.00002913,-0.00020439,0.00013964,-0.00015538,0.00003584,
 -0.00002843,-0.00039782,-0.00001204,0.00004278,0.00004928,0.00264992,-
 0.00079903,-0.00425496,-0.00006940,0.00046603,0.00074688,0.02455599,-0
 .04939697,-0.02284311,-0.00029198,-0.00012730,-0.00003195,0.00002963,-
 0.00006848,-0.00005855,0.00038413,-0.00006328,0.00057795,-0.02002765,0
 .00170314,0.01691752,-0.02845183,0.05469592,-0.00012561,0.00066022,0.0
 0028502,-0.00063317,-0.00042019,0.00002219,-0.00089099,-0.00070590,-0.
 00121516,-0.00214284,-0.00011073,-0.00602220,-0.00002252,0.00007339,0.
 00001835,0.00000187,-0.00002452,-0.00006484,-0.00001953,-0.00056000,0.
 00058726,0.00020453,0.00007494,-0.00021593,0.00030778,0.00020719,-0.00
 020810,0.00092288,-0.00060673,-0.00109785,-0.00021408,-0.00008438,0.00
 020218,-0.00001620,-0.00007720,0.00008155,-0.00002962,-0.00003780,0.00
 012175,-0.00023872,0.00015886,-0.00018776,0.00002899,-0.00000426,0.000
 03980,-0.00003893,-0.00000164,0.00004927,-0.00007912,0.00002394,0.0000
 3241,0.00018144,-0.00016124,0.00001234,0.00014114,-0.00024074,0.000262
 12,0.00014637,0.00005593,0.00009444,0.00044939,0.00030377,0.00023348,-
 0.00013906,-0.00003770,-0.00008235,0.00003161,0.00004163,0.00001480,-0
 .00001019,0.00010373,0.00007697,0.00009067,-0.00002522,-0.00010142,0.0
 0004428,0.00012786,-0.00037928,-0.00001612,-0.00002820,-0.00000495,-0.
 00002854,0.00012177,-0.00000084,0.00004770,0.00001180,0.00001888,-0.00
 066836,0.00033086,0.00009119,0.00036849,-0.00015380,-0.00020792,0.0000
 0639,0.00005989,0.00001438,0.01711572,-0.00692656,-0.02943003,0.000648
 74,-0.00044195,0.00033358,0.11386177,-0.02234120,-0.15345458,0.0000810
 9,0.00000651,-0.00016494,0.00004409,-0.00013482,0.00035912,-0.00069901
 ,0.00060616,-0.00028481,0.00499329,0.00095231,-0.00119934,-0.13198574,
 0.02936451,0.18749206,0.00012929,0.00070544,0.00076785,-0.00019680,0.0
 0009166,-0.00009300,-0.00129378,0.00047498,-0.00068504,0.00084407,-0.0
 0031569,0.00163619,-0.00001833,0.00010110,0.00005987,0.00018679,0.0003
 7667,0.00017502,-0.00291889,-0.00314001,0.00092230,0.00024275,0.000122
 81,0.00000225,0.00008231,-0.00003927,0.00001762,-0.00006573,-0.0000915
 6,0.00026447,0.00004968,-0.00036001,0.00008479,0.00000066,0.00011133,0
 .00004059,0.00001595,0.00006718,0.00007583,0.00000072,-0.00002742,0.00
 001419,0.00002331,-0.00000004,0.00010175,-0.00000343,-0.00000506,0.000
 04591,-0.00003769,0.00000827,0.00006655,-0.00026148,0.00020184,-0.0000
 0558,0.00005510,-0.00034517,0.00009744,0.00001909,0.00003737,0.0000022
 6,0.00030566,-0.00024597,0.00004287,-0.00048015,-0.00016206,-0.0000069
 4,0.00003300,0.00009802,0.00002470,-0.00015535,-0.00004568,-0.00007025
 ,0.00076277,0.00002183,-0.00034678,-0.00000516,-0.00074818,-0.00041921
 ,-0.00008329,-0.00000337,-0.00001188,-0.00002549,-0.00009601,-0.000077
 43,0.00002796,-0.00000276,0.00002229,0.00072203,0.00003683,0.00085905,
 -0.00017179,-0.00015201,0.00010263,-0.00000573,0.00013448,0.00005174,-
 0.01075959,0.01440451,-0.00726083,-0.00138213,-0.00022202,-0.00379046,
 -0.10438001,0.10264942,-0.02343742,-0.00003488,-0.00036885,0.00006172,
 -0.00011528,0.00101823,-0.00036769,0.00027183,-0.00026583,0.00001129,0
 .00891235,-0.01626371,0.00337500,-0.01352442,0.02138300,-0.00179551,0.
 12309926,0.00080618,0.00054296,0.00146999,-0.00005635,-0.00007980,0.00
 002954,0.00060194,-0.00010758,-0.00007978,-0.00040766,0.00038333,-0.00
 141393,-0.00004703,0.00012182,-0.00001147,0.00070814,-0.00067321,-0.00
 056373,-0.00284086,-0.00192776,0.00029691,-0.00011404,-0.00006804,0.00
 004209,0.00001932,0.00002969,-0.00002465,-0.00033071,-0.00002297,0.000
 07855,0.00006286,0.00006337,-0.00007608,-0.00011517,0.00020993,0.00013
 722,0.00035698,0.00001588,0.00016448,-0.00019640,-0.00004812,0.0001447
 4,-0.00003180,0.00001915,-0.00001259,0.00005763,0.00001310,0.00006031,
 -0.00013564,0.00000553,0.00004350,0.00004404,0.00007562,0.00010492,0.0
 0016017,-0.00025112,0.00012062,-0.00002498,0.00000493,-0.00000764,0.00
 008038,0.00011207,0.00001349,-0.00016012,-0.00021429,-0.00046974,-0.00
 002909,0.00017905,-0.00012906,0.00000152,0.00006233,-0.00028400,-0.000
 32178,-0.00107850,-0.00041802,-0.00213510,-0.00223346,0.00003205,0.000
 07690,0.00003389,-0.00006572,-0.00003491,-0.00001732,-0.00001890,-0.00
 000147,-0.00000502,0.00000209,-0.00011714,0.00100666,-0.00042105,0.000
 12049,-0.00020799,-0.00000570,0.00007873,0.00003903,0.00004231,0.00163
 750,-0.00037555,0.00307388,0.00086490,0.00036686,0.00129401,0.10518812
 ,-0.21331888,0.04063544,0.00025105,0.00057239,-0.00015314,0.00012412,0
 .00009330,0.00004536,-0.00028707,0.00012465,0.00001554,0.01067311,-0.0
 2678936,0.00422825,0.00445826,-0.00573298,-0.00016015,-0.11911560,0.24
 901776,0.00119808,0.00110654,0.00116278,-0.00006355,-0.00000888,-0.000
 00550,-0.00063650,0.00011013,-0.00020255,-0.00174738,0.00169571,-0.000
 46834,-0.00005457,0.00009768,-0.00003148,0.00062178,-0.00070566,-0.000
 05214,0.00047602,0.00042853,0.00113824,0.00017529,0.00008273,-0.000006
 57,0.00007016,0.00003930,-0.00006656,-0.00049123,0.00010066,0.00038617
 ,0.00011529,-0.00028059,-0.00007977,0.00012090,0.00021055,0.00011013,0
 .00015146,0.00013995,0.00017246,-0.00014355,-0.00020214,0.00011411,0.0
 0005404,0.00006417,0.00004511,0.00006371,0.00007397,0.00008712,-0.0000
 2285,-0.00009319,-0.00003509,-0.00031274,0.00025095,0.00012919,-0.0000
 0651,-0.00044352,0.00014121,0.00004919,0.00001984,0.00002040,0.0000982
 8,-0.00008548,-0.00019803,0.00007389,-0.00008898,-0.00017026,0.0000658
 5,0.00025408,-0.00001266,-0.00004274,0.00001616,-0.00019767,-0.0003048
 3,-0.00038438,-0.00040432,-0.00063938,0.00009023,0.00005240,0.00010225
 ,0.00004917,-0.00007715,-0.00015118,-0.00016741,0.00003137,0.00001842,
 -0.00000067,0.00000168,0.00116213,-0.00055894,-0.00259328,0.00005775,-
 0.00011212,0.00011814,0.00008960,0.00007641,0.00003086,-0.01582189,0.0
 2331026,-0.01138670,-0.00317756,0.00028908,-0.00595264,-0.02097698,0.0
 3597652,-0.05015715,0.00010491,-0.00043654,0.00004145,-0.00088008,0.00
 166420,-0.00041336,0.00008472,-0.00019390,-0.00000160,-0.00034385,0.00
 324235,0.00104005,0.01133512,-0.01786767,0.00383975,0.02943754,-0.0478
 0120,0.06379010,0.00204315,0.00069925,0.00010038,0.00384844,-0.0060548
 9,-0.00052072,-0.00011222,-0.00265554,-0.00049255,0.00006216,-0.000009
 27,0.00004140,0.00007057,-0.00007450,-0.00001712,0.00013743,0.00004823
 ,0.00003561,-0.00006013,0.00000106,0.00009152,0.00046435,-0.00077337,-
 0.00199393,-0.00032933,0.00030727,-0.00032349,0.00027000,-0.00006935,0
 .00014770,-0.00249771,-0.00029230,0.00232748,0.00022275,0.00020552,-0.
 00130685,-0.00043217,-0.00009736,-0.00019180,0.00025430,0.00021261,0.0
 0003961,-0.00019455,-0.00009522,0.00094111,-0.00007248,-0.00001502,-0.
 00003061,0.00009905,0.00004017,0.00006266,0.00121437,-0.00090192,0.000
 14107,-0.00078298,0.00049628,-0.00057231,-0.06955003,0.02314240,0.0059
 3563,-0.00318200,-0.00065053,-0.00154850,-0.00109669,-0.00098428,-0.00
 017996,0.00068874,-0.00097164,0.00051352,-0.00022262,-0.00005869,-0.00
 006320,0.00000688,0.00001046,0.00007839,-0.00016400,0.00044054,-0.0001
 8247,-0.00135550,-0.00024141,-0.00143168,0.00242942,-0.01738645,0.0015
 1679,-0.01012576,0.02777928,0.00687381,0.00003792,-0.00004373,-0.00001
 046,0.00003636,0.00006648,0.00001556,-0.00033576,0.00053319,0.00018742
 ,-0.00025841,-0.00005705,-0.00002786,-0.00002140,0.00007556,0.00000338
 ,-0.00001746,0.00000531,0.00000822,0.00005037,0.00004369,0.00000211,0.
 00005105,0.00003701,-0.00005481,0.00000925,0.00006305,0.00004812,0.000
 02921,0.00003859,-0.00002365,0.00002075,0.00000373,0.00004947,0.000007
 83,0.00001133,0.00000468,0.51034828,-0.00012421,-0.00091275,0.00018984
 ,-0.00333702,-0.00712627,-0.01408286,-0.00156269,-0.00009108,0.0002434
 1,-0.00007810,0.00005567,0.00005478,0.00001576,0.00003420,-0.00001340,
 -0.00002354,0.00000574,-0.00000878,-0.00005138,0.00000049,-0.00005580,
 -0.00209832,-0.00131676,-0.00333088,-0.00120084,-0.00153480,0.00289836
 ,-0.00013406,0.00011211,-0.00015680,-0.00080566,0.00020027,0.00206409,
 -0.00017742,0.00011020,0.00015824,0.00028342,-0.00009246,0.00001378,-0
 .00006142,-0.00008031,-0.00006846,-0.00025340,0.00001848,0.00014126,0.
 00003457,-0.00003695,0.00001856,-0.00000257,-0.00003325,0.00002134,0.0
 0044032,-0.00040004,0.00015027,0.00008832,0.00037267,-0.00055093,0.029
 28917,-0.13143809,-0.02572694,0.00303792,0.00173105,0.00061776,-0.0003
 4677,0.00024621,-0.00010691,0.00037558,-0.00032841,-0.00008410,0.00004
 937,-0.00000535,0.00006037,-0.00001896,-0.00003696,0.00003547,0.000175
 70,-0.00006413,0.00014906,0.00007883,0.00068938,0.00015817,-0.00607262
 ,-0.04254255,0.01095139,0.00567531,-0.00954075,-0.00364204,0.00002668,
 0.00001241,0.00001349,0.00002592,0.00002443,-0.00002288,0.00031098,0.0
 0003151,0.00005553,0.00033350,0.00019194,0.00016258,-0.00003955,-0.000
 19374,0.00004417,-0.00001175,0.00005314,-0.00006966,0.00002600,0.00004
 358,-0.00001158,0.00000605,-0.00000991,-0.00000082,-0.00002670,-0.0000
 4939,0.00002114,0.00004518,0.00004884,0.00002900,-0.00001184,-0.000017
 32,-0.00003021,-0.00000103,-0.00000361,0.00000708,0.01805341,0.4532487
 2,-0.00018107,-0.00002772,-0.00088811,0.00376233,-0.02047267,-0.005004
 54,-0.00072277,0.00030319,0.00056526,-0.00000483,0.00004106,0.00003796
 ,-0.00000639,0.00000428,-0.00001402,-0.00001926,-0.00002228,0.00006568
 ,-0.00005469,-0.00002263,-0.00004001,0.00131897,0.00037056,0.00207792,
 -0.00063635,0.00337374,-0.00088284,-0.00002042,0.00002674,0.00003051,0
 .00147720,0.00030227,-0.00266317,0.00000228,0.00002583,-0.00014173,0.0
 0016410,-0.00003504,0.00001046,-0.00005097,-0.00010391,0.00005002,0.00
 088691,0.00020260,-0.00063118,0.00004612,0.00001548,0.00001211,-0.0000
 5698,0.00000552,-0.00000471,-0.00044709,0.00046113,-0.00004699,0.00015
 733,0.00000184,-0.00007339,0.01098766,-0.03674488,-0.06410647,-0.00284
 708,0.00059323,-0.00286511,-0.00118870,-0.00001446,-0.00227283,0.00012
 181,0.00010571,-0.00016765,0.00000453,-0.00002514,0.00004886,-0.000290
 54,-0.00016602,0.00014353,-0.00025507,0.00014231,-0.00016680,-0.003499
 83,0.00012835,-0.00133839,-0.00014001,0.02318062,0.00174454,0.00061618
 ,-0.00024894,0.00067104,-0.00000628,0.00002000,-0.00002464,0.00000261,
 -0.00000369,-0.00002527,0.00004680,-0.00004399,0.00013111,0.00033346,0
 .00010513,-0.00005097,0.00001376,-0.00009115,0.00002057,-0.00000260,0.
 00000220,-0.00002162,-0.00001030,-0.00000088,-0.00000704,-0.00000371,-
 0.00000873,0.00004749,0.00001263,-0.00001828,-0.00002982,0.00001270,0.
 00001617,0.00000719,-0.00000348,-0.00000021,-0.00000951,-0.00000574,0.
 00000843,0.00000768,-0.00988625,-0.02560848,0.45633754,-0.00013022,0.0
 0012415,-0.00026660,-0.00062578,-0.00075192,0.00005431,-0.00036594,0.0
 0006993,0.00019600,-0.00000473,0.00001380,0.00004162,-0.00004628,-0.00
 002018,0.00000566,-0.00004736,0.00001248,-0.00000413,-0.00004946,-0.00
 001729,0.00001664,0.00002637,-0.00022665,0.00026964,0.00031187,0.00091
 870,0.00007277,0.00006299,0.00002942,-0.00001228,0.00042121,0.00008987
 ,-0.00040141,-0.00007052,-0.00008717,0.00019339,0.00011262,-0.00008614
 ,-0.00006068,-0.00002123,-0.00007393,0.00006386,-0.00014617,-0.0000886
 3,-0.00018015,0.00000981,-0.00002872,-0.00000768,-0.00003159,0.0000059
 9,0.00001877,-0.00020683,0.00030452,-0.00011559,0.00013497,0.00004355,
 0.00001621,0.00225472,0.00272799,-0.00331901,0.00063723,0.00028363,-0.
 00007675,0.00025070,-0.00044422,0.00008962,-0.00015411,0.00003715,-0.0
 0005510,0.00008247,0.00008165,0.00002328,-0.00011205,-0.00006149,0.000
 01067,0.00000433,0.00013148,0.00012481,-0.00106798,-0.00008812,-0.0000
 7558,0.00027568,0.00079802,-0.00008704,0.00019635,0.00032678,-0.000094
 53,0.00000833,-0.00002276,-0.00000671,-0.00000125,-0.00002118,-0.00001
 489,-0.00017024,-0.00011067,-0.00003504,0.00007929,0.00007350,0.000024
 59,-0.00003018,-0.00006110,0.00001140,-0.00000007,0.00000870,-0.000005
 12,-0.00000884,-0.00000866,-0.00000474,-0.00000424,0.00000269,0.000032
 89,0.00001798,-0.00002362,-0.00003023,0.00000415,0.00000291,0.00000311
 ,0.00000167,-0.00000121,-0.00000938,0.00001376,-0.00000097,0.00000792,
 -0.07969409,-0.02806160,0.02879171,0.51086269,-0.00001525,-0.00005396,
 -0.00014022,0.00054840,0.00084248,-0.00027048,-0.00016354,-0.00039855,
 0.00004889,-0.00000927,-0.00000919,0.00004048,0.00002554,0.00002510,-0
 .00002225,0.00000111,0.00002375,-0.00004218,0.00000471,-0.00001126,0.0
 0000255,-0.00072266,-0.00095361,-0.00018632,-0.00044439,-0.00243513,-0
 .00030246,0.00006978,-0.00002477,0.00007387,-0.00042817,0.00020749,0.0
 0074802,0.00005970,0.00001133,-0.00004485,-0.00004541,-0.00001124,-0.0
 0000558,0.00002135,-0.00002262,0.00006081,-0.00005878,-0.00001085,0.00
 000606,0.00001844,0.00000897,-0.00000813,-0.00002648,0.00000982,0.0000
 3583,0.00047698,-0.00042709,0.00002355,-0.00017419,0.00022709,-0.00016
 880,-0.00690638,-0.02251052,0.01398660,-0.00013761,-0.00026785,0.00017
 143,0.00048115,-0.00006059,0.00024050,-0.00014110,0.00000780,0.0002533
 0,-0.00001020,0.00002192,-0.00002807,0.00002808,0.00005330,-0.00003595
 ,-0.00011844,-0.00003057,-0.00004520,-0.00050459,-0.00011161,-0.000169
 48,0.00098412,-0.00743467,0.00062931,-0.00025209,0.00023759,-0.0000123
 9,-0.00001084,-0.00002282,-0.00000086,0.00000618,0.00000897,-0.0000036
 9,0.00020422,0.00007177,-0.00014508,-0.00003284,0.00000456,-0.00000839
 ,-0.00001967,-0.00006899,0.00001659,-0.00000360,0.00000766,-0.00000103
 ,-0.00001327,0.00000422,-0.00000651,0.00003712,0.00001186,0.00001669,0
 .00002531,0.00000661,0.00000338,0.00000602,0.00001348,-0.00000235,0.00
 000968,-0.00000654,0.00000208,-0.00000644,-0.00000536,-0.00000199,-0.0
 2736495,-0.12510424,0.06121413,-0.01747534,0.48955429,0.00003963,-0.00
 004811,-0.00015091,0.00032714,-0.00030005,-0.00023957,0.00019689,-0.00
 012552,0.00005579,0.00001769,0.00000219,-0.00003253,0.00000360,-0.0000
 2782,0.00000290,0.00000402,-0.00001821,0.00003460,-0.00002485,-0.00001
 246,-0.00000214,-0.00004995,0.00050272,-0.00081552,-0.00053108,-0.0011
 7869,-0.00013966,0.00000554,-0.00001754,-0.00000459,-0.00054648,-0.000
 41820,0.00079773,-0.00010540,-0.00005176,0.00000488,0.00004837,0.00004
 579,0.00001110,0.00001161,0.00002836,-0.00001636,-0.00006773,0.0000857
 8,-0.00003568,-0.00000141,0.00001495,-0.00002290,0.00002017,0.00000275
 ,-0.00002507,-0.00003720,-0.00001269,-0.00003185,0.00006104,0.00004072
 ,0.00007215,-0.00219546,-0.00033341,0.00421220,-0.00007127,-0.00019766
 ,-0.00001405,0.00021100,0.00017996,-0.00031739,-0.00003582,-0.00003080
 ,-0.00003883,0.00004832,0.00000650,0.00002598,-0.00005836,-0.00003837,
 0.00004958,0.00003985,0.00000105,-0.00001981,-0.00128786,-0.00039673,0
 .00048624,0.00007486,-0.00214204,0.00032687,-0.00006719,-0.00026617,0.
 00010123,0.00000533,0.00001803,0.00000207,-0.00000290,-0.00000136,0.00
 000464,0.00005300,-0.00003952,-0.00008867,-0.00006082,-0.00003575,-0.0
 0003882,0.00000947,0.00005634,-0.00002821,-0.00000376,-0.00001471,0.00
 001163,-0.00000428,-0.00000292,0.00000230,0.00001254,0.00001162,-0.000
 01524,-0.00001896,0.00002106,0.00002871,-0.00000529,-0.00000519,-0.000
 00652,-0.00000630,-0.00000214,0.00001439,-0.00000231,0.00000319,0.0000
 0933,0.02744564,0.05769110,-0.12000800,0.01210856,0.03369952,0.5091228
 8,0.00033792,0.00011619,0.00015511,-0.00023281,0.00103908,-0.00047196,
 -0.00026419,0.00004138,-0.00020076,-0.00002293,0.00001552,0.00003488,-
 0.00000048,0.00000441,-0.00000646,-0.00004982,0.00002909,-0.00002767,0
 .00000565,0.00003218,0.00004072,-0.00032482,-0.00031048,-0.00002257,-0
 .00014733,-0.00037131,0.00017602,0.00001293,-0.00002714,-0.00006108,0.
 00042478,0.00006727,-0.00012772,0.00038878,0.00027420,0.00008632,-0.00
 010449,-0.00019102,-0.00007238,-0.00007563,0.00000478,0.00004859,-0.00
 084527,-0.00026689,0.00021595,-0.00001661,-0.00001620,-0.00002714,-0.0
 0002809,-0.00001716,0.00002175,-0.00035376,0.00028175,-0.00001080,-0.0
 0006715,-0.00005163,0.00000679,0.00256051,0.00018913,0.00416395,0.0006
 6442,0.00022772,0.00041403,-0.00031668,-0.00013895,-0.00059790,-0.0000
 6847,-0.00005309,0.00001735,0.00012511,-0.00002073,-0.00002509,-0.0000
 3394,-0.00001618,-0.00000707,-0.00002381,0.00017140,0.00006939,-0.0005
 2619,0.00006473,-0.00000715,0.00003189,-0.00077716,-0.00039402,0.00092
 441,0.00067606,0.00110767,0.00001166,-0.00004435,0.00000837,0.00000031
 ,-0.00001735,-0.00000708,-0.00010830,-0.00007436,-0.00007982,0.0000633
 4,0.00008084,0.00004010,-0.00003273,-0.00005916,0.00000450,0.00000894,
 0.00001889,-0.00000972,0.00000366,-0.00000549,0.00000217,-0.00001023,-
 0.00000672,0.00003405,0.00002690,-0.00002268,-0.00003964,0.00000446,0.
 00000092,0.00000973,0.00000652,0.00000441,-0.00000867,0.00002066,-0.00
 000936,-0.00000083,-0.09210848,-0.00816221,-0.04951196,0.00278337,0.00
 027541,0.00541137,0.50854650,0.00028658,-0.00013986,-0.00002076,0.0020
 0933,-0.00380892,0.00308620,0.00033392,-0.00008474,-0.00053687,0.00003
 097,-0.00002219,-0.00002230,0.00002552,0.00000639,0.00000650,0.0000005
 4,-0.00000149,-0.00001274,0.00004000,-0.00002610,0.00002767,0.00058269
 ,-0.00013391,-0.00110969,0.00023342,0.00129044,-0.00149984,0.00002580,
 -0.00004102,0.00004552,-0.00055702,-0.00006099,0.00058864,0.00029046,0
 .00005353,-0.00000408,-0.00009151,0.00011743,-0.00000073,0.00002702,0.
 00003926,0.00002093,-0.00081391,0.00038255,0.00001822,0.00003442,-0.00
 000137,-0.00001808,0.00001949,0.00000950,0.00001889,0.00009520,-0.0003
 4892,-0.00009383,-0.00002692,-0.00006740,0.00018443,-0.00914593,-0.013
 77217,-0.02681158,-0.00241825,-0.00064466,-0.00137057,0.00001261,0.000
 01388,0.00002711,-0.00003652,0.00004095,0.00004345,0.00001537,-0.00001
 277,-0.00001017,0.00008821,0.00002670,-0.00002312,-0.00007155,0.000027
 38,0.00001428,-0.00013237,-0.00008891,-0.00002111,-0.00039826,-0.00035
 864,-0.00108791,-0.00091660,0.00118735,-0.00025633,0.00000684,-0.00000
 544,0.00000783,-0.00000592,-0.00000175,0.00000797,0.00005610,-0.000000
 68,0.00006914,-0.00015768,-0.00008837,-0.00006114,0.00000216,0.0000128
 4,-0.00001100,-0.00000057,-0.00000146,0.00001682,-0.00001194,-0.000002
 00,0.00000686,0.00000188,0.00000454,-0.00003632,-0.00000342,0.00003665
 ,0.00001975,-0.00001555,-0.00001557,-0.00000235,0.00002388,0.00000624,
 0.00001304,-0.00000407,0.00000538,0.00000143,-0.00930979,-0.06470267,-
 0.01790869,0.00647149,0.00083239,0.01953068,-0.00469851,0.52259149,-0.
 00013383,0.00009099,-0.00023479,0.00105594,-0.00145211,0.00107271,-0.0
 0025010,-0.00034640,0.00007549,0.00001514,-0.00002107,0.00006273,-0.00
 000771,0.00003456,-0.00001603,-0.00000479,0.00003171,-0.00004082,0.000
 02668,0.00001268,-0.00000977,-0.00035044,-0.00006378,0.00136990,0.0000
 1513,0.00015281,-0.00035301,0.00014517,-0.00000029,0.00015071,0.000407
 74,0.00039410,-0.00066265,-0.00023597,-0.00009379,-0.00018346,-0.00010
 782,-0.00000352,-0.00002220,0.00005981,-0.00007150,0.00007663,0.000843
 24,-0.00012143,0.00004428,0.00001359,0.00003054,0.00001383,-0.00003236
 ,0.00002788,0.00006078,0.00033506,-0.00008803,-0.00006095,-0.00018396,
 0.00015416,-0.00015950,-0.00396829,-0.01199824,-0.01416455,-0.00105275
 ,-0.00031929,-0.00067677,0.00032048,-0.00012664,-0.00001742,0.00006925
 ,0.00008998,0.00014176,-0.00005469,0.00005257,-0.00001101,-0.00000320,
 0.00003993,-0.00006076,-0.00012743,-0.00002434,-0.00006988,-0.00013619
 ,0.00004426,-0.00026177,0.00022761,0.00095978,-0.00072441,-0.00050313,
 0.00107818,0.00044825,-0.00001761,-0.00001834,-0.00000581,0.00000527,0
 .00000829,0.00000499,-0.00002846,0.00005593,0.00001460,0.00004753,0.00
 004295,-0.00003155,-0.00002318,-0.00007670,0.00001718,-0.00001083,0.00
 000509,-0.00002087,-0.00000850,-0.00000123,0.00000083,0.00002563,-0.00
 000677,0.00004873,0.00003412,-0.00000444,-0.00002936,0.00000858,0.0000
 1159,0.00000694,0.00000931,0.00000569,0.00000088,-0.00000307,-0.000004
 62,-0.00000946,-0.04885593,-0.01493063,-0.15782313,-0.00759410,0.00230
 173,-0.02776183,-0.02833426,-0.01490150,0.46102819,-0.00002520,-0.0001
 0751,-0.00001191,-0.00103982,-0.00059470,0.00012486,-0.00007072,0.0001
 7270,-0.00008789,0.00000918,0.00000516,-0.00003958,-0.00000356,-0.0000
 1779,0.00001161,-0.00002639,-0.00002062,0.00001458,0.00000928,0.000011
 23,0.00002562,-0.00011528,0.00023782,-0.00020722,0.00063965,0.00036197
 ,-0.00012736,-0.00004435,0.00003903,-0.00004275,0.00009287,-0.00017798
 ,0.00005529,-0.00004626,0.00005204,0.00006218,0.00008580,0.00002047,-0
 .00001063,-0.00000943,0.00001264,-0.00001733,-0.00008231,-0.00002261,-
 0.00006213,0.00000749,-0.00002225,-0.00002213,0.00000571,-0.00000736,-
 0.00001276,-0.00014241,0.00024317,-0.00005898,0.00013641,-0.00012498,0
 .00009455,0.00006758,0.00020290,-0.00015932,0.00047765,0.00015450,0.00
 004983,-0.00011574,-0.00000759,0.00009233,-0.00003315,-0.00011036,-0.0
 0007930,0.00011643,-0.00001113,-0.00002825,0.00004501,-0.00002671,0.00
 003167,0.00010826,0.00007770,0.00011660,-0.00007666,0.00011753,0.00018
 532,0.00012646,-0.00001884,-0.00006956,0.00036991,-0.00032800,0.000075
 16,0.00002111,0.00000988,-0.00000039,-0.00000553,-0.00003269,0.0000023
 5,0.00003564,-0.00010602,-0.00012300,0.00001531,-0.00001980,0.00001596
 ,0.00000204,0.00005916,-0.00001367,0.00001716,0.00001068,0.00002028,-0
 .00001714,-0.00001872,-0.00000160,-0.00000890,0.00001526,-0.00002784,-
 0.00001291,0.00000513,0.00001157,-0.00001888,-0.00003019,0.00000458,-0
 .00000299,0.00000634,0.00000266,0.00001780,0.00000766,0.00001062,-0.01
 457905,-0.00494821,0.00405699,-0.28323836,-0.01525406,-0.00802325,0.00
 115007,0.00070268,-0.00109948,0.32777887,-0.00006773,-0.00001798,0.000
 06919,-0.00081144,-0.00058063,0.00015867,-0.00008981,-0.00004282,0.000
 03773,0.00000023,0.00000884,-0.00000746,-0.00000135,0.00000560,0.00000
 278,0.00000234,-0.00000197,0.00000016,0.00001756,0.00000947,0.00000676
 ,-0.00007761,0.00007731,-0.00003812,0.00052801,0.00027048,-0.00000378,
 -0.00000278,0.00002238,-0.00003434,0.00012227,0.00006750,-0.00005399,-
 0.00005794,-0.00005016,0.00010667,0.00003842,-0.00002132,-0.00000337,-
 0.00000878,-0.00001397,-0.00000645,-0.00002687,-0.00003022,-0.00005849
 ,0.00000164,-0.00001494,0.00000990,-0.00000180,-0.00000518,-0.00000336
 ,-0.00013306,-0.00005879,0.00004119,0.00010602,0.00014271,-0.00003953,
 -0.00067909,0.00056112,0.00010450,0.00040387,0.00033742,0.00003461,-0.
 00013035,0.00006681,0.00000128,-0.00002781,0.00000443,-0.00013555,0.00
 000531,0.00003164,0.00001657,0.00000733,0.00000680,0.00000236,0.000046
 60,-0.00002674,0.00001004,0.00014935,-0.00003291,-0.00005900,0.0001936
 3,-0.00023173,-0.00011130,0.00024221,-0.00032728,0.00016678,0.00000891
 ,-0.00000031,-0.00000016,0.00000419,-0.00000260,-0.00000139,-0.0001058
 3,-0.00003228,0.00009523,0.00004513,-0.00001135,0.00001234,-0.00000274
 ,-0.00000345,-0.00000172,0.00000347,0.00000559,-0.00000390,-0.00000243
 ,0.00000403,-0.00000377,-0.00000151,0.00000821,-0.00000334,-0.00000474
 ,0.00000417,0.00000409,0.00000188,-0.00000026,0.00000519,-0.00000292,0
 .00000451,0.00000271,0.00000829,-0.00000129,0.00000378,-0.02294701,-0.
 00314601,0.00211606,-0.01633631,-0.04567226,-0.00141682,-0.00034757,0.
 00057434,-0.00101526,0.02026583,0.05033391,0.00004420,0.00003581,-0.00
 000287,-0.00036405,-0.00009152,0.00013816,-0.00014911,-0.00007278,-0.0
 0000964,0.00000667,0.00000914,0.00000622,-0.00002067,-0.00000622,0.000
 00273,-0.00000637,-0.00000068,0.00000950,0.00000428,0.00001878,0.00002
 220,0.00004597,-0.00004162,0.00003006,0.00035808,-0.00004221,-0.000079
 63,-0.00003870,0.00000682,0.00000032,-0.00002104,0.00000908,0.00003015
 ,0.00006938,0.00006538,-0.00010876,-0.00003334,0.00001075,0.00000063,0
 .00000229,-0.00000437,0.00001067,0.00004732,0.00001654,0.00006209,-0.0
 0000731,0.00000710,0.00000678,0.00000152,-0.00000275,-0.00000073,0.000
 02330,-0.00001191,-0.00000908,0.00005809,-0.00001760,-0.00000769,-0.00
 008716,-0.00026229,0.00005576,0.00026525,0.00015755,-0.00002458,0.0000
 2412,-0.00021760,0.00016316,-0.00004906,-0.00006168,0.00002104,0.00001
 037,0.00000631,0.00000085,0.00001160,-0.00000839,0.00000593,-0.0001339
 9,0.00002788,0.00008195,0.00039828,0.00025787,-0.00007660,-0.00005538,
 0.00011517,-0.00002017,0.00001216,0.00003211,0.00010770,0.00000169,0.0
 0000486,-0.00000124,-0.00000486,-0.00000231,-0.00000075,-0.00003283,0.
 00000345,-0.00001177,-0.00000268,0.00000080,-0.00004308,-0.00000474,0.
 00000567,-0.00000257,0.00000067,0.00000004,0.00000754,0.00000193,-0.00
 000430,-0.00000020,0.00000038,-0.00000602,0.00000716,0.00000219,-0.000
 00425,-0.00000522,-0.00000063,-0.00000274,0.00000021,-0.00000220,0.000
 00640,-0.00000174,0.00000673,0.00000114,-0.00000179,0.02034100,0.00342
 211,-0.00206462,-0.00832625,-0.00160199,-0.04355131,0.00169858,0.00018
 675,0.00068892,0.00840381,-0.00178769,0.05077088,0.00013677,0.00023799
 ,0.00000960,-0.00033911,-0.00028754,0.00041930,-0.00008542,-0.00002316
 ,0.00005116,-0.00001586,-0.00000682,0.00000385,0.00001350,0.00000170,0
 .00000412,0.00003751,0.00003684,0.00000180,0.00002703,0.00002385,0.000
 02559,-0.00001602,-0.00006960,0.00003381,0.00025691,0.00025445,-0.0000
 3768,0.00005191,-0.00002711,0.00000644,-0.00012854,-0.00002289,0.00007
 824,-0.00000033,-0.00002964,-0.00003104,-0.00000500,-0.00002959,-0.000
 02116,-0.00000394,0.00005648,0.00001513,0.00000757,-0.00001820,-0.0000
 2216,-0.00000977,-0.00001348,0.00000717,0.00000400,0.00001386,0.000003
 68,0.00020730,0.00004361,-0.00004609,-0.00007894,0.00001954,-0.0000533
 0,0.00008215,-0.00154213,0.00073193,0.00014802,0.00008803,0.00000743,-
 0.00002003,-0.00006483,-0.00011618,-0.00012226,-0.00009166,-0.00018989
 ,-0.00006778,0.00002647,0.00009599,0.00004630,0.00000325,0.00001488,-0
 .00003400,-0.00005581,0.00001839,0.00011676,-0.00013868,-0.00010395,0.
 00014474,-0.00039255,-0.00003516,0.00012847,-0.00032096,0.00003001,0.0
 0000116,-0.00000513,-0.00000537,0.00000643,0.00000977,-0.00000255,-0.0
 0023531,0.00006131,0.00031933,0.00002265,0.00006111,0.00000537,0.00000
 023,-0.00003430,0.00000779,-0.00001015,0.00000506,-0.00001768,0.000008
 99,0.00001328,-0.00000284,0.00000535,0.00000019,0.00000430,0.00000371,
 0.00000429,-0.00000250,0.00001201,0.00001405,0.00000241,0.00000097,0.0
 0000191,0.00000255,0.00000235,-0.00000077,-0.00000150,0.00324816,-0.00
 773114,-0.00147055,-0.08270543,0.08602847,0.02248675,0.00002962,0.0000
 8499,-0.00011338,-0.01830917,0.03040189,0.00880911,0.09315083,0.000366
 08,0.00050589,0.00020629,0.00091554,0.00057623,0.00069806,0.00054693,-
 0.00027291,-0.00004006,0.00007764,0.00002875,-0.00003988,0.00001701,-0
 .00001871,0.00001997,0.00006524,0.00000781,0.00003465,0.00004331,0.000
 00411,0.00003621,0.00002663,0.00057582,-0.00093528,-0.00031149,-0.0002
 6577,-0.00017219,0.00017321,0.00000061,0.00002851,-0.00080540,-0.00024
 665,0.00067293,-0.00008123,-0.00016152,-0.00007839,-0.00013653,-0.0000
 2649,-0.00003950,0.00005467,0.00003942,-0.00002201,0.00001003,-0.00011
 692,0.00007741,-0.00006077,0.00003244,0.00000583,0.00002836,0.00002654
 ,-0.00004128,0.00040327,-0.00033906,0.00000554,-0.00022503,0.00022543,
 0.00001213,-0.00151225,-0.00230051,0.00302305,-0.00066473,-0.00019523,
 0.00001637,-0.00004808,0.00007403,-0.00014530,0.00003123,-0.00000696,-
 0.00012393,-0.00017850,-0.00005216,0.00009299,0.00011409,0.00002834,-0
 .00000292,0.00008579,-0.00001816,-0.00012358,-0.00013998,-0.00069726,-
 0.00039581,0.00011255,-0.00195000,0.00033444,-0.00017380,0.00009735,-0
 .00007918,-0.00001112,0.00003615,-0.00001126,-0.00000358,0.00001125,0.
 00002306,-0.00026476,0.00030092,0.00032929,-0.00017066,-0.00008826,-0.
 00004248,0.00003252,0.00008669,-0.00002089,0.00001283,-0.00001719,0.00
 003315,-0.00002706,-0.00001172,-0.00000126,0.00002851,0.00002915,-0.00
 004404,-0.00000591,0.00004457,0.00004319,-0.00002500,-0.00002416,-0.00
 001629,0.00000890,0.00000314,0.00002012,-0.00001443,0.00001558,-0.0000
 0075,0.00716784,-0.02521784,-0.00234158,0.08599057,-0.22825824,-0.0513
 2926,0.00005618,0.00036893,-0.00054963,0.00232908,-0.00023042,-0.00067
 162,-0.09876169,0.26680422,-0.00002914,-0.00012540,0.00000811,0.000569
 00,0.00019670,-0.00037918,-0.00000755,-0.00015482,0.00000959,0.0000034
 1,0.00000221,-0.00000721,0.00001088,0.00001505,0.00000298,-0.00000558,
 -0.00001307,-0.00000347,0.00001626,-0.00000401,-0.00001917,0.00008417,
 -0.00000498,0.00014130,-0.00028197,-0.00062037,-0.00005200,-0.00003266
 ,0.00000017,-0.00001268,0.00009246,0.00002794,-0.00020773,0.00001724,0
 .00000878,0.00003843,-0.00000826,0.00000944,0.00001317,0.00000789,0.00
 000102,-0.00000437,-0.00000157,0.00005886,-0.00000949,0.00002629,-0.00
 000597,0.00000074,-0.00000611,-0.00000795,-0.00000509,-0.00002654,0.00
 002108,0.00007484,0.00000792,0.00005635,-0.00000120,0.00088440,0.00177
 417,-0.00177345,-0.00021963,-0.00002200,0.00006668,-0.00006339,0.00017
 252,-0.00000863,0.00000188,0.00013257,0.00004018,-0.00006331,-0.000028
 73,-0.00000222,-0.00002175,0.00000318,-0.00001700,0.00001508,-0.000052
 51,-0.00006931,0.00007671,-0.00037803,-0.00015184,-0.00005757,0.001221
 06,-0.00010781,-0.00015842,0.00011729,-0.00003776,-0.00000517,0.000005
 58,0.00000091,-0.00000485,0.00000247,0.00000060,0.00020055,0.00001308,
 0.00009695,-0.00001617,-0.00001209,-0.00004494,0.00000368,0.00000150,-
 0.00000648,0.00000471,-0.00000487,0.00000429,-0.00000467,-0.00000355,0
 .00000075,-0.00000909,-0.00000433,-0.00000403,-0.00000416,0.00000149,-
 0.00000077,-0.00000588,-0.00000187,-0.00000078,0.00000458,0.00000227,-
 0.00000332,-0.00000436,0.00000151,0.00000043,-0.00692384,0.01831381,0.
 00318157,0.02271267,-0.05100539,-0.05615000,0.00009829,0.00079023,0.00
 034324,-0.00049717,0.00078179,0.00087153,-0.02827886,0.05740821,0.0640
 4284,0.00005231,0.00003583,-0.00004780,0.00184075,0.00045236,-0.000817
 36,-0.00003928,-0.00019011,0.00006674,-0.00000263,-0.00001359,-0.00001
 507,0.00004634,-0.00000567,-0.00000956,0.00003813,0.00000401,-0.000014
 68,-0.00001681,-0.00005435,-0.00003877,0.00003153,0.00006606,-0.000029
 39,-0.00083529,-0.00114951,0.00033058,0.00006208,-0.00005561,0.0000161
 3,-0.00016466,-0.00004435,0.00007484,-0.00000537,-0.00002329,-0.000005
 20,0.00000715,0.00002353,-0.00001153,-0.00000269,0.00004173,0.00001150
 ,-0.00001579,0.00000257,-0.00002604,0.00001286,-0.00000686,-0.00002433
 ,-0.00000125,0.00001307,-0.00000246,0.00018951,0.00000348,-0.00011058,
 -0.00008586,0.00002984,0.00005719,0.00030861,0.00020700,-0.00000187,-0
 .00084782,-0.00036019,0.00011248,-0.00088135,-0.00009989,0.00014429,0.
 00006399,0.00016550,0.00007984,-0.00006796,-0.00004213,0.00000341,-0.0
 0001314,-0.00000191,0.00001633,0.00001929,-0.00006945,-0.00010618,-0.0
 0193131,-0.00104890,0.00034339,0.00001961,0.00018611,-0.00001327,-0.00
 018235,0.00002872,-0.00015112,-0.00000518,0.00000081,-0.00000407,0.000
 00568,0.00001273,0.00000050,0.00005483,0.00003214,0.00003958,-0.000013
 75,0.00002750,-0.00001931,0.00001357,-0.00000934,0.00000397,-0.0000082
 0,-0.00000510,-0.00000362,0.00000365,0.00001133,0.00000251,0.00000137,
 0.00000808,-0.00001216,0.00000241,0.00000981,0.00000603,0.00000352,0.0
 0000882,-0.00000571,0.00000686,-0.00001268,-0.00000042,-0.00001782,0.0
 0000279,0.00000031,0.00278660,0.00228310,0.00772612,-0.05982610,-0.015
 74348,-0.05805188,0.00007830,-0.00072366,0.00065614,-0.01397175,-0.009
 89372,-0.03227248,0.00361084,0.00461124,0.01223647,0.06935975,0.000066
 49,-0.00015170,-0.00010209,-0.00271476,-0.00432231,0.00348889,-0.00033
 792,-0.00019614,0.00040611,-0.00001652,0.00000833,0.00001236,0.0000103
 1,-0.00001648,-0.00001150,0.00000463,-0.00000473,0.00000383,-0.0000630
 5,-0.00002398,-0.00002991,-0.00001162,0.00000302,0.00018166,0.00104204
 ,0.00036073,-0.00249529,-0.00005734,0.00003191,-0.00003919,0.00017731,
 0.00015909,-0.00022623,-0.00003188,0.00008662,0.00001219,0.00008497,-0
 .00001409,-0.00000763,-0.00000510,-0.00004624,-0.00001115,0.00001738,-
 0.00002205,-0.00002747,0.00001773,-0.00002280,-0.00000979,0.00000310,-
 0.00000858,0.00000517,-0.00011543,-0.00000786,0.00011560,0.00013909,0.
 00008444,-0.00026362,0.00003829,0.00066730,-0.00032841,0.00122411,0.00
 080072,-0.00042078,-0.00033204,-0.00020714,0.00017021,0.00006290,-0.00
 002089,-0.00002552,0.00010568,0.00000016,-0.00003154,-0.00001538,-0.00
 001302,0.00003033,-0.00005009,0.00002619,0.00005743,-0.00086647,0.0006
 7710,0.00019295,-0.00007073,0.00010444,-0.00024508,0.00006047,0.000009
 58,-0.00001637,0.00001140,-0.00000172,0.00000124,0.00000984,0.00000709
 ,-0.00000902,-0.00006483,-0.00007930,-0.00006511,0.00008487,0.00003543
 ,0.00003827,-0.00000713,0.00000444,0.00001196,-0.00001575,0.00001005,-
 0.00000727,0.00002949,0.00001646,-0.00000281,-0.00000349,0.00000093,0.
 00000940,-0.00000381,-0.00002111,-0.00000294,0.00002017,0.00001715,-0.
 00000192,-0.00001358,-0.00001333,-0.00001387,0.00000120,0.00000035,0.0
 0000219,0.00546578,0.00410886,0.01919928,-0.01622658,-0.05813417,-0.05
 925696,-0.00110474,-0.00261916,0.00340821,-0.00133558,0.00033718,-0.00
 269755,-0.00689133,-0.01049960,-0.02839964,0.02136161,0.06877744,-0.00
 039705,-0.00011717,0.00004167,-0.00008021,0.00011636,0.00101065,-0.000
 05633,0.00028272,-0.00019065,-0.00002428,-0.00001995,0.00000941,-0.000
 06105,0.00002144,0.00000661,-0.00007614,0.00000468,-0.00000042,-0.0000
 0584,-0.00000226,0.00002943,-0.00005458,-0.00008965,-0.00009663,-0.000
 23606,-0.00121008,-0.00055946,-0.00008114,0.00001068,-0.00000276,0.000
 00200,-0.00010747,0.00018546,0.00006744,0.00000601,-0.00000197,0.00002
 739,0.00004969,0.00003923,-0.00007973,-0.00005712,0.00002562,-0.000056
 96,-0.00000038,-0.00000210,-0.00001061,0.00002269,0.00001600,-0.000020
 44,-0.00000085,0.00002733,-0.00005859,0.00002058,0.00000373,0.00019415
 ,-0.00007105,0.00007177,-0.00021846,-0.00095466,0.00012879,0.00039409,
 0.00017690,-0.00005797,-0.00015620,-0.00027538,-0.00012710,-0.00000598
 ,-0.00014384,-0.00007846,-0.00000343,0.00002890,-0.00000633,-0.0000732
 6,-0.00005533,-0.00002477,-0.00007862,0.00017982,0.00016572,0.00138459
 ,0.00066774,0.00073376,0.00012688,-0.00029415,0.00000243,-0.00008485,0
 .00004854,-0.00008320,0.00000012,-0.00001476,0.00000857,-0.00001111,-0
 .00001896,-0.00000228,0.00000174,-0.00008198,-0.00013751,0.00000880,0.
 00001315,-0.00004878,-0.00002875,-0.00006690,-0.00000172,-0.00000175,0
 .00001211,-0.00000669,-0.00001840,-0.00001122,0.00000406,0.00000108,-0
 .00001380,0.00003204,0.00001936,-0.00001299,-0.00002054,-0.00000690,-0
 .00000945,0.00001026,0.00000363,0.00000576,0.00000121,0.00001141,-0.00
 000501,0.00000070,-0.00484462,-0.00097814,-0.02244052,-0.05986089,-0.0
 5858957,-0.25793191,0.00165470,0.00322266,-0.00328386,-0.00418996,-0.0
 0200871,-0.00394510,-0.00225175,-0.00576995,-0.01004613,0.06940754,0.0
 6617158,0.29712790,0.00456643,0.00168526,-0.00138524,-0.00049238,-0.00
 019751,0.00126455,0.00116968,-0.00038218,0.00047939,0.00049435,0.00067
 349,-0.00014611,0.00036901,-0.00039811,0.00017292,0.00030809,0.0000385
 9,0.00023166,0.00000457,0.00010715,0.00046533,-0.00017548,0.00150916,-
 0.00099378,0.00017138,-0.00005434,-0.00037822,0.00103144,0.00048268,-0
 .00049807,-0.00077037,-0.00047436,0.00047569,-0.00191858,-0.00080501,0
 .00152138,0.00004739,-0.00016706,-0.00109899,0.00035629,0.00039520,-0.
 00035575,-0.00019927,-0.00045729,0.00088451,0.00003894,-0.00013349,-0.
 00052376,0.00034266,0.00019875,-0.00031354,0.00034213,0.00015573,-0.00
 030058,-0.00083556,0.00081874,-0.00039296,-0.01128860,0.00540356,0.002
 52581,-0.00009018,0.00032285,0.00011505,-0.00473089,-0.00044477,-0.005
 61472,-0.00442251,0.00149318,-0.00010223,0.00056949,-0.00067361,0.0006
 6879,0.00048658,-0.00058867,0.00073764,-0.00035149,-0.00026970,0.00095
 706,-0.00141446,0.00046237,-0.00296673,0.00133314,-0.00295994,-0.00046
 812,-0.00043208,0.00177866,0.00075570,0.00019098,0.00035505,-0.0000276
 0,0.00005743,0.00005356,0.00005132,-0.00078541,0.00100019,0.00009297,-
 0.00020955,0.00065859,0.00004734,0.00003657,-0.00009699,0.00000589,0.0
 0003546,0.00004128,0.00011111,-0.00004843,-0.00001719,0.00000296,0.000
 01974,0.00007077,0.00005388,0.00009242,0.00005131,-0.00006770,-0.00001
 202,-0.00001423,-0.00001666,0.00003420,0.00002132,-0.00000380,0.000033
 44,0.00012682,0.00004271,-0.23839796,0.00806483,0.02902736,-0.01054583
 ,-0.00240513,0.00326544,-0.01751038,-0.00015187,-0.00301557,-0.0001100
 2,-0.00147142,0.00146130,0.00065851,0.00041109,-0.00037672,-0.00002268
 ,0.00006481,-0.00010756,0.28181161,0.00091759,-0.00200775,-0.00036347,
 0.00123000,0.00067669,0.00098163,-0.00131332,-0.00236556,-0.00097687,0
 .00008513,0.00012639,0.00003491,0.00008380,0.00001223,-0.00001802,0.00
 001416,-0.00012061,-0.00002858,-0.00009559,-0.00004217,-0.00003569,0.0
 0054746,-0.00096843,0.00033168,-0.00010113,0.00007331,-0.00018213,-0.0
 0012180,0.00001746,-0.00013690,0.00030703,0.00036804,-0.00030123,-0.00
 055949,0.00046069,0.00045293,0.00010452,0.00023341,-0.00006437,0.00012
 718,-0.00019449,-0.00001816,-0.00018640,0.00071987,0.00078114,0.000201
 26,-0.00006555,-0.00015280,0.00002666,-0.00007884,0.00000833,-0.000224
 73,-0.00015515,0.00017164,-0.00062431,-0.00049947,0.00037338,0.0267123
 4,-0.00810555,-0.00521944,-0.00037141,-0.00016027,-0.00002509,-0.00011
 180,0.00110018,0.00073614,0.00080721,0.00025313,0.00066384,0.00051690,
 0.00005543,-0.00005425,0.00006868,-0.00018402,-0.00006581,-0.00030435,
 0.00002942,0.00005272,0.00003328,0.00132433,0.00003855,0.00221916,0.00
 016518,-0.00022615,0.00137649,-0.00501577,-0.00125137,0.00005869,0.000
 05223,0.00000927,0.00002385,0.00004958,0.00000250,0.00103039,-0.001601
 47,-0.00027514,0.00008390,0.00002438,0.00001373,0.00001579,0.00010503,
 -0.00003339,0.00001536,0.00000401,0.00001909,0.00004513,0.00002638,0.0
 0001741,-0.00003840,-0.00004434,-0.00005496,-0.00004982,0.00000489,0.0
 0004555,0.00002630,0.00002124,0.00000573,-0.00000083,-0.00001071,-0.00
 000639,-0.00001257,0.00003862,0.00002344,0.00944881,-0.04274280,-0.001
 98399,-0.01944206,-0.00157792,0.00462441,-0.00482446,0.00115033,-0.000
 93098,-0.00202039,-0.00233188,0.00298014,-0.00083174,0.00055257,-0.000
 05192,0.00000380,0.00011110,-0.00024804,-0.01363729,0.05993091,-0.0007
 5504,-0.00000654,-0.00223660,0.00153471,0.00020745,0.00059753,-0.00030
 521,-0.00149167,0.00111013,-0.00013751,-0.00010675,-0.00003582,0.00004
 770,0.00006862,-0.00007834,0.00011889,-0.00004342,-0.00003861,-0.00007
 678,-0.00011025,-0.00018395,-0.00019359,0.00028348,0.00007613,-0.00016
 846,0.00009021,-0.00022987,-0.00006765,-0.00031878,0.00012402,-0.00013
 276,0.00002505,-0.00013073,0.00139089,0.00037618,-0.00046845,0.0003899
 3,-0.00022879,0.00017382,-0.00014834,-0.00002501,0.00024709,0.00072325
 ,0.00058498,-0.00304971,0.00014671,-0.00008149,0.00001457,-0.00018724,
 -0.00002988,-0.00004079,0.00025782,-0.00005517,0.00003562,-0.00001919,
 0.00062541,-0.00006563,0.01097922,-0.00326434,-0.00146260,-0.00058083,
 -0.00008774,-0.00029888,-0.00176131,0.00062841,-0.00167916,-0.00052832
 ,0.00109040,0.00061280,-0.00030507,0.00010567,-0.00008920,-0.00012321,
 -0.00006593,-0.00003200,-0.00103797,-0.00077688,-0.00063694,-0.0026257
 4,0.00050345,-0.00610798,-0.00067035,0.00162490,0.00017679,0.00052284,
 -0.00200642,-0.00008915,-0.00005490,-0.00001305,-0.00010106,-0.0000051
 7,0.00001796,-0.00003977,0.00017032,-0.00006386,0.00061484,-0.00005356
 ,-0.00013611,-0.00005061,0.00001847,0.00002129,0.00002653,-0.00002927,
 -0.00002230,0.00000360,0.00001956,0.00002169,-0.00001321,0.00001452,0.
 00002341,-0.00002283,-0.00002766,-0.00000331,0.00003374,0.00001350,0.0
 0003286,-0.00002020,-0.00001045,-0.00002454,-0.00001448,-0.00005191,0.
 00002813,0.00001507,0.02886887,-0.00161320,-0.04447571,0.01953778,0.00
 161793,-0.00336851,-0.02745197,0.00006731,-0.00195937,0.00137009,0.002
 89190,-0.00254258,-0.00021583,-0.00054247,0.00072703,0.00009007,-0.000
 08477,0.00004093,-0.02438472,0.00080969,0.06815298,-0.00001690,-0.0001
 1046,-0.00003360,-0.00036989,-0.00004891,0.00006635,0.00005969,0.00019
 225,0.00006407,-0.00000584,0.00002722,-0.00001962,0.00001379,-0.000016
 68,0.00000730,-0.00001548,-0.00002037,0.00000872,-0.00000430,0.0000151
 3,0.00000821,-0.00056034,0.00019806,-0.00033689,0.00030666,0.00010211,
 -0.00000907,0.00001977,0.00002077,-0.00004221,0.00026773,-0.00025340,0
 .00002382,0.00004701,0.00002556,0.00009289,0.00011568,-0.00007511,-0.0
 0002584,0.00001996,0.00002339,-0.00002214,-0.00009248,-0.00003755,-0.0
 0012536,0.00003414,-0.00003800,-0.00002537,-0.00001198,-0.00000975,-0.
 00002141,-0.00028684,0.00035694,0.00000410,0.00005826,0.00002587,0.000
 00620,0.00040060,0.00042780,0.00083593,0.00029709,0.00008837,0.0000894
 8,-0.00023102,0.00007425,-0.00012732,0.00000233,-0.00001652,-0.0000619
 3,0.00009812,-0.00000645,-0.00000063,-0.00003398,-0.00002704,0.0000478
 3,0.00008869,-0.00000734,0.00002409,-0.00012410,0.00000554,0.00011549,
 -0.00010924,-0.00024805,-0.00001123,0.00059644,-0.00060493,-0.00025598
 ,0.00001184,0.00000631,-0.00000955,-0.00000716,-0.00003329,-0.00000593
 ,0.00000328,-0.00012508,-0.00001328,0.00000817,-0.00003288,0.00001375,
 0.00001203,0.00004931,-0.00000838,0.00002216,0.00000207,0.00001793,-0.
 00002156,-0.00001905,-0.00000551,-0.00001399,0.00001923,-0.00002162,-0
 .00002019,0.00000641,0.00001134,-0.00001517,-0.00002198,0.00000225,-0.
 00000657,0.00000562,0.00000322,0.00001661,0.00000513,0.00001289,-0.019
 48809,-0.00092408,-0.00424397,0.00087483,-0.00016064,0.00108634,-0.278
 79298,0.00572481,0.02415975,0.00072716,0.00033412,-0.00048450,-0.00014
 907,-0.00001366,0.00000490,0.00013144,-0.00003427,0.00037035,-0.000886
 81,-0.00062180,-0.00346168,0.32401718,-0.00004452,-0.00001894,0.000032
 02,-0.00002401,-0.00005377,-0.00023962,-0.00012082,0.00004769,-0.00005
 963,0.00000228,0.00000785,0.00000596,-0.00000990,0.00000296,-0.0000021
 3,-0.00000211,0.00000049,0.00000082,0.00000513,0.00000165,-0.00000081,
 -0.00042278,0.00001763,0.00010288,-0.00000665,-0.00007607,0.00016311,-
 0.00000897,0.00002475,-0.00000615,0.00030638,0.00011863,-0.00010848,-0
 .00004867,0.00013481,0.00000339,-0.00005636,-0.00005054,-0.00003379,-0
 .00001879,-0.00000851,-0.00000600,0.00020397,-0.00025233,0.00000230,-0
 .00001553,-0.00000976,0.00000616,-0.00000278,-0.00000739,0.00000611,-0
 .00016948,-0.00002095,-0.00005894,0.00010335,0.00004334,0.00001030,-0.
 00115649,0.00071711,0.00013700,0.00006758,0.00005681,0.00007423,-0.000
 02829,0.00000832,-0.00004001,0.00000351,-0.00003010,-0.00002844,0.0000
 0325,0.00001483,0.00000152,-0.00000274,-0.00000990,-0.00000266,0.00000
 894,0.00000832,0.00001418,0.00000731,0.00001140,0.00000261,-0.00001280
 ,-0.00031504,-0.00004729,0.00018837,-0.00029859,-0.00043152,0.00000737
 ,-0.00000183,0.00000210,0.00000594,0.00000195,-0.00000158,-0.00004794,
 0.00000222,-0.00004720,0.00008476,0.00001202,0.00002871,-0.00000591,-0
 .00002132,0.00000426,0.00000047,0.00000594,-0.00001152,0.00000324,0.00
 000814,-0.00000065,-0.00000135,0.00000416,0.00001006,0.00000518,-0.000
 00220,-0.00000794,0.00000672,0.00000499,0.00000714,-0.00000221,0.00000
 093,0.00000181,0.00000472,-0.00000431,0.00000142,-0.00555744,-0.000035
 66,-0.00017065,0.00088944,0.00021092,0.00034356,0.00498919,-0.04532213
 ,-0.00009420,-0.00008258,0.00009379,0.00051157,0.00011037,-0.00012693,
 -0.00006045,-0.00011798,-0.00008968,0.00001769,-0.00060143,0.00047457,
 -0.00085323,-0.00586211,0.04888102,0.00002806,0.00004254,-0.00000117,-
 0.00028333,-0.00000561,-0.00002186,-0.00022002,-0.00005385,-0.00013214
 ,0.00001058,-0.00000280,-0.00000805,-0.00000105,0.00000304,-0.00000202
 ,-0.00000369,-0.00000405,0.00001143,0.00001374,0.00001310,0.00002423,0
 .00013087,-0.00014402,0.00003077,0.00012972,0.00002295,0.00004732,-0.0
 0002099,0.00000989,-0.00001012,0.00001604,0.00002116,0.00006449,-0.000
 06885,-0.00011563,0.00003059,0.00010558,0.00008183,0.00004877,-0.00000
 904,-0.00003461,0.00002491,-0.00027545,0.00003515,0.00001670,-0.000017
 37,0.00002158,0.00000243,0.00000934,0.00000734,0.00000135,-0.00001691,
 -0.00001514,-0.00007751,0.00015280,-0.00000922,0.00012002,-0.00055441,
 0.00085464,0.00080417,0.00025678,0.00014670,0.00014634,-0.00024827,0.0
 0001512,-0.00030006,-0.00006904,-0.00002647,-0.00008450,0.00001004,-0.
 00001616,-0.00001169,0.00000201,-0.00002371,0.00001460,-0.00001066,0.0
 0005542,0.00003821,-0.00012603,0.00000740,0.00008432,0.00021757,0.0002
 0867,-0.00011100,0.00022713,-0.00042140,-0.00003259,0.00001000,0.00000
 370,0.00000324,0.00000165,-0.00000186,0.00000280,-0.00001219,-0.000025
 08,-0.00005929,0.00002828,0.00000763,-0.00002559,0.00000098,0.00000651
 ,-0.00000751,0.00000364,0.00000545,-0.00000005,0.00000255,0.00000364,0
 .00000080,-0.00000179,-0.00000280,-0.00000490,-0.00001016,0.00000583,0
 .00000875,0.00000264,-0.00000129,0.00000611,-0.00000282,0.00000562,0.0
 0000542,0.00000874,0.00000075,0.00000186,-0.02770530,0.00027248,-0.000
 36779,-0.00124981,-0.00069573,0.00098304,0.02309752,-0.00030526,-0.045
 30486,0.00034692,0.00040144,-0.00060293,0.00015243,-0.00000040,-0.0000
 8403,0.00007666,-0.00007871,0.00018009,-0.00285788,-0.00072911,-0.0044
 4932,-0.02502707,0.00075959,0.05308176,0.00049248,0.00007377,0.0001929
 1,-0.00011203,0.00007816,0.00001451,-0.00003323,-0.00011379,-0.0002312
 5,0.00004637,0.00001619,0.00000800,0.00003562,-0.00001576,0.00001469,-
 0.00000593,0.00001491,-0.00000807,0.00002057,0.00001116,0.00003764,0.0
 0084345,-0.00058199,0.00032626,-0.00001321,-0.00002406,0.00002960,0.00
 003950,0.00002813,-0.00002321,-0.00016302,0.00012899,-0.00006451,-0.00
 087893,-0.00038207,-0.00009426,-0.00005020,0.00017938,-0.00002064,0.00
 007527,-0.00001787,-0.00001524,-0.00167041,0.00044970,0.00028056,-0.00
 000462,0.00002755,-0.00002532,0.00006268,0.00002346,0.00002512,0.00002
 886,-0.00021417,0.00010912,-0.00012275,-0.00011444,-0.00003531,0.00027
 743,0.00004178,0.00048179,-0.00005059,-0.00000575,-0.00000311,-0.00009
 811,-0.00008995,0.00000681,-0.00009262,-0.00005152,0.00004126,0.000063
 70,0.00001042,0.00004257,0.00003333,0.00000077,-0.00001243,0.00005377,
 0.00002363,0.00005643,-0.00002598,0.00000492,0.00004915,0.00001895,0.0
 0010870,-0.00055184,-0.00023123,-0.00005973,0.00019239,0.00001307,0.00
 000358,0.00002333,0.00000842,0.00001736,0.00001365,0.00000232,-0.00000
 815,-0.00003380,-0.00001293,0.00003605,0.00001148,0.00001205,0.0000110
 9,-0.00001185,0.00000025,0.00000145,-0.00000314,0.00001235,0.00000899,
 0.00000608,0.00000312,-0.00001430,0.00000046,-0.00000782,0.00001146,0.
 00001145,0.00000647,0.00000595,0.00000235,0.00000180,0.00000374,0.0000
 0872,0.00000140,-0.00000303,-0.00000455,0.00354131,0.00835526,-0.00814
 087,-0.00035182,-0.00048844,-0.00222936,-0.06370447,-0.04646743,0.0451
 6413,0.00012898,-0.00000039,-0.00008340,-0.00004336,-0.00005116,0.0000
 4456,0.00036027,0.00042979,-0.00051125,0.00034553,0.00040572,-0.000302
 47,-0.01377061,-0.02427468,0.02233206,0.07273832,-0.00025478,-0.000285
 31,-0.00000785,-0.00033981,-0.00021549,-0.00001160,-0.00018362,0.00016
 919,0.00017073,-0.00003704,0.00002497,0.00001836,0.00001530,0.00001089
 ,0.00000049,-0.00001529,0.00001076,-0.00003339,-0.00001274,0.00001120,
 -0.00001160,-0.00033352,-0.00111973,0.00039213,0.00006017,0.00012934,0
 .00005821,-0.00000983,-0.00006548,-0.00007560,0.00050563,0.00011195,-0
 .00014831,0.00003199,0.00003978,0.00014929,-0.00000724,-0.00014062,-0.
 00004979,-0.00000772,0.00002144,-0.00001486,0.00074581,0.00047060,-0.0
 0003414,0.00004268,-0.00005308,-0.00000906,-0.00004034,-0.00002420,0.0
 0000452,-0.00047503,0.00012188,-0.00012275,-0.00008650,0.00010761,0.00
 000722,-0.00024647,0.00003501,-0.00023435,0.00020273,0.00007797,-0.000
 09018,0.00005989,0.00000373,0.00003555,0.00007552,0.00004441,0.0000322
 2,0.00003951,0.00005489,0.00003841,-0.00006378,-0.00001172,-0.00005955
 ,0.00004936,-0.00005313,-0.00004541,-0.00007367,-0.00002545,0.00000266
 ,-0.00019585,0.00006982,-0.00167308,0.00001154,0.00006847,0.00006962,-
 0.00000390,-0.00002401,-0.00000660,-0.00000036,-0.00000605,-0.00001009
 ,-0.00004497,-0.00009862,0.00005142,0.00009547,0.00002853,0.00001269,-
 0.00001616,-0.00003288,0.00000008,0.00001153,0.00000606,-0.00000764,0.
 00000574,-0.00000063,0.00000364,-0.00001665,-0.00001084,0.00002698,0.0
 0001959,-0.00002104,-0.00003066,0.00000771,0.00000872,0.00000636,-0.00
 000207,-0.00000125,-0.00000687,0.00000428,-0.00000585,0.00000446,0.001
 51867,0.00269408,-0.00037387,0.00015659,0.00047476,-0.00004202,-0.0469
 6648,-0.15967893,0.10876145,0.00026235,0.00001602,-0.00015227,-0.00014
 523,0.00022584,-0.00016588,-0.00000192,0.00011638,-0.00007014,0.000220
 44,0.00000578,0.00012378,-0.00149755,-0.00036852,0.00076380,0.05498064
 ,0.18489250,0.00065632,-0.00006243,0.00001115,0.00048428,0.00060157,-0
 .00059075,-0.00049387,-0.00018898,-0.00069593,0.00005300,0.00002204,-0
 .00001151,0.00001980,-0.00002207,0.00001275,0.00001635,-0.00001917,0.0
 0002909,0.00002023,0.00000668,0.00004242,-0.00000644,-0.00148856,-0.00
 005729,-0.00026229,-0.00043975,0.00052281,-0.00014202,0.00004948,-0.00
 002830,0.00033717,0.00009838,0.00014066,0.00010221,0.00017881,-0.00022
 695,-0.00004282,0.00011309,-0.00003650,0.00009742,-0.00000734,0.000016
 16,-0.00033741,0.00021511,0.00068647,0.00001371,-0.00003044,-0.0000200
 3,0.00006906,-0.00000995,-0.00000963,-0.00059615,0.00012598,0.00002901
 ,0.00016991,-0.00031941,0.00022593,0.00049588,0.00090713,0.00052336,-0
 .00017849,-0.00017400,0.00027958,-0.00018198,-0.00003087,0.00007306,-0
 .00014420,-0.00008418,-0.00000115,0.00006347,-0.00005341,-0.00000992,0
 .00013110,-0.00000666,0.00002876,-0.00010512,0.00005284,0.00013470,0.0
 0014869,0.00008246,0.00002212,-0.00054596,0.00013403,0.00011615,0.0001
 8239,-0.00005921,-0.00020978,0.00003088,0.00002008,0.00001306,0.000006
 68,0.00000911,0.00000201,-0.00001351,0.00002471,-0.00006910,0.00015189
 ,0.00003222,0.00000882,0.00003234,0.00008529,-0.00001889,0.00002026,0.
 00001152,0.00000009,0.00003696,0.00001696,0.00000972,-0.00003576,-0.00
 002140,-0.00002448,-0.00003461,0.00000657,0.00001117,0.00001319,0.0000
 0622,0.00000914,-0.00000355,0.00000568,0.00000126,0.00001261,0.0000051
 4,0.00000393,0.00622652,0.01855794,-0.02276046,-0.00279212,-0.00091761
 ,-0.00626094,0.04572549,0.10900985,-0.14347147,-0.00042966,-0.00030531
 ,0.00019809,0.00001375,-0.00019742,0.00002151,0.00025607,0.00137058,-0
 .00119635,0.00031936,0.00027457,0.00057429,0.00405299,0.00464391,-0.00
 327731,-0.05172248,-0.12681771,0.16855641,0.00027620,0.00030006,0.0001
 8589,0.00034485,-0.00047683,0.00027692,0.00006701,-0.00003066,-0.00010
 354,0.00001446,-0.00000047,0.00001248,0.00000011,-0.00001589,0.0000038
 5,0.00000994,0.00003715,0.00000109,0.00002908,0.00001644,0.00002627,-0
 .00004926,0.00002327,0.00011276,-0.00000021,0.00010823,-0.00007365,0.0
 0010245,0.00005225,0.00002888,0.00001653,-0.00000967,-0.00006764,-0.00
 011505,-0.00001716,-0.00006054,-0.00008721,-0.00001563,-0.00004255,0.0
 0001679,0.00002808,-0.00000929,-0.00010177,-0.00038840,0.00009863,-0.0
 0007419,0.00002339,0.00000801,0.00003528,0.00002023,0.00001464,0.00009
 046,0.00007164,0.00003926,-0.00007043,-0.00003809,-0.00006358,-0.00041
 851,-0.00100080,-0.00244877,-0.00028708,-0.00002155,-0.00008562,-0.000
 00550,-0.00008095,-0.00006593,-0.00006343,-0.00013023,-0.00004366,-0.0
 0001751,-0.00000476,0.00004302,0.00004503,0.00003083,0.00002587,0.0000
 5274,0.00004247,0.00005764,0.00000221,-0.00001532,0.00001960,0.0000722
 5,0.00028480,-0.00014057,0.00010623,-0.00006129,-0.00003872,0.00000472
 ,-0.00000770,0.00001282,0.00001241,0.00001262,0.00000709,-0.00010731,0
 .00008918,-0.00008859,0.00003345,0.00005938,0.00002335,0.00000502,-0.0
 0002272,0.00000378,-0.00000922,0.00000153,-0.00001794,0.00000524,0.000
 01166,0.00000043,0.00000627,0.00000449,0.00000353,0.00000274,0.0000103
 5,0.00000102,0.00000787,0.00000705,0.00000479,0.00000239,0.00000341,0.
 00000721,0.00000312,-0.00000800,-0.00000679,0.00305259,-0.01086118,-0.
 00518844,0.00018988,-0.00016091,0.00029332,-0.06263542,0.05904123,0.02
 284855,-0.00025121,0.00022318,0.00010650,0.00022505,-0.00004716,-0.000
 00353,-0.00012155,-0.00008056,-0.00001231,0.00047583,-0.00068966,-0.00
 026526,-0.01371616,0.03151696,0.01140703,0.00296624,-0.00870724,-0.002
 30049,0.06983341,0.00029847,0.00043688,0.00016556,0.00057113,-0.000112
 60,0.00120444,0.00049878,-0.00000806,-0.00010218,0.00007058,0.00002267
 ,-0.00002357,-0.00001212,-0.00000967,0.00000960,0.00003243,-0.00000522
 ,0.00003364,0.00002332,0.00000735,0.00004407,0.00037242,0.00075196,-0.
 00046137,0.00002431,0.00017123,-0.00048845,0.00015456,0.00002393,0.000
 06410,-0.00053860,-0.00010970,0.00030226,-0.00020526,-0.00013319,-0.00
 015653,-0.00002653,0.00009423,0.00002430,0.00002220,-0.00003854,-0.000
 02252,-0.00050171,-0.00054693,0.00015274,-0.00008793,0.00008731,0.0000
 1006,0.00003463,0.00003024,-0.00002231,0.00035393,-0.00030097,-0.00008
 221,-0.00001864,0.00006133,0.00012580,-0.00118074,-0.00055900,-0.00261
 462,-0.00069726,-0.00027747,-0.00028138,-0.00004476,-0.00009351,-0.000
 09518,-0.00004208,-0.00012232,-0.00002544,-0.00009176,-0.00004229,0.00
 000923,0.00007897,-0.00001709,0.00000595,0.00000962,0.00004481,-0.0000
 0846,0.00004219,-0.00007930,-0.00003132,0.00014887,-0.00010690,-0.0000
 9389,-0.00036976,0.00026761,0.00014971,-0.00000326,0.00003812,-0.00000
 439,-0.00000512,0.00000593,0.00002163,-0.00007015,0.00019252,-0.000006
 00,-0.00018571,-0.00009803,-0.00003892,0.00002906,0.00006131,-0.000013
 54,0.00000326,-0.00001708,0.00002462,-0.00002722,-0.00001221,-0.000001
 57,0.00002669,0.00001886,-0.00002980,-0.00000834,0.00003781,0.00003827
 ,-0.00002170,-0.00002323,-0.00001111,0.00000327,0.00000534,0.00002262,
 -0.00000741,0.00001170,-0.00000136,0.00057639,-0.00763340,-0.00552309,
 0.00016338,0.00066226,0.00088619,0.05976420,-0.23672928,-0.07023352,0.
 00010266,-0.00008274,-0.00014106,-0.00005930,0.00042464,-0.00001561,0.
 00004641,-0.00003098,0.00025108,-0.00006470,0.00008705,0.00020333,0.00
 323999,-0.00337690,-0.00121309,0.00685544,-0.02712919,-0.00556000,-0.0
 6905531,0.27425791,0.00025870,0.00027350,0.00010340,0.00081173,-0.0010
 0443,0.00133860,0.00024989,-0.00020506,-0.00012861,0.00004853,0.000012
 83,-0.00002508,0.00000352,-0.00000897,0.00001708,0.00002966,0.00000653
 ,0.00001883,0.00003436,0.00001074,0.00004397,0.00012375,0.00012693,-0.
 00056437,0.00004877,0.00040291,-0.00052578,0.00006175,-0.00002429,0.00
 001169,-0.00046427,-0.00015708,0.00035352,-0.00001612,-0.00008892,-0.0
 0012289,-0.00009647,0.00001415,-0.00002593,0.00003365,0.00002740,0.000
 01392,0.00003908,0.00008626,0.00022972,-0.00002336,0.00000761,0.000017
 81,0.00001697,0.00000829,-0.00001995,0.00023402,-0.00018169,0.00000706
 ,-0.00014346,0.00010157,0.00005989,-0.00234770,-0.00193596,-0.00608572
 ,-0.00088182,-0.00020387,-0.00037975,-0.00001128,-0.00004861,-0.000066
 56,-0.00005040,-0.00010438,-0.00006915,-0.00005672,-0.00001791,0.00004
 151,0.00009485,0.00002446,-0.00000236,-0.00000959,0.00003145,-0.000007
 07,0.00003156,-0.00010679,-0.00003109,0.00005345,0.00047723,0.00021475
 ,-0.00017255,0.00032712,0.00002680,-0.00000119,0.00001372,-0.00000383,
 -0.00000469,0.00000161,0.00001021,-0.00017644,0.00010751,0.00006222,-0
 .00009489,-0.00005105,-0.00006990,0.00002060,0.00005344,-0.00001327,0.
 00001165,-0.00000779,0.00002257,-0.00001540,-0.00000837,0.00000073,0.0
 0000745,0.00001187,-0.00002330,-0.00000215,0.00002963,0.00001873,-0.00
 001354,-0.00001503,-0.00000660,0.00000696,0.00000840,0.00001475,0.0000
 0102,0.00000816,0.00000101,0.00536682,-0.02546728,-0.01337025,0.000190
 75,-0.00073628,0.00066982,0.02310341,-0.07091109,-0.06792764,0.0001935
 1,-0.00003614,-0.00015933,-0.00035991,0.00061821,-0.00047044,0.0000412
 1,0.00005879,0.00031614,0.00047150,-0.00007079,0.00067513,0.00307667,-
 0.00476536,-0.00087645,-0.00528991,0.01957829,0.00638982,-0.02458240,0
 .08366520,0.08018456,-0.00037739,0.00041138,0.00040182,-0.00066346,-0.
 00036265,0.00020560,0.00020513,0.00035714,0.00104654,0.00008465,0.0000
 4491,0.00000662,-0.00002019,0.00001512,0.00001870,-0.00002186,-0.00001
 234,-0.00001306,-0.00000037,0.00002071,0.00002739,-0.16007427,0.023560
 74,-0.02179268,0.00043885,0.00014023,-0.00041156,0.00011720,0.00009950
 ,0.00004820,-0.05098017,-0.00395748,0.00703164,0.00003852,-0.00029662,
 -0.00008209,0.00000412,-0.00003720,0.00002473,-0.00005693,-0.00001285,
 0.00003457,-0.00004882,0.00001262,-0.00009356,-0.00004000,0.00005502,0
 .00001033,-0.00006873,0.00005325,0.00001062,0.00547799,-0.00509002,0.0
 0061606,-0.00248253,0.00253748,-0.00178908,0.00021703,-0.00092584,0.00
 110001,0.00045734,0.00034925,-0.00002997,0.00009573,-0.00008587,-0.000
 13329,0.00000073,-0.00001320,0.00002685,0.00000842,0.00005083,-0.00007
 782,0.00000595,-0.00000217,-0.00002107,0.00012750,0.00001627,-0.000112
 95,-0.00005484,-0.00003847,0.00005082,-0.02080956,0.01640079,-0.015047
 68,0.00061225,0.00015970,-0.00028504,-0.00001058,0.00000181,-0.0000223
 5,-0.00001124,-0.00001466,0.00002071,-0.00000089,-0.00001629,0.0000034
 1,-0.00008780,-0.00008214,0.00014732,-0.00001079,0.00003462,0.00007449
 ,0.00004043,-0.00000124,0.00011231,-0.00008588,-0.00006174,-0.00004809
 ,0.00011836,0.00015331,0.00003773,-0.00003177,0.00004018,-0.00002913,-
 0.00007590,-0.00006665,-0.00002862,-0.00000373,0.00001622,-0.00000518,
 0.00000060,0.00000800,-0.00000204,0.00009778,-0.00000793,-0.00039209,-
 0.00003234,0.00000712,0.00009370,-0.00022343,-0.00012544,0.00003279,0.
 00008689,0.00005320,-0.00002644,0.00000324,0.00006134,-0.00002146,-0.0
 0000627,-0.00001240,0.00003200,0.00015009,-0.00013648,-0.00004245,0.00
 008587,0.00004490,0.00004957,0.00001633,0.00014849,-0.00003524,0.00002
 260,0.00010558,-0.00000016,0.44727006,-0.00053117,0.00016775,0.0002467
 9,-0.00017144,-0.00032065,-0.00055425,-0.00265335,0.00090315,0.0016942
 8,0.00005004,0.00017115,0.00007739,0.00001639,-0.00001708,-0.00001072,
 0.00002411,0.00000480,0.00000909,-0.00001726,0.00002818,-0.00003237,0.
 02810281,-0.06833297,0.00160547,0.00008249,0.00004512,0.00015544,-0.00
 008676,0.00022388,-0.00001433,-0.01939470,0.00784048,0.00528275,-0.000
 01696,-0.00017965,-0.00008360,0.00004623,-0.00001372,-0.00002430,-0.00
 007514,0.00005408,-0.00001516,0.00000070,0.00001686,-0.00001953,-0.000
 00124,-0.00000924,0.00000839,-0.00000377,0.00002229,0.00000135,0.00400
 761,-0.00280475,0.00188784,-0.00176578,0.00168544,-0.00164844,-0.00004
 894,-0.00051037,-0.00132533,-0.00004476,0.00004747,-0.00023075,0.00005
 130,-0.00008123,0.00000447,-0.00005242,-0.00004315,0.00010706,0.000033
 10,0.00004567,-0.00005940,-0.00004177,-0.00000188,0.00009830,0.0001029
 5,-0.00010833,-0.00002053,0.00001135,0.00005484,-0.00004899,0.02814777
 ,-0.00680081,0.01854090,0.00051520,-0.00028255,0.00051294,0.00002900,0
 .00001875,-0.00001341,0.00005968,0.00001231,-0.00005616,-0.00000832,-0
 .00001445,0.00000024,0.00099426,0.00013364,-0.00023316,0.00010573,-0.0
 0016188,0.00000894,0.00001815,0.00003045,-0.00009359,-0.00001055,0.000
 03322,-0.00001047,0.00007150,-0.00004054,0.00005282,0.00000821,-0.0000
 4023,0.00004262,0.00006241,0.00005467,0.00003852,-0.00002362,-0.000009
 20,0.00000613,0.00000871,0.00000229,0.00001118,0.00010734,0.00017082,-
 0.00027048,0.00002124,0.00011342,-0.00000961,-0.00002696,0.00029714,-0
 .00024290,-0.00001534,-0.00000235,0.00000465,0.00000471,0.00000243,0.0
 0001249,-0.00000570,-0.00000695,-0.00001328,-0.00007370,-0.00007285,0.
 00003475,0.00002046,-0.00008738,0.00002680,0.00018515,-0.00049120,0.00
 011353,-0.00000435,-0.00001603,0.00007024,0.01797739,0.50875403,0.0000
 4814,-0.00023161,-0.00038091,-0.00074140,-0.00048026,0.00019708,-0.001
 97325,0.00383574,0.00151631,0.00007824,0.00004862,-0.00002855,-0.00001
 101,0.00000689,-0.00000217,-0.00000444,-0.00000329,0.00000399,0.000013
 29,-0.00000123,0.00003474,-0.02784165,0.00331474,-0.06909894,0.0003867
 0,0.00016825,-0.00008865,-0.00006189,0.00027002,-0.00004164,0.02156132
 ,0.00217200,0.00739419,-0.00011516,0.00004847,0.00001006,0.00007462,0.
 00007009,-0.00002405,-0.00007207,-0.00003369,-0.00002413,-0.00003885,0
 .00003512,-0.00003551,-0.00001573,0.00000983,0.00000166,-0.00001515,0.
 00001966,-0.00000944,-0.00078900,0.00292152,0.00012983,0.00068362,-0.0
 0117614,0.00047383,-0.00035301,-0.00170715,-0.00022800,0.00051364,0.00
 000406,-0.00020216,-0.00003298,0.00008294,0.00008474,0.00004159,-0.000
 04390,-0.00004174,-0.00001364,-0.00000229,0.00006100,-0.00000635,-0.00
 002915,-0.00003990,-0.00005085,0.00002539,0.00014385,-0.00003378,-0.00
 003894,0.00006639,-0.02410034,0.01609414,-0.00694362,-0.00049429,0.000
 80719,-0.00035386,0.00002795,-0.00000688,-0.00001659,-0.00000296,-0.00
 002757,-0.00001841,-0.00000604,-0.00001628,-0.00001266,0.00056749,-0.0
 0032352,-0.00024790,0.00006294,-0.00000172,-0.00000753,0.00001026,-0.0
 0004247,0.00000951,-0.00002134,-0.00005937,0.00002133,-0.00006546,-0.0
 0001898,-0.00005185,-0.00002274,0.00002076,0.00001920,-0.00001972,-0.0
 0002219,0.00000424,-0.00000491,0.00001369,0.00000919,0.00001934,0.0000
 0119,0.00002204,-0.00018139,-0.00013907,-0.00030621,0.00005643,0.00002
 785,0.00008328,0.00010594,0.00011667,-0.00022466,0.00001789,0.00002129
 ,-0.00000367,0.00001361,0.00004776,-0.00001898,-0.00001384,-0.00001216
 ,0.00004626,0.00012126,0.00010264,0.00001632,-0.00002074,-0.00005733,0
 .00001655,-0.00002037,-0.00002394,0.00001378,-0.00005018,0.00001041,0.
 00007227,-0.01716553,-0.01992689,0.50977794,0.00006942,0.00000075,0.00
 016808,-0.00003982,0.00043589,-0.00002548,-0.00004991,-0.00036096,-0.0
 0020927,0.00001447,-0.00003336,-0.00001614,0.00000748,-0.00000885,0.00
 000907,-0.00000222,-0.00000250,0.00000005,-0.00000972,0.00000371,0.000
 01273,-0.01811907,0.01228009,0.02294740,0.00013786,-0.00007597,-0.0000
 9262,0.00008425,-0.00010992,0.00000550,-0.00551697,-0.00004626,-0.0014
 3528,0.00006072,-0.00002999,0.00000139,-0.00001278,-0.00004658,-0.0000
 2316,0.00005795,-0.00000941,-0.00000018,-0.00001619,-0.00005390,0.0000
 0034,0.00001392,-0.00001450,-0.00000767,0.00001143,-0.00001174,0.00000
 146,-0.00034656,-0.00068558,-0.00015370,-0.00004453,0.00031756,-0.0002
 0011,0.00003243,0.00035428,0.00000108,0.00009283,-0.00022516,0.0000055
 2,-0.00001647,-0.00005416,-0.00005315,0.00001109,0.00000822,0.00001493
 ,0.00001349,0.00000401,-0.00002809,0.00001615,-0.00001275,-0.00000600,
 0.00004604,0.00002523,-0.00005053,-0.00000287,0.00001447,-0.00000508,0
 .00000848,-0.00233379,0.00046717,0.00046335,0.00031021,-0.00011284,0.0
 0000915,-0.00000576,0.00000251,-0.00000069,-0.00000178,0.00001336,-0.0
 0000240,0.00000264,0.00000721,-0.00038473,-0.00009898,0.00006741,-0.00
 006198,0.00005474,0.00001671,-0.00000138,-0.00000996,0.00004563,0.0000
 1744,-0.00001258,-0.00000296,-0.00001075,0.00005565,0.00004869,-0.0000
 4475,-0.00001176,-0.00007752,-0.00001689,-0.00001666,-0.00001178,-0.00
 000228,0.00000734,-0.00000416,0.00001563,-0.00000939,0.00000531,0.0000
 5046,-0.00000113,0.00004691,0.00000747,-0.00004245,-0.00000012,0.00005
 549,-0.00006557,0.00001709,0.00002467,0.00000129,0.00000364,-0.0000081
 6,-0.00003357,0.00000472,-0.00000952,0.00000735,-0.00001354,0.00002769
 ,-0.00008763,0.00000028,0.00005646,0.00004099,-0.00003714,-0.00011420,
 -0.00000297,0.00000451,-0.00000138,-0.00006723,-0.00001555,-0.08639084
 ,0.03761105,0.09312529,0.10190196,-0.00003561,0.00000557,-0.00004281,0
 .00045584,0.00008732,0.00021610,0.00013402,0.00034049,0.00016131,-0.00
 000385,0.00001157,0.00001614,-0.00000644,0.00000376,-0.00000295,-0.000
 00734,0.00000063,0.00000141,0.00000883,0.00000060,-0.00000473,0.003519
 35,-0.00149557,-0.00650016,-0.00032386,-0.00006344,0.00003139,-0.00002
 999,0.00003106,-0.00000435,0.00041230,-0.00041988,0.00025695,0.0000028
 9,-0.00000352,0.00000405,-0.00000397,0.00001687,0.00000616,-0.00001568
 ,-0.00001207,-0.00000338,-0.00001399,0.00002812,-0.00000638,-0.0000029
 7,0.00000180,0.00000455,-0.00000392,0.00000324,0.00000219,-0.00025963,
 0.00005852,0.00000325,0.00012617,-0.00002873,0.00005910,0.00066396,-0.
 00006865,-0.00012250,-0.00025542,-0.00010084,-0.00011798,0.00000374,0.
 00001446,-0.00000543,-0.00000837,-0.00000666,-0.00001422,-0.00001175,-
 0.00000437,0.00000483,0.00000150,-0.00000581,0.00000727,-0.00001333,0.
 00000189,0.00003244,0.00002016,-0.00001064,0.00001111,0.00062381,0.000
 19827,0.00069173,-0.00019283,-0.00118175,0.00062678,0.00000325,0.00000
 118,-0.00000287,-0.00000289,-0.00000555,-0.00000249,0.00000291,-0.0000
 0298,-0.00000999,0.00008490,-0.00004306,-0.00004604,0.00000099,-0.0000
 2307,-0.00000534,-0.00000427,-0.00000420,-0.00001449,-0.00000939,-0.00
 000683,-0.00000052,-0.00000185,-0.00000401,0.00001481,-0.00001079,0.00
 001016,-0.00000403,-0.00000327,-0.00000061,0.00000473,0.00000223,0.000
 00501,-0.00000430,0.00000296,-0.00000104,0.00000076,-0.00019345,-0.000
 04923,0.00001403,0.00000255,0.00002010,0.00003498,0.00009956,-0.000020
 01,-0.00007146,-0.00003277,-0.00004015,-0.00000174,-0.00001606,0.00005
 032,-0.00000691,0.00001039,-0.00000567,0.00001876,-0.00009087,0.000137
 12,0.00004329,-0.00000923,-0.00003655,-0.00007246,-0.00008420,0.000048
 24,0.00000764,-0.00004464,0.00002112,0.00006716,0.03597077,-0.06732907
 ,-0.06494551,-0.04127906,0.07459149,-0.00012238,0.00010093,0.00002251,
 -0.00048416,0.00000472,0.00027610,-0.00012159,0.00002173,-0.00017696,-
 0.00000309,-0.00001667,-0.00001344,-0.00000520,0.00000882,-0.00000235,
 -0.00000511,0.00000639,-0.00000109,0.00000325,-0.00000801,-0.00000318,
 0.00239567,0.00181147,0.00388092,0.00016457,-0.00002165,-0.00017361,0.
 00000203,-0.00000611,-0.00003122,-0.00054570,-0.00055330,0.00093065,0.
 00002775,0.00001596,-0.00003638,-0.00001457,0.00005030,-0.00000288,-0.
 00002138,-0.00001992,-0.00002299,-0.00001212,0.00000853,-0.00001570,-0
 .00000141,-0.00000171,0.00000536,0.00000437,-0.00000041,0.00001164,-0.
 00054109,0.00017177,-0.00045513,0.00025710,-0.00025860,0.00021603,-0.0
 0012471,0.00005799,-0.00003449,0.00021308,-0.00006081,-0.00002947,-0.0
 0003062,-0.00002129,-0.00000497,0.00004422,-0.00002369,-0.00002574,-0.
 00001633,-0.00001291,0.00001678,0.00003074,-0.00004183,-0.00001846,0.0
 0001782,0.00003162,0.00004486,-0.00000158,-0.00000700,0.00001344,-0.00
 047439,0.00006000,-0.00005328,-0.00021151,0.00029857,0.00017864,0.0000
 0323,-0.00000162,0.00000758,-0.00000154,0.00000020,0.00000625,-0.00000
 058,0.00000410,0.00000048,-0.00006622,-0.00001088,0.00003403,-0.000008
 89,0.00001321,-0.00000781,-0.00000875,0.00000643,0.00000068,0.00000084
 ,0.00000543,-0.00000104,0.00003274,0.00000777,-0.00002343,0.00001491,0
 .00000683,0.00002905,-0.00000358,-0.00000707,-0.00000097,-0.00000072,-
 0.00000247,0.00000416,-0.00000464,-0.00000168,-0.00000347,0.00009552,-
 0.00002868,0.00011789,0.00002820,-0.00001081,0.00000933,0.00007606,0.0
 0005437,-0.00004536,-0.00000590,-0.00000812,-0.00000019,-0.00000611,0.
 00000196,-0.00000683,0.00000096,0.00000419,0.00001421,-0.00000475,0.00
 000135,-0.00003234,0.00000077,-0.00003157,-0.00002609,-0.00006098,-0.0
 0002165,-0.00002176,-0.00003028,0.00002598,0.00001366,0.08875422,-0.06
 447882,-0.20932483,-0.10455733,0.07552680,0.23968248,0.00005157,0.0000
 0463,-0.00010059,-0.00022740,-0.00019106,-0.00010730,0.00008943,0.0005
 5168,-0.00016644,0.00001121,-0.00001490,-0.00002743,-0.00000098,0.0000
 0387,0.00000103,0.00000034,0.00000079,-0.00000177,0.00001172,0.0000004
 7,0.00002733,-0.00365573,0.02175145,-0.02137566,0.00009232,0.00004721,
 0.00005326,0.00005260,-0.00002222,-0.00000347,0.00338513,-0.00003933,-
 0.00024941,-0.00001507,-0.00000759,0.00001974,-0.00001257,0.00001479,-
 0.00000963,0.00000759,-0.00001953,0.00000395,-0.00000051,-0.00001443,-
 0.00001925,0.00000599,0.00000317,-0.00000360,-0.00000206,-0.00000049,-
 0.00000380,-0.00078946,0.00056412,-0.00017455,0.00033835,-0.00028832,0
 .00031770,-0.00038500,-0.00033082,0.00040458,0.00025994,0.00015788,0.0
 0004244,-0.00000596,0.00000836,-0.00000170,0.00003099,0.00000504,-0.00
 000969,-0.00001721,-0.00000717,0.00002283,0.00000751,-0.00001026,-0.00
 002777,-0.00001741,0.00001955,0.00001166,-0.00001705,-0.00002247,0.000
 02386,-0.00715314,0.00213873,-0.00253201,0.00020039,-0.00012601,0.0001
 3390,0.00001056,-0.00000895,0.00000373,-0.00001567,-0.00001465,0.00000
 658,0.00000094,-0.00000415,-0.00000212,-0.00014626,-0.00017340,0.00003
 757,-0.00002753,0.00002096,-0.00002635,0.00001177,-0.00001607,0.000023
 66,-0.00001346,-0.00002296,0.00001185,-0.00003855,0.00005597,-0.000029
 69,0.00000543,0.00002975,-0.00001098,-0.00001617,-0.00001715,-0.000001
 85,0.00000409,0.00000977,0.00001286,0.00001358,-0.00000612,0.00001243,
 0.00001605,0.00002028,-0.00000321,0.00003732,-0.00000132,-0.00001049,0
 .00007139,-0.00001082,0.00000278,0.00001471,0.00001536,-0.00000736,-0.
 00000001,-0.00001905,0.00000721,-0.00000615,-0.00000981,0.00001436,0.0
 0008549,-0.00006686,-0.00001717,0.00004571,0.00006656,-0.00001645,-0.0
 0010127,-0.00000445,0.00000773,0.00002082,-0.00003864,0.00000649,-0.04
 195563,0.00350782,-0.00344255,0.00076832,-0.00953595,0.01066030,0.0482
 4400,-0.00010544,0.00011715,0.00007727,-0.00012154,-0.00012164,-0.0001
 0451,-0.00030237,-0.00010500,0.00012601,0.00000403,0.00002040,0.000031
 64,0.00000496,0.00000265,-0.00000689,0.00000200,0.00000827,-0.00000303
 ,-0.00000354,-0.00000071,-0.00002417,0.00332054,-0.00719705,0.00757587
 ,0.00007549,0.00002038,0.00000719,0.00000860,0.00003672,0.00000709,-0.
 00117961,0.00052858,-0.00117154,0.00002889,-0.00001082,-0.00005116,0.0
 0000066,0.00000270,-0.00000927,-0.00001308,-0.00003046,-0.00002594,-0.
 00003067,-0.00001566,0.00002983,-0.00000574,-0.00000476,0.00000599,-0.
 00000327,0.00000575,0.00000916,0.00021344,-0.00033316,0.00008491,-0.00
 013956,0.00018439,-0.00017247,0.00014851,0.00020004,0.00001078,0.00015
 188,0.00006308,-0.00001331,0.00001454,-0.00002475,-0.00001307,0.000008
 61,0.00000764,0.00002534,-0.00002204,0.00000049,-0.00000578,0.00000034
 ,-0.00000798,0.00000698,-0.00000106,-0.00001926,-0.00000420,-0.0000050
 4,0.00001797,-0.00002591,0.00191465,-0.00012902,0.00132925,0.00019251,
 -0.00007480,-0.00020358,-0.00000485,-0.00000100,-0.00000372,0.00000993
 ,0.00001090,-0.00000581,-0.00000780,0.00000808,0.00000139,0.00014047,0
 .00002140,0.00003624,0.00000165,-0.00002070,0.00002203,0.00000197,0.00
 001017,-0.00000740,-0.00000126,0.00001256,-0.00001297,0.00001732,0.000
 00854,0.00000674,0.00000019,-0.00000741,0.00000533,0.00000838,0.000010
 54,0.00000259,-0.00000233,-0.00000470,-0.00001051,-0.00000569,-0.00000
 179,-0.00000444,0.00001727,0.00012655,-0.00004987,-0.00000368,0.000022
 20,-0.00001722,0.00001114,-0.00013673,-0.00000992,0.00001901,0.0000278
 1,-0.00001817,0.00000780,-0.00000915,-0.00000595,-0.00000084,0.0000126
 6,-0.00001206,-0.00003741,-0.00001297,-0.00000166,0.00010824,0.0001336
 2,-0.00002648,-0.00009069,-0.00006494,0.00016171,0.00004043,-0.0000218
 2,0.00002279,0.00435089,-0.16880309,0.12293258,-0.00061876,0.00681094,
 -0.00571290,-0.00658918,0.19176039,0.00010104,-0.00012584,-0.00002867,
 0.00018124,0.00008693,0.00027638,-0.00000343,0.00059394,-0.00003516,0.
 00000176,-0.00000242,-0.00002142,-0.00000357,-0.00000708,0.00000586,-0
 .00000329,-0.00000907,0.00000306,0.00001022,0.00000223,0.00002221,-0.0
 0321453,0.00734528,-0.00670959,-0.00008186,-0.00002375,-0.00001744,-0.
 00003175,-0.00000816,-0.00001204,0.00095813,-0.00122760,0.00056234,-0.
 00000687,0.00003502,0.00002961,0.00000461,-0.00001532,0.00000197,0.000
 01799,0.00003003,0.00001479,0.00000288,0.00000440,-0.00000591,0.000002
 78,-0.00000053,-0.00000613,0.00000131,-0.00000637,-0.00001095,-0.00011
 342,0.00017814,-0.00030561,0.00020864,-0.00021540,0.00031227,-0.000233
 38,-0.00004052,0.00014519,-0.00008229,-0.00018111,0.00003933,-0.000023
 82,0.00001359,0.00000572,-0.00000978,-0.00002250,-0.00002441,0.0000169
 3,-0.00001097,0.00000087,0.00001632,0.00000056,-0.00000271,0.00000839,
 0.00002192,0.00002042,0.00000774,-0.00002493,0.00002064,-0.00160659,0.
 00096948,-0.00045876,-0.00018463,-0.00021243,-0.00000338,0.00001409,-0
 .00000208,-0.00000070,-0.00001191,-0.00001612,0.00000572,0.00000258,-0
 .00000743,-0.00000376,-0.00007284,-0.00009177,-0.00006301,-0.00001055,
 0.00001073,-0.00002495,0.00000774,-0.00001707,0.00000637,-0.00000841,-
 0.00002071,0.00001633,-0.00005478,0.00002208,0.00001037,-0.00000861,0.
 00001890,-0.00003547,-0.00001352,-0.00001596,0.00000256,0.00000334,0.0
 0000705,0.00000861,0.00001495,-0.00000539,0.00000997,-0.00006818,-0.00
 000767,0.00000056,0.00000154,-0.00001820,0.00001933,0.00004585,-0.0000
 4877,-0.00000691,-0.00000510,-0.00001659,-0.00000118,-0.00001190,0.000
 02057,0.00000958,0.00000817,-0.00001512,0.00001459,0.00002018,0.000043
 28,0.00000593,-0.00000612,0.00000840,-0.00003525,-0.00005543,0.0000708
 8,-0.00001969,-0.00000409,-0.00001593,0.00003064,-0.00435474,0.1230911
 1,-0.16536361,0.00140507,0.01950391,-0.02313140,0.00661757,-0.14371678
 ,0.18791184,0.00000799,0.00021281,0.00009455,-0.00036604,-0.00030924,-
 0.00019986,-0.00076129,0.00037681,0.00042414,0.00005870,0.00003161,-0.
 00001137,0.00000331,-0.00000956,0.00000679,0.00001730,-0.00000279,0.00
 000963,0.00000231,0.00000679,0.00003337,-0.01907143,-0.02219001,-0.012
 40130,0.00019663,0.00013933,0.00003838,0.00005556,0.00001529,-0.000011
 28,-0.00520603,0.00173507,0.00105347,-0.00006173,-0.00014297,-0.000071
 09,-0.00001891,0.00004035,-0.00001869,0.00002601,-0.00001587,0.0000073
 6,-0.00007086,0.00010183,0.00001590,-0.00000883,0.00001735,-0.00000245
 ,0.00001675,0.00001243,-0.00000423,0.00069855,-0.00077505,0.00050188,-
 0.00041198,0.00039321,-0.00048256,-0.00003905,-0.00016358,-0.00027649,
 0.00022026,0.00019075,-0.00003445,-0.00001125,-0.00008013,-0.00000722,
 -0.00002089,-0.00002250,0.00003733,-0.00000515,0.00000293,-0.00000733,
 0.00002866,-0.00001905,0.00000024,0.00002330,0.00000092,-0.00001032,-0
 .00001379,-0.00000844,-0.00002385,0.00069284,-0.00010921,0.00262728,0.
 00043060,0.00010550,-0.00034402,0.00001491,0.00001560,-0.00000420,0.00
 001618,0.00000232,-0.00000080,-0.00001278,0.00002827,0.00000543,0.0000
 7440,-0.00007744,-0.00004062,0.00000001,0.00001222,-0.00001822,0.00001
 223,-0.00000311,0.00001414,-0.00001295,0.00000119,-0.00000173,0.000049
 74,0.00002078,-0.00002588,-0.00000831,0.00003104,0.00004831,0.00000052
 ,-0.00000615,0.00000325,-0.00000155,0.00000263,0.00002055,0.00000584,0
 .00000644,0.00000986,-0.00011670,0.00004186,-0.00032496,0.00002694,0.0
 0002302,0.00011858,0.00029131,0.00009344,-0.00028947,0.00003911,0.0000
 0148,-0.00000588,-0.00001138,0.00000493,0.00000348,-0.00000871,-0.0000
 4862,0.00005699,-0.00003560,-0.00006228,-0.00001641,0.00031206,0.00002
 841,0.00001478,-0.00059088,0.00052152,0.00043200,-0.00001889,-0.000221
 49,0.00015772,-0.09115745,-0.09691086,-0.03972697,0.00715098,0.0103545
 8,0.00466885,0.00072502,-0.00152887,0.00060432,0.10684442,0.00017848,-
 0.00001355,-0.00001822,0.00006156,0.00016727,0.00004295,0.00018247,-0.
 00012579,-0.00019731,0.00002312,0.00000051,-0.00000754,0.00000626,-0.0
 0000806,0.00000311,0.00000746,-0.00000546,0.00000300,0.00000007,0.0000
 0302,0.00001770,-0.00216242,0.00453498,0.00201288,0.00003596,-0.000015
 80,-0.00001835,-0.00001141,-0.00000854,0.00001769,0.00087092,0.0007324
 2,-0.00045844,-0.00003543,0.00000828,0.00002346,-0.00004995,0.00000732
 ,-0.00000086,0.00001728,-0.00001463,0.00002078,0.00004155,0.00005474,0
 .00000755,0.00000414,0.00001153,-0.00000936,0.00000029,0.00000637,-0.0
 0000923,0.00013805,-0.00035552,-0.00020596,-0.00009183,0.00008770,0.00
 012543,-0.00006206,-0.00006977,0.00001549,-0.00017974,-0.00008037,0.00
 010535,-0.00001590,-0.00001428,-0.00001528,-0.00003252,0.00001952,0.00
 001847,0.00000144,-0.00001837,-0.00002184,0.00002076,0.00001847,-0.000
 00591,-0.00004118,0.00001719,-0.00001828,-0.00000233,0.00000928,-0.000
 00558,0.00042816,-0.00043968,-0.00025195,0.00025030,0.00013092,0.00030
 025,-0.00001072,0.00000993,-0.00000095,-0.00000297,-0.00000242,0.00000
 510,0.00000558,-0.00000261,-0.00000040,-0.00004457,0.00001649,-0.00000
 094,0.00001696,0.00001608,0.00000112,0.00001515,0.00000724,0.00002288,
 0.00000599,0.00000731,0.00000345,0.00002445,-0.00001853,-0.00000736,0.
 00001647,-0.00000003,0.00001858,0.00000089,-0.00000314,-0.00000187,0.0
 0000328,-0.00000446,0.00000329,-0.00000723,0.00000797,-0.00000507,0.00
 018865,0.00015540,0.00030142,-0.00001196,-0.00007147,-0.00004170,0.000
 09271,-0.00013740,0.00002745,-0.00000981,-0.00000807,0.00002947,-0.000
 00395,-0.00002740,0.00000345,-0.00001012,0.00000453,-0.00002521,0.0000
 0284,-0.00003297,-0.00009397,-0.00022885,-0.00042556,0.00021519,0.0006
 2031,-0.00017264,-0.00013496,-0.00006314,-0.00009046,-0.00009684,-0.09
 189907,-0.20435275,-0.06385800,-0.00505488,-0.01152593,-0.00693727,-0.
 01136406,-0.02303319,-0.00592885,0.10813454,0.23504439,0.00004146,0.00
 003907,0.00003336,-0.00022627,-0.00045765,-0.00032227,-0.00050457,0.00
 006414,0.00007601,0.00001884,0.00001145,-0.00000916,0.00000749,-0.0000
 0666,0.00000039,0.00001238,-0.00000087,0.00000045,-0.00000127,0.000001
 82,0.00001128,-0.00333685,-0.00593186,-0.00147990,0.00017646,0.0001206
 9,0.00009495,0.00001180,0.00000529,-0.00000783,-0.00038405,0.00017881,
 -0.00023218,-0.00001105,-0.00000018,-0.00003452,-0.00000091,-0.0000053
 1,-0.00000939,0.00001496,0.00000717,0.00000279,-0.00000810,0.00000396,
 0.00003307,-0.00000331,0.00000305,-0.00000337,0.00000263,0.00000180,-0
 .00000646,0.00043633,-0.00022726,-0.00012630,-0.00007032,0.00006139,0.
 00002077,-0.00053848,-0.00009886,0.00021092,0.00040652,0.00025550,0.00
 019802,-0.00000728,-0.00002506,0.00001861,-0.00000265,-0.00000718,0.00
 001898,0.00000523,-0.00000804,0.00000037,0.00001713,-0.00000007,-0.000
 00364,0.00000215,-0.00000587,-0.00001122,-0.00002150,0.00000011,-0.000
 01950,-0.00046733,0.00108141,0.00037047,0.00014212,0.00047465,-0.00123
 213,0.00000320,0.00000215,-0.00000194,0.00000393,0.00000236,0.00000039
 ,-0.00000879,0.00000996,0.00000896,0.00003767,-0.00001036,-0.00001831,
 0.00000432,0.00001810,-0.00000135,0.00001013,0.00000184,0.00001101,-0.
 00000115,0.00000471,0.00000145,0.00000944,0.00001051,-0.00002190,0.000
 00929,0.00000888,0.00002161,0.00000290,-0.00000223,0.00000048,-0.00000
 193,-0.00000327,0.00000857,0.00000152,0.00000028,0.00000281,-0.0000725
 3,0.00021963,-0.00021600,-0.00001900,0.00000675,-0.00002517,-0.0001709
 5,-0.00011737,-0.00003573,0.00005731,0.00005869,-0.00002120,0.00002140
 ,-0.00003132,0.00000909,-0.00000033,-0.00001298,-0.00000132,0.00005167
 ,-0.00009468,-0.00001051,0.00021930,0.00026433,0.00011302,0.00002799,-
 0.00003237,0.00031092,0.00012011,-0.00013237,-0.00000550,-0.03795535,-
 0.06431004,-0.06708940,-0.01130967,-0.02536059,-0.01178988,0.00989490,
 0.01893197,0.00681504,0.04335308,0.07503200,0.07434227\\0.00002961,-0.
 00000980,-0.00000224,-0.00000787,-0.00000661,0.00002462,0.00217028,0.0
 0797481,0.03635160,-0.00000789,0.00000489,0.00002452,-0.00000744,-0.00
 000469,-0.00000748,0.00000089,0.00000284,-0.00000094,-0.00000262,-0.00
 000076,0.00000703,0.00001216,-0.00001637,0.00001775,0.00000438,0.00000
 815,-0.00001116,-0.00000608,0.00001357,-0.00001542,0.01887007,-0.01199
 182,0.00162222,0.00000404,0.00000613,-0.00000133,0.00001105,0.00000505
 ,-0.00000330,0.00000394,0.00000334,0.00000375,-0.00000339,-0.00000061,
 -0.00000387,-0.00000694,0.00000042,-0.00000138,-0.00000232,0.00000169,
 -0.00000289,-0.03210683,0.02490129,-0.00465147,0.01974935,-0.01606285,
 -0.01240484,-0.00000731,0.00000739,-0.00000297,0.00953543,0.00023113,-
 0.01459638,-0.00002550,0.00002235,-0.00001744,0.00000305,-0.00000782,-
 0.00001085,0.00000451,0.00000691,0.00001953,-0.00000297,-0.00000443,0.
 00000446,0.00000870,-0.00000200,-0.00000971,0.00000254,-0.00000438,0.0
 0001514,-0.01189628,-0.00185842,-0.00498730,0.00000186,-0.00000108,0.0
 0000094,-0.00000067,-0.00000275,0.00000071,0.00000381,-0.00000130,-0.0
 0000145,-0.00000291,0.00000167,0.00000375,-0.00633281,-0.00322833,-0.0
 0137186,-0.00000656,0.00000796,-0.00000097,-0.00000220,0.00000925,0.00
 000451,0.00000093,-0.00000166,-0.00000173,0.00000022,0.00000102,-0.000
 00049,-0.00000131,0.00000039,0.00000265,-0.00000083,-0.00000117,-0.000
 00027,0.00000326,0.00000060,-0.00000193,0.00000151,-0.00000389,0.00000
 027,0.00001653,-0.00000631,-0.00000463,0.00000352,-0.00000107,-0.00000
 294,0.00000783,0.00000523,0.00000586,-0.00000135,0.00000043,0.00000170
 ,-0.00000102,0.00000064,-0.00000075,-0.00000159,-0.00000133,0.00000056
 ,-0.00000624,-0.00000067,0.00001026,-0.00000183,0.00000076,-0.00000259
 ,-0.00000321,-0.00000510,0.00000007,-0.00000159,-0.00000349,-0.0000023
 2,-0.00000716,0.00000609,-0.00000704,0.00000021,0.00000183,0.00000302,
 0.00000050,-0.00000213,0.00000402,0.00000455,0.00000495,0.00000097\\\@
 The archive entry for this job was punched.


 The number of Unix installations has grown to 10,
  with more expected.
                  -- The Unix Programmer's Manual,
                     2nd Edition, June, 1972.
 Job cpu time:       0 days  0 hours  0 minutes  0.3 seconds.
 Elapsed time:       0 days  0 hours  0 minutes  5.5 seconds.
 File lengths (MBytes):  RWF=      6 Int=      0 D2E=      0 Chk=      2 Scr=      1
 Normal termination of Gaussian 16 at Mon Oct 14 18:08:59 2024.
