 Entering Gaussian System, Link 0=g16
 Input=4-tsfreq.gjf
 Output=4-tsfreq.log
 Initial command:
 /home/echo/g16/l1.exe "/home/echo/scratch/Gau-22564.inp" -scrdir="/home/echo/scratch/"
 Entering Link 1 = /home/echo/g16/l1.exe PID=     22566.
  
 Copyright (c) 1988-2019, Gaussian, Inc.  All Rights Reserved.
  
 This is part of the Gaussian(R) 16 program.  It is based on
 the Gaussian(R) 09 system (copyright 2009, Gaussian, Inc.),
 the Gaussian(R) 03 system (copyright 2003, Gaussian, Inc.),
 the Gaussian(R) 98 system (copyright 1998, Gaussian, Inc.),
 the Gaussian(R) 94 system (copyright 1995, Gaussian, Inc.),
 the Gaussian 92(TM) system (copyright 1992, Gaussian, Inc.),
 the Gaussian 90(TM) system (copyright 1990, Gaussian, Inc.),
 the Gaussian 88(TM) system (copyright 1988, Gaussian, Inc.),
 the Gaussian 86(TM) system (copyright 1986, Carnegie Mellon
 University), and the Gaussian 82(TM) system (copyright 1983,
 Carnegie Mellon University). Gaussian is a federally registered
 trademark of Gaussian, Inc.
  
 This software contains proprietary and confidential information,
 including trade secrets, belonging to Gaussian, Inc.
  
 This software is provided under written license and may be
 used, copied, transmitted, or stored only in accord with that
 written license.
  
 The following legend is applicable only to US Government
 contracts under FAR:
  
                    RESTRICTED RIGHTS LEGEND
  
 Use, reproduction and disclosure by the US Government is
 subject to restrictions as set forth in subparagraphs (a)
 and (c) of the Commercial Computer Software - Restricted
 Rights clause in FAR 52.227-19.
  
 Gaussian, Inc.
 340 Quinnipiac St., Bldg. 40, Wallingford CT 06492
  
  
 ---------------------------------------------------------------
 Warning -- This program may not be used in any manner that
 competes with the business of Gaussian, Inc. or will provide
 assistance to any competitor of Gaussian, Inc.  The licensee
 of this program is prohibited from giving any competitor of
 Gaussian, Inc. access to this program.  By using this program,
 the user acknowledges that Gaussian, Inc. is engaged in the
 business of creating and licensing software in the field of
 computational chemistry and represents and warrants to the
 licensee that it is not a competitor of Gaussian, Inc. and that
 it will not use this program in any manner prohibited above.
 ---------------------------------------------------------------
  

 Cite this work as:
 Gaussian 16, Revision C.01,
 M. J. Frisch, G. W. Trucks, H. B. Schlegel, G. E. Scuseria, 
 M. A. Robb, J. R. Cheeseman, G. Scalmani, V. Barone, 
 G. A. Petersson, H. Nakatsuji, X. Li, M. Caricato, A. V. Marenich, 
 J. Bloino, B. G. Janesko, R. Gomperts, B. Mennucci, H. P. Hratchian, 
 J. V. Ortiz, A. F. Izmaylov, J. L. Sonnenberg, D. Williams-Young, 
 F. Ding, F. Lipparini, F. Egidi, J. Goings, B. Peng, A. Petrone, 
 T. Henderson, D. Ranasinghe, V. G. Zakrzewski, J. Gao, N. Rega, 
 G. Zheng, W. Liang, M. Hada, M. Ehara, K. Toyota, R. Fukuda, 
 J. Hasegawa, M. Ishida, T. Nakajima, Y. Honda, O. Kitao, H. Nakai, 
 T. Vreven, K. Throssell, J. A. Montgomery, Jr., J. E. Peralta, 
 F. Ogliaro, M. J. Bearpark, J. J. Heyd, E. N. Brothers, K. N. Kudin, 
 V. N. Staroverov, T. A. Keith, R. Kobayashi, J. Normand, 
 K. Raghavachari, A. P. Rendell, J. C. Burant, S. S. Iyengar, 
 J. Tomasi, M. Cossi, J. M. Millam, M. Klene, C. Adamo, R. Cammi, 
 J. W. Ochterski, R. L. Martin, K. Morokuma, O. Farkas, 
 J. B. Foresman, and D. J. Fox, Gaussian, Inc., Wallingford CT, 2019.
 
 ******************************************
 Gaussian 16:  ES64L-G16RevC.01  3-Jul-2019
                14-Oct-2024 
 ******************************************
 %chk=4-tsfreq.chk
 ---------------------------
 #p freq external='./xtb.sh'
 ---------------------------
 1/10=4,18=10,30=1,38=1/1,3;
 2/12=2,17=6,18=5,40=1/2;
 3/11=9,25=1,30=1,41=9900000,43=2,71=2,140=1/1;
 4/20=17,22=2,24=3,113=1,114=1/2;
 6/7=2,8=2,9=2,10=2/1;
 7/8=1,25=1,44=-1/16;
 1/10=4,18=10,30=1/3;
 99//99;
 Leave Link    1 at Mon Oct 14 18:09:21 2024, MaxMem=           0 cpu:               0.0 elap:               0.1
 (Enter /home/echo/g16/l101.exe)
 ------------------------------
 Generate automatically by rxnb
 ------------------------------
 Symbolic Z-matrix:
 Charge =  0 Multiplicity = 1
 Fe                   -1.51838   0.97657  -0.33842 
 C                     2.37911  -0.12758   1.85268 
 Pd                    0.15073  -0.82207   0.25226 
 C                    -2.79642  -1.47606  -0.25046 
 H                    -3.09112   3.07804  -0.46909 
 H                    -3.79599   1.08621   1.09772 
 H                    -1.55887   0.25211   2.4059 
 C                     2.32548  -1.43437  -1.39 
 O                     3.17637   0.18349   2.71834 
 C                    -2.15932  -0.60047  -1.26291 
 O                     1.40756  -2.04328  -2.10973 
 C                    -0.54056   0.78339  -2.01036 
 C                    -1.77429   1.42941  -2.20106 
 C                    -2.78505   0.5753   -1.72812 
 H                     0.39932   1.24295  -2.23183 
 H                    -1.90675   2.43883  -2.51724 
 H                    -3.81395   0.83167  -1.61005 
 H                     0.43494  -1.54375  -1.86748 
 C                    -0.75384  -0.52795  -1.49124 
 C                     2.7521    0.23478   0.34612 
 O                     1.28853  -0.7411    2.02663 
 C                    -0.55632   1.77989   1.20654 
 C                    -1.04853   2.74032   0.30193 
 C                    -2.44199   2.56557   0.2025 
 C                    -2.80655   1.47946   1.0218 
 C                    -1.6448    0.99519   1.64591 
 H                     0.4222    1.72458   1.63183 
 N                     1.9592   -0.60928  -0.48522 
 H                     3.83207   0.0755    0.23141 
 H                    -3.51686  -0.83206   0.25313 
 H                    -3.32446  -2.34698  -0.66418 
 H                    -0.47085   3.41355  -0.29096 
 N                    -1.78372  -1.90081   0.72885 
 C                    -1.18401  -3.18417   0.33228 
 C                    -2.37988  -2.06993   2.04652 
 H                    -1.9046   -4.00755   0.45934 
 H                    -0.8828   -3.15776  -0.71773 
 H                    -0.3092   -3.3896    0.96277 
 H                    -3.04041  -2.94779   2.0767 
 H                    -1.59047  -2.20222   2.78639 
 H                    -2.97045  -1.19488   2.30482 
 C                     2.38763   1.67981  -0.07275 
 C                     2.83913   2.71383   0.95226 
 C                     3.01094   1.99832  -1.4345 
 H                     3.92524   2.75316   0.99009 
 H                     2.46325   3.69882   0.6837 
 H                     2.49292   2.46568   1.95087 
 H                     1.28859   1.7022   -0.19952 
 H                     4.09727   2.00584  -1.36963 
 H                     2.71463   1.26478  -2.18271 
 H                     2.68496   2.9805   -1.77074 
 C                     3.75261  -1.74376  -1.74226 
 H                     4.28517  -2.09996  -0.86246 
 H                     3.76905  -2.50766  -2.51386 
 H                     4.25068  -0.84816  -2.10879 
 
 ITRead=  0  0  0  0  0  0  0  0  0  0  0  0  0  0  0  0  0  0  0  0
 ITRead=  0  0  0  0  0  0  0  0  0  0  0  0  0  0  0  0  0  0  0  0
 ITRead=  0  0  0  0  0  0  0  0  0  0  0  0  0  0  0
 MicOpt= -1 -1 -1 -1 -1 -1 -1 -1 -1 -1 -1 -1 -1 -1 -1 -1 -1 -1 -1 -1
 MicOpt= -1 -1 -1 -1 -1 -1 -1 -1 -1 -1 -1 -1 -1 -1 -1 -1 -1 -1 -1 -1
 MicOpt= -1 -1 -1 -1 -1 -1 -1 -1 -1 -1 -1 -1 -1 -1 -1
 NAtoms=     55 NQM=       55 NQMF=       0 NMMI=      0 NMMIF=      0
                NMic=       0 NMicF=      0.
                    Isotopes and Nuclear Properties:
 (Nuclear quadrupole moments (NQMom) in fm**2, nuclear magnetic moments (NMagM)
  in nuclear magnetons)

  Atom         1           2           3           4           5           6           7           8           9          10
 IAtWgt=          56          12         106          12           1           1           1          12          16          12
 AtmWgt=  55.9349393  12.0000000 105.9032000  12.0000000   1.0078250   1.0078250   1.0078250  12.0000000  15.9949146  12.0000000
 NucSpn=           0           0           0           0           1           1           1           0           0           0
 AtZEff=  -0.0000000  -0.0000000  -0.0000000  -0.0000000  -0.0000000  -0.0000000  -0.0000000  -0.0000000  -0.0000000  -0.0000000
 NQMom=    0.0000000   0.0000000   0.0000000   0.0000000   0.0000000   0.0000000   0.0000000   0.0000000   0.0000000   0.0000000
 NMagM=    0.0000000   0.0000000   0.0000000   0.0000000   2.7928460   2.7928460   2.7928460   0.0000000   0.0000000   0.0000000
 AtZNuc=  26.0000000   6.0000000  46.0000000   6.0000000   1.0000000   1.0000000   1.0000000   6.0000000   8.0000000   6.0000000

  Atom        11          12          13          14          15          16          17          18          19          20
 IAtWgt=          16          12          12          12           1           1           1           1          12          12
 AtmWgt=  15.9949146  12.0000000  12.0000000  12.0000000   1.0078250   1.0078250   1.0078250   1.0078250  12.0000000  12.0000000
 NucSpn=           0           0           0           0           1           1           1           1           0           0
 AtZEff=  -0.0000000  -0.0000000  -0.0000000  -0.0000000  -0.0000000  -0.0000000  -0.0000000  -0.0000000  -0.0000000  -0.0000000
 NQMom=    0.0000000   0.0000000   0.0000000   0.0000000   0.0000000   0.0000000   0.0000000   0.0000000   0.0000000   0.0000000
 NMagM=    0.0000000   0.0000000   0.0000000   0.0000000   2.7928460   2.7928460   2.7928460   2.7928460   0.0000000   0.0000000
 AtZNuc=   8.0000000   6.0000000   6.0000000   6.0000000   1.0000000   1.0000000   1.0000000   1.0000000   6.0000000   6.0000000

  Atom        21          22          23          24          25          26          27          28          29          30
 IAtWgt=          16          12          12          12          12          12           1          14           1           1
 AtmWgt=  15.9949146  12.0000000  12.0000000  12.0000000  12.0000000  12.0000000   1.0078250  14.0030740   1.0078250   1.0078250
 NucSpn=           0           0           0           0           0           0           1           2           1           1
 AtZEff=  -0.0000000  -0.0000000  -0.0000000  -0.0000000  -0.0000000  -0.0000000  -0.0000000  -0.0000000  -0.0000000  -0.0000000
 NQMom=    0.0000000   0.0000000   0.0000000   0.0000000   0.0000000   0.0000000   0.0000000   2.0440000   0.0000000   0.0000000
 NMagM=    0.0000000   0.0000000   0.0000000   0.0000000   0.0000000   0.0000000   2.7928460   0.4037610   2.7928460   2.7928460
 AtZNuc=   8.0000000   6.0000000   6.0000000   6.0000000   6.0000000   6.0000000   1.0000000   7.0000000   1.0000000   1.0000000

  Atom        31          32          33          34          35          36          37          38          39          40
 IAtWgt=           1           1          14          12          12           1           1           1           1           1
 AtmWgt=   1.0078250   1.0078250  14.0030740  12.0000000  12.0000000   1.0078250   1.0078250   1.0078250   1.0078250   1.0078250
 NucSpn=           1           1           2           0           0           1           1           1           1           1
 AtZEff=  -0.0000000  -0.0000000  -0.0000000  -0.0000000  -0.0000000  -0.0000000  -0.0000000  -0.0000000  -0.0000000  -0.0000000
 NQMom=    0.0000000   0.0000000   2.0440000   0.0000000   0.0000000   0.0000000   0.0000000   0.0000000   0.0000000   0.0000000
 NMagM=    2.7928460   2.7928460   0.4037610   0.0000000   0.0000000   2.7928460   2.7928460   2.7928460   2.7928460   2.7928460
 AtZNuc=   1.0000000   1.0000000   7.0000000   6.0000000   6.0000000   1.0000000   1.0000000   1.0000000   1.0000000   1.0000000

  Atom        41          42          43          44          45          46          47          48          49          50
 IAtWgt=           1          12          12          12           1           1           1           1           1           1
 AtmWgt=   1.0078250  12.0000000  12.0000000  12.0000000   1.0078250   1.0078250   1.0078250   1.0078250   1.0078250   1.0078250
 NucSpn=           1           0           0           0           1           1           1           1           1           1
 AtZEff=  -0.0000000  -0.0000000  -0.0000000  -0.0000000  -0.0000000  -0.0000000  -0.0000000  -0.0000000  -0.0000000  -0.0000000
 NQMom=    0.0000000   0.0000000   0.0000000   0.0000000   0.0000000   0.0000000   0.0000000   0.0000000   0.0000000   0.0000000
 NMagM=    2.7928460   0.0000000   0.0000000   0.0000000   2.7928460   2.7928460   2.7928460   2.7928460   2.7928460   2.7928460
 AtZNuc=   1.0000000   6.0000000   6.0000000   6.0000000   1.0000000   1.0000000   1.0000000   1.0000000   1.0000000   1.0000000

  Atom        51          52          53          54          55
 IAtWgt=           1          12           1           1           1
 AtmWgt=   1.0078250  12.0000000   1.0078250   1.0078250   1.0078250
 NucSpn=           1           0           1           1           1
 AtZEff=  -0.0000000  -0.0000000  -0.0000000  -0.0000000  -0.0000000
 NQMom=    0.0000000   0.0000000   0.0000000   0.0000000   0.0000000
 NMagM=    2.7928460   0.0000000   2.7928460   2.7928460   2.7928460
 AtZNuc=   1.0000000   6.0000000   1.0000000   1.0000000   1.0000000
 Leave Link  101 at Mon Oct 14 18:09:22 2024, MaxMem=   104857600 cpu:               0.1 elap:               0.1
 (Enter /home/echo/g16/l103.exe)

 GradGradGradGradGradGradGradGradGradGradGradGradGradGradGradGradGradGrad
 Berny optimization.
 Initialization pass.
 Trust Radius=3.00D-01 FncErr=1.00D-07 GrdErr=1.00D-07 EigMax=2.50D+02 EigMin=1.00D-04
 Number of steps in this run=      2 maximum allowed number of steps=      2.
 GradGradGradGradGradGradGradGradGradGradGradGradGradGradGradGradGradGrad

 Leave Link  103 at Mon Oct 14 18:09:22 2024, MaxMem=   104857600 cpu:               0.0 elap:               0.0
 (Enter /home/echo/g16/l202.exe)
 Stoichiometry    C20H28FeN2O3Pd
 Framework group  C1[X(C20H28FeN2O3Pd)]
 Deg. of freedom   159
 Full point group                 C1      NOp   1
 Largest Abelian subgroup         C1      NOp   1
 Largest concise Abelian subgroup C1      NOp   1
                         Standard orientation:                         
 ---------------------------------------------------------------------
 Center     Atomic      Atomic             Coordinates (Angstroms)
 Number     Number       Type             X           Y           Z
 ---------------------------------------------------------------------
      1         26           0       -1.518380    0.976570   -0.338420
      2          6           0        2.379111   -0.127577    1.852680
      3         46           0        0.150731   -0.822069    0.252260
      4          6           0       -2.796418   -1.476061   -0.250460
      5          1           0       -3.091122    3.078038   -0.469090
      6          1           0       -3.795990    1.086208    1.097720
      7          1           0       -1.558870    0.252110    2.405900
      8          6           0        2.325482   -1.434367   -1.390000
      9          8           0        3.176370    0.183493    2.718340
     10          6           0       -2.159319   -0.600471   -1.262910
     11          8           0        1.407562   -2.043278   -2.109730
     12          6           0       -0.540560    0.783390   -2.010360
     13          6           0       -1.774291    1.429409   -2.201060
     14          6           0       -2.785050    0.575299   -1.728120
     15          1           0        0.399319    1.242951   -2.231830
     16          1           0       -1.906752    2.438829   -2.517240
     17          1           0       -3.813950    0.831668   -1.610050
     18          1           0        0.434942   -1.543749   -1.867480
     19          6           0       -0.753839   -0.527950   -1.491240
     20          6           0        2.752100    0.234783    0.346120
     21          8           0        1.288531   -0.741098    2.026630
     22          6           0       -0.556321    1.779890    1.206540
     23          6           0       -1.048532    2.740320    0.301930
     24          6           0       -2.441992    2.565569    0.202500
     25          6           0       -2.806551    1.479459    1.021800
     26          6           0       -1.644800    0.995190    1.645910
     27          1           0        0.422199    1.724581    1.631830
     28          7           0        1.959201   -0.609278   -0.485220
     29          1           0        3.832070    0.075504    0.231410
     30          1           0       -3.516859   -0.832062    0.253130
     31          1           0       -3.324458   -2.346982   -0.664180
     32          1           0       -0.470852    3.413550   -0.290960
     33          7           0       -1.783718   -1.900811    0.728850
     34          6           0       -1.184007   -3.184170    0.332280
     35          6           0       -2.379878   -2.069931    2.046520
     36          1           0       -1.904596   -4.007551    0.459340
     37          1           0       -0.882797   -3.157760   -0.717730
     38          1           0       -0.309197   -3.389599    0.962770
     39          1           0       -3.040407   -2.947792    2.076700
     40          1           0       -1.590468   -2.202220    2.786390
     41          1           0       -2.970449   -1.194881    2.304820
     42          6           0        2.387629    1.679813   -0.072750
     43          6           0        2.839128    2.713833    0.952260
     44          6           0        3.010939    1.998323   -1.434500
     45          1           0        3.925238    2.753164    0.990090
     46          1           0        2.463247    3.698823    0.683700
     47          1           0        2.492918    2.465683    1.950870
     48          1           0        1.288589    1.702202   -0.199520
     49          1           0        4.097269    2.005844   -1.369630
     50          1           0        2.714629    1.264783   -2.182710
     51          1           0        2.684958    2.980503   -1.770740
     52          6           0        3.752612   -1.743756   -1.742260
     53          1           0        4.285172   -2.099956   -0.862460
     54          1           0        3.769052   -2.507656   -2.513860
     55          1           0        4.250681   -0.848156   -2.108790
 ---------------------------------------------------------------------
 Rotational constants (GHZ):           0.2632490           0.1853394           0.1651982
 Leave Link  202 at Mon Oct 14 18:09:22 2024, MaxMem=   104857600 cpu:               0.0 elap:               0.0
 (Enter /home/echo/g16/l301.exe)
 Standard basis: STO-3G (5D, 7F)
 Ernie: Thresh=  0.10000D-02 Tol=  0.10000D-05 Strict=F.
 There are   201 symmetry adapted cartesian basis functions of A   symmetry.
 There are   198 symmetry adapted basis functions of A   symmetry.
   198 basis functions,   603 primitive gaussians,   201 cartesian basis functions
   129 alpha electrons      129 beta electrons
       nuclear repulsion energy      4978.0471142884 Hartrees.
 IExCor=    0 DFT=F Ex=HF Corr=None ExCW=0 ScaHFX=  1.000000
 ScaDFX=  1.000000  1.000000  1.000000  1.000000 ScalE2=  1.000000  1.000000
 IRadAn=      5 IRanWt=     -1 IRanGd=            0 ICorTp=0 IEmpDi=  4
 NAtoms=   55 NActive=   55 NUniq=   55 SFac= 1.00D+00 NAtFMM=   60 NAOKFM=F Big=F
 Integral buffers will be    131072 words long.
 Raffenetti 1 integral format.
 Two-electron integral symmetry is turned on.
 Leave Link  301 at Mon Oct 14 18:09:22 2024, MaxMem=   104857600 cpu:               0.0 elap:               0.0
 (Enter /home/echo/g16/l402.exe)
 External calculation of energy, first and second derivatives.
 Running external command "./xtb.sh R"
         input file       "/home/echo/scratch/Gau-22566.EIn"
         output file      "/home/echo/scratch/Gau-22566.EOu"
         message file     "/home/echo/scratch/Gau-22566.EMs"
         fchk file        "/home/echo/scratch/Gau-22566.EFC"
         mat. el file     "/home/echo/scratch/Gau-22566.EUF"
Generating mol.tmp
Generating mol.xyz via genxyz
Running: xtb mol.xyz --chrg 0 --uhf 0 --gfn2 --hess --grad > xtbout
xtb running finished!
Extracting data from xtb outputs via extderi
 Recovered energy= -82.9684109555     dipole=      0.000000000000      0.000000000000      0.000000000000
 Energy=    -82.9684110     NIter=   0.
 Dipole moment=       0.000000       0.000000       0.000000
 Leave Link  402 at Mon Oct 14 18:09:26 2024, MaxMem=   104857600 cpu:               0.0 elap:               4.3
 (Enter /home/echo/g16/l601.exe)
 Leave Link  601 at Mon Oct 14 18:09:26 2024, MaxMem=   104857600 cpu:               0.0 elap:               0.0
 (Enter /home/echo/g16/l716.exe)
 Dipole        = 0.00000000D+00 0.00000000D+00 0.00000000D+00
 Full mass-weighted force constant matrix:
 Low frequencies --- -787.8999   -0.0193   -0.0170    0.0064    0.0077    0.0161
 Low frequencies ---    0.0250   23.1020   32.4692
 ******    1 imaginary frequencies (negative Signs) ****** 
 Diagonal vibrational polarizability:
        0.0000000       0.0000000       0.0000000
 Harmonic frequencies (cm**-1), IR intensities (KM/Mole), Raman scattering
 activities (A**4/AMU), depolarization ratios for plane and unpolarized
 incident light, reduced masses (AMU), force constants (mDyne/A),
 and normal coordinates:
                      1                      2                      3
                      A                      A                      A
 Frequencies --   -787.8999                23.1020                32.4692
 Red. masses --      1.2519                 4.0997                 6.5451
 Frc consts  --      0.4579                 0.0013                 0.0041
 IR Inten    --      0.0000                 0.0000                 0.0000
  Atom  AN      X      Y      Z        X      Y      Z        X      Y      Z
     1  26    -0.01   0.01  -0.00     0.04   0.02  -0.00     0.05   0.00   0.04
     2   6    -0.01  -0.01   0.01    -0.03   0.02   0.00    -0.11   0.09   0.02
     3  46    -0.00   0.00  -0.00    -0.02  -0.05   0.01    -0.01  -0.06  -0.02
     4   6    -0.01   0.00   0.00    -0.01   0.06   0.09    -0.01   0.01  -0.07
     5   1     0.00  -0.00  -0.00     0.25   0.17  -0.10    -0.08  -0.09   0.17
     6   1     0.00  -0.00  -0.00    -0.03   0.23  -0.14     0.12  -0.16   0.18
     7   1    -0.00   0.01   0.01    -0.19   0.02  -0.02     0.25  -0.05   0.04
     8   6     0.06   0.03   0.03    -0.01   0.03   0.00     0.01  -0.00   0.02
     9   8     0.01   0.00  -0.01    -0.06   0.07   0.00    -0.23   0.29   0.06
    10   6    -0.02   0.01   0.01    -0.01   0.01   0.04     0.01   0.05  -0.02
    11   8     0.01  -0.03  -0.03     0.01   0.00   0.00     0.03  -0.01   0.01
    12   6     0.00  -0.00   0.00     0.01  -0.05  -0.02     0.04   0.04   0.02
    13   6    -0.00  -0.00  -0.00     0.02  -0.02  -0.01     0.05   0.08   0.06
    14   6    -0.01   0.01  -0.00     0.01   0.02   0.03     0.04   0.08   0.03
    15   1     0.00   0.00   0.02     0.01  -0.08  -0.05     0.05   0.02   0.02
    16   1    -0.00  -0.00  -0.01     0.05  -0.02  -0.03     0.08   0.10   0.10
    17   1    -0.01   0.01  -0.01     0.02   0.05   0.04     0.04   0.10   0.04
    18   1     0.75  -0.59  -0.26    -0.01  -0.02   0.01     0.02  -0.01  -0.01
    19   6    -0.04   0.05   0.08    -0.02  -0.03   0.01     0.01   0.02  -0.03
    20   6    -0.00  -0.00  -0.01    -0.05   0.04   0.00    -0.05   0.02   0.02
    21   8     0.00   0.00   0.01     0.01  -0.06  -0.00    -0.03  -0.06  -0.01
    22   6     0.00  -0.00   0.00     0.03  -0.07   0.05     0.08   0.02   0.01
    23   6    -0.00  -0.00  -0.00     0.17  -0.02   0.01    -0.02   0.01   0.06
    24   6    -0.00   0.00   0.01     0.16   0.11  -0.07    -0.02  -0.07   0.13
    25   6     0.00   0.00  -0.00     0.01   0.15  -0.08     0.10  -0.11   0.13
    26   6     0.00  -0.00   0.00    -0.07   0.04  -0.02     0.16  -0.05   0.05
    27   1    -0.00   0.01   0.01    -0.00  -0.16   0.11     0.11   0.07  -0.05
    28   7     0.01  -0.00  -0.01    -0.03   0.02   0.00    -0.01  -0.01   0.02
    29   1     0.00  -0.00   0.00    -0.05   0.06  -0.00    -0.04   0.01   0.07
    30   1    -0.00  -0.00   0.01     0.09   0.13   0.16    -0.04  -0.02  -0.08
    31   1    -0.00  -0.00   0.01    -0.11   0.11   0.13     0.03   0.01  -0.12
    32   1    -0.00  -0.00  -0.00     0.26  -0.07   0.05    -0.09   0.06   0.04
    33   7    -0.00  -0.00  -0.00     0.04  -0.03   0.01    -0.03   0.01  -0.05
    34   6    -0.00  -0.00   0.00    -0.04  -0.03  -0.10    -0.05  -0.02  -0.01
    35   6     0.00  -0.00  -0.00     0.12  -0.09   0.04    -0.05   0.06  -0.06
    36   1    -0.00  -0.01   0.01    -0.06  -0.01  -0.10    -0.08   0.01  -0.02
    37   1    -0.02  -0.00  -0.00    -0.12   0.02  -0.13    -0.02  -0.04  -0.01
    38   1    -0.00  -0.00  -0.00     0.00  -0.09  -0.18    -0.07  -0.03   0.01
    39   1    -0.00  -0.00  -0.00     0.15  -0.12   0.05    -0.11   0.10  -0.06
    40   1     0.00   0.00  -0.00     0.17  -0.08  -0.01    -0.07   0.01  -0.05
    41   1     0.00   0.00  -0.01     0.10  -0.13   0.11     0.01   0.10  -0.07
    42   6    -0.00  -0.00  -0.00    -0.09   0.03  -0.00    -0.01   0.00  -0.08
    43   6     0.00  -0.00  -0.00    -0.12   0.05  -0.01     0.01   0.07  -0.16
    44   6     0.00  -0.00   0.00    -0.10   0.04  -0.00    -0.01  -0.10  -0.10
    45   1     0.00  -0.00  -0.00    -0.12   0.10  -0.04     0.01   0.11  -0.23
    46   1    -0.00  -0.01  -0.00    -0.17   0.03  -0.00    -0.04   0.04  -0.19
    47   1    -0.00  -0.00  -0.00    -0.08   0.03  -0.01     0.09   0.11  -0.13
    48   1    -0.00   0.00   0.00    -0.09  -0.01  -0.01    -0.01   0.02  -0.08
    49   1     0.00  -0.00   0.00    -0.10   0.08  -0.00    -0.00  -0.13  -0.10
    50   1     0.00   0.01  -0.01    -0.06   0.02  -0.00    -0.03  -0.13  -0.06
    51   1     0.00   0.00   0.01    -0.13   0.02  -0.01     0.03  -0.11  -0.16
    52   6     0.01  -0.01  -0.01    -0.00   0.07   0.00     0.02   0.02   0.04
    53   1     0.03  -0.01  -0.02     0.01   0.07  -0.00     0.02   0.04   0.06
    54   1    -0.01  -0.00  -0.00     0.02   0.07  -0.00     0.04  -0.00   0.06
    55   1     0.02  -0.01  -0.01    -0.02   0.08   0.01     0.01   0.02   0.03
                      4                      5                      6
                      A                      A                      A
 Frequencies --     56.5483                59.8882                77.8296
 Red. masses --      4.3289                 3.8091                 4.1940
 Frc consts  --      0.0082                 0.0080                 0.0150
 IR Inten    --      0.0000                 0.0000                 0.0000
  Atom  AN      X      Y      Z        X      Y      Z        X      Y      Z
     1  26    -0.03  -0.02  -0.01     0.04  -0.01  -0.00    -0.01  -0.00  -0.00
     2   6    -0.07  -0.01   0.04     0.01  -0.03   0.00     0.03   0.05   0.03
     3  46    -0.02  -0.02  -0.01     0.00  -0.04   0.02     0.01   0.04   0.06
     4   6    -0.01  -0.00   0.08    -0.01   0.00  -0.03    -0.03  -0.01  -0.03
     5   1    -0.02  -0.01  -0.03     0.02  -0.03  -0.04     0.07   0.06  -0.03
     6   1     0.01   0.05   0.05     0.02  -0.02  -0.02    -0.06   0.05  -0.10
     7   1     0.04   0.07   0.02     0.03   0.02   0.01    -0.15  -0.08  -0.04
     8   6    -0.00   0.09  -0.06     0.01   0.06  -0.07    -0.00   0.02  -0.03
     9   8    -0.13   0.04   0.08     0.04  -0.05  -0.01     0.03   0.09   0.02
    10   6    -0.04  -0.04   0.03     0.02  -0.01  -0.01     0.01  -0.01  -0.01
    11   8     0.02   0.12  -0.09     0.03   0.04  -0.08    -0.02   0.04  -0.02
    12   6    -0.06  -0.04  -0.02     0.06  -0.04   0.01     0.03  -0.00   0.03
    13   6    -0.06  -0.05  -0.02     0.07  -0.02  -0.01     0.03  -0.01  -0.01
    14   6    -0.05  -0.05   0.01     0.05   0.01  -0.02     0.02  -0.01  -0.03
    15   1    -0.06  -0.03  -0.01     0.07  -0.06   0.00     0.03  -0.00   0.05
    16   1    -0.08  -0.06  -0.04     0.10  -0.01  -0.01     0.03  -0.01  -0.02
    17   1    -0.05  -0.05   0.03     0.05   0.02  -0.04     0.02  -0.01  -0.06
    18   1    -0.01   0.05  -0.04     0.02  -0.03  -0.03    -0.01   0.02   0.03
    19   6    -0.04  -0.03   0.01     0.02  -0.04   0.01     0.02   0.01   0.05
    20   6     0.01  -0.03   0.05    -0.02  -0.01  -0.00     0.04  -0.04   0.02
    21   8    -0.06  -0.04  -0.00     0.00  -0.01   0.02     0.01   0.09   0.06
    22   6     0.02   0.02  -0.07     0.01   0.01  -0.00    -0.04  -0.07   0.05
    23   6     0.00  -0.00  -0.08     0.01  -0.00  -0.02     0.03  -0.03   0.05
    24   6    -0.00   0.01  -0.04     0.02  -0.02  -0.03     0.02   0.02  -0.01
    25   6     0.01   0.04   0.01     0.02  -0.01  -0.02    -0.05   0.02  -0.05
    26   6     0.03   0.05  -0.01     0.02   0.01  -0.00    -0.09  -0.04  -0.01
    27   1     0.03   0.02  -0.10     0.01   0.03   0.01    -0.05  -0.10   0.08
    28   7    -0.01   0.02   0.01    -0.01  -0.03   0.01     0.02  -0.06   0.05
    29   1     0.00  -0.10   0.10    -0.02   0.02  -0.02     0.04  -0.05   0.02
    30   1     0.03   0.03   0.10    -0.07  -0.01  -0.09    -0.02  -0.00  -0.03
    31   1    -0.05  -0.00   0.13     0.04  -0.02  -0.04    -0.05   0.02  -0.07
    32   1    -0.00  -0.03  -0.12     0.01  -0.00  -0.02     0.07  -0.03   0.09
    33   7     0.04   0.00   0.04    -0.06   0.06   0.05    -0.07  -0.06  -0.02
    34   6     0.00  -0.01   0.02    -0.05   0.03   0.17    -0.03  -0.02  -0.09
    35   6     0.11   0.03   0.07    -0.15   0.14   0.02    -0.13  -0.16  -0.06
    36   1    -0.01   0.01   0.05    -0.07   0.04   0.16    -0.01  -0.05  -0.14
    37   1    -0.04  -0.02   0.01     0.03  -0.04   0.19    -0.03   0.04  -0.09
    38   1     0.02  -0.02  -0.01    -0.11   0.05   0.25    -0.03  -0.04  -0.10
    39   1     0.13   0.02   0.14    -0.18   0.16   0.02    -0.15  -0.14  -0.16
    40   1     0.16   0.07   0.03    -0.20   0.16   0.08    -0.16  -0.25  -0.04
    41   1     0.11   0.03   0.08    -0.14   0.17  -0.06    -0.11  -0.16  -0.01
    42   6     0.13  -0.01   0.03    -0.06  -0.02   0.01     0.05  -0.05  -0.03
    43   6     0.16  -0.04   0.05    -0.10  -0.01   0.02     0.14  -0.02  -0.10
    44   6     0.20  -0.05   0.06    -0.07   0.03   0.02    -0.02  -0.12  -0.08
    45   1     0.17  -0.14   0.11    -0.11   0.06  -0.01     0.15  -0.13  -0.09
    46   1     0.27  -0.01   0.02    -0.18  -0.03   0.06     0.25   0.00  -0.19
    47   1     0.08   0.00   0.03    -0.05  -0.06   0.03     0.09   0.09  -0.09
    48   1     0.14   0.07  -0.01    -0.07  -0.06   0.00     0.04  -0.01   0.04
    49   1     0.20  -0.20   0.08    -0.07   0.07   0.02    -0.01  -0.14  -0.14
    50   1     0.11   0.01   0.03    -0.04   0.04  -0.00    -0.08  -0.15  -0.04
    51   1     0.34   0.00   0.08    -0.11   0.02   0.04    -0.01  -0.13  -0.11
    52   6     0.00   0.14  -0.09     0.02   0.20  -0.17    -0.01   0.09  -0.14
    53   1     0.01   0.06  -0.12     0.10   0.18  -0.22     0.08   0.12  -0.18
    54   1     0.01   0.22  -0.16     0.04   0.25  -0.22    -0.03   0.09  -0.14
    55   1    -0.00   0.18   0.00    -0.07   0.26  -0.13    -0.09   0.12  -0.18
                      7                      8                      9
                      A                      A                      A
 Frequencies --     95.2162                96.9412               103.5957
 Red. masses --      3.1683                 1.1489                 3.6387
 Frc consts  --      0.0169                 0.0064                 0.0230
 IR Inten    --      0.0000                 0.0000                 0.0000
  Atom  AN      X      Y      Z        X      Y      Z        X      Y      Z
     1  26    -0.00  -0.02  -0.01     0.00  -0.00  -0.00     0.02   0.03  -0.01
     2   6     0.06   0.05  -0.04     0.01   0.01  -0.00    -0.01  -0.02   0.04
     3  46    -0.02  -0.03   0.02    -0.01  -0.01   0.01    -0.01  -0.00   0.03
     4   6    -0.06   0.03  -0.01    -0.01   0.01   0.00     0.00   0.04   0.03
     5   1    -0.03  -0.04   0.02    -0.02  -0.02   0.01    -0.16  -0.11   0.00
     6   1     0.03  -0.03   0.06     0.01  -0.01   0.02     0.06  -0.11   0.10
     7   1     0.07  -0.02  -0.00     0.03   0.00   0.00     0.19   0.07   0.00
     8   6    -0.03   0.02   0.03    -0.01   0.01   0.01    -0.00  -0.00   0.00
     9   8     0.10   0.03  -0.07     0.02  -0.01  -0.01     0.04  -0.12   0.03
    10   6    -0.03   0.00  -0.01    -0.01   0.00  -0.00     0.01   0.02   0.01
    11   8    -0.03  -0.06   0.09    -0.00  -0.01   0.02    -0.01   0.01   0.00
    12   6     0.03  -0.05   0.01     0.01  -0.01   0.00     0.03  -0.02  -0.00
    13   6     0.05  -0.01  -0.01     0.01  -0.00  -0.00     0.04  -0.00  -0.02
    14   6     0.01   0.02  -0.03     0.00   0.01  -0.01     0.03   0.02  -0.02
    15   1     0.05  -0.09   0.03     0.01  -0.02   0.01     0.04  -0.03  -0.02
    16   1     0.09  -0.01  -0.01     0.02  -0.00  -0.00     0.06  -0.00  -0.03
    17   1     0.02   0.05  -0.05     0.01   0.01  -0.01     0.03   0.03  -0.03
    18   1    -0.02  -0.07   0.07    -0.00  -0.01   0.01    -0.01  -0.00   0.03
    19   6    -0.03  -0.04   0.02    -0.01  -0.01   0.00     0.01  -0.00   0.02
    20   6     0.00   0.07  -0.05    -0.00   0.02  -0.00    -0.01  -0.03   0.04
    21   8     0.06   0.05  -0.00     0.01   0.01   0.00    -0.06   0.08   0.06
    22   6     0.03  -0.01  -0.03     0.01   0.01  -0.02     0.01   0.14  -0.07
    23   6    -0.01  -0.01  -0.02    -0.01   0.00  -0.01    -0.10   0.08  -0.07
    24   6    -0.01  -0.03   0.01    -0.01  -0.01   0.00    -0.09  -0.04  -0.01
    25   6     0.02  -0.03   0.02     0.01  -0.01   0.01     0.03  -0.05   0.03
    26   6     0.05  -0.02  -0.00     0.02   0.00  -0.00     0.10   0.06  -0.01
    27   1     0.04  -0.01  -0.07     0.01   0.01  -0.03     0.03   0.23  -0.10
    28   7    -0.04   0.08  -0.02    -0.01   0.01   0.00     0.00  -0.06   0.05
    29   1    -0.01   0.03  -0.07    -0.00   0.01  -0.02    -0.00  -0.02   0.04
    30   1    -0.02   0.06   0.01     0.00   0.02   0.01     0.06   0.07   0.08
    31   1    -0.10   0.05   0.00    -0.03   0.02   0.01    -0.07   0.08   0.04
    32   1    -0.03  -0.01  -0.04    -0.02   0.00  -0.02    -0.18   0.10  -0.11
    33   7    -0.05  -0.01  -0.03    -0.01  -0.00  -0.01     0.04  -0.03  -0.04
    34   6    -0.10  -0.03  -0.07    -0.03  -0.01  -0.03    -0.04  -0.04  -0.15
    35   6    -0.04  -0.02  -0.03     0.01  -0.00  -0.00     0.15  -0.04   0.00
    36   1    -0.12  -0.01  -0.06    -0.03  -0.00  -0.02    -0.06  -0.02  -0.12
    37   1    -0.14  -0.02  -0.08    -0.04  -0.00  -0.03    -0.14  -0.00  -0.18
    38   1    -0.09  -0.06  -0.11    -0.02  -0.02  -0.04     0.02  -0.10  -0.24
    39   1    -0.10   0.02  -0.05    -0.01   0.01  -0.00     0.12  -0.02   0.05
    40   1    -0.04  -0.09  -0.04     0.01  -0.02  -0.01     0.22  -0.09  -0.08
    41   1     0.01   0.01   0.01     0.02   0.01   0.01     0.22  -0.02   0.08
    42   6     0.05   0.09  -0.01     0.01   0.02  -0.00    -0.05  -0.05  -0.01
    43   6     0.04   0.04   0.04     0.01   0.01   0.02    -0.09  -0.01  -0.04
    44   6     0.12   0.12   0.03     0.04   0.02   0.01    -0.05  -0.08  -0.02
    45   1     0.04  -0.07   0.16     0.01  -0.01   0.04    -0.09   0.14  -0.15
    46   1     0.18   0.08  -0.00     0.03   0.02   0.01    -0.25  -0.05   0.01
    47   1    -0.09   0.08   0.00    -0.02   0.01   0.01     0.05  -0.07  -0.01
    48   1     0.06   0.12  -0.05     0.01   0.03  -0.02    -0.05  -0.09  -0.02
    49   1     0.12   0.10   0.08     0.04  -0.02   0.03    -0.05  -0.05  -0.03
    50   1     0.14   0.15  -0.01     0.02   0.05  -0.00    -0.04  -0.10  -0.00
    51   1     0.16   0.14   0.04     0.07   0.04   0.03    -0.08  -0.09  -0.05
    52   6    -0.03   0.05   0.02    -0.01   0.02  -0.01    -0.00   0.05  -0.05
    53   1    -0.13  -0.31  -0.06     0.17   0.55   0.10     0.00  -0.07  -0.10
    54   1    -0.03   0.31  -0.24    -0.00  -0.36   0.37    -0.01   0.16  -0.16
    55   1     0.07   0.14   0.38    -0.19  -0.09  -0.55    -0.01   0.11   0.08
                     10                     11                     12
                      A                      A                      A
 Frequencies --    122.6629               131.5891               140.7489
 Red. masses --      3.5397                 4.4038                 6.5171
 Frc consts  --      0.0314                 0.0449                 0.0761
 IR Inten    --      0.0000                 0.0000                 0.0000
  Atom  AN      X      Y      Z        X      Y      Z        X      Y      Z
     1  26     0.00  -0.01   0.01     0.01  -0.01   0.00     0.01  -0.01   0.01
     2   6     0.00  -0.02   0.01    -0.00   0.03   0.01    -0.07   0.02   0.02
     3  46    -0.03  -0.04  -0.01    -0.02   0.01  -0.00    -0.00   0.03  -0.07
     4   6     0.01  -0.00  -0.02    -0.02  -0.02   0.02    -0.01  -0.05  -0.02
     5   1     0.01  -0.01  -0.02     0.08   0.03   0.06     0.10   0.06   0.07
     6   1    -0.02   0.00  -0.02     0.05   0.03   0.05     0.04   0.04   0.01
     7   1    -0.03   0.03   0.03     0.05  -0.07  -0.02     0.01  -0.05  -0.00
     8   6     0.02   0.06   0.04     0.03   0.05  -0.01     0.03  -0.04   0.08
     9   8     0.07  -0.14  -0.01     0.08  -0.11  -0.01    -0.05  -0.16   0.06
    10   6     0.00   0.00  -0.02    -0.02  -0.02   0.02    -0.02  -0.01   0.01
    11   8     0.07   0.05  -0.02     0.07   0.15  -0.14     0.00  -0.22   0.28
    12   6     0.01   0.00   0.01    -0.04  -0.02  -0.03    -0.06  -0.00  -0.04
    13   6     0.01   0.01   0.01    -0.05  -0.01   0.01    -0.07   0.01   0.02
    14   6     0.01   0.01  -0.00    -0.03  -0.01   0.04    -0.05   0.00   0.06
    15   1     0.01   0.01   0.03    -0.05  -0.02  -0.07    -0.07   0.00  -0.07
    16   1     0.02   0.01   0.02    -0.06  -0.01   0.02    -0.08   0.01   0.04
    17   1     0.01   0.01  -0.00    -0.03  -0.01   0.08    -0.04  -0.00   0.11
    18   1     0.04   0.02  -0.05     0.03   0.10  -0.12    -0.02  -0.15   0.24
    19   6     0.00  -0.01  -0.03    -0.02  -0.02  -0.02    -0.03  -0.01  -0.06
    20   6    -0.03   0.05   0.01    -0.02   0.02   0.01     0.00   0.03   0.04
    21   8    -0.03   0.03   0.01    -0.07   0.15   0.03    -0.17   0.16  -0.02
    22   6    -0.02   0.00   0.02     0.07  -0.07  -0.01     0.06  -0.07   0.03
    23   6    -0.00  -0.00   0.01     0.08  -0.04   0.02     0.10  -0.04   0.04
    24   6    -0.00  -0.00  -0.01     0.08   0.01   0.04     0.09   0.02   0.05
    25   6    -0.01   0.00  -0.01     0.06   0.01   0.04     0.05   0.02   0.03
    26   6    -0.02   0.01   0.01     0.06  -0.04   0.00     0.03  -0.04   0.01
    27   1    -0.03   0.00   0.04     0.08  -0.10  -0.04     0.05  -0.10   0.04
    28   7    -0.04   0.07   0.01    -0.01   0.01   0.01     0.04  -0.01   0.05
    29   1    -0.03   0.04  -0.00    -0.02   0.02   0.03     0.01   0.03   0.09
    30   1     0.00  -0.00  -0.02    -0.02  -0.02   0.01    -0.04  -0.09  -0.02
    31   1     0.02  -0.01  -0.01    -0.03  -0.01   0.01     0.03  -0.06  -0.04
    32   1     0.00  -0.01   0.01     0.09  -0.04   0.01     0.12  -0.04   0.06
    33   7     0.02   0.02  -0.01    -0.04  -0.03   0.03    -0.01  -0.02  -0.01
    34   6     0.00   0.00   0.02    -0.01  -0.01   0.02     0.04  -0.01   0.03
    35   6     0.03   0.05   0.00    -0.10  -0.07  -0.00    -0.01  -0.00  -0.01
    36   1    -0.01   0.02   0.02    -0.01  -0.02  -0.04     0.08  -0.04   0.10
    37   1     0.02  -0.02   0.02     0.03   0.03   0.03     0.00  -0.05   0.02
    38   1    -0.01  -0.00   0.03    -0.04  -0.02   0.05     0.07   0.06   0.02
    39   1     0.07   0.03   0.04    -0.15  -0.03  -0.08     0.01  -0.02   0.01
    40   1     0.04   0.12   0.00    -0.13  -0.16   0.02    -0.01   0.03   0.00
    41   1    -0.00   0.04  -0.04    -0.05  -0.05   0.03    -0.03  -0.01  -0.03
    42   6    -0.00   0.05   0.01    -0.00   0.00  -0.08     0.01   0.02  -0.01
    43   6     0.24   0.02  -0.07    -0.15   0.08  -0.09     0.01   0.04  -0.03
    44   6    -0.18  -0.02  -0.09     0.16  -0.07  -0.02     0.02  -0.02  -0.01
    45   1     0.25  -0.18  -0.12    -0.16   0.18  -0.02     0.01   0.09  -0.08
    46   1     0.41   0.08  -0.09    -0.23   0.03  -0.14    -0.04   0.03  -0.00
    47   1     0.23   0.13  -0.04    -0.19   0.08  -0.10     0.07   0.02  -0.01
    48   1    -0.01   0.12   0.14     0.01  -0.02  -0.19     0.01   0.03  -0.02
    49   1    -0.17  -0.01  -0.23     0.15  -0.12   0.10     0.02  -0.11  -0.03
    50   1    -0.27  -0.07  -0.01     0.20  -0.08  -0.03    -0.05   0.01  -0.01
    51   1    -0.23  -0.04  -0.10     0.24  -0.07  -0.09     0.09   0.01  -0.00
    52   6     0.05   0.07   0.16     0.05  -0.03   0.15     0.03   0.18  -0.13
    53   1    -0.02   0.10   0.21    -0.07  -0.02   0.23     0.20   0.15  -0.24
    54   1     0.12   0.06   0.17     0.10  -0.06   0.19     0.04   0.27  -0.22
    55   1     0.07   0.07   0.18     0.14  -0.07   0.17    -0.14   0.30  -0.08
                     13                     14                     15
                      A                      A                      A
 Frequencies --    146.3083               153.5020               160.7450
 Red. masses --      4.5705                 2.2039                 3.6992
 Frc consts  --      0.0576                 0.0306                 0.0563
 IR Inten    --      0.0000                 0.0000                 0.0000
  Atom  AN      X      Y      Z        X      Y      Z        X      Y      Z
     1  26     0.05   0.09  -0.03     0.02  -0.00   0.02    -0.04   0.01   0.01
     2   6    -0.03  -0.02  -0.02    -0.04   0.06  -0.01     0.05  -0.03   0.02
     3  46    -0.05  -0.01   0.03    -0.01  -0.01  -0.01    -0.02  -0.04   0.02
     4   6     0.10  -0.16  -0.06     0.03  -0.01  -0.01     0.04  -0.02  -0.07
     5   1    -0.00   0.06   0.02     0.01  -0.01  -0.01     0.01   0.05  -0.01
     6   1     0.07  -0.04  -0.06    -0.01  -0.02  -0.03    -0.08   0.05  -0.06
     7   1     0.08  -0.01  -0.08    -0.03   0.00   0.02    -0.14   0.03   0.03
     8   6    -0.06   0.01   0.00    -0.01  -0.02  -0.03    -0.01   0.01   0.03
     9   8    -0.00  -0.01  -0.04    -0.00   0.05  -0.04     0.08  -0.04  -0.01
    10   6     0.06   0.01   0.05     0.02   0.01  -0.00     0.02   0.02  -0.05
    11   8    -0.05  -0.03   0.00    -0.01  -0.01  -0.05    -0.01  -0.02   0.06
    12   6    -0.00   0.04  -0.05     0.04   0.00   0.02     0.01   0.08   0.04
    13   6    -0.04  -0.01  -0.04     0.04   0.02   0.02     0.00   0.05   0.02
    14   6     0.00  -0.03   0.03     0.03   0.02   0.00     0.00   0.02  -0.03
    15   1    -0.02   0.06  -0.10     0.04  -0.01   0.02     0.01   0.10   0.07
    16   1    -0.08  -0.03  -0.08     0.05   0.02   0.03    -0.01   0.06   0.03
    17   1    -0.00  -0.06   0.04     0.03   0.03   0.00    -0.00  -0.00  -0.05
    18   1    -0.00  -0.04  -0.05    -0.00  -0.02  -0.05     0.01  -0.00   0.03
    19   6     0.04   0.06   0.01     0.02  -0.01  -0.01     0.02   0.06   0.00
    20   6    -0.06   0.01  -0.02    -0.03  -0.02  -0.02    -0.01   0.01   0.01
    21   8     0.00  -0.06   0.01    -0.09   0.16   0.04     0.08  -0.09   0.03
    22   6     0.04   0.09  -0.01    -0.02  -0.00   0.04    -0.07  -0.04   0.03
    23   6     0.01   0.10   0.00    -0.00  -0.00   0.03    -0.02  -0.01   0.03
    24   6     0.01   0.06   0.00     0.00  -0.01   0.00    -0.02   0.03  -0.00
    25   6     0.05   0.02  -0.03    -0.01  -0.01  -0.01    -0.07   0.03  -0.02
    26   6     0.07   0.04  -0.04    -0.02  -0.00   0.02    -0.10   0.01   0.01
    27   1     0.04   0.11  -0.02    -0.03  -0.02   0.05    -0.05  -0.10  -0.01
    28   7    -0.08   0.03  -0.03    -0.01  -0.04  -0.02    -0.02   0.00   0.04
    29   1    -0.07  -0.02  -0.03    -0.03  -0.02  -0.01    -0.01  -0.00   0.00
    30   1    -0.04  -0.31  -0.06     0.01  -0.03  -0.01    -0.00  -0.05  -0.08
    31   1     0.24  -0.18  -0.20     0.05  -0.02  -0.02     0.10  -0.04  -0.08
    32   1    -0.01   0.14   0.03     0.01   0.00   0.05     0.01  -0.02   0.05
    33   7     0.05  -0.14   0.01     0.03   0.00  -0.01     0.05   0.04  -0.06
    34   6     0.15  -0.13   0.11     0.04  -0.00   0.01     0.08   0.03   0.01
    35   6    -0.05  -0.13  -0.03     0.07   0.03   0.01     0.10   0.10  -0.03
    36   1     0.18  -0.16   0.06     0.04  -0.00   0.03     0.09   0.03   0.04
    37   1     0.28  -0.15   0.15     0.04  -0.02   0.01     0.09  -0.02   0.01
    38   1     0.08  -0.06   0.22     0.04   0.01   0.02     0.07   0.07   0.03
    39   1    -0.14  -0.07  -0.11     0.13  -0.01   0.07     0.24   0.00   0.09
    40   1    -0.12  -0.24   0.02     0.09   0.13   0.00     0.13   0.31  -0.03
    41   1     0.02  -0.08  -0.04     0.01   0.00  -0.03    -0.04   0.03  -0.13
    42   6    -0.01   0.03  -0.01    -0.03  -0.02  -0.00     0.01  -0.01  -0.07
    43   6     0.03  -0.01   0.01    -0.03  -0.07   0.04    -0.10   0.07  -0.11
    44   6     0.02   0.02   0.01     0.00   0.02   0.02     0.15  -0.13  -0.03
    45   1     0.03  -0.09   0.04    -0.02  -0.44   0.40    -0.10   0.07   0.03
    46   1     0.11   0.02   0.01     0.40   0.03  -0.20    -0.06   0.05  -0.25
    47   1    -0.01   0.00   0.00    -0.44   0.17  -0.05    -0.23   0.17  -0.13
    48   1    -0.01   0.07  -0.03    -0.03  -0.01  -0.01     0.02  -0.01  -0.14
    49   1     0.02  -0.05   0.02    -0.00   0.10   0.07     0.15  -0.21   0.07
    50   1    -0.02   0.06  -0.02     0.09  -0.02   0.02     0.16  -0.14  -0.02
    51   1     0.09   0.05   0.03    -0.06  -0.01  -0.00     0.27  -0.12  -0.12
    52   6    -0.06   0.03   0.00    -0.02  -0.04  -0.04    -0.01   0.07  -0.01
    53   1    -0.06   0.03  -0.00    -0.02  -0.05  -0.04     0.03   0.06  -0.04
    54   1    -0.05   0.04  -0.00    -0.04  -0.04  -0.04    -0.01   0.10  -0.04
    55   1    -0.07   0.04   0.01    -0.01  -0.05  -0.04    -0.05   0.10   0.01
                     16                     17                     18
                      A                      A                      A
 Frequencies --    174.5639               188.9000               196.2271
 Red. masses --      1.7903                 3.9819                 5.0712
 Frc consts  --      0.0321                 0.0837                 0.1150
 IR Inten    --      0.0000                 0.0000                 0.0000
  Atom  AN      X      Y      Z        X      Y      Z        X      Y      Z
     1  26    -0.01  -0.00   0.01     0.03  -0.03   0.01     0.00  -0.04  -0.04
     2   6     0.01   0.05   0.00    -0.10  -0.03  -0.06     0.04  -0.01   0.04
     3  46    -0.02  -0.03  -0.00    -0.02   0.05   0.03    -0.05   0.07   0.05
     4   6     0.01  -0.05  -0.05     0.02   0.06   0.05    -0.05  -0.07  -0.10
     5   1     0.04   0.03  -0.02     0.00  -0.07  -0.03     0.09  -0.02   0.08
     6   1    -0.02   0.03  -0.04    -0.02  -0.07  -0.05     0.12  -0.03   0.07
     7   1    -0.06   0.02   0.03    -0.06  -0.06   0.01     0.14  -0.04   0.03
     8   6    -0.02   0.00  -0.01    -0.04   0.00  -0.04    -0.05   0.01   0.02
     9   8     0.03   0.05  -0.01    -0.08  -0.05  -0.07     0.04   0.06   0.01
    10   6    -0.00  -0.00  -0.02     0.02  -0.00  -0.01    -0.06  -0.02  -0.06
    11   8    -0.02   0.02  -0.02    -0.01  -0.07  -0.04    -0.03   0.02  -0.02
    12   6     0.01   0.01   0.02     0.10  -0.07   0.04    -0.04  -0.04  -0.06
    13   6     0.01   0.01   0.01     0.13  -0.01   0.01    -0.03  -0.02  -0.03
    14   6     0.00   0.01  -0.00     0.08   0.02  -0.03    -0.04  -0.00  -0.02
    15   1     0.01   0.01   0.04     0.12  -0.11   0.05    -0.03  -0.04  -0.04
    16   1     0.01   0.01   0.01     0.18  -0.00   0.02    -0.02  -0.01  -0.01
    17   1     0.00   0.01  -0.02     0.09   0.07  -0.06    -0.03   0.02  -0.00
    18   1    -0.00   0.01  -0.02     0.02  -0.11  -0.09     0.00  -0.04  -0.05
    19   6    -0.00   0.01   0.00     0.02  -0.07   0.01    -0.05  -0.03  -0.02
    20   6     0.03  -0.01  -0.01    -0.09   0.01  -0.05    -0.02  -0.03   0.02
    21   8    -0.03   0.12   0.03    -0.08  -0.04  -0.03     0.07  -0.06   0.07
    22   6    -0.01  -0.01   0.02    -0.03  -0.03   0.05     0.13  -0.10  -0.05
    23   6     0.02  -0.01   0.01    -0.02  -0.03   0.05     0.12  -0.09  -0.03
    24   6     0.02   0.02  -0.01    -0.01  -0.06  -0.01     0.11  -0.04   0.05
    25   6    -0.01   0.02  -0.01    -0.02  -0.07  -0.03     0.12  -0.04   0.04
    26   6    -0.03   0.01   0.01    -0.04  -0.05   0.01     0.13  -0.08  -0.01
    27   1    -0.01  -0.02   0.03    -0.03  -0.02   0.06     0.12  -0.09  -0.03
    28   7     0.00   0.00  -0.00    -0.09   0.04  -0.09    -0.05  -0.02   0.04
    29   1     0.02  -0.04  -0.01    -0.09  -0.02  -0.02    -0.02  -0.03  -0.01
    30   1    -0.03  -0.08  -0.05     0.05   0.10   0.04    -0.12  -0.14  -0.12
    31   1     0.05  -0.06  -0.08    -0.01   0.05   0.10     0.05  -0.12  -0.13
    32   1     0.04  -0.02   0.02    -0.02  -0.02   0.07     0.11  -0.10  -0.05
    33   7     0.01  -0.02  -0.04     0.03   0.07   0.05    -0.01   0.03  -0.10
    34   6     0.01  -0.04   0.01     0.13   0.13  -0.01     0.09   0.06  -0.06
    35   6     0.04   0.05  -0.02     0.02  -0.06   0.03     0.11   0.11  -0.05
    36   1     0.00  -0.03   0.02     0.22   0.06   0.06     0.19  -0.00   0.08
    37   1     0.05  -0.07   0.02     0.02   0.16  -0.04    -0.03   0.02  -0.09
    38   1    -0.01  -0.03   0.05     0.21   0.22  -0.08     0.18   0.20  -0.14
    39   1     0.10   0.00   0.06     0.09  -0.11  -0.03     0.27  -0.00   0.14
    40   1     0.06   0.16  -0.02     0.03  -0.05   0.03     0.18   0.36  -0.08
    41   1    -0.02   0.03  -0.09    -0.05  -0.12   0.09    -0.03   0.05  -0.14
    42   6     0.04  -0.00   0.02    -0.01   0.03  -0.04    -0.03  -0.03   0.04
    43   6     0.04   0.00   0.03     0.03   0.00  -0.03    -0.02  -0.05   0.05
    44   6     0.02   0.03   0.02     0.08  -0.00  -0.02    -0.10   0.00   0.02
    45   1     0.04   0.37  -0.33     0.03   0.16  -0.23    -0.01  -0.11   0.08
    46   1    -0.38  -0.09   0.30    -0.16  -0.03   0.13     0.05  -0.03   0.03
    47   1     0.45  -0.27   0.10     0.25  -0.14   0.01    -0.06  -0.02   0.04
    48   1     0.04  -0.01   0.04    -0.00   0.10  -0.06    -0.03  -0.04   0.04
    49   1     0.02  -0.06  -0.02     0.08  -0.21   0.02    -0.10   0.09  -0.03
    50   1    -0.06   0.09  -0.01    -0.03   0.10  -0.07    -0.08  -0.02   0.03
    51   1     0.08   0.07   0.09     0.28   0.08   0.04    -0.19  -0.02   0.02
    52   6    -0.03  -0.05  -0.02    -0.03   0.03   0.02    -0.05   0.02   0.02
    53   1    -0.03  -0.07  -0.03    -0.06   0.03   0.04    -0.04   0.03   0.01
    54   1    -0.07  -0.05  -0.02     0.01   0.03   0.02    -0.05   0.02   0.02
    55   1    -0.00  -0.07  -0.03    -0.03   0.03   0.04    -0.06   0.03   0.01
                     19                     20                     21
                      A                      A                      A
 Frequencies --    206.6207               219.0652               226.3535
 Red. masses --      3.6760                 4.5053                 3.4953
 Frc consts  --      0.0925                 0.1274                 0.1055
 IR Inten    --      0.0000                 0.0000                 0.0000
  Atom  AN      X      Y      Z        X      Y      Z        X      Y      Z
     1  26    -0.01   0.01  -0.02     0.01  -0.02   0.06    -0.02  -0.05   0.06
     2   6     0.05   0.03   0.03     0.05   0.00  -0.06    -0.04  -0.01   0.00
     3  46    -0.02  -0.07  -0.02    -0.03   0.03  -0.02     0.01  -0.01   0.01
     4   6     0.02   0.09   0.06    -0.02  -0.03  -0.03    -0.03  -0.07  -0.07
     5   1    -0.04  -0.00   0.03    -0.01  -0.01  -0.07     0.02  -0.02  -0.11
     6   1     0.01   0.00   0.04    -0.02   0.07   0.02     0.01   0.12   0.08
     7   1     0.05  -0.04  -0.05    -0.05   0.14   0.10    -0.01   0.22   0.14
     8   6    -0.00  -0.01   0.03     0.05  -0.06  -0.00     0.00   0.02  -0.01
     9   8     0.07   0.06   0.01     0.05   0.11  -0.10    -0.05  -0.06   0.03
    10   6    -0.01   0.02  -0.02     0.01  -0.01   0.01    -0.03  -0.03  -0.01
    11   8    -0.00  -0.01   0.02     0.12  -0.10  -0.03    -0.01   0.02  -0.00
    12   6    -0.04   0.05  -0.03    -0.03  -0.01   0.02     0.01  -0.04   0.09
    13   6    -0.06   0.03  -0.01    -0.03   0.01   0.07     0.03  -0.01   0.07
    14   6    -0.04   0.01  -0.00    -0.01  -0.00   0.07     0.00  -0.00   0.03
    15   1    -0.05   0.07  -0.02    -0.04  -0.00  -0.01     0.03  -0.06   0.12
    16   1    -0.07   0.03  -0.00    -0.02   0.02   0.09     0.06  -0.01   0.08
    17   1    -0.04  -0.00   0.02    -0.01  -0.01   0.11     0.00   0.01   0.01
    18   1     0.01   0.03  -0.02    -0.00  -0.05  -0.02     0.01  -0.02   0.00
    19   6    -0.01   0.04  -0.03     0.00  -0.05  -0.08    -0.03  -0.05   0.04
    20   6     0.02  -0.03   0.02     0.00  -0.08  -0.06     0.00   0.03   0.00
    21   8     0.03   0.07   0.06     0.06  -0.01  -0.02    -0.04  -0.02  -0.03
    22   6     0.01  -0.00  -0.05    -0.03   0.08   0.03     0.02   0.08  -0.03
    23   6    -0.01   0.00  -0.03    -0.01   0.03  -0.04     0.04  -0.01  -0.13
    24   6    -0.01  -0.00   0.01    -0.01   0.02  -0.05     0.03   0.03  -0.08
    25   6     0.01  -0.01   0.01    -0.02   0.07   0.02     0.01   0.12   0.04
    26   6     0.03  -0.01  -0.03    -0.04   0.11   0.06     0.01   0.16   0.08
    27   1     0.02  -0.00  -0.07    -0.02   0.10   0.02     0.03   0.08  -0.04
    28   7    -0.00  -0.03   0.05    -0.03  -0.09  -0.01     0.02   0.03  -0.02
    29   1     0.02  -0.04  -0.01    -0.00  -0.08  -0.08     0.01   0.03   0.03
    30   1     0.06   0.13   0.05    -0.02  -0.04  -0.02    -0.07  -0.11  -0.06
    31   1    -0.02   0.07   0.14    -0.01  -0.03  -0.05     0.03  -0.10  -0.08
    32   1    -0.03   0.00  -0.05     0.00  -0.01  -0.07     0.05  -0.09  -0.21
    33   7     0.03   0.12   0.06    -0.02  -0.03  -0.03    -0.00  -0.00  -0.07
    34   6     0.19   0.21  -0.02    -0.02  -0.02  -0.04     0.11   0.04  -0.05
    35   6    -0.08  -0.09  -0.02    -0.02  -0.01  -0.03    -0.06  -0.00  -0.11
    36   1     0.34   0.09   0.09    -0.00  -0.03   0.00     0.24  -0.04   0.11
    37   1     0.03   0.23  -0.06    -0.08  -0.02  -0.06    -0.05   0.00  -0.10
    38   1     0.31   0.34  -0.13     0.02  -0.00  -0.09     0.24   0.20  -0.16
    39   1    -0.18  -0.02  -0.26    -0.08   0.04  -0.03    -0.24   0.12  -0.20
    40   1    -0.15  -0.34   0.01    -0.02  -0.07  -0.04    -0.11  -0.21  -0.09
    41   1     0.00  -0.08   0.13     0.06   0.04  -0.02     0.11   0.10  -0.07
    42   6     0.00  -0.04   0.03    -0.01  -0.09  -0.02     0.01   0.03  -0.01
    43   6     0.00  -0.05   0.04    -0.03  -0.16   0.05    -0.01   0.06  -0.03
    44   6    -0.03  -0.02   0.02     0.03  -0.04   0.01    -0.01   0.04  -0.01
    45   1     0.00  -0.01  -0.00    -0.03  -0.12   0.03    -0.01   0.02   0.03
    46   1    -0.05  -0.05   0.09    -0.07  -0.15   0.16     0.05   0.07  -0.11
    47   1     0.06  -0.09   0.05     0.02  -0.26   0.04    -0.08   0.13  -0.04
    48   1     0.00  -0.05   0.04    -0.01  -0.09  -0.03     0.01   0.02  -0.00
    49   1    -0.03  -0.02  -0.01     0.03  -0.16   0.01    -0.01   0.18   0.00
    50   1    -0.06  -0.01   0.02    -0.05   0.04  -0.05     0.10  -0.03   0.01
    51   1    -0.04  -0.01   0.04     0.13   0.02   0.08    -0.12  -0.01  -0.07
    52   6    -0.00   0.02   0.00     0.14   0.16   0.13    -0.02  -0.07  -0.05
    53   1     0.03   0.02  -0.02     0.10   0.24   0.19    -0.02  -0.09  -0.07
    54   1     0.00   0.04  -0.02     0.36   0.18   0.12    -0.10  -0.08  -0.04
    55   1    -0.03   0.04   0.01     0.02   0.26   0.20     0.02  -0.10  -0.08
                     22                     23                     24
                      A                      A                      A
 Frequencies --    239.6772               254.6639               276.8551
 Red. masses --      2.9953                 1.3843                 2.9771
 Frc consts  --      0.1014                 0.0529                 0.1344
 IR Inten    --      0.0000                 0.0000                 0.0000
  Atom  AN      X      Y      Z        X      Y      Z        X      Y      Z
     1  26    -0.04  -0.03  -0.00    -0.02  -0.00  -0.00    -0.02   0.04  -0.02
     2   6    -0.06  -0.00  -0.02    -0.00  -0.01  -0.02    -0.06   0.00  -0.05
     3  46     0.03  -0.00   0.04    -0.03   0.01   0.01     0.06  -0.03   0.04
     4   6     0.09   0.07   0.00     0.04   0.03   0.02    -0.06  -0.04  -0.04
     5   1     0.02  -0.01   0.01     0.00   0.00   0.02    -0.01   0.09   0.08
     6   1     0.01   0.09   0.10    -0.01   0.03   0.04    -0.00   0.01  -0.01
     7   1     0.04   0.05   0.05     0.00  -0.00   0.01    -0.00  -0.06  -0.08
     8   6    -0.02  -0.02  -0.01     0.01  -0.01  -0.00     0.00  -0.03  -0.02
     9   8    -0.02  -0.01  -0.05    -0.02  -0.01  -0.00    -0.06  -0.04  -0.03
    10   6     0.09  -0.03  -0.07     0.03  -0.01  -0.02    -0.01   0.00   0.03
    11   8    -0.01  -0.05  -0.01     0.02  -0.02   0.00     0.00  -0.01  -0.01
    12   6    -0.02   0.13   0.03     0.02   0.03   0.02    -0.04   0.01  -0.02
    13   6    -0.07   0.03   0.02     0.01   0.01   0.00    -0.05  -0.02  -0.04
    14   6    -0.00  -0.07  -0.04     0.01  -0.01  -0.03    -0.03  -0.02  -0.00
    15   1    -0.06   0.24   0.10     0.02   0.05   0.05    -0.05   0.02  -0.04
    16   1    -0.14   0.03   0.05    -0.01   0.01   0.01    -0.07  -0.03  -0.07
    17   1    -0.02  -0.15  -0.02     0.01  -0.03  -0.03    -0.04  -0.04  -0.02
    18   1     0.03  -0.00  -0.06     0.01  -0.00  -0.01    -0.05   0.05   0.05
    19   6     0.09   0.09   0.00     0.03   0.02  -0.01    -0.00   0.03   0.06
    20   6    -0.07   0.00  -0.02     0.03  -0.02  -0.02    -0.02  -0.01  -0.04
    21   8    -0.06   0.02   0.04    -0.01   0.00  -0.02    -0.07   0.02  -0.02
    22   6     0.04  -0.06  -0.06     0.01  -0.03  -0.02     0.00  -0.01  -0.01
    23   6     0.05  -0.06  -0.07     0.01  -0.02  -0.01    -0.01   0.04   0.04
    24   6     0.03  -0.00   0.00     0.00   0.00   0.01    -0.01   0.05   0.05
    25   6     0.03   0.04   0.05     0.00   0.01   0.02    -0.01   0.02   0.00
    26   6     0.03   0.01   0.01     0.00  -0.01   0.01     0.00  -0.02  -0.03
    27   1     0.05  -0.07  -0.08     0.02  -0.04  -0.04     0.01  -0.02  -0.03
    28   7    -0.04   0.00  -0.03     0.00  -0.01  -0.01    -0.00  -0.03  -0.02
    29   1    -0.06   0.01   0.00     0.02  -0.04  -0.01    -0.01  -0.01  -0.01
    30   1     0.18   0.18  -0.01     0.08   0.07   0.02    -0.13  -0.10  -0.07
    31   1    -0.02   0.09   0.09    -0.01   0.04   0.05     0.02  -0.06  -0.10
    32   1     0.05  -0.11  -0.13     0.01  -0.03  -0.02    -0.01   0.07   0.08
    33   7     0.07   0.02  -0.00     0.03   0.00   0.02    -0.07   0.00  -0.02
    34   6    -0.05  -0.02  -0.03     0.00  -0.01   0.02    -0.00   0.05  -0.05
    35   6    -0.01   0.03  -0.04     0.01  -0.02   0.01    -0.02   0.04   0.01
    36   1    -0.19   0.07  -0.23    -0.05   0.02  -0.08     0.15  -0.04   0.22
    37   1     0.14   0.03   0.03     0.11   0.01   0.05    -0.31   0.00  -0.14
    38   1    -0.19  -0.21   0.10    -0.07  -0.08   0.09     0.21   0.21  -0.28
    39   1    -0.13   0.12  -0.12    -0.01  -0.00  -0.02     0.16  -0.09   0.14
    40   1    -0.06  -0.11  -0.01    -0.00  -0.05   0.01     0.03   0.28   0.01
    41   1     0.10   0.10  -0.02     0.03  -0.01   0.02    -0.18  -0.04  -0.09
    42   6    -0.04   0.01  -0.02     0.04  -0.01  -0.02     0.01  -0.01  -0.07
    43   6    -0.01  -0.03   0.01     0.01  -0.01  -0.01     0.01  -0.07  -0.01
    44   6    -0.03   0.02  -0.01     0.03   0.03  -0.02     0.03   0.08  -0.04
    45   1    -0.01  -0.08   0.01     0.01   0.07  -0.05     0.01  -0.06  -0.05
    46   1     0.03  -0.01   0.05    -0.07  -0.03   0.04    -0.01  -0.06   0.09
    47   1    -0.01  -0.05   0.00     0.08  -0.07   0.00     0.06  -0.16  -0.02
    48   1    -0.04   0.04  -0.03     0.04  -0.03  -0.02     0.01   0.01  -0.09
    49   1    -0.03  -0.27  -0.07     0.02   0.57   0.09     0.03   0.25   0.01
    50   1    -0.26   0.19  -0.09     0.45  -0.24   0.09     0.18   0.04  -0.06
    51   1     0.21   0.15   0.13    -0.42  -0.18  -0.23    -0.11   0.03  -0.05
    52   6    -0.01   0.02   0.02     0.02   0.02  -0.00     0.05   0.05   0.07
    53   1    -0.02   0.01   0.02     0.03   0.05  -0.00    -0.01   0.10   0.13
    54   1     0.02   0.03   0.00     0.04   0.01   0.01     0.17   0.04   0.09
    55   1    -0.03   0.04   0.04    -0.00   0.03  -0.02     0.02   0.08   0.10
                     25                     26                     27
                      A                      A                      A
 Frequencies --    281.9775               290.2090               298.4308
 Red. masses --      2.9299                 1.3845                 3.9529
 Frc consts  --      0.1373                 0.0687                 0.2074
 IR Inten    --      0.0000                 0.0000                 0.0000
  Atom  AN      X      Y      Z        X      Y      Z        X      Y      Z
     1  26     0.01  -0.01  -0.00    -0.01   0.00  -0.01     0.09  -0.03   0.01
     2   6    -0.01  -0.00   0.02     0.01  -0.00   0.00    -0.02  -0.01   0.01
     3  46     0.06   0.01  -0.03    -0.03   0.01  -0.00    -0.02  -0.00   0.03
     4   6     0.01  -0.01   0.00     0.03   0.01   0.01     0.01   0.01  -0.01
     5   1     0.01  -0.02  -0.03     0.01   0.01   0.02     0.02  -0.11  -0.15
     6   1    -0.00  -0.01  -0.03    -0.01   0.02   0.01     0.01  -0.13  -0.19
     7   1     0.00   0.01   0.01     0.01  -0.00   0.01    -0.05   0.02   0.01
     8   6    -0.11   0.05   0.00     0.02  -0.00  -0.01     0.03   0.00  -0.01
     9   8     0.05   0.04  -0.05     0.00  -0.00   0.01     0.01  -0.01  -0.02
    10   6    -0.01  -0.00   0.01     0.05  -0.01  -0.02     0.06  -0.01   0.02
    11   8    -0.09  -0.01  -0.01     0.02   0.01  -0.01     0.05  -0.04  -0.01
    12   6     0.00  -0.01  -0.00     0.02   0.04   0.01    -0.10   0.09  -0.09
    13   6     0.00  -0.01  -0.00     0.01   0.00  -0.01    -0.16   0.03   0.06
    14   6    -0.00  -0.00   0.00     0.03  -0.03  -0.03    -0.05  -0.03   0.14
    15   1     0.00  -0.01  -0.00     0.02   0.06   0.03    -0.15   0.17  -0.14
    16   1     0.01  -0.01  -0.01    -0.02  -0.00  -0.01    -0.23   0.03   0.10
    17   1    -0.00   0.00  -0.00     0.02  -0.05  -0.05    -0.06  -0.11   0.26
    18   1    -0.03  -0.09  -0.05    -0.00   0.01   0.03     0.09  -0.04  -0.10
    19   6    -0.01   0.00   0.02     0.04   0.02  -0.01     0.04   0.05  -0.08
    20   6    -0.08  -0.01   0.02     0.01   0.00   0.00    -0.04   0.02   0.01
    21   8    -0.01   0.01   0.06     0.01  -0.00  -0.00    -0.01  -0.02   0.05
    22   6    -0.01  -0.00   0.02    -0.00  -0.03   0.00    -0.03   0.05   0.06
    23   6     0.00  -0.01  -0.00     0.01  -0.01   0.02    -0.01  -0.01  -0.01
    24   6     0.00  -0.01  -0.01     0.01   0.00   0.02     0.00  -0.08  -0.11
    25   6    -0.00  -0.01  -0.02    -0.01  -0.00   0.01    -0.00  -0.08  -0.12
    26   6    -0.01  -0.00   0.00    -0.01  -0.02   0.00    -0.03  -0.00  -0.01
    27   1    -0.02   0.01   0.04     0.00  -0.05   0.00    -0.05   0.11   0.12
    28   7    -0.10   0.07  -0.03     0.02  -0.01   0.00    -0.00   0.02  -0.03
    29   1    -0.08  -0.02  -0.01     0.01   0.00   0.00    -0.03   0.02   0.02
    30   1     0.01  -0.02   0.02     0.08   0.06   0.01    -0.02   0.00  -0.05
    31   1     0.01  -0.01   0.01    -0.02   0.04   0.03     0.03  -0.00  -0.03
    32   1     0.01  -0.01   0.00     0.01  -0.01   0.03    -0.01   0.00   0.01
    33   7     0.02  -0.01  -0.01     0.01  -0.03   0.02    -0.02   0.03   0.01
    34   6    -0.03  -0.04   0.01    -0.03  -0.06   0.03    -0.07   0.05  -0.09
    35   6    -0.01   0.03  -0.02     0.00   0.03   0.02    -0.04   0.05   0.01
    36   1     0.01  -0.04   0.20     0.11  -0.11   0.51    -0.05   0.04  -0.02
    37   1    -0.21  -0.12  -0.04    -0.50  -0.22  -0.11    -0.23   0.10  -0.13
    38   1     0.08   0.02  -0.12     0.28   0.15  -0.33     0.03   0.02  -0.23
    39   1    -0.17   0.15  -0.08    -0.16   0.15  -0.01     0.02   0.02   0.04
    40   1    -0.04  -0.15  -0.02    -0.01  -0.15   0.00    -0.04   0.14   0.03
    41   1     0.14   0.12   0.02     0.16   0.12   0.06    -0.09   0.03  -0.05
    42   6    -0.03   0.00   0.07     0.01   0.00  -0.00    -0.00   0.04   0.02
    43   6     0.01   0.00   0.05    -0.00   0.01  -0.01     0.05   0.07  -0.02
    44   6     0.01  -0.15   0.05    -0.01   0.02  -0.00     0.05   0.01   0.04
    45   1     0.01   0.06  -0.04    -0.00   0.01   0.01     0.05   0.07  -0.08
    46   1    -0.06  -0.01   0.10     0.00   0.01  -0.03     0.03   0.06  -0.03
    47   1     0.11  -0.04   0.07    -0.02   0.03  -0.01     0.11   0.09   0.01
    48   1    -0.03   0.05   0.05     0.01  -0.01   0.01    -0.01   0.06   0.01
    49   1     0.00   0.11   0.15    -0.01  -0.04  -0.03     0.04   0.17   0.13
    50   1     0.24  -0.40   0.21    -0.06   0.06  -0.02     0.21  -0.10   0.08
    51   1    -0.18  -0.31  -0.23     0.04   0.05   0.04    -0.06  -0.07  -0.08
    52   6    -0.10   0.08   0.07     0.01  -0.02  -0.02     0.01  -0.06  -0.08
    53   1    -0.14   0.12   0.11     0.02  -0.03  -0.02     0.05  -0.10  -0.12
    54   1    -0.04   0.06   0.09    -0.01  -0.02  -0.02    -0.10  -0.06  -0.09
    55   1    -0.10   0.08   0.07     0.02  -0.03  -0.02     0.04  -0.09  -0.11
                     28                     29                     30
                      A                      A                      A
 Frequencies --    320.8335               326.6492               342.9063
 Red. masses --      2.1412                 3.5920                 4.3770
 Frc consts  --      0.1299                 0.2258                 0.3032
 IR Inten    --      0.0000                 0.0000                 0.0000
  Atom  AN      X      Y      Z        X      Y      Z        X      Y      Z
     1  26     0.02  -0.00  -0.01     0.02  -0.03   0.02    -0.01   0.02   0.01
     2   6     0.01   0.00   0.01     0.02   0.00   0.08    -0.00  -0.02   0.11
     3  46     0.01   0.00   0.02     0.01   0.01  -0.04     0.00   0.01  -0.04
     4   6     0.02   0.00   0.01    -0.00   0.02   0.01     0.01  -0.02  -0.00
     5   1     0.02  -0.01  -0.03    -0.01  -0.09  -0.12     0.01   0.04   0.07
     6   1    -0.02  -0.06  -0.11     0.01  -0.03  -0.06    -0.01   0.06   0.11
     7   1    -0.03   0.01   0.03    -0.02  -0.02  -0.06    -0.01   0.06   0.10
     8   6    -0.02  -0.01   0.02    -0.10  -0.01   0.05    -0.06  -0.06   0.01
     9   8    -0.03  -0.02   0.05     0.01  -0.02   0.10     0.05   0.01   0.05
    10   6    -0.06   0.04   0.00     0.02   0.02   0.01     0.07  -0.09  -0.01
    11   8    -0.03   0.02  -0.01    -0.08   0.02  -0.03    -0.01  -0.05  -0.08
    12   6    -0.04  -0.04  -0.05     0.03   0.09   0.07     0.01  -0.06  -0.05
    13   6    -0.01   0.01  -0.00     0.02   0.08   0.08    -0.01  -0.13  -0.08
    14   6    -0.04   0.06   0.04     0.03   0.05   0.04     0.03  -0.15  -0.05
    15   1    -0.03  -0.08  -0.09     0.03   0.11   0.11    -0.00  -0.05  -0.11
    16   1     0.03   0.02  -0.00     0.02   0.10   0.14    -0.07  -0.16  -0.16
    17   1    -0.03   0.10   0.06     0.03   0.05   0.06     0.01  -0.21  -0.10
    18   1    -0.00  -0.02  -0.01     0.02  -0.06  -0.08    -0.01  -0.07  -0.13
    19   6    -0.06  -0.02  -0.01     0.01   0.06   0.01     0.06  -0.05  -0.03
    20   6     0.03  -0.01  -0.01     0.01  -0.03   0.01    -0.05  -0.05   0.03
    21   8     0.01   0.01  -0.02     0.03  -0.01   0.03     0.01  -0.04   0.14
    22   6    -0.03  -0.02   0.05     0.00  -0.01  -0.07    -0.01   0.05   0.10
    23   6    -0.01  -0.01   0.04    -0.00  -0.04  -0.11    -0.00   0.05   0.10
    24   6    -0.00  -0.02  -0.02    -0.01  -0.05  -0.10     0.00   0.04   0.08
    25   6    -0.02  -0.05  -0.06     0.00  -0.02  -0.06    -0.00   0.05   0.09
    26   6    -0.04  -0.03  -0.01     0.00  -0.00  -0.04    -0.01   0.06   0.10
    27   1    -0.04  -0.02   0.06     0.01   0.01  -0.08     0.00   0.04   0.09
    28   7    -0.01  -0.03   0.04    -0.05  -0.05   0.09    -0.06  -0.08   0.04
    29   1     0.03  -0.03  -0.01    -0.00  -0.08  -0.02    -0.06  -0.07   0.02
    30   1    -0.01  -0.07   0.05     0.03   0.05   0.01     0.01   0.01  -0.06
    31   1     0.06  -0.03   0.02    -0.05   0.05  -0.02     0.01  -0.04   0.04
    32   1     0.01   0.00   0.08    -0.00  -0.09  -0.17    -0.00   0.09   0.15
    33   7     0.08   0.03  -0.04    -0.05  -0.05   0.03     0.01   0.04   0.01
    34   6     0.01  -0.02   0.02    -0.01  -0.04   0.05    -0.02   0.06  -0.08
    35   6     0.05   0.07  -0.06    -0.02  -0.09   0.05    -0.02   0.04  -0.01
    36   1    -0.07   0.04  -0.01     0.07  -0.09   0.16    -0.08   0.09  -0.22
    37   1     0.08  -0.07   0.04    -0.11  -0.07   0.02     0.04   0.15  -0.06
    38   1    -0.05  -0.07   0.07     0.06   0.06  -0.02    -0.07  -0.06  -0.05
    39   1    -0.33   0.35  -0.21     0.22  -0.26   0.15    -0.03   0.04  -0.04
    40   1    -0.00  -0.40  -0.09     0.02   0.21   0.06    -0.05   0.03   0.01
    41   1     0.41   0.27   0.10    -0.25  -0.21  -0.03    -0.02   0.04  -0.04
    42   6     0.02  -0.03  -0.07     0.03  -0.04  -0.08    -0.00  -0.02  -0.01
    43   6    -0.00  -0.05  -0.04    -0.00  -0.04  -0.07     0.04   0.07  -0.12
    44   6     0.03   0.09  -0.05     0.02   0.14  -0.05     0.03   0.15   0.04
    45   1    -0.00  -0.05  -0.02    -0.00  -0.04  -0.05     0.04   0.07  -0.19
    46   1    -0.00  -0.05  -0.01    -0.00  -0.04  -0.07     0.04   0.03  -0.23
    47   1    -0.01  -0.09  -0.05    -0.02  -0.05  -0.07     0.09   0.20  -0.07
    48   1     0.02  -0.05  -0.06     0.03  -0.05  -0.08    -0.01  -0.00  -0.01
    49   1     0.03   0.11  -0.05     0.02   0.18  -0.07     0.03   0.22   0.10
    50   1     0.04   0.15  -0.12     0.04   0.25  -0.17     0.12   0.25  -0.09
    51   1    -0.00   0.11   0.05    -0.03   0.19   0.11    -0.02   0.18   0.18
    52   6    -0.02   0.02   0.03    -0.09   0.06   0.07    -0.05   0.01   0.01
    53   1    -0.02   0.04   0.04    -0.09   0.09   0.08    -0.02   0.03  -0.01
    54   1     0.01   0.03   0.03    -0.03   0.07   0.06    -0.01   0.03  -0.01
    55   1    -0.04   0.04   0.04    -0.14   0.09   0.09    -0.11   0.05   0.02
                     31                     32                     33
                      A                      A                      A
 Frequencies --    361.6872               364.4362               399.5177
 Red. masses --      3.0268                 4.3081                 2.3500
 Frc consts  --      0.2333                 0.3371                 0.2210
 IR Inten    --      0.0000                 0.0000                 0.0000
  Atom  AN      X      Y      Z        X      Y      Z        X      Y      Z
     1  26    -0.01   0.00  -0.01    -0.03   0.00  -0.00     0.00   0.00   0.01
     2   6     0.01  -0.06  -0.04    -0.08   0.00   0.07    -0.02   0.00  -0.03
     3  46     0.01  -0.00   0.02     0.02   0.01  -0.00    -0.01   0.00  -0.02
     4   6    -0.02   0.01  -0.00    -0.04   0.02  -0.01    -0.06  -0.10  -0.05
     5   1    -0.01   0.02   0.01    -0.03   0.07   0.05     0.04  -0.00  -0.04
     6   1    -0.00  -0.01  -0.02    -0.03   0.05   0.04     0.03  -0.08  -0.13
     7   1     0.02  -0.03  -0.05     0.00  -0.04  -0.07     0.04  -0.03  -0.06
     8   6    -0.02  -0.07  -0.06     0.09  -0.06  -0.01     0.01  -0.02   0.03
     9   8    -0.02   0.02  -0.04     0.08   0.02  -0.09     0.01   0.01  -0.05
    10   6    -0.04   0.04  -0.00    -0.07   0.06  -0.01     0.02  -0.03   0.04
    11   8    -0.01  -0.08  -0.06     0.08  -0.00  -0.01    -0.03   0.04   0.02
    12   6    -0.02   0.01   0.01    -0.01  -0.02  -0.00     0.04   0.07   0.11
    13   6    -0.00   0.05   0.02     0.03   0.07   0.03     0.01  -0.01   0.02
    14   6    -0.02   0.06   0.01    -0.02   0.11   0.01     0.03  -0.06  -0.02
    15   1    -0.01   0.01   0.05     0.02  -0.08  -0.01     0.03   0.11   0.17
    16   1     0.03   0.06   0.04     0.10   0.09   0.07    -0.04  -0.02   0.02
    17   1    -0.01   0.09   0.03    -0.00   0.17   0.04     0.01  -0.09  -0.08
    18   1    -0.06  -0.03  -0.04    -0.08   0.10   0.08     0.01   0.07   0.05
    19   6    -0.03  -0.00  -0.01    -0.05  -0.03  -0.06     0.03   0.05   0.08
    20   6     0.07  -0.12  -0.01    -0.18   0.05   0.04    -0.01   0.00   0.00
    21   8    -0.04   0.02  -0.01    -0.02  -0.08   0.20    -0.01  -0.01  -0.03
    22   6     0.01  -0.01  -0.04     0.00  -0.05  -0.09     0.02  -0.01  -0.01
    23   6    -0.00  -0.00  -0.02    -0.01  -0.00  -0.04     0.02  -0.00  -0.01
    24   6    -0.01   0.00  -0.00    -0.02   0.03   0.01     0.02   0.00  -0.02
    25   6    -0.00  -0.01  -0.02    -0.02   0.03   0.01     0.01  -0.03  -0.06
    26   6     0.01  -0.03  -0.04    -0.01  -0.02  -0.05     0.02  -0.03  -0.05
    27   1    -0.00  -0.01  -0.01     0.01  -0.07  -0.11     0.01  -0.02   0.01
    28   7    -0.00  -0.03  -0.07     0.03  -0.10   0.02     0.01  -0.04   0.04
    29   1     0.06  -0.16  -0.01    -0.15   0.15   0.13    -0.01   0.02   0.01
    30   1    -0.02  -0.01   0.02    -0.02   0.01   0.05    -0.23  -0.23  -0.13
    31   1    -0.01   0.01  -0.02    -0.06   0.04  -0.03     0.13  -0.17  -0.15
    32   1    -0.00  -0.01  -0.03    -0.02  -0.01  -0.05     0.03   0.01   0.01
    33   7    -0.00  -0.01  -0.01    -0.02  -0.03  -0.03    -0.09   0.04   0.03
    34   6     0.01  -0.02   0.03     0.01  -0.05   0.09    -0.04   0.10  -0.02
    35   6     0.02  -0.01   0.00     0.05  -0.04   0.00     0.08  -0.00   0.10
    36   1     0.02  -0.02   0.07     0.04  -0.06   0.15    -0.05   0.08  -0.17
    37   1     0.02  -0.05   0.03     0.06  -0.14   0.09     0.06   0.19   0.01
    38   1     0.01   0.02   0.05    -0.00   0.05   0.14    -0.09   0.03   0.04
    39   1    -0.00   0.00   0.00    -0.02   0.01   0.01    -0.16   0.17   0.08
    40   1     0.04  -0.06  -0.03     0.10  -0.15  -0.07     0.19  -0.34  -0.08
    41   1     0.05  -0.00   0.04     0.13  -0.02   0.11     0.37   0.12   0.34
    42   6     0.08  -0.06   0.14    -0.13   0.06  -0.03    -0.02   0.00   0.01
    43   6     0.02   0.20  -0.07     0.08  -0.01  -0.05     0.01   0.01  -0.01
    44   6    -0.04   0.03   0.13     0.04   0.06   0.05     0.00   0.00   0.02
    45   1     0.01   0.28  -0.04     0.09  -0.09  -0.25     0.01  -0.00  -0.03
    46   1    -0.03   0.08  -0.42     0.11   0.04   0.07     0.01   0.01  -0.02
    47   1    -0.03   0.49  -0.01     0.25  -0.02   0.01     0.03   0.03   0.00
    48   1     0.07  -0.12   0.18    -0.11   0.16  -0.09    -0.02   0.01   0.02
    49   1    -0.03   0.02   0.04     0.03   0.12   0.23     0.00   0.00   0.05
    50   1    -0.10   0.10   0.08     0.21   0.04   0.01     0.02   0.00   0.01
    51   1    -0.06   0.06   0.25     0.04   0.04  -0.01     0.01   0.00   0.01
    52   6     0.03   0.04   0.04     0.10  -0.06  -0.07     0.01   0.01   0.01
    53   1    -0.01   0.11   0.10     0.14  -0.09  -0.11     0.02   0.01  -0.00
    54   1     0.21   0.04   0.05     0.04  -0.04  -0.10     0.02   0.02  -0.00
    55   1    -0.04   0.10   0.09     0.08  -0.06  -0.08    -0.02   0.02   0.01
                     34                     35                     36
                      A                      A                      A
 Frequencies --    409.5204               419.8281               439.9531
 Red. masses --      4.3987                 3.9079                 5.1186
 Frc consts  --      0.4346                 0.4058                 0.5837
 IR Inten    --      0.0000                 0.0000                 0.0000
  Atom  AN      X      Y      Z        X      Y      Z        X      Y      Z
     1  26     0.01  -0.03  -0.03    -0.00   0.01   0.01     0.01  -0.00  -0.00
     2   6    -0.01   0.02  -0.10    -0.01   0.02  -0.09    -0.11  -0.09   0.02
     3  46     0.01  -0.01   0.01    -0.01   0.01  -0.01    -0.02   0.00  -0.03
     4   6    -0.04   0.07  -0.02     0.09   0.01   0.09     0.00   0.02   0.06
     5   1     0.04  -0.16  -0.10    -0.00   0.02   0.00     0.04  -0.12  -0.11
     6   1     0.04  -0.02   0.10    -0.00  -0.01  -0.07     0.03  -0.08  -0.07
     7   1    -0.05   0.18   0.28     0.04  -0.11  -0.15     0.00   0.04   0.08
     8   6    -0.00  -0.03   0.07    -0.00  -0.06   0.10     0.08   0.12  -0.07
     9   8    -0.01  -0.00  -0.10     0.00   0.00  -0.10     0.04   0.05  -0.17
    10   6    -0.03   0.02  -0.08     0.00  -0.01   0.06    -0.03   0.02   0.06
    11   8    -0.05   0.09   0.02    -0.02   0.09   0.00    -0.09   0.11   0.17
    12   6    -0.02   0.05  -0.11     0.02  -0.05   0.07     0.01   0.01   0.02
    13   6    -0.03   0.03  -0.10     0.02  -0.05   0.04     0.01  -0.04  -0.05
    14   6    -0.02   0.02  -0.10     0.00  -0.02   0.07    -0.01  -0.01  -0.01
    15   1    -0.02   0.04  -0.12     0.02  -0.05   0.09     0.02   0.00   0.04
    16   1    -0.05   0.00  -0.16     0.03  -0.05   0.05    -0.01  -0.06  -0.12
    17   1    -0.03  -0.00  -0.15     0.01   0.01   0.08    -0.01   0.00  -0.08
    18   1     0.04   0.06   0.04     0.03   0.04   0.06    -0.02   0.16   0.31
    19   6    -0.02   0.09   0.02    -0.02  -0.03   0.08    -0.03   0.06   0.12
    20   6    -0.01   0.02  -0.00    -0.02   0.01   0.01     0.04  -0.09   0.04
    21   8    -0.01   0.01  -0.13    -0.01  -0.01  -0.12    -0.10  -0.08   0.18
    22   6    -0.01   0.07   0.17     0.01  -0.03  -0.06     0.00   0.03   0.07
    23   6     0.03  -0.06   0.01    -0.00   0.02  -0.01     0.02  -0.03   0.00
    24   6     0.03  -0.09  -0.04    -0.00   0.02   0.00     0.02  -0.06  -0.05
    25   6     0.04  -0.03   0.04    -0.00  -0.01  -0.04     0.02  -0.06  -0.04
    26   6     0.01   0.10   0.19     0.02  -0.07  -0.10     0.01   0.01   0.05
    27   1    -0.02   0.17   0.23     0.00  -0.03  -0.05     0.00   0.05   0.07
    28   7     0.02  -0.10   0.13     0.01  -0.12   0.15     0.08   0.09  -0.06
    29   1    -0.00   0.09  -0.02    -0.02   0.08  -0.01     0.05  -0.16   0.21
    30   1     0.07   0.15   0.02     0.13   0.03   0.11     0.04   0.02   0.10
    31   1    -0.16   0.12   0.02     0.03   0.01   0.14    -0.04   0.04   0.07
    32   1     0.04  -0.09  -0.02    -0.02   0.02  -0.01     0.04  -0.07  -0.02
    33   7    -0.06  -0.02  -0.03     0.13  -0.02   0.01     0.04  -0.03  -0.00
    34   6     0.02  -0.02   0.09     0.04  -0.04  -0.09     0.03  -0.03  -0.03
    35   6     0.03  -0.08   0.00    -0.09   0.11  -0.08    -0.05   0.04  -0.03
    36   1     0.08  -0.06   0.17    -0.01   0.00  -0.12     0.03  -0.03  -0.07
    37   1     0.05  -0.13   0.09    -0.02   0.04  -0.11     0.04   0.01  -0.03
    38   1     0.02   0.12   0.14     0.07  -0.14  -0.16     0.03  -0.04  -0.03
    39   1     0.10  -0.13   0.05    -0.03   0.06  -0.10    -0.02   0.02  -0.03
    40   1     0.11  -0.04  -0.07    -0.26   0.29   0.14    -0.12   0.14   0.06
    41   1     0.01  -0.12   0.08    -0.23   0.10  -0.36    -0.11   0.04  -0.17
    42   6    -0.08   0.00   0.02    -0.08  -0.00   0.04     0.10  -0.11  -0.02
    43   6     0.03   0.01  -0.03     0.04   0.02  -0.04    -0.03  -0.06  -0.06
    44   6     0.02  -0.00   0.09     0.01   0.00   0.10    -0.01   0.05  -0.04
    45   1     0.04  -0.05  -0.14     0.05  -0.04  -0.16    -0.04   0.02   0.04
    46   1     0.07   0.02  -0.05     0.07   0.03  -0.06    -0.08  -0.10  -0.15
    47   1     0.11   0.09   0.01     0.14   0.11   0.02    -0.10  -0.02  -0.07
    48   1    -0.08  -0.00   0.04    -0.08   0.02   0.02     0.08  -0.17   0.00
    49   1     0.02  -0.00   0.22     0.00   0.00   0.22    -0.00   0.10  -0.15
    50   1     0.11   0.00   0.05     0.09   0.01   0.06    -0.04   0.16  -0.14
    51   1     0.07   0.00   0.05     0.05   0.01   0.07    -0.10   0.09   0.16
    52   6    -0.01   0.01   0.02    -0.02   0.01   0.01     0.08   0.01   0.02
    53   1     0.04   0.01  -0.01     0.08  -0.01  -0.06    -0.05   0.02   0.10
    54   1    -0.01   0.04  -0.01    -0.05   0.05  -0.04     0.10  -0.05   0.08
    55   1    -0.06   0.04   0.03    -0.10   0.05   0.00     0.19  -0.06   0.02
                     37                     38                     39
                      A                      A                      A
 Frequencies --    457.7841               462.3877               480.0766
 Red. masses --      2.7230                 3.1809                 2.8777
 Frc consts  --      0.3362                 0.4007                 0.3908
 IR Inten    --      0.0000                 0.0000                 0.0000
  Atom  AN      X      Y      Z        X      Y      Z        X      Y      Z
     1  26    -0.01   0.01  -0.01     0.02  -0.00   0.01    -0.02  -0.02   0.00
     2   6    -0.03  -0.01  -0.02    -0.08  -0.01  -0.03    -0.01  -0.01  -0.02
     3  46     0.01  -0.00   0.00     0.01   0.00  -0.00     0.01   0.00   0.01
     4   6     0.10  -0.09  -0.03    -0.05   0.05  -0.00     0.06  -0.04  -0.05
     5   1    -0.04  -0.02   0.03    -0.01   0.05   0.03     0.02   0.08   0.04
     6   1    -0.03   0.02   0.12    -0.01   0.02  -0.02     0.05  -0.04  -0.09
     7   1    -0.08   0.09   0.15     0.00  -0.03  -0.06     0.03  -0.07  -0.12
     8   6    -0.00  -0.02   0.06    -0.02  -0.08   0.14     0.01   0.08   0.03
     9   8     0.00   0.01  -0.06     0.01   0.01  -0.13     0.00   0.01  -0.04
    10   6     0.01   0.07   0.05     0.01  -0.03  -0.03    -0.03  -0.05  -0.11
    11   8     0.01   0.03  -0.00     0.05   0.04  -0.04     0.05   0.03   0.04
    12   6     0.02  -0.03  -0.12    -0.02  -0.01   0.01    -0.02  -0.02   0.04
    13   6     0.05   0.03  -0.04    -0.02  -0.01   0.02    -0.01   0.02   0.05
    14   6     0.02   0.09   0.03    -0.00  -0.03   0.01    -0.03  -0.01  -0.03
    15   1     0.04  -0.09  -0.21    -0.02   0.01   0.03    -0.01  -0.01   0.11
    16   1     0.08   0.02  -0.08    -0.03  -0.01   0.05     0.02   0.04   0.13
    17   1     0.04   0.14   0.07    -0.01  -0.06   0.02    -0.03  -0.02  -0.05
    18   1     0.02   0.01  -0.02     0.05  -0.00  -0.12     0.03  -0.06   0.01
    19   6     0.01   0.02  -0.04     0.01  -0.04  -0.03    -0.03  -0.06  -0.05
    20   6     0.00  -0.01   0.01     0.00  -0.01   0.02     0.01  -0.03   0.02
    21   8    -0.02  -0.02   0.01    -0.05  -0.05   0.04    -0.02  -0.00  -0.01
    22   6    -0.02  -0.09  -0.05    -0.01   0.02  -0.00     0.02   0.09   0.03
    23   6    -0.01  -0.08  -0.07    -0.01   0.05   0.04     0.01   0.07   0.04
    24   6    -0.03  -0.02   0.02    -0.00   0.02   0.01     0.03   0.05   0.01
    25   6    -0.03   0.02   0.07    -0.01   0.01  -0.01     0.03   0.01  -0.03
    26   6    -0.05   0.05   0.10    -0.00  -0.01  -0.04     0.05  -0.00  -0.06
    27   1    -0.00  -0.12  -0.08     0.00   0.01  -0.02     0.01   0.13   0.06
    28   7    -0.01  -0.02   0.04    -0.03  -0.05   0.10    -0.03   0.04   0.03
    29   1    -0.00  -0.06   0.03    -0.01  -0.15   0.09     0.00  -0.07   0.00
    30   1    -0.18  -0.32  -0.12     0.07   0.15   0.03    -0.05  -0.11  -0.12
    31   1     0.41  -0.21  -0.17    -0.19   0.10   0.06     0.21  -0.16   0.02
    32   1    -0.01  -0.18  -0.17    -0.01   0.09   0.08     0.01   0.14   0.12
    33   7     0.06   0.04   0.10    -0.04  -0.01  -0.05     0.09   0.14   0.02
    34   6    -0.07   0.03  -0.05     0.02  -0.01   0.04    -0.12   0.03   0.07
    35   6    -0.02  -0.03   0.07     0.02  -0.00  -0.04     0.03  -0.11  -0.04
    36   1    -0.13   0.09  -0.04     0.05  -0.03   0.07    -0.24   0.17   0.26
    37   1    -0.21   0.11  -0.08     0.07  -0.08   0.05    -0.26  -0.15   0.02
    38   1    -0.00  -0.13  -0.19    -0.01   0.08   0.10    -0.07  -0.06  -0.03
    39   1     0.01  -0.05  -0.00     0.01   0.01  -0.01     0.20  -0.24  -0.22
    40   1    -0.06  -0.02   0.11     0.06  -0.03  -0.08     0.01  -0.08  -0.01
    41   1    -0.07  -0.05   0.06     0.05  -0.00   0.01    -0.16  -0.26   0.07
    42   6     0.06   0.01   0.01     0.19   0.06   0.00    -0.00  -0.06  -0.00
    43   6    -0.00   0.03   0.03    -0.03   0.08   0.12    -0.01  -0.04  -0.05
    44   6    -0.01   0.00  -0.03    -0.01   0.01  -0.13    -0.00   0.01   0.03
    45   1    -0.01   0.07   0.09    -0.04   0.23   0.35    -0.01  -0.04  -0.07
    46   1    -0.04   0.01   0.01    -0.12   0.04   0.09    -0.01  -0.05  -0.09
    47   1    -0.05   0.01   0.01    -0.21  -0.02   0.03     0.01   0.01  -0.03
    48   1     0.06   0.01  -0.00     0.17   0.07   0.02    -0.01  -0.09   0.01
    49   1    -0.01   0.01  -0.12     0.00   0.02  -0.40    -0.00   0.04   0.05
    50   1    -0.07  -0.00   0.01    -0.20  -0.05   0.00     0.03   0.07  -0.04
    51   1    -0.05  -0.00  -0.01    -0.12  -0.02  -0.12    -0.02   0.03   0.10
    52   6    -0.02  -0.00  -0.00    -0.05  -0.00  -0.01    -0.03  -0.01  -0.01
    53   1     0.05  -0.01  -0.05     0.13  -0.03  -0.13    -0.02  -0.06  -0.04
    54   1    -0.06   0.02  -0.03    -0.14   0.06  -0.08    -0.17  -0.03   0.00
    55   1    -0.06   0.02  -0.02    -0.18   0.06  -0.04     0.05  -0.08  -0.06
                     40                     41                     42
                      A                      A                      A
 Frequencies --    488.1516               512.0673               520.0027
 Red. masses --      3.5518                 3.6274                 3.8661
 Frc consts  --      0.4987                 0.5604                 0.6159
 IR Inten    --      0.0000                 0.0000                 0.0000
  Atom  AN      X      Y      Z        X      Y      Z        X      Y      Z
     1  26     0.04   0.01   0.01    -0.05  -0.02  -0.03    -0.03  -0.03  -0.02
     2   6    -0.00  -0.03  -0.04     0.01  -0.02  -0.00    -0.02   0.02  -0.02
     3  46     0.01   0.00   0.00     0.02  -0.00   0.01     0.01  -0.00   0.00
     4   6    -0.06   0.04  -0.03     0.01  -0.03   0.03     0.04  -0.03   0.01
     5   1    -0.08   0.09   0.11     0.03   0.04   0.02     0.00   0.08   0.06
     6   1    -0.09   0.14   0.16     0.03  -0.02  -0.06     0.01   0.01  -0.03
     7   1    -0.05  -0.02  -0.03     0.05   0.04   0.02     0.02   0.03   0.01
     8   6    -0.00   0.17   0.04     0.01  -0.07   0.17    -0.02   0.22  -0.20
     9   8    -0.01   0.02  -0.06    -0.00   0.01   0.00     0.01  -0.01  -0.04
    10   6     0.08  -0.03   0.01    -0.05  -0.00  -0.05    -0.02  -0.03  -0.08
    11   8     0.06   0.03   0.08     0.10   0.04  -0.00    -0.01  -0.08   0.04
    12   6     0.01  -0.03  -0.10    -0.00   0.02   0.01    -0.00  -0.01  -0.04
    13   6    -0.00  -0.02   0.02     0.03   0.09   0.03     0.02   0.08   0.06
    14   6     0.05  -0.04   0.08    -0.01   0.05  -0.08     0.00   0.02  -0.04
    15   1    -0.01  -0.03  -0.21     0.02  -0.00   0.08     0.02  -0.01   0.01
    16   1    -0.03  -0.01   0.06     0.07   0.11   0.10     0.05   0.12   0.18
    17   1     0.06  -0.05   0.19    -0.00   0.08  -0.12     0.01   0.05  -0.02
    18   1     0.11  -0.09  -0.04     0.03   0.10  -0.13    -0.00  -0.19   0.04
    19   6     0.07  -0.01  -0.04    -0.04  -0.02  -0.08    -0.02  -0.02  -0.08
    20   6     0.03  -0.05   0.03     0.00  -0.03   0.00    -0.01   0.01   0.02
    21   8    -0.02   0.01  -0.05    -0.01   0.01  -0.00    -0.00  -0.02  -0.02
    22   6    -0.02  -0.09  -0.10     0.00   0.07   0.06    -0.00   0.05   0.03
    23   6    -0.05  -0.01  -0.02     0.02   0.03   0.04     0.00   0.04   0.03
    24   6    -0.06   0.04   0.06     0.03   0.01  -0.00     0.01   0.03   0.02
    25   6    -0.06   0.07   0.07     0.03  -0.01  -0.03     0.01   0.01  -0.02
    26   6    -0.06  -0.02  -0.02     0.03   0.01  -0.01     0.01   0.01  -0.01
    27   1    -0.02  -0.12  -0.12    -0.00   0.11   0.09    -0.01   0.07   0.04
    28   7    -0.06   0.08   0.05    -0.07   0.14  -0.07     0.01  -0.17   0.16
    29   1     0.02  -0.11  -0.02    -0.02  -0.10  -0.04    -0.01   0.00   0.03
    30   1     0.05   0.15  -0.02     0.04  -0.01   0.03     0.07   0.02  -0.01
    31   1    -0.18   0.12  -0.05    -0.03  -0.01   0.03    -0.01  -0.02   0.04
    32   1    -0.06  -0.05  -0.08     0.03   0.10   0.12     0.01   0.12   0.12
    33   7    -0.10  -0.03  -0.05    -0.04  -0.12   0.09    -0.02  -0.08   0.07
    34   6     0.03   0.01   0.02     0.07  -0.04  -0.08     0.05  -0.02  -0.06
    35   6     0.03   0.02  -0.00    -0.06   0.06   0.14    -0.04   0.04   0.11
    36   1     0.10  -0.06  -0.01     0.15  -0.14  -0.25     0.09  -0.07  -0.21
    37   1     0.12   0.00   0.05     0.07   0.22  -0.08     0.06   0.17  -0.06
    38   1    -0.01   0.13   0.11     0.10  -0.07  -0.12     0.06  -0.07  -0.09
    39   1    -0.05   0.08   0.09    -0.17   0.16   0.27    -0.12   0.11   0.19
    40   1     0.12  -0.07  -0.11    -0.07   0.07   0.15    -0.04   0.04   0.11
    41   1     0.15   0.07   0.08     0.07   0.19   0.00     0.05   0.12   0.02
    42   6    -0.02  -0.11   0.02    -0.01  -0.07  -0.00     0.04   0.04   0.00
    43   6    -0.00  -0.07  -0.09    -0.02  -0.05  -0.05     0.01   0.05   0.05
    44   6    -0.01   0.01   0.07    -0.00   0.00   0.02     0.00   0.01  -0.03
    45   1     0.00  -0.07  -0.16    -0.01  -0.05  -0.07     0.00   0.08   0.10
    46   1    -0.00  -0.09  -0.16    -0.02  -0.06  -0.09    -0.02   0.04   0.05
    47   1     0.05   0.03  -0.04     0.00  -0.01  -0.04    -0.04   0.02   0.02
    48   1    -0.02  -0.16   0.00    -0.01  -0.10   0.01     0.04   0.06   0.01
    49   1    -0.01   0.05   0.11    -0.00   0.04   0.05     0.00  -0.01  -0.10
    50   1     0.05   0.10  -0.05     0.04   0.05  -0.05    -0.06  -0.01   0.01
    51   1    -0.04   0.04   0.20    -0.02   0.02   0.09    -0.01   0.00  -0.05
    52   6    -0.07  -0.01  -0.00    -0.03  -0.01  -0.02    -0.02   0.00   0.01
    53   1    -0.09  -0.09  -0.03     0.23  -0.06  -0.20    -0.36  -0.03   0.21
    54   1    -0.30  -0.05   0.03    -0.19   0.07  -0.10    -0.03  -0.14   0.15
    55   1     0.09  -0.14  -0.09    -0.19   0.05  -0.09     0.33  -0.20   0.02
                     43                     44                     45
                      A                      A                      A
 Frequencies --    553.7287               571.3811               582.4220
 Red. masses --      4.1339                 5.5050                 5.2803
 Frc consts  --      0.7468                 1.0589                 1.0553
 IR Inten    --      0.0000                 0.0000                 0.0000
  Atom  AN      X      Y      Z        X      Y      Z        X      Y      Z
     1  26    -0.01   0.04   0.02    -0.09  -0.10   0.11     0.11  -0.10   0.08
     2   6     0.02   0.01  -0.02    -0.00   0.00   0.00    -0.01  -0.01  -0.00
     3  46     0.01   0.00  -0.00    -0.01  -0.00  -0.00    -0.01   0.01   0.01
     4   6    -0.02   0.03   0.03     0.04   0.05  -0.05     0.03   0.00   0.00
     5   1     0.07  -0.20  -0.19     0.07   0.03  -0.07    -0.02   0.08   0.03
     6   1     0.02  -0.08  -0.02    -0.01   0.08  -0.02    -0.03   0.08  -0.01
     7   1     0.03  -0.02   0.02     0.14  -0.24  -0.32    -0.06   0.08   0.05
     8   6    -0.00   0.12  -0.02    -0.01  -0.00  -0.00     0.00  -0.01   0.00
     9   8     0.00  -0.00   0.01     0.00  -0.00  -0.00    -0.00  -0.00  -0.01
    10   6    -0.01   0.14   0.16     0.08   0.08   0.05    -0.08   0.08  -0.01
    11   8     0.20  -0.08  -0.00    -0.02  -0.00  -0.00    -0.07   0.02   0.01
    12   6    -0.03   0.06   0.17     0.00   0.01  -0.16    -0.05   0.06   0.02
    13   6    -0.05  -0.05  -0.16     0.04  -0.05  -0.23    -0.07  -0.01  -0.12
    14   6    -0.05   0.05  -0.06     0.07   0.12   0.09    -0.06   0.01  -0.23
    15   1    -0.05   0.13   0.26    -0.00  -0.02  -0.28    -0.06   0.10   0.06
    16   1    -0.04  -0.12  -0.40     0.03  -0.13  -0.50    -0.07  -0.04  -0.26
    17   1    -0.08   0.00  -0.21     0.09   0.17   0.16    -0.11  -0.05  -0.48
    18   1    -0.16  -0.01   0.03     0.04  -0.00  -0.03     0.08  -0.04  -0.07
    19   6    -0.00  -0.03  -0.02     0.07   0.09   0.01    -0.07   0.02  -0.05
    20   6    -0.06  -0.04   0.00     0.01   0.01  -0.00     0.02   0.01   0.00
    21   8     0.01   0.01  -0.03     0.00  -0.00  -0.00    -0.01  -0.00  -0.00
    22   6     0.02  -0.02   0.01     0.00   0.16   0.09     0.03  -0.11  -0.22
    23   6     0.04  -0.03  -0.01     0.02   0.03  -0.00    -0.08   0.18   0.12
    24   6     0.03  -0.09  -0.08     0.03   0.04  -0.02    -0.01   0.05  -0.00
    25   6     0.01  -0.05   0.01    -0.01   0.08   0.01    -0.02   0.07   0.01
    26   6     0.01  -0.01   0.03     0.07  -0.13  -0.21    -0.05   0.04   0.01
    27   1     0.02  -0.06  -0.00     0.00   0.18   0.09     0.03  -0.14  -0.24
    28   7    -0.15  -0.03   0.07     0.02   0.00   0.00     0.05   0.01  -0.01
    29   1    -0.09  -0.16  -0.11     0.02   0.02   0.01     0.03   0.06   0.04
    30   1    -0.11  -0.10   0.07     0.00   0.01  -0.06    -0.05  -0.10   0.02
    31   1     0.07   0.04  -0.12     0.08   0.07  -0.15     0.12  -0.03  -0.05
    32   1     0.04  -0.08  -0.05     0.04  -0.01  -0.04    -0.12   0.34   0.27
    33   7     0.01  -0.00  -0.02    -0.03  -0.01  -0.00     0.02  -0.02   0.04
    34   6     0.01  -0.02   0.00    -0.00   0.01   0.00     0.01  -0.02  -0.01
    35   6    -0.00   0.01  -0.03     0.01   0.00   0.02    -0.02  -0.00   0.04
    36   1     0.01  -0.01   0.02     0.03  -0.02  -0.00     0.01  -0.02  -0.03
    37   1     0.03  -0.05   0.01     0.00   0.02   0.00    -0.02   0.04  -0.02
    38   1     0.00   0.01   0.02     0.00   0.03   0.01     0.03  -0.05  -0.05
    39   1     0.01  -0.01  -0.03    -0.01   0.02   0.05    -0.02   0.00   0.04
    40   1    -0.02   0.03  -0.01     0.05  -0.03  -0.03    -0.04   0.01   0.06
    41   1    -0.02  -0.00  -0.06     0.05   0.02   0.05    -0.01   0.01   0.00
    42   6     0.03  -0.02   0.01    -0.00   0.01  -0.00    -0.02   0.00   0.00
    43   6    -0.01   0.00  -0.00    -0.00   0.00   0.00     0.00  -0.00  -0.00
    44   6    -0.00   0.01  -0.00     0.00  -0.00  -0.00    -0.01  -0.01   0.02
    45   1    -0.01   0.05   0.03    -0.00  -0.01   0.01     0.01  -0.02  -0.04
    46   1    -0.04  -0.02  -0.04     0.01   0.01   0.01     0.02   0.00   0.00
    47   1    -0.03   0.02  -0.01    -0.00  -0.00   0.00     0.03   0.00   0.01
    48   1     0.03   0.01   0.02    -0.01  -0.01   0.00    -0.01  -0.01  -0.03
    49   1    -0.00   0.03  -0.05     0.00  -0.01   0.00    -0.01  -0.00   0.03
    50   1    -0.02   0.03  -0.01     0.00  -0.01   0.00     0.00  -0.01   0.02
    51   1    -0.04   0.01   0.04     0.01  -0.00  -0.02    -0.00  -0.01   0.01
    52   6    -0.03  -0.03  -0.03    -0.01   0.01   0.01     0.00   0.01   0.01
    53   1    -0.06  -0.13  -0.05    -0.02   0.02   0.01     0.00   0.04   0.02
    54   1    -0.29  -0.08   0.01     0.02   0.01   0.01     0.07   0.02   0.00
    55   1     0.16  -0.18  -0.12    -0.01   0.01   0.02    -0.03   0.04   0.03
                     46                     47                     48
                      A                      A                      A
 Frequencies --    592.6618               626.0882               634.2651
 Red. masses --      4.6350                 3.7824                 4.3260
 Frc consts  --      0.9592                 0.8736                 1.0254
 IR Inten    --      0.0000                 0.0000                 0.0000
  Atom  AN      X      Y      Z        X      Y      Z        X      Y      Z
     1  26     0.10   0.02  -0.03    -0.03   0.02  -0.05    -0.03   0.05   0.04
     2   6    -0.01   0.01   0.00    -0.03   0.00   0.00    -0.02   0.00  -0.01
     3  46     0.00   0.00   0.00     0.00  -0.00   0.00    -0.00  -0.00   0.00
     4   6     0.01  -0.05  -0.01     0.05   0.01  -0.06    -0.00   0.02   0.01
     5   1    -0.08  -0.04   0.04     0.09  -0.22  -0.28     0.04  -0.32  -0.32
     6   1    -0.13   0.28   0.40    -0.01   0.09   0.26     0.01   0.04   0.08
     7   1    -0.01  -0.21  -0.25    -0.01   0.04   0.04     0.06  -0.14  -0.11
     8   6     0.00  -0.01  -0.00    -0.02  -0.01   0.00    -0.02  -0.00   0.00
     9   8     0.00  -0.00  -0.01     0.01   0.00  -0.03    -0.00  -0.00  -0.02
    10   6    -0.07  -0.05  -0.10     0.03  -0.04  -0.09     0.05   0.08   0.13
    11   8    -0.03   0.01   0.00    -0.04  -0.00  -0.01    -0.01  -0.01  -0.02
    12   6    -0.04   0.06   0.13     0.00  -0.01   0.11    -0.04  -0.09  -0.13
    13   6    -0.04   0.01  -0.07    -0.01  -0.06  -0.08    -0.00   0.10   0.20
    14   6    -0.01   0.01  -0.04    -0.01   0.09   0.20    -0.02  -0.10  -0.20
    15   1    -0.02   0.08   0.27    -0.01   0.11   0.29    -0.03  -0.16  -0.26
    16   1    -0.07  -0.02  -0.15     0.07  -0.05  -0.11     0.04   0.10   0.22
    17   1    -0.01   0.03  -0.03     0.02   0.11   0.36    -0.09  -0.27  -0.38
    18   1     0.02  -0.02  -0.03     0.06  -0.06  -0.11     0.02  -0.06  -0.07
    19   6    -0.09  -0.05  -0.04     0.02  -0.06  -0.04     0.02  -0.02  -0.03
    20   6     0.01   0.01   0.00     0.05   0.03   0.03     0.05   0.03   0.02
    21   8    -0.00  -0.01   0.01    -0.01  -0.01   0.00    -0.01  -0.01   0.01
    22   6    -0.05   0.09   0.15     0.04  -0.07  -0.07    -0.00   0.00   0.02
    23   6    -0.00  -0.14  -0.10    -0.01   0.10   0.17     0.03   0.02   0.03
    24   6    -0.07  -0.05   0.02     0.04  -0.16  -0.19     0.04  -0.15  -0.20
    25   6    -0.10   0.18   0.21     0.00   0.05   0.10     0.00   0.08   0.13
    26   6    -0.03  -0.13  -0.16    -0.00   0.03   0.03     0.02  -0.11  -0.07
    27   1    -0.08   0.14   0.24     0.02  -0.06  -0.03     0.01  -0.04  -0.02
    28   7     0.02  -0.00  -0.00     0.08   0.02   0.00     0.07   0.02   0.01
    29   1     0.01   0.01   0.03     0.07   0.09   0.11     0.06   0.07   0.08
    30   1     0.01  -0.03  -0.02     0.08   0.08  -0.10    -0.08  -0.07   0.01
    31   1     0.02  -0.09   0.07     0.00   0.02  -0.04     0.09   0.02  -0.12
    32   1    -0.01  -0.24  -0.23    -0.01   0.26   0.34     0.08   0.00   0.06
    33   7     0.02  -0.01   0.03    -0.03  -0.01   0.01     0.00   0.00  -0.01
    34   6     0.01  -0.01  -0.02    -0.00   0.01  -0.00    -0.00   0.00   0.00
    35   6    -0.01   0.02   0.04    -0.00  -0.01   0.04     0.01   0.01  -0.02
    36   1    -0.01   0.00  -0.05     0.02  -0.01  -0.02    -0.00   0.00   0.01
    37   1    -0.02   0.04  -0.02    -0.01   0.04  -0.00     0.01  -0.02   0.00
    38   1     0.02  -0.06  -0.05     0.00   0.01  -0.01    -0.01   0.01   0.01
    39   1    -0.05   0.06   0.02    -0.01   0.00   0.07     0.00   0.01  -0.02
    40   1    -0.03  -0.02   0.05     0.04  -0.02  -0.01     0.00  -0.01  -0.01
    41   1     0.02   0.04   0.03     0.03   0.00   0.06     0.01   0.00  -0.01
    42   6     0.00   0.00  -0.01    -0.02  -0.00  -0.00    -0.01   0.00  -0.00
    43   6    -0.00  -0.00  -0.00    -0.00  -0.02  -0.01     0.00  -0.01  -0.00
    44   6     0.01   0.00  -0.01    -0.00  -0.00   0.01    -0.00  -0.00   0.01
    45   1    -0.00   0.00   0.02    -0.00  -0.04  -0.03     0.00  -0.03  -0.02
    46   1    -0.00  -0.00   0.01     0.01  -0.01   0.01     0.02   0.00   0.01
    47   1    -0.02  -0.02  -0.01     0.01  -0.02  -0.01     0.02  -0.01  -0.00
    48   1    -0.00  -0.01   0.04    -0.02  -0.03   0.00    -0.01  -0.04  -0.02
    49   1     0.01   0.00   0.00    -0.00  -0.01   0.04    -0.00  -0.01   0.02
    50   1     0.02   0.00  -0.02     0.02   0.00  -0.01     0.00  -0.00   0.01
    51   1     0.02   0.00  -0.02     0.01  -0.00   0.01     0.00  -0.00   0.00
    52   6     0.01   0.00   0.00    -0.04   0.01   0.01    -0.03   0.01   0.01
    53   1     0.00   0.01   0.01    -0.04   0.04   0.03    -0.04   0.03   0.02
    54   1     0.04   0.00   0.00     0.03   0.02   0.01     0.01   0.01   0.01
    55   1    -0.01   0.01   0.01    -0.07   0.04   0.04    -0.06   0.03   0.03
                     49                     50                     51
                      A                      A                      A
 Frequencies --    646.1908               665.6346               668.8458
 Red. masses --      4.4509                 4.0295                 5.6398
 Frc consts  --      1.0950                 1.0519                 1.4865
 IR Inten    --      0.0000                 0.0000                 0.0000
  Atom  AN      X      Y      Z        X      Y      Z        X      Y      Z
     1  26    -0.01   0.03   0.02     0.00  -0.09  -0.10     0.01   0.05   0.06
     2   6    -0.10   0.08   0.01    -0.08   0.16   0.04    -0.15   0.36   0.12
     3  46    -0.00  -0.00   0.01    -0.01   0.00  -0.00     0.00  -0.00   0.01
     4   6     0.02   0.05  -0.02    -0.08  -0.03   0.09     0.03   0.00  -0.04
     5   1    -0.01   0.08   0.13    -0.06   0.18   0.20     0.03  -0.11  -0.14
     6   1     0.01  -0.14  -0.20    -0.04   0.22   0.24     0.03  -0.10  -0.11
     7   1     0.03  -0.00   0.01    -0.06   0.13   0.14     0.00  -0.06  -0.05
     8   6    -0.07  -0.01  -0.01    -0.02  -0.01  -0.02     0.02  -0.03  -0.04
     9   8     0.03  -0.01  -0.07     0.06  -0.02  -0.01     0.14  -0.05   0.02
    10   6     0.04   0.07   0.03     0.01   0.06   0.23    -0.03  -0.06  -0.16
    11   8     0.01  -0.08  -0.08     0.03  -0.04  -0.03    -0.03  -0.01  -0.01
    12   6    -0.02  -0.01   0.09     0.05   0.06   0.00    -0.02  -0.03  -0.04
    13   6    -0.04  -0.04  -0.05     0.02   0.04   0.03    -0.00  -0.00  -0.00
    14   6    -0.03   0.01  -0.03     0.02  -0.01  -0.01     0.00   0.00   0.01
    15   1    -0.04   0.03   0.10     0.05   0.14   0.16    -0.02  -0.09  -0.15
    16   1    -0.02  -0.04  -0.08    -0.01   0.10   0.23     0.00  -0.04  -0.13
    17   1    -0.05  -0.04  -0.09     0.07   0.11   0.20    -0.03  -0.05  -0.11
    18   1    -0.00  -0.13  -0.29    -0.06   0.03  -0.01    -0.05   0.04   0.09
    19   6     0.01  -0.11  -0.14     0.05   0.05   0.03    -0.03   0.03   0.07
    20   6     0.15   0.11   0.11    -0.01   0.02   0.07    -0.16  -0.01   0.13
    21   8    -0.03  -0.05  -0.00     0.01  -0.03  -0.07     0.04  -0.06  -0.18
    22   6    -0.01   0.02   0.02    -0.04   0.04   0.02     0.02  -0.04  -0.02
    23   6     0.04  -0.07  -0.10    -0.02   0.02   0.02    -0.00   0.00   0.02
    24   6    -0.00   0.07   0.12     0.00   0.02   0.02    -0.01  -0.02  -0.04
    25   6     0.01  -0.11  -0.10     0.00   0.08   0.06    -0.00  -0.02  -0.02
    26   6    -0.01   0.02   0.03    -0.00  -0.01  -0.01     0.00  -0.01  -0.00
    27   1    -0.01   0.01   0.02    -0.06   0.17   0.09     0.03  -0.03  -0.05
    28   7     0.22   0.07   0.03     0.02   0.03  -0.02    -0.07   0.01  -0.08
    29   1     0.20   0.24   0.38    -0.01  -0.03   0.22    -0.16  -0.22   0.35
    30   1    -0.00   0.01  -0.01    -0.17  -0.15   0.12     0.10   0.08  -0.06
    31   1     0.04   0.08  -0.10     0.04  -0.05  -0.02    -0.04  -0.00   0.06
    32   1     0.03  -0.18  -0.23    -0.03   0.29   0.32     0.02  -0.16  -0.15
    33   7    -0.02  -0.02  -0.00     0.02   0.02  -0.03    -0.00  -0.01   0.02
    34   6     0.00  -0.00   0.00    -0.01   0.01   0.01     0.01  -0.00  -0.01
    35   6    -0.00  -0.00   0.02     0.01   0.00  -0.08    -0.01   0.00   0.04
    36   1     0.03  -0.03  -0.01    -0.04   0.03   0.05     0.01  -0.01  -0.03
    37   1     0.01   0.01   0.00     0.00  -0.06   0.01    -0.00   0.03  -0.01
    38   1     0.01   0.02   0.00    -0.02   0.02   0.03     0.01  -0.02  -0.02
    39   1    -0.01   0.00   0.04     0.03  -0.02  -0.13    -0.02   0.01   0.06
    40   1     0.01   0.00  -0.00    -0.03   0.02  -0.02     0.01  -0.01   0.01
    41   1     0.01   0.00   0.02    -0.03  -0.02  -0.10     0.01   0.01   0.05
    42   6    -0.03  -0.02  -0.01     0.03  -0.04   0.01     0.10  -0.10   0.03
    43   6    -0.01  -0.05  -0.03    -0.01  -0.03  -0.02    -0.00  -0.04  -0.01
    44   6    -0.00  -0.01   0.02    -0.00  -0.00   0.01    -0.01  -0.01   0.03
    45   1    -0.00  -0.12  -0.08    -0.01   0.02   0.00    -0.01   0.11   0.04
    46   1     0.04  -0.02   0.02    -0.04  -0.05  -0.05    -0.12  -0.12  -0.14
    47   1     0.03  -0.07  -0.02    -0.01  -0.01  -0.01    -0.04   0.04  -0.01
    48   1    -0.03  -0.14   0.01     0.03  -0.05   0.03     0.10  -0.04  -0.00
    49   1    -0.01  -0.01   0.08    -0.00   0.03  -0.02    -0.00   0.09  -0.13
    50   1     0.04   0.01  -0.02    -0.01   0.03  -0.02    -0.06   0.06  -0.02
    51   1     0.02   0.00   0.03    -0.05   0.00   0.08    -0.17   0.00   0.20
    52   6    -0.13   0.02   0.03    -0.02  -0.00  -0.00     0.08  -0.02  -0.03
    53   1    -0.16   0.08   0.07    -0.03   0.01   0.01     0.06   0.00  -0.01
    54   1     0.00   0.03   0.02     0.01  -0.00  -0.00     0.13  -0.02  -0.02
    55   1    -0.18   0.08   0.08    -0.03   0.01   0.01     0.05  -0.00  -0.01
                     52                     53                     54
                      A                      A                      A
 Frequencies --    697.0543               725.9200               739.8794
 Red. masses --      4.0423                 9.7647                 5.2485
 Frc consts  --      1.1572                 3.0317                 1.6928
 IR Inten    --      0.0000                 0.0000                 0.0000
  Atom  AN      X      Y      Z        X      Y      Z        X      Y      Z
     1  26     0.01  -0.02  -0.03    -0.02   0.01   0.01     0.03  -0.02  -0.02
     2   6     0.01   0.00   0.03    -0.10   0.40  -0.30    -0.02   0.07  -0.09
     3  46     0.00   0.00  -0.00     0.01   0.00  -0.01    -0.01   0.00  -0.02
     4   6     0.16   0.16  -0.13    -0.02  -0.02   0.02     0.09   0.07  -0.08
     5   1    -0.02   0.04   0.11     0.02  -0.03  -0.03    -0.08   0.06   0.05
     6   1    -0.02   0.04   0.01    -0.02  -0.01   0.01     0.07  -0.02  -0.10
     7   1     0.00   0.03   0.04     0.04  -0.01  -0.03    -0.06   0.08   0.16
     8   6     0.04  -0.01   0.01     0.04   0.01   0.03    -0.05  -0.02  -0.01
     9   8     0.01   0.01   0.02    -0.23  -0.23   0.00    -0.06  -0.05  -0.02
    10   6     0.12   0.17   0.05     0.03  -0.01   0.06    -0.06   0.04  -0.14
    11   8    -0.11   0.08   0.05    -0.09   0.09   0.07     0.20  -0.07  -0.06
    12   6    -0.04  -0.14   0.06     0.02   0.02   0.02     0.01  -0.07  -0.02
    13   6    -0.06  -0.09   0.06     0.01  -0.01  -0.02    -0.02  -0.08   0.06
    14   6    -0.13   0.01  -0.02     0.04  -0.03   0.00    -0.14   0.05   0.03
    15   1    -0.09   0.08   0.30     0.03   0.03   0.05    -0.03  -0.04  -0.11
    16   1     0.12   0.00   0.28    -0.04  -0.01  -0.02     0.12  -0.03   0.15
    17   1    -0.15  -0.12   0.02     0.05  -0.01   0.03    -0.18  -0.03  -0.17
    18   1     0.15  -0.06   0.03     0.23  -0.08  -0.12    -0.34   0.05   0.45
    19   6     0.06  -0.12  -0.00    -0.02  -0.05  -0.18     0.04   0.11   0.33
    20   6    -0.07  -0.04  -0.02     0.06   0.01  -0.22     0.08   0.04  -0.02
    21   8     0.01   0.01  -0.04     0.26  -0.01   0.31     0.05  -0.01   0.12
    22   6    -0.05   0.04   0.02     0.02  -0.01  -0.02    -0.04  -0.01   0.01
    23   6     0.02  -0.00  -0.05     0.02   0.00  -0.01    -0.05   0.01   0.01
    24   6     0.02   0.03   0.06     0.01  -0.01   0.01    -0.02   0.04  -0.03
    25   6     0.00  -0.00   0.02    -0.01  -0.03  -0.01     0.05   0.07   0.03
    26   6    -0.02  -0.01   0.00    -0.00   0.01   0.00     0.01  -0.06   0.01
    27   1    -0.05   0.05   0.05    -0.04   0.06   0.12    -0.03   0.10   0.02
    28   7    -0.06  -0.02  -0.03    -0.04  -0.04   0.01     0.04   0.01   0.01
    29   1    -0.09  -0.10  -0.08     0.03  -0.15  -0.19     0.09   0.05   0.03
    30   1     0.04   0.04  -0.15    -0.01   0.00   0.02     0.05   0.02  -0.07
    31   1     0.26   0.23  -0.43    -0.04  -0.00   0.02     0.10   0.07  -0.12
    32   1     0.01   0.08   0.05    -0.00   0.04   0.01     0.02  -0.06  -0.02
    33   7    -0.06  -0.03   0.00    -0.00  -0.00  -0.01    -0.01  -0.01   0.02
    34   6     0.00   0.00  -0.00    -0.01   0.00   0.00     0.01  -0.01  -0.01
    35   6    -0.00  -0.01   0.04     0.00   0.00  -0.02    -0.02  -0.01   0.06
    36   1     0.06  -0.05  -0.02    -0.01   0.00   0.00     0.02  -0.02  -0.04
    37   1     0.02   0.03   0.00    -0.00  -0.00   0.00     0.02   0.01  -0.01
    38   1     0.01   0.06   0.01    -0.02   0.02   0.02     0.02  -0.02  -0.02
    39   1    -0.01   0.00   0.14     0.00  -0.00  -0.02    -0.02   0.00   0.09
    40   1     0.09  -0.01  -0.05    -0.00   0.01  -0.01     0.02  -0.01   0.01
    41   1     0.06   0.02   0.09    -0.00  -0.00  -0.02     0.01   0.01   0.08
    42   6     0.02  -0.00   0.00     0.05  -0.06   0.03    -0.00  -0.00   0.00
    43   6     0.00   0.01   0.01     0.00  -0.02  -0.01    -0.00  -0.01  -0.01
    44   6     0.01   0.00  -0.01    -0.03  -0.04   0.10    -0.01  -0.01   0.02
    45   1     0.00   0.06   0.03    -0.00   0.10   0.02    -0.00  -0.03  -0.02
    46   1    -0.03  -0.01  -0.02    -0.09  -0.10  -0.18     0.01  -0.00  -0.01
    47   1    -0.02   0.02   0.00    -0.02   0.11   0.02     0.01  -0.01  -0.01
    48   1     0.01   0.05   0.02     0.04  -0.11   0.13    -0.01  -0.07   0.02
    49   1     0.01   0.02  -0.03    -0.03  -0.05   0.09    -0.01  -0.03   0.05
    50   1    -0.00   0.00  -0.01    -0.04  -0.05   0.11    -0.00  -0.02   0.03
    51   1    -0.02  -0.00  -0.00    -0.02  -0.04   0.08     0.02  -0.01  -0.00
    52   6     0.08  -0.01  -0.01     0.05   0.01   0.00    -0.12   0.01   0.01
    53   1     0.09  -0.00  -0.01     0.05  -0.02  -0.01    -0.14  -0.00   0.02
    54   1     0.10  -0.01  -0.01     0.01   0.00   0.00    -0.16   0.01   0.02
    55   1     0.07  -0.00  -0.01     0.06  -0.01  -0.01    -0.10  -0.00  -0.00
                     55                     56                     57
                      A                      A                      A
 Frequencies --    754.5438               770.1459               779.6923
 Red. masses --      2.6935                 1.9326                 1.9349
 Frc consts  --      0.9035                 0.6754                 0.6930
 IR Inten    --      0.0000                 0.0000                 0.0000
  Atom  AN      X      Y      Z        X      Y      Z        X      Y      Z
     1  26     0.00  -0.02  -0.01     0.01   0.00   0.01     0.00   0.01   0.02
     2   6    -0.00   0.01  -0.01     0.00   0.01  -0.01    -0.00   0.00  -0.00
     3  46    -0.00   0.00  -0.00    -0.00   0.00  -0.00    -0.00   0.00  -0.00
     4   6     0.01   0.02  -0.01    -0.01  -0.01  -0.01    -0.00  -0.01  -0.00
     5   1     0.13   0.07  -0.03     0.07  -0.20  -0.02    -0.01  -0.03  -0.01
     6   1    -0.13   0.04   0.33    -0.14   0.12   0.10     0.02  -0.07  -0.13
     7   1     0.06  -0.31  -0.61     0.22  -0.28  -0.32    -0.06   0.19   0.22
     8   6    -0.01  -0.00  -0.00    -0.00  -0.00  -0.00    -0.00  -0.00  -0.00
     9   8    -0.00  -0.00  -0.00    -0.00  -0.00  -0.00    -0.00  -0.00   0.00
    10   6     0.03   0.02   0.03    -0.01  -0.01  -0.03     0.04  -0.04   0.00
    11   8     0.03  -0.01  -0.01     0.02  -0.01  -0.01     0.02  -0.00  -0.00
    12   6    -0.05  -0.03  -0.03     0.00  -0.00  -0.02    -0.14  -0.09  -0.09
    13   6    -0.01   0.04   0.01    -0.00  -0.00  -0.00    -0.01   0.12  -0.04
    14   6     0.01  -0.00  -0.04    -0.00   0.02   0.01     0.11   0.00  -0.04
    15   1    -0.03   0.00   0.12    -0.01  -0.01  -0.06    -0.07   0.19   0.77
    16   1     0.03   0.06   0.07     0.03   0.01   0.02     0.02   0.08  -0.16
    17   1     0.01  -0.03   0.04    -0.02  -0.01  -0.05     0.13  -0.00   0.22
    18   1    -0.05  -0.00   0.08    -0.02   0.01   0.03    -0.03  -0.00   0.08
    19   6     0.01  -0.01   0.08     0.00   0.03   0.04     0.01  -0.04   0.08
    20   6     0.01   0.00   0.00     0.00   0.00   0.01     0.01   0.00  -0.01
    21   8     0.00  -0.00   0.01     0.00  -0.00   0.00     0.00  -0.00   0.01
    22   6     0.18  -0.02   0.01    -0.08   0.06  -0.02    -0.00  -0.02  -0.03
    23   6    -0.01  -0.05   0.11     0.11   0.02  -0.14     0.01  -0.01  -0.04
    24   6    -0.03  -0.05   0.04     0.09  -0.06   0.08    -0.00   0.01   0.02
    25   6    -0.13  -0.04  -0.05    -0.07  -0.08   0.03     0.00  -0.00   0.00
    26   6    -0.01   0.23  -0.07    -0.06   0.04   0.03    -0.01  -0.03   0.00
    27   1     0.07   0.08   0.28    -0.03  -0.28  -0.20    -0.05   0.10   0.10
    28   7     0.00   0.00  -0.00     0.00   0.00  -0.00     0.00  -0.00  -0.00
    29   1     0.01   0.00   0.01     0.00   0.01   0.02     0.01   0.01  -0.01
    30   1    -0.02  -0.01  -0.03     0.02   0.02  -0.00     0.01   0.01  -0.01
    31   1     0.05   0.02  -0.07    -0.03  -0.02   0.04    -0.01  -0.01   0.01
    32   1    -0.15  -0.18  -0.19     0.03   0.55   0.40    -0.01   0.15   0.12
    33   7     0.00   0.00  -0.00     0.01   0.00   0.00     0.00   0.00   0.00
    34   6     0.01  -0.01  -0.01     0.00  -0.00  -0.00    -0.00   0.00  -0.00
    35   6     0.00   0.01   0.01     0.00   0.01   0.01    -0.00  -0.01  -0.00
    36   1     0.01  -0.01  -0.01    -0.00   0.00  -0.00    -0.01   0.01  -0.00
    37   1     0.01  -0.01  -0.00     0.00  -0.00  -0.00     0.00  -0.00  -0.00
    38   1     0.00  -0.01  -0.00     0.00  -0.02  -0.01    -0.00  -0.00   0.00
    39   1    -0.01   0.01   0.01     0.00   0.00  -0.00     0.00  -0.01  -0.00
    40   1    -0.00  -0.01   0.01    -0.01  -0.01   0.01    -0.00   0.01   0.00
    41   1    -0.00   0.00   0.02    -0.01  -0.00   0.02     0.00  -0.00  -0.02
    42   6     0.00   0.00  -0.00     0.00  -0.00   0.00    -0.00   0.00  -0.00
    43   6    -0.00  -0.00  -0.00     0.00  -0.00  -0.00    -0.00  -0.00  -0.01
    44   6     0.00   0.00  -0.00    -0.00  -0.00   0.01     0.00   0.00  -0.00
    45   1    -0.00  -0.01   0.01     0.00   0.01  -0.01    -0.00   0.00   0.01
    46   1     0.00  -0.00  -0.00    -0.00  -0.01  -0.00    -0.01  -0.00  -0.00
    47   1    -0.00   0.00  -0.00     0.00   0.00  -0.00    -0.01  -0.01  -0.01
    48   1    -0.00  -0.00   0.02     0.01   0.01  -0.03    -0.01   0.01   0.07
    49   1     0.00  -0.00   0.01    -0.00   0.00  -0.01    -0.00  -0.00   0.04
    50   1     0.01  -0.00  -0.00    -0.01   0.00   0.01     0.02   0.00  -0.01
    51   1     0.01   0.00  -0.01    -0.02  -0.00   0.02     0.02   0.00  -0.02
    52   6    -0.01   0.00   0.00    -0.01   0.00   0.00    -0.01   0.00   0.00
    53   1    -0.02   0.00   0.00    -0.01   0.00   0.00    -0.01   0.00   0.00
    54   1    -0.02   0.00   0.00    -0.01   0.00   0.00    -0.01   0.00   0.00
    55   1    -0.02   0.00   0.00    -0.01   0.00   0.00    -0.01   0.00   0.00
                     58                     59                     60
                      A                      A                      A
 Frequencies --    785.7028               792.5496               802.5752
 Red. masses --      1.2822                 1.5304                 1.5458
 Frc consts  --      0.4664                 0.5664                 0.5866
 IR Inten    --      0.0000                 0.0000                 0.0000
  Atom  AN      X      Y      Z        X      Y      Z        X      Y      Z
     1  26    -0.01   0.01   0.01    -0.00   0.01   0.01    -0.00   0.02   0.04
     2   6    -0.00  -0.00   0.00    -0.00  -0.01   0.01     0.00   0.00  -0.00
     3  46     0.00  -0.00  -0.00     0.00  -0.00   0.00     0.00  -0.00   0.00
     4   6     0.01  -0.00  -0.01    -0.01  -0.00   0.01     0.01   0.02  -0.01
     5   1     0.03   0.07   0.04    -0.11   0.15   0.12    -0.12   0.35   0.28
     6   1    -0.13   0.25   0.42     0.11  -0.25  -0.30    -0.00   0.11   0.27
     7   1    -0.14   0.37   0.35    -0.01  -0.16  -0.17    -0.02  -0.03  -0.01
     8   6    -0.00  -0.00   0.00     0.00   0.00   0.00    -0.00  -0.00  -0.00
     9   8     0.00   0.00   0.00     0.01   0.00   0.00    -0.00  -0.00  -0.00
    10   6     0.01  -0.00  -0.01    -0.01   0.00  -0.00    -0.02   0.01  -0.02
    11   8     0.00   0.00  -0.00    -0.01  -0.00   0.00     0.01  -0.00  -0.00
    12   6     0.00   0.00   0.03     0.03   0.01  -0.04     0.00   0.01   0.01
    13   6    -0.00   0.02   0.03     0.02  -0.05  -0.02    -0.01  -0.05  -0.05
    14   6    -0.01   0.01   0.02    -0.01   0.02   0.06    -0.01  -0.05  -0.11
    15   1     0.00  -0.11  -0.24     0.02   0.10   0.12    -0.01  -0.03  -0.10
    16   1    -0.02  -0.07  -0.26     0.03   0.02   0.19    -0.00   0.08   0.35
    17   1    -0.07  -0.11  -0.21    -0.10  -0.11  -0.40     0.15   0.28   0.58
    18   1    -0.01  -0.02   0.05     0.01   0.02  -0.04    -0.02   0.00   0.01
    19   6     0.00  -0.01   0.00     0.01   0.02  -0.04    -0.02   0.01   0.01
    20   6     0.00  -0.00  -0.00     0.00  -0.00   0.00     0.00  -0.00   0.00
    21   8    -0.00  -0.00  -0.00    -0.01  -0.00  -0.01     0.00   0.00   0.00
    22   6     0.06  -0.01  -0.02     0.06  -0.06  -0.00     0.01  -0.01   0.02
    23   6     0.03  -0.03  -0.03    -0.02  -0.11  -0.06    -0.00  -0.05  -0.03
    24   6    -0.00  -0.01   0.01    -0.06   0.01  -0.05    -0.02  -0.02  -0.10
    25   6    -0.05  -0.06  -0.05     0.01   0.06   0.03     0.03  -0.03  -0.04
    26   6     0.01  -0.03  -0.07     0.01   0.03   0.02     0.02  -0.01   0.01
    27   1    -0.05   0.24   0.26    -0.04   0.30   0.28     0.04  -0.02  -0.05
    28   7    -0.00   0.00  -0.00    -0.00   0.00   0.00     0.00   0.00  -0.00
    29   1     0.00  -0.01  -0.01    -0.00  -0.01  -0.00     0.00   0.00   0.01
    30   1     0.02   0.02  -0.02     0.01   0.01   0.02    -0.02  -0.01  -0.01
    31   1     0.01  -0.00  -0.01    -0.04   0.00   0.04     0.04   0.01  -0.04
    32   1    -0.05   0.23   0.19    -0.05   0.32   0.41     0.03   0.14   0.22
    33   7    -0.00  -0.00   0.00     0.00   0.00  -0.00     0.00   0.00   0.00
    34   6    -0.00   0.01   0.00     0.00  -0.00  -0.00     0.00  -0.01  -0.00
    35   6    -0.00  -0.01  -0.00     0.00   0.01  -0.00    -0.00  -0.00   0.01
    36   1    -0.00   0.01   0.00     0.00  -0.00   0.00     0.00  -0.01  -0.00
    37   1    -0.01   0.01   0.00     0.00  -0.00   0.00     0.00  -0.00  -0.00
    38   1    -0.00   0.00   0.00     0.00   0.00   0.00     0.01  -0.01  -0.01
    39   1     0.00  -0.02   0.01    -0.00   0.01  -0.01    -0.01   0.00   0.01
    40   1     0.01   0.01  -0.01    -0.00  -0.01  -0.00     0.00  -0.00   0.01
    41   1     0.01   0.00  -0.02    -0.01  -0.00   0.01     0.00   0.00   0.01
    42   6    -0.00   0.00  -0.00    -0.00   0.00  -0.00     0.00  -0.00   0.00
    43   6    -0.00   0.00   0.00    -0.00   0.00  -0.00    -0.00   0.00   0.00
    44   6     0.00   0.00  -0.01     0.00   0.00  -0.01     0.00  -0.00   0.00
    45   1    -0.00   0.00   0.01    -0.00   0.01   0.02     0.00  -0.00  -0.00
    46   1     0.00   0.00   0.00    -0.00   0.00   0.00     0.00   0.00  -0.00
    47   1    -0.00  -0.00  -0.00    -0.01  -0.01  -0.00     0.00   0.00   0.00
    48   1    -0.00  -0.00   0.02    -0.01  -0.00   0.05     0.00   0.00  -0.02
    49   1     0.00  -0.00  -0.00     0.00  -0.00   0.01     0.00   0.00  -0.01
    50   1     0.00   0.00  -0.00     0.02   0.00  -0.02    -0.01   0.00   0.00
    51   1     0.01   0.00  -0.01     0.02   0.00  -0.01    -0.01  -0.00   0.01
    52   6    -0.00   0.00   0.00     0.01  -0.00  -0.00    -0.00   0.00   0.00
    53   1     0.00  -0.00   0.00     0.01  -0.00  -0.00    -0.00   0.00   0.00
    54   1    -0.00  -0.00   0.00     0.00  -0.00  -0.00    -0.00   0.00   0.00
    55   1     0.00  -0.00  -0.00     0.01  -0.00  -0.00    -0.00   0.00   0.00
                     61                     62                     63
                      A                      A                      A
 Frequencies --    810.5438               822.3311               848.2986
 Red. masses --      1.5547                 1.3032                 3.7906
 Frc consts  --      0.6018                 0.5192                 1.6071
 IR Inten    --      0.0000                 0.0000                 0.0000
  Atom  AN      X      Y      Z        X      Y      Z        X      Y      Z
     1  26    -0.00   0.01   0.02    -0.00   0.00   0.00     0.00  -0.00   0.00
     2   6    -0.00  -0.00   0.01    -0.00  -0.00   0.01     0.14  -0.09  -0.21
     3  46     0.00  -0.00   0.00     0.00  -0.00   0.00    -0.00   0.00  -0.00
     4   6    -0.02  -0.03   0.01     0.01   0.02   0.00     0.02   0.00   0.00
     5   1     0.06  -0.17  -0.11     0.14  -0.38  -0.34     0.04  -0.05  -0.08
     6   1    -0.10   0.17   0.20     0.03  -0.22  -0.33     0.02  -0.10  -0.08
     7   1    -0.02   0.18   0.16    -0.03   0.12   0.08    -0.06   0.18   0.13
     8   6    -0.00   0.00  -0.00    -0.00  -0.00  -0.00    -0.01  -0.01  -0.01
     9   8     0.00   0.00   0.00     0.01   0.00   0.00    -0.10  -0.01  -0.02
    10   6    -0.04   0.01  -0.01    -0.02   0.01  -0.01     0.00  -0.00   0.01
    11   8     0.01  -0.00  -0.00     0.01  -0.00  -0.00    -0.03  -0.03  -0.02
    12   6     0.05   0.00  -0.09     0.02   0.02   0.03    -0.01   0.00  -0.00
    13   6     0.02  -0.11  -0.05    -0.00  -0.03   0.00     0.00  -0.00  -0.01
    14   6    -0.04   0.01   0.02    -0.01  -0.04  -0.06     0.01  -0.00   0.00
    15   1     0.04   0.24   0.38     0.01  -0.07  -0.23    -0.00   0.00   0.01
    16   1     0.07   0.12   0.64     0.01  -0.00   0.08     0.02   0.03   0.10
    17   1    -0.05   0.03  -0.20     0.10   0.19   0.44    -0.00  -0.02  -0.03
    18   1    -0.01   0.03  -0.02    -0.02   0.00   0.04    -0.00  -0.05  -0.06
    19   6    -0.00   0.05  -0.04    -0.02   0.01  -0.01    -0.01   0.00   0.01
    20   6     0.00   0.00  -0.00     0.01  -0.00   0.00    -0.19   0.06   0.28
    21   8    -0.00  -0.00  -0.00    -0.00  -0.00  -0.00     0.11   0.09   0.03
    22   6     0.00   0.01  -0.02     0.03  -0.02  -0.05     0.03   0.02   0.03
    23   6     0.03   0.05   0.01     0.01   0.00  -0.01    -0.00  -0.04   0.01
    24   6     0.03  -0.02   0.03     0.01   0.01   0.08    -0.02  -0.00   0.02
    25   6    -0.04  -0.04  -0.02    -0.04   0.03   0.05    -0.02   0.02   0.00
    26   6    -0.01  -0.02  -0.04    -0.02   0.01  -0.03     0.01   0.01  -0.04
    27   1    -0.04   0.03   0.09    -0.10   0.28   0.31     0.07  -0.17  -0.10
    28   7    -0.00  -0.00   0.00    -0.00   0.00  -0.00     0.03   0.03  -0.01
    29   1     0.00   0.00  -0.00     0.00  -0.01  -0.00    -0.13   0.19   0.47
    30   1     0.01  -0.00   0.02    -0.02  -0.02   0.01     0.02   0.00   0.01
    31   1    -0.03  -0.04   0.05     0.02   0.02  -0.03     0.00   0.01  -0.00
    32   1     0.02  -0.14  -0.22    -0.06   0.12   0.05    -0.06   0.07   0.06
    33   7     0.00  -0.00   0.00    -0.00  -0.00  -0.00    -0.01  -0.01   0.00
    34   6    -0.00   0.00   0.00    -0.00  -0.00  -0.00    -0.01   0.01   0.00
    35   6    -0.00  -0.01  -0.00    -0.00  -0.00   0.00    -0.00  -0.01  -0.01
    36   1    -0.01   0.01   0.00     0.01  -0.01   0.00     0.00   0.00  -0.00
    37   1    -0.01   0.01   0.00     0.00  -0.00   0.00    -0.01   0.02   0.00
    38   1    -0.00  -0.01  -0.00    -0.00   0.01   0.00    -0.01   0.02   0.01
    39   1     0.00  -0.01  -0.01     0.00  -0.01   0.01    -0.00  -0.01   0.01
    40   1    -0.01   0.01   0.01     0.01   0.01  -0.01     0.01   0.01  -0.02
    41   1     0.00  -0.00  -0.02     0.00   0.00   0.00     0.01   0.01  -0.02
    42   6    -0.00   0.00  -0.00    -0.00   0.00  -0.00     0.04  -0.03   0.01
    43   6    -0.00  -0.00  -0.00     0.00   0.00   0.00    -0.00  -0.03  -0.03
    44   6    -0.00   0.00  -0.01     0.00   0.00  -0.01     0.03  -0.02  -0.01
    45   1    -0.00   0.00   0.01     0.00   0.00   0.02    -0.01   0.03   0.05
    46   1    -0.00  -0.00   0.01     0.00   0.01   0.01    -0.05  -0.05  -0.04
    47   1    -0.01  -0.01  -0.01    -0.01  -0.01  -0.00    -0.06  -0.07  -0.06
    48   1    -0.01  -0.01   0.06    -0.01  -0.01   0.04     0.06   0.14  -0.12
    49   1    -0.00  -0.01   0.03     0.00  -0.01   0.01     0.04   0.16  -0.25
    50   1     0.03   0.00  -0.02     0.01   0.00  -0.01    -0.05   0.12  -0.11
    51   1     0.03   0.01  -0.02     0.02   0.00  -0.02    -0.22   0.00   0.28
    52   6    -0.00   0.00  -0.00    -0.00   0.00   0.00     0.01  -0.02  -0.02
    53   1    -0.00  -0.00  -0.00    -0.00  -0.00   0.00    -0.01   0.04   0.02
    54   1    -0.00  -0.00   0.00    -0.00  -0.00   0.00     0.12  -0.01  -0.02
    55   1     0.00  -0.00  -0.00    -0.00  -0.00  -0.00    -0.04   0.03   0.04
                     64                     65                     66
                      A                      A                      A
 Frequencies --    851.2048               862.8155               868.5362
 Red. masses --      1.6856                 1.5610                 1.6426
 Frc consts  --      0.7196                 0.6847                 0.7301
 IR Inten    --      0.0000                 0.0000                 0.0000
  Atom  AN      X      Y      Z        X      Y      Z        X      Y      Z
     1  26    -0.00  -0.00  -0.00    -0.00   0.00  -0.00    -0.00   0.00   0.00
     2   6    -0.01   0.01   0.01     0.02  -0.02  -0.03    -0.01   0.00   0.01
     3  46    -0.00  -0.00  -0.00    -0.00  -0.00  -0.00     0.00   0.00   0.00
     4   6     0.01  -0.00   0.00    -0.01  -0.00  -0.00     0.02   0.00   0.02
     5   1    -0.05   0.12   0.21    -0.11   0.21   0.34    -0.00   0.41   0.44
     6   1     0.00  -0.16  -0.27    -0.05   0.12  -0.04    -0.01  -0.28  -0.36
     7   1    -0.04   0.20   0.16     0.16  -0.22  -0.15    -0.01   0.24   0.15
     8   6     0.00  -0.01   0.00    -0.00   0.00   0.00    -0.00   0.00   0.00
     9   8     0.01  -0.00   0.00    -0.01   0.00  -0.00     0.00   0.00   0.00
    10   6     0.05  -0.03   0.02     0.01  -0.01  -0.00    -0.03   0.01  -0.01
    11   8     0.00   0.01  -0.00    -0.01  -0.01  -0.01    -0.00  -0.01   0.00
    12   6    -0.08   0.01   0.07    -0.01  -0.00   0.01     0.05  -0.00  -0.04
    13   6    -0.04   0.05  -0.13    -0.01   0.02  -0.00     0.02  -0.04   0.07
    14   6     0.08   0.04   0.02     0.01   0.00  -0.00    -0.05  -0.01  -0.01
    15   1    -0.05  -0.25  -0.38     0.01  -0.06  -0.06     0.03   0.12   0.15
    16   1     0.04   0.27   0.54    -0.05  -0.00  -0.05    -0.09  -0.16  -0.29
    17   1     0.00  -0.17  -0.21     0.01   0.00  -0.00     0.01   0.17   0.06
    18   1     0.01  -0.10   0.14    -0.00   0.02  -0.05    -0.00   0.07  -0.11
    19   6    -0.01  -0.05   0.04     0.01  -0.00   0.02     0.00   0.03  -0.01
    20   6     0.01  -0.01  -0.02    -0.02   0.00   0.05     0.01   0.01  -0.02
    21   8    -0.01  -0.01  -0.00     0.02   0.01   0.00    -0.01  -0.00  -0.00
    22   6     0.01   0.03  -0.01    -0.06  -0.04  -0.08     0.03   0.05  -0.00
    23   6     0.03   0.02   0.01     0.03   0.11  -0.01     0.05   0.02   0.01
    24   6     0.02  -0.06   0.00     0.08  -0.04  -0.03     0.04  -0.12  -0.01
    25   6    -0.05   0.01   0.04     0.02  -0.04   0.03    -0.10   0.00   0.06
    26   6    -0.01   0.01  -0.04    -0.05  -0.03   0.07    -0.02   0.03  -0.07
    27   1     0.03  -0.10  -0.06    -0.25   0.48   0.47     0.04  -0.21  -0.05
    28   7     0.00  -0.00  -0.01    -0.00   0.01   0.00    -0.00  -0.00   0.01
    29   1     0.01  -0.01  -0.03    -0.02  -0.00   0.08     0.00   0.01  -0.03
    30   1     0.02   0.01  -0.01    -0.01   0.00  -0.01     0.02  -0.02   0.04
    31   1    -0.01   0.01   0.01    -0.01  -0.01   0.00    -0.01   0.01   0.02
    32   1     0.00  -0.03  -0.07     0.09  -0.16  -0.26    -0.10   0.02  -0.14
    33   7    -0.00  -0.00   0.00     0.01   0.01  -0.00    -0.01  -0.01  -0.00
    34   6    -0.00   0.01   0.00     0.01  -0.01  -0.00    -0.01   0.02   0.01
    35   6     0.00  -0.01  -0.01     0.00   0.01   0.01    -0.00  -0.01  -0.02
    36   1    -0.00   0.01  -0.00    -0.00   0.00   0.00     0.01  -0.00   0.01
    37   1    -0.00   0.00   0.00     0.00  -0.01  -0.00    -0.01   0.03   0.01
    38   1    -0.01   0.01   0.01     0.01  -0.02  -0.01    -0.01   0.04   0.01
    39   1     0.00  -0.01   0.00     0.00   0.01  -0.01     0.01  -0.01   0.02
    40   1     0.00   0.01  -0.01    -0.01  -0.01   0.01     0.02   0.03  -0.03
    41   1     0.01   0.00  -0.02    -0.01  -0.01   0.02     0.02   0.01  -0.02
    42   6    -0.00   0.00  -0.00    -0.00  -0.00   0.00     0.00   0.00  -0.00
    43   6     0.00   0.00   0.01     0.00   0.01  -0.00    -0.00  -0.01  -0.00
    44   6     0.00   0.00   0.01     0.01   0.00  -0.03    -0.01  -0.00   0.01
    45   1     0.00  -0.01  -0.02     0.00   0.02   0.05    -0.00   0.01   0.00
    46   1     0.01   0.01  -0.00    -0.01   0.01   0.02    -0.01  -0.01  -0.01
    47   1     0.02   0.02   0.01    -0.03  -0.05  -0.03    -0.01  -0.00  -0.01
    48   1     0.00  -0.01  -0.05    -0.02  -0.02   0.11     0.01   0.02   0.01
    49   1     0.00  -0.00  -0.02     0.01   0.01   0.02    -0.01  -0.01   0.01
    50   1    -0.02  -0.01   0.03     0.05   0.03  -0.07    -0.00  -0.01   0.01
    51   1    -0.01  -0.01  -0.01     0.02   0.02   0.00     0.00  -0.00  -0.00
    52   6    -0.01   0.00   0.00     0.02  -0.01  -0.00     0.00   0.00   0.00
    53   1    -0.01   0.00   0.01     0.02  -0.00  -0.01     0.01  -0.01  -0.01
    54   1    -0.01   0.00   0.00     0.03  -0.00  -0.01    -0.01   0.00   0.00
    55   1    -0.01   0.00   0.00     0.01  -0.00  -0.00     0.01  -0.00  -0.01
                     67                     68                     69
                      A                      A                      A
 Frequencies --    875.0244               889.6988               903.6216
 Red. masses --      1.4472                 2.9401                 2.5016
 Frc consts  --      0.6529                 1.3712                 1.2035
 IR Inten    --      0.0000                 0.0000                 0.0000
  Atom  AN      X      Y      Z        X      Y      Z        X      Y      Z
     1  26    -0.00   0.00   0.00     0.00  -0.00  -0.00    -0.00   0.00   0.00
     2   6     0.01   0.00   0.00    -0.00   0.01   0.00     0.01  -0.06   0.05
     3  46     0.00  -0.00   0.01    -0.00  -0.00  -0.00     0.00  -0.00   0.00
     4   6     0.04  -0.02   0.01     0.21  -0.13   0.06     0.01  -0.01   0.00
     5   1    -0.01   0.04   0.04    -0.02  -0.05  -0.05    -0.01  -0.02  -0.00
     6   1    -0.00   0.01  -0.01    -0.01   0.08   0.05    -0.00   0.03   0.01
     7   1     0.04  -0.06  -0.05     0.06  -0.11  -0.09     0.02  -0.04  -0.03
     8   6     0.02  -0.04  -0.01    -0.00   0.01  -0.00    -0.01  -0.01   0.00
     9   8     0.00   0.00   0.01     0.00  -0.00  -0.00     0.01   0.02   0.01
    10   6     0.00   0.00   0.02    -0.02   0.00   0.02    -0.00   0.00   0.00
    11   8     0.04   0.06   0.00     0.01  -0.02   0.01    -0.00  -0.00  -0.02
    12   6     0.03   0.02  -0.01    -0.02  -0.02   0.01     0.00   0.00   0.00
    13   6     0.01  -0.01   0.01     0.01   0.02  -0.02    -0.00   0.00  -0.00
    14   6     0.00  -0.02   0.00    -0.02   0.02  -0.03    -0.00   0.00  -0.00
    15   1     0.04   0.04   0.09     0.01  -0.10  -0.02     0.00  -0.01  -0.02
    16   1    -0.08  -0.05  -0.08     0.08   0.05   0.04    -0.00   0.01   0.01
    17   1     0.01   0.01   0.01    -0.00   0.08  -0.02     0.00   0.01   0.01
    18   1     0.03  -0.49   0.79    -0.03   0.25  -0.31    -0.04  -0.07   0.11
    19   6    -0.04   0.00  -0.08    -0.04   0.01   0.04    -0.00   0.00  -0.01
    20   6    -0.04  -0.03  -0.00     0.01  -0.00  -0.00    -0.05   0.19  -0.11
    21   8     0.00   0.00  -0.01    -0.00  -0.00   0.00    -0.04  -0.00   0.00
    22   6    -0.01  -0.00  -0.00    -0.01  -0.01  -0.00    -0.00  -0.01  -0.01
    23   6     0.00   0.01  -0.00    -0.01  -0.00  -0.00    -0.00   0.01  -0.00
    24   6     0.01  -0.00  -0.01    -0.01   0.02  -0.00     0.01   0.00  -0.00
    25   6     0.00  -0.00   0.00     0.02  -0.00  -0.01     0.01  -0.00  -0.00
    26   6    -0.00   0.00   0.01    -0.00   0.00   0.03    -0.00  -0.01   0.01
    27   1    -0.02   0.02   0.02    -0.02   0.07   0.03    -0.04   0.09   0.10
    28   7     0.03  -0.02  -0.05    -0.00  -0.00   0.01     0.01  -0.01   0.03
    29   1    -0.02   0.01   0.03     0.01  -0.02  -0.01    -0.04   0.28  -0.21
    30   1     0.09   0.03   0.02     0.43   0.06   0.17     0.02   0.01   0.01
    31   1    -0.03   0.01   0.02    -0.11   0.02   0.14    -0.01  -0.00   0.01
    32   1     0.00  -0.01  -0.02     0.03  -0.02   0.03    -0.00  -0.01  -0.02
    33   7    -0.02  -0.02  -0.01    -0.09  -0.13  -0.02    -0.00  -0.00  -0.00
    34   6    -0.01   0.04   0.01    -0.12   0.18   0.07    -0.00   0.01   0.00
    35   6     0.00  -0.00  -0.02     0.03  -0.00  -0.13     0.00   0.00  -0.00
    36   1    -0.00   0.02  -0.02     0.00   0.04  -0.00    -0.00   0.01  -0.00
    37   1    -0.01   0.03   0.01    -0.13   0.32   0.07    -0.00   0.01   0.00
    38   1    -0.03   0.03   0.03    -0.06   0.24   0.03    -0.00   0.00   0.00
    39   1    -0.00   0.00   0.03     0.00   0.01   0.11    -0.00   0.00   0.00
    40   1     0.03   0.01  -0.05     0.16   0.06  -0.25     0.00  -0.00  -0.01
    41   1     0.02   0.01  -0.02     0.11   0.06  -0.13     0.00   0.00  -0.00
    42   6    -0.01  -0.00   0.00    -0.00   0.00  -0.00     0.13   0.02  -0.00
    43   6     0.00   0.01   0.01    -0.00   0.00   0.00     0.01  -0.12  -0.12
    44   6     0.01   0.00  -0.02    -0.00   0.00  -0.00    -0.02  -0.03   0.16
    45   1     0.00   0.02   0.01     0.00  -0.01  -0.00    -0.01   0.21   0.17
    46   1    -0.00   0.00  -0.00     0.01   0.01   0.01    -0.25  -0.25  -0.24
    47   1     0.00   0.03   0.02     0.01  -0.00   0.00    -0.23  -0.18  -0.21
    48   1    -0.01   0.03   0.00    -0.01  -0.02   0.01     0.13   0.23   0.02
    49   1     0.01   0.01  -0.01    -0.00  -0.01   0.02     0.00   0.03  -0.16
    50   1     0.01   0.01  -0.03     0.01   0.00  -0.01    -0.22  -0.08   0.28
    51   1     0.00   0.00  -0.00     0.02   0.00  -0.02    -0.19  -0.06   0.20
    52   6    -0.09   0.01   0.01     0.01   0.00   0.00     0.01  -0.00  -0.01
    53   1    -0.13   0.06   0.06     0.01  -0.01  -0.01    -0.01   0.00   0.01
    54   1     0.00   0.00   0.01    -0.02   0.00  -0.00     0.03  -0.00  -0.01
    55   1    -0.12   0.04   0.06     0.02  -0.01  -0.01     0.02  -0.00   0.01
                     70                     71                     72
                      A                      A                      A
 Frequencies --    922.3164               953.8485               958.2419
 Red. masses --      2.6163                 1.8192                 1.3143
 Frc consts  --      1.3113                 0.9752                 0.7111
 IR Inten    --      0.0000                 0.0000                 0.0000
  Atom  AN      X      Y      Z        X      Y      Z        X      Y      Z
     1  26     0.00  -0.00  -0.00    -0.00  -0.00  -0.00     0.00  -0.00  -0.00
     2   6    -0.01  -0.00  -0.02    -0.00   0.00   0.00    -0.00   0.00  -0.00
     3  46     0.00   0.00  -0.00     0.00  -0.00   0.00    -0.00   0.00  -0.00
     4   6     0.02  -0.02  -0.01     0.07   0.15   0.08    -0.02  -0.05  -0.03
     5   1     0.00   0.00  -0.01    -0.03  -0.03  -0.00    -0.00   0.00  -0.01
     6   1     0.00  -0.01  -0.00     0.00   0.02   0.06     0.02  -0.04   0.00
     7   1     0.00  -0.00  -0.01     0.02  -0.01  -0.01    -0.01   0.02   0.01
     8   6    -0.10   0.01   0.05    -0.00  -0.00  -0.00     0.00  -0.00  -0.00
     9   8    -0.01  -0.00  -0.03     0.00   0.00  -0.00     0.00   0.00   0.00
    10   6     0.00   0.01   0.01    -0.04  -0.05  -0.03     0.02   0.02   0.01
    11   8    -0.08  -0.05  -0.11     0.01  -0.01  -0.00     0.00   0.00   0.00
    12   6     0.01   0.01  -0.01     0.01   0.03  -0.01    -0.01  -0.01   0.01
    13   6     0.00  -0.00   0.00     0.02   0.01  -0.01    -0.01   0.00  -0.00
    14   6     0.00  -0.01  -0.00     0.08  -0.06   0.05    -0.02   0.02  -0.01
    15   1     0.02   0.02   0.04     0.12  -0.15   0.08    -0.01  -0.02  -0.06
    16   1    -0.03  -0.01  -0.02    -0.24  -0.01   0.04     0.07   0.01  -0.00
    17   1     0.00   0.01   0.01     0.04  -0.15  -0.06    -0.02   0.02   0.02
    18   1    -0.25  -0.45   0.48    -0.03   0.06  -0.04     0.02  -0.00   0.01
    19   6    -0.02   0.01  -0.01    -0.10   0.02  -0.01     0.03  -0.00   0.00
    20   6     0.13   0.04   0.08     0.01  -0.00   0.01     0.00  -0.01   0.00
    21   8    -0.01  -0.01   0.02    -0.00  -0.00   0.00    -0.00  -0.00  -0.00
    22   6    -0.00   0.00   0.00    -0.01  -0.00   0.00     0.00   0.00   0.01
    23   6    -0.00  -0.00   0.00     0.00   0.01  -0.00    -0.00  -0.00  -0.00
    24   6    -0.00  -0.00   0.00    -0.00   0.00  -0.00    -0.01   0.00  -0.00
    25   6    -0.00   0.00  -0.00     0.01   0.00  -0.01     0.01   0.00  -0.00
    26   6     0.00   0.00  -0.00     0.00   0.00   0.00     0.01   0.01  -0.01
    27   1     0.02  -0.04  -0.05    -0.01  -0.09   0.00    -0.00  -0.14   0.00
    28   7    -0.11   0.08   0.09    -0.00  -0.00   0.00     0.00  -0.00  -0.01
    29   1     0.09  -0.09   0.02     0.01  -0.02   0.01     0.00  -0.04   0.02
    30   1     0.08   0.03   0.01    -0.35  -0.23  -0.05     0.13   0.09   0.01
    31   1    -0.05   0.02   0.02     0.50   0.00  -0.23    -0.18   0.01   0.07
    32   1     0.01   0.01   0.02     0.01   0.02   0.02    -0.02   0.02   0.00
    33   7    -0.01  -0.01  -0.01    -0.04  -0.02   0.00     0.02   0.01  -0.00
    34   6    -0.00   0.02  -0.00    -0.02  -0.01  -0.02     0.01   0.00   0.01
    35   6    -0.00  -0.00   0.00     0.01  -0.01  -0.04    -0.00   0.00   0.02
    36   1    -0.01   0.02  -0.02     0.10  -0.11   0.03    -0.04   0.04  -0.01
    37   1    -0.00  -0.01   0.00     0.09  -0.06   0.01    -0.03   0.02  -0.00
    38   1    -0.02   0.01   0.02    -0.04   0.20   0.08     0.01  -0.08  -0.03
    39   1    -0.01   0.00   0.03    -0.02   0.01   0.07     0.01  -0.01  -0.02
    40   1     0.02   0.01  -0.02     0.04   0.04  -0.06    -0.01  -0.02   0.02
    41   1     0.01   0.01   0.00     0.06   0.04  -0.09    -0.02  -0.02   0.04
    42   6     0.00   0.03  -0.01     0.00   0.01  -0.02     0.00  -0.00  -0.05
    43   6    -0.02   0.00  -0.03     0.03   0.02  -0.02     0.07   0.05  -0.03
    44   6    -0.02   0.01   0.02    -0.04  -0.02   0.01    -0.07  -0.06   0.01
    45   1    -0.01  -0.15  -0.06     0.01   0.09   0.16     0.04   0.21   0.37
    46   1     0.09   0.08   0.14    -0.04   0.02   0.09    -0.08   0.06   0.20
    47   1     0.01  -0.12  -0.05    -0.11  -0.15  -0.10    -0.23  -0.31  -0.21
    48   1    -0.00  -0.13   0.01    -0.01   0.03   0.10    -0.02   0.07   0.18
    49   1    -0.02  -0.04   0.07    -0.04  -0.01   0.20    -0.09   0.00   0.43
    50   1    -0.00  -0.03   0.05     0.11   0.05  -0.12     0.25   0.13  -0.29
    51   1     0.05   0.01  -0.04     0.04   0.02   0.06     0.06   0.05   0.18
    52   6     0.21  -0.02  -0.03     0.00   0.00   0.00    -0.01  -0.00   0.00
    53   1     0.26  -0.12  -0.11     0.00  -0.01  -0.00    -0.01   0.01   0.00
    54   1     0.04  -0.04  -0.02    -0.02  -0.00   0.00     0.01   0.00  -0.00
    55   1     0.30  -0.12  -0.13     0.01  -0.01  -0.01    -0.02   0.01   0.01
                     73                     74                     75
                      A                      A                      A
 Frequencies --    974.6944               991.3292               994.1106
 Red. masses --      1.8697                 1.7312                 1.5116
 Frc consts  --      1.0465                 1.0024                 0.8802
 IR Inten    --      0.0000                 0.0000                 0.0000
  Atom  AN      X      Y      Z        X      Y      Z        X      Y      Z
     1  26    -0.00   0.00   0.00     0.00   0.01   0.00    -0.00  -0.00  -0.00
     2   6     0.00   0.01  -0.02    -0.01   0.00   0.01    -0.01   0.00   0.01
     3  46     0.00  -0.00   0.00    -0.00  -0.00  -0.00     0.00  -0.00   0.00
     4   6    -0.00   0.00   0.00    -0.06   0.02   0.10     0.04  -0.01  -0.06
     5   1     0.01   0.01   0.00     0.05   0.03  -0.02     0.01   0.00   0.02
     6   1    -0.01   0.01  -0.01    -0.02   0.01  -0.01    -0.03   0.05  -0.04
     7   1     0.01  -0.00   0.00     0.06  -0.03  -0.02    -0.04  -0.00   0.01
     8   6     0.02  -0.00  -0.02     0.00  -0.00   0.00     0.00  -0.00  -0.01
     9   8     0.00  -0.00   0.00     0.00  -0.00   0.00     0.01   0.00   0.00
    10   6     0.00  -0.00  -0.00     0.02  -0.02  -0.07    -0.02   0.01   0.05
    11   8     0.01   0.02   0.03    -0.01   0.01   0.00     0.01  -0.00   0.00
    12   6    -0.00  -0.00   0.00    -0.02  -0.01   0.01     0.01   0.01  -0.01
    13   6     0.00  -0.00   0.00    -0.01  -0.00   0.00     0.01  -0.00   0.00
    14   6     0.00   0.00  -0.00    -0.05   0.05  -0.03     0.04  -0.04   0.02
    15   1    -0.02   0.04   0.00    -0.16   0.24  -0.09     0.09  -0.11   0.11
    16   1     0.02  -0.00  -0.00     0.29   0.03  -0.03    -0.21  -0.03   0.02
    17   1     0.00   0.01  -0.00    -0.03   0.08   0.03     0.04  -0.02  -0.03
    18   1     0.08   0.05  -0.06     0.04  -0.11   0.10    -0.02   0.10  -0.07
    19   6     0.00  -0.00  -0.00     0.12  -0.03  -0.00    -0.09   0.02  -0.00
    20   6     0.02  -0.12   0.06     0.00   0.02  -0.03     0.01   0.02  -0.03
    21   8     0.01   0.00  -0.01    -0.00  -0.00   0.00    -0.01  -0.01   0.00
    22   6    -0.00   0.00  -0.00    -0.00  -0.00  -0.01     0.00   0.00  -0.00
    23   6     0.00  -0.00   0.00    -0.00  -0.01   0.00    -0.00  -0.00   0.00
    24   6     0.00  -0.00   0.00     0.00   0.00  -0.00     0.01  -0.01   0.01
    25   6    -0.00  -0.00   0.00    -0.01  -0.01   0.00    -0.01   0.00  -0.00
    26   6    -0.00  -0.00   0.00    -0.00  -0.01   0.01    -0.01  -0.01   0.01
    27   1     0.00   0.06   0.00     0.02   0.14  -0.04     0.03   0.16  -0.06
    28   7    -0.01  -0.02  -0.03    -0.01  -0.00  -0.00    -0.01  -0.01  -0.00
    29   1    -0.00  -0.31   0.17    -0.00   0.04  -0.09     0.01   0.06  -0.12
    30   1    -0.01   0.00  -0.00    -0.27  -0.16  -0.01     0.17   0.10   0.01
    31   1    -0.00  -0.00   0.00     0.18  -0.12   0.07    -0.10   0.08  -0.05
    32   1     0.01  -0.01   0.00     0.06  -0.06   0.01    -0.00  -0.00   0.01
    33   7     0.00   0.00   0.00    -0.00  -0.05   0.03    -0.00   0.03  -0.02
    34   6     0.00  -0.00   0.00    -0.03   0.03   0.01     0.02  -0.02  -0.01
    35   6     0.00   0.00  -0.00     0.04  -0.02  -0.05    -0.03   0.02   0.03
    36   1     0.00  -0.00  -0.00     0.05  -0.05   0.00    -0.03   0.03   0.00
    37   1    -0.00   0.01  -0.00     0.02   0.04   0.02    -0.00  -0.04  -0.01
    38   1     0.00  -0.00  -0.00    -0.03   0.12   0.05     0.02  -0.08  -0.03
    39   1     0.00   0.00  -0.01    -0.04   0.04  -0.01     0.03  -0.03   0.01
    40   1    -0.00  -0.00   0.00    -0.08   0.04   0.09     0.06  -0.03  -0.07
    41   1    -0.00  -0.00  -0.00     0.07   0.07  -0.26    -0.05  -0.05   0.19
    42   6     0.04   0.13  -0.05     0.00  -0.02  -0.03     0.00  -0.02  -0.03
    43   6    -0.04   0.01  -0.12    -0.01   0.06   0.01    -0.03   0.07   0.01
    44   6    -0.03   0.06   0.12     0.02  -0.07   0.03     0.03  -0.08   0.04
    45   1    -0.03  -0.22  -0.03    -0.00  -0.14  -0.03    -0.01  -0.21  -0.08
    46   1     0.13   0.18   0.32     0.14   0.18   0.23     0.19   0.22   0.28
    47   1    -0.08  -0.39  -0.22     0.05  -0.09  -0.01     0.08  -0.10   0.00
    48   1     0.04   0.02  -0.09     0.01  -0.06  -0.15     0.02  -0.06  -0.21
    49   1    -0.01  -0.10  -0.05     0.02   0.14  -0.15     0.04   0.17  -0.25
    50   1    -0.24  -0.19   0.43    -0.02   0.11  -0.13    -0.05   0.13  -0.13
    51   1     0.03  -0.04  -0.21    -0.21  -0.02   0.36    -0.28  -0.03   0.44
    52   6    -0.04  -0.01  -0.00     0.00  -0.00  -0.00    -0.01   0.00   0.00
    53   1    -0.05   0.04   0.03    -0.01   0.01   0.01    -0.00  -0.00  -0.00
    54   1     0.06   0.00  -0.01     0.02  -0.00  -0.00    -0.01   0.00  -0.00
    55   1    -0.10   0.05   0.04    -0.00   0.00   0.01    -0.01   0.00   0.00
                     76                     77                     78
                      A                      A                      A
 Frequencies --   1012.7257              1017.1528              1026.7265
 Red. masses --      1.4750                 1.4753                 1.9769
 Frc consts  --      0.8913                 0.8993                 1.2278
 IR Inten    --      0.0000                 0.0000                 0.0000
  Atom  AN      X      Y      Z        X      Y      Z        X      Y      Z
     1  26     0.00   0.00   0.00     0.00  -0.00  -0.00    -0.00   0.00   0.00
     2   6     0.00  -0.00  -0.00    -0.00  -0.00  -0.00     0.00  -0.00  -0.00
     3  46    -0.00   0.00   0.00     0.00   0.00  -0.00    -0.00  -0.00   0.00
     4   6    -0.00   0.00  -0.00     0.00   0.00  -0.00     0.10  -0.06   0.12
     5   1     0.00   0.00   0.00    -0.00  -0.00   0.00    -0.02  -0.01   0.01
     6   1    -0.00   0.00  -0.00     0.00  -0.01   0.01     0.02  -0.04   0.05
     7   1    -0.00  -0.00   0.00    -0.00   0.00   0.00    -0.10  -0.00   0.00
     8   6     0.01  -0.10   0.09    -0.03  -0.01   0.03     0.00  -0.00   0.01
     9   8     0.00   0.00   0.00    -0.00   0.00  -0.00    -0.00  -0.00   0.00
    10   6     0.00   0.00   0.00    -0.00   0.00   0.00     0.00  -0.02  -0.01
    11   8    -0.01   0.01  -0.01     0.05   0.03   0.03    -0.01   0.01  -0.00
    12   6    -0.00  -0.00   0.00     0.00   0.00  -0.00    -0.02  -0.00   0.01
    13   6    -0.00   0.00  -0.00     0.00   0.00   0.00     0.00   0.01  -0.00
    14   6    -0.00   0.00  -0.00     0.00  -0.00   0.00    -0.03   0.03  -0.02
    15   1     0.01  -0.02   0.01     0.00   0.00  -0.01    -0.10   0.13  -0.07
    16   1     0.01   0.00  -0.00    -0.02  -0.00  -0.00     0.24   0.03  -0.03
    17   1    -0.00  -0.01   0.00     0.00  -0.00  -0.00    -0.02   0.07  -0.02
    18   1     0.03   0.07  -0.04     0.02  -0.04  -0.09     0.03  -0.05   0.01
    19   6     0.00   0.00  -0.00    -0.00  -0.00   0.00     0.05  -0.01  -0.00
    20   6    -0.01  -0.01   0.01     0.03   0.03   0.00    -0.00  -0.00   0.00
    21   8     0.00   0.00  -0.00    -0.01  -0.00   0.00     0.00   0.00  -0.00
    22   6     0.00   0.00  -0.00    -0.00   0.00  -0.00     0.00   0.00  -0.00
    23   6    -0.00  -0.00   0.00     0.00   0.00   0.00     0.01   0.01  -0.00
    24   6     0.00  -0.00   0.00    -0.00   0.00  -0.00    -0.00  -0.00   0.00
    25   6    -0.00  -0.00   0.00    -0.00  -0.00   0.00     0.00  -0.00   0.00
    26   6    -0.00  -0.00   0.00     0.00   0.00  -0.00    -0.00  -0.00  -0.00
    27   1     0.00   0.01  -0.00     0.00  -0.02  -0.01     0.00   0.00  -0.00
    28   7     0.02   0.00  -0.02    -0.07   0.02   0.04     0.00   0.00  -0.00
    29   1    -0.00   0.01   0.03     0.01  -0.03  -0.06    -0.00  -0.01   0.01
    30   1    -0.00   0.00  -0.00     0.00   0.00   0.00     0.03  -0.09   0.08
    31   1    -0.00   0.00  -0.00    -0.00   0.00  -0.01     0.14  -0.16   0.25
    32   1    -0.00  -0.00   0.00     0.01  -0.00   0.01     0.02  -0.01  -0.01
    33   7     0.00  -0.00   0.00     0.00  -0.00  -0.00    -0.08   0.10  -0.07
    34   6     0.00  -0.00   0.00     0.00   0.00  -0.00     0.02  -0.08  -0.10
    35   6     0.00   0.00  -0.00    -0.00  -0.00   0.00    -0.09   0.06   0.02
    36   1     0.00  -0.00  -0.01    -0.00   0.00   0.00     0.07  -0.08   0.07
    37   1    -0.01   0.02   0.00    -0.00  -0.00  -0.00     0.20  -0.37  -0.04
    38   1     0.01  -0.01  -0.01    -0.00  -0.00   0.00    -0.08   0.19   0.13
    39   1     0.00  -0.00  -0.01    -0.00   0.00   0.01     0.09  -0.07   0.06
    40   1    -0.00  -0.00   0.00     0.00   0.00   0.00     0.22  -0.03  -0.32
    41   1    -0.00  -0.00  -0.00     0.00   0.00  -0.00    -0.12  -0.11   0.48
    42   6     0.00   0.00  -0.00     0.00  -0.01   0.01    -0.00  -0.00  -0.00
    43   6    -0.00   0.00  -0.00    -0.01  -0.00   0.01     0.00  -0.00   0.00
    44   6    -0.00   0.00   0.00    -0.00  -0.00  -0.01    -0.00   0.00  -0.00
    45   1    -0.00  -0.00   0.00    -0.00  -0.02  -0.03     0.00   0.01   0.01
    46   1     0.01   0.01   0.02     0.01  -0.00  -0.01    -0.01  -0.00  -0.00
    47   1    -0.00  -0.02  -0.01     0.02   0.02   0.02    -0.01  -0.00  -0.00
    48   1     0.00   0.01  -0.01    -0.00  -0.07   0.03    -0.00  -0.00   0.00
    49   1    -0.00  -0.01  -0.01    -0.01  -0.01   0.04    -0.00  -0.00   0.02
    50   1    -0.01  -0.01   0.02     0.03   0.01  -0.04     0.00  -0.00   0.00
    51   1    -0.00   0.00   0.01     0.03   0.01  -0.01     0.01   0.00  -0.01
    52   6    -0.01   0.13  -0.07    -0.01  -0.08  -0.14    -0.00   0.00  -0.00
    53   1    -0.54  -0.06   0.20    -0.39   0.23   0.25    -0.02   0.00   0.01
    54   1    -0.18  -0.17   0.20     0.75  -0.12  -0.04     0.01  -0.01   0.01
    55   1     0.66  -0.27  -0.06    -0.09   0.12   0.24     0.01  -0.00   0.00
                     79                     80                     81
                      A                      A                      A
 Frequencies --   1029.8212              1046.7371              1060.0037
 Red. masses --      1.4409                 1.2460                 1.2231
 Frc consts  --      0.9003                 0.8044                 0.8097
 IR Inten    --      0.0000                 0.0000                 0.0000
  Atom  AN      X      Y      Z        X      Y      Z        X      Y      Z
     1  26    -0.00   0.00   0.00     0.00   0.00  -0.00     0.00  -0.01   0.00
     2   6     0.00   0.00  -0.00     0.00  -0.01  -0.00     0.00  -0.00   0.00
     3  46     0.00  -0.00  -0.00     0.00   0.00  -0.00    -0.00   0.00   0.00
     4   6    -0.02   0.02   0.01     0.00   0.01   0.00     0.00   0.00  -0.00
     5   1    -0.07  -0.05   0.03     0.42   0.29  -0.17     0.02   0.07  -0.07
     6   1     0.05  -0.06   0.06    -0.15   0.15  -0.15     0.17  -0.47   0.31
     7   1    -0.17  -0.02  -0.01     0.40   0.04   0.07     0.32   0.14   0.02
     8   6    -0.00   0.00  -0.00    -0.00   0.00  -0.00     0.01  -0.00  -0.00
     9   8    -0.00  -0.00  -0.00    -0.00   0.00  -0.00     0.00   0.00   0.00
    10   6    -0.00  -0.01  -0.02    -0.00  -0.01   0.00    -0.00  -0.00   0.01
    11   8    -0.00   0.00  -0.00    -0.00  -0.00  -0.00    -0.00   0.00   0.00
    12   6     0.00  -0.00  -0.00    -0.01   0.00   0.00     0.00   0.00  -0.00
    13   6    -0.00   0.00  -0.00    -0.00  -0.00   0.00    -0.00  -0.00   0.00
    14   6     0.00   0.00   0.00     0.01  -0.01   0.00     0.00   0.00   0.00
    15   1    -0.02   0.03  -0.01    -0.01   0.02   0.00     0.01  -0.01   0.01
    16   1     0.02   0.00  -0.01     0.01   0.01   0.03    -0.05  -0.01  -0.01
    17   1    -0.00  -0.02   0.01     0.01   0.02  -0.03     0.01   0.03  -0.04
    18   1     0.00  -0.03   0.05    -0.00  -0.00   0.00     0.01   0.01  -0.01
    19   6     0.01  -0.00  -0.00    -0.01  -0.00   0.00    -0.00  -0.00   0.00
    20   6     0.00   0.00   0.00    -0.01   0.01   0.00    -0.01   0.01  -0.00
    21   8     0.00  -0.00   0.00     0.00   0.00   0.00    -0.00  -0.00  -0.00
    22   6     0.01   0.00   0.00    -0.02   0.02  -0.03    -0.06  -0.01  -0.03
    23   6     0.01   0.02  -0.01    -0.03  -0.07   0.04     0.04   0.01   0.01
    24   6    -0.00  -0.00   0.00     0.02   0.00  -0.00    -0.04   0.05  -0.02
    25   6     0.02  -0.00   0.00    -0.08  -0.01   0.01    -0.03  -0.03   0.03
    26   6    -0.01   0.00  -0.01     0.02  -0.03   0.04     0.01   0.04  -0.05
    27   1    -0.01  -0.05   0.04     0.14   0.42  -0.37    -0.15  -0.13   0.16
    28   7    -0.00   0.00   0.00     0.00   0.00   0.00    -0.00  -0.01  -0.00
    29   1     0.00  -0.00  -0.01    -0.00  -0.00   0.03    -0.01   0.01  -0.01
    30   1    -0.08  -0.06   0.02    -0.01  -0.01   0.01     0.01   0.01  -0.01
    31   1     0.05   0.00  -0.03     0.03  -0.00  -0.02    -0.03   0.01   0.02
    32   1    -0.01   0.02  -0.03     0.09  -0.11   0.11     0.54  -0.23   0.23
    33   7    -0.04   0.01   0.06    -0.01   0.02   0.01    -0.00   0.01   0.01
    34   6     0.02  -0.08   0.09     0.01  -0.02   0.01     0.01  -0.00   0.00
    35   6     0.01   0.07  -0.11    -0.01   0.00  -0.02    -0.01  -0.01  -0.01
    36   1     0.08  -0.17  -0.25    -0.01  -0.00  -0.03    -0.04   0.05   0.01
    37   1    -0.19   0.53   0.03    -0.03   0.05  -0.00    -0.02  -0.02  -0.01
    38   1     0.19  -0.30  -0.23     0.04  -0.09  -0.05     0.01  -0.07  -0.02
    39   1     0.16  -0.07  -0.18     0.05  -0.04   0.02     0.01  -0.02   0.07
    40   1     0.18  -0.06  -0.30     0.07   0.01  -0.10     0.04   0.04  -0.05
    41   1    -0.09  -0.12   0.30     0.00  -0.01   0.06     0.04   0.02  -0.00
    42   6    -0.00   0.00   0.00     0.01  -0.01  -0.01     0.01  -0.00   0.01
    43   6    -0.00   0.00  -0.00     0.01  -0.01   0.01    -0.01   0.00  -0.01
    44   6     0.00  -0.00  -0.00    -0.03   0.01   0.00     0.01  -0.00  -0.00
    45   1    -0.00  -0.01  -0.01     0.01   0.07   0.06    -0.00  -0.04  -0.03
    46   1     0.01   0.00   0.01    -0.03  -0.04  -0.05     0.02   0.02   0.03
    47   1     0.00  -0.00   0.00    -0.02   0.02   0.01     0.01  -0.02  -0.01
    48   1    -0.00  -0.00   0.00     0.01  -0.03  -0.03     0.00  -0.05   0.04
    49   1     0.00   0.00  -0.01    -0.03  -0.04   0.12     0.01   0.01  -0.04
    50   1    -0.00   0.00  -0.00     0.04  -0.02   0.00    -0.01   0.00   0.00
    51   1    -0.01  -0.00   0.01     0.06   0.01  -0.07    -0.01  -0.00   0.01
    52   6     0.00  -0.00   0.00     0.00  -0.00   0.00    -0.00   0.00   0.00
    53   1     0.01   0.00  -0.00     0.01   0.00  -0.00     0.00  -0.00  -0.00
    54   1     0.01   0.00  -0.01     0.00   0.00  -0.00    -0.02   0.00   0.00
    55   1    -0.01   0.01   0.00    -0.00   0.00   0.00     0.00  -0.00  -0.00
                     82                     83                     84
                      A                      A                      A
 Frequencies --   1068.6502              1076.6097              1082.1575
 Red. masses --      1.1367                 1.2003                 1.1182
 Frc consts  --      0.7649                 0.8197                 0.7715
 IR Inten    --      0.0000                 0.0000                 0.0000
  Atom  AN      X      Y      Z        X      Y      Z        X      Y      Z
     1  26    -0.00   0.00  -0.00    -0.00   0.00  -0.00     0.00   0.00  -0.00
     2   6     0.00  -0.01  -0.00    -0.00   0.01  -0.00    -0.00   0.01  -0.00
     3  46    -0.00  -0.00  -0.00    -0.00   0.00  -0.00    -0.00  -0.00  -0.00
     4   6     0.01   0.00  -0.01     0.00   0.01   0.00     0.01  -0.01  -0.00
     5   1    -0.04  -0.08   0.01    -0.08  -0.08  -0.01     0.44   0.30  -0.22
     6   1     0.07  -0.13   0.11    -0.08   0.22  -0.13     0.10  -0.18   0.17
     7   1    -0.39  -0.07  -0.05     0.29   0.03   0.02     0.15  -0.00   0.03
     8   6    -0.00  -0.00   0.00    -0.00  -0.00   0.00    -0.00   0.00   0.00
     9   8    -0.00  -0.00  -0.00     0.00  -0.00   0.00     0.00  -0.00   0.00
    10   6     0.00  -0.01   0.01    -0.01  -0.01   0.00     0.01  -0.00   0.00
    11   8    -0.00   0.00   0.00    -0.00   0.00   0.00    -0.00  -0.00  -0.00
    12   6    -0.02  -0.00  -0.00    -0.02   0.01  -0.00    -0.01  -0.01   0.00
    13   6    -0.01  -0.02   0.03    -0.00  -0.02   0.02    -0.02   0.00   0.00
    14   6     0.04   0.02  -0.00     0.04   0.01  -0.00     0.01   0.01  -0.00
    15   1    -0.11   0.16  -0.08    -0.17   0.24  -0.13     0.03  -0.09   0.01
    16   1    -0.40  -0.07   0.06    -0.22  -0.04   0.04    -0.17   0.00   0.08
    17   1     0.13   0.50  -0.26     0.11   0.38  -0.19     0.04   0.19  -0.12
    18   1    -0.00  -0.02   0.01    -0.01  -0.02  -0.01    -0.00  -0.01   0.01
    19   6     0.02  -0.04   0.02     0.02  -0.04   0.02     0.01  -0.01   0.01
    20   6    -0.01   0.00   0.00     0.01  -0.01  -0.00     0.01  -0.02   0.00
    21   8     0.01   0.00   0.00    -0.00  -0.00   0.00    -0.00  -0.00   0.00
    22   6    -0.00   0.01  -0.01     0.01  -0.02   0.02    -0.03  -0.01   0.01
    23   6     0.02   0.00   0.00    -0.02  -0.01   0.00    -0.03   0.00  -0.02
    24   6     0.01  -0.01   0.02    -0.01   0.01  -0.01     0.01   0.03  -0.02
    25   6     0.01  -0.01   0.01     0.01   0.02  -0.02     0.01  -0.00   0.01
    26   6    -0.02   0.01  -0.01     0.02  -0.00   0.01     0.01  -0.02   0.02
    27   1     0.10   0.26  -0.22    -0.07  -0.22   0.19    -0.12  -0.20   0.20
    28   7     0.00   0.00   0.00     0.00   0.00  -0.00     0.00   0.00   0.00
    29   1    -0.01  -0.01   0.03     0.01   0.01  -0.02     0.01   0.02  -0.05
    30   1     0.01   0.04  -0.07    -0.02  -0.00  -0.01     0.01   0.04  -0.07
    31   1    -0.00   0.01  -0.00     0.04   0.00  -0.03    -0.00  -0.03   0.05
    32   1     0.17  -0.07   0.08    -0.16   0.07  -0.05    -0.38   0.17  -0.18
    33   7     0.01  -0.01  -0.00    -0.02   0.02   0.02     0.00   0.00  -0.00
    34   6    -0.02   0.00  -0.00     0.06   0.01   0.01    -0.03  -0.02  -0.01
    35   6     0.02   0.01   0.01    -0.04  -0.04  -0.03     0.02   0.02   0.01
    36   1     0.06  -0.07  -0.01    -0.16   0.20   0.05     0.12  -0.15  -0.04
    37   1     0.03   0.03   0.01    -0.07  -0.11  -0.03     0.05   0.07   0.02
    38   1    -0.02   0.11   0.03     0.03  -0.28  -0.06    -0.01   0.17   0.03
    39   1    -0.01   0.03  -0.09    -0.04  -0.01   0.27     0.05  -0.01  -0.16
    40   1    -0.06  -0.04   0.08     0.15   0.10  -0.19    -0.07  -0.05   0.08
    41   1    -0.04  -0.02  -0.01     0.12   0.08  -0.05    -0.06  -0.05   0.04
    42   6     0.01  -0.01  -0.01    -0.01   0.00   0.00    -0.02   0.01   0.01
    43   6     0.01   0.00   0.01     0.00   0.00  -0.00    -0.00  -0.00  -0.01
    44   6    -0.02   0.01   0.00     0.01  -0.00  -0.00     0.02  -0.00  -0.01
    45   1     0.01   0.05   0.04     0.00   0.01   0.01    -0.00  -0.01  -0.01
    46   1    -0.02  -0.02  -0.03    -0.01  -0.00   0.01    -0.01   0.00   0.01
    47   1    -0.01   0.02   0.01    -0.01  -0.00  -0.01    -0.01  -0.02  -0.02
    48   1     0.01  -0.04  -0.04    -0.01   0.04   0.01    -0.02   0.08   0.04
    49   1    -0.02  -0.02   0.08     0.01   0.02  -0.04     0.02   0.03  -0.09
    50   1     0.02  -0.01   0.01    -0.02   0.01  -0.00    -0.03   0.01  -0.01
    51   1     0.04   0.01  -0.04    -0.03  -0.00   0.03    -0.04  -0.01   0.04
    52   6     0.00   0.00   0.00     0.00   0.00  -0.00     0.00  -0.00  -0.00
    53   1     0.00  -0.00  -0.00    -0.01  -0.00   0.00    -0.00   0.00   0.00
    54   1    -0.01  -0.00   0.00    -0.00  -0.00   0.00     0.01  -0.00  -0.00
    55   1     0.01  -0.00  -0.00     0.01  -0.00  -0.00     0.00   0.00   0.00
                     85                     86                     87
                      A                      A                      A
 Frequencies --   1089.7000              1105.4099              1119.1748
 Red. masses --      1.1573                 1.3684                 1.9389
 Frc consts  --      0.8097                 0.9852                 1.4309
 IR Inten    --      0.0000                 0.0000                 0.0000
  Atom  AN      X      Y      Z        X      Y      Z        X      Y      Z
     1  26     0.00  -0.00  -0.00    -0.00  -0.00  -0.00     0.00   0.00  -0.00
     2   6     0.00   0.00   0.00     0.00  -0.01  -0.00     0.01  -0.04   0.00
     3  46     0.00   0.00   0.00     0.00  -0.00   0.00     0.00   0.00   0.00
     4   6     0.01  -0.01  -0.02     0.02   0.03  -0.03     0.00  -0.00  -0.01
     5   1    -0.25  -0.16   0.08     0.15   0.14  -0.02     0.00  -0.01  -0.00
     6   1    -0.15   0.29  -0.23     0.08  -0.15   0.12    -0.02   0.07  -0.05
     7   1     0.42   0.12   0.07    -0.12  -0.03  -0.01     0.02  -0.01  -0.01
     8   6    -0.00  -0.00  -0.00     0.01  -0.01  -0.01     0.05  -0.03  -0.04
     9   8     0.00   0.00   0.00     0.00   0.00   0.00    -0.00   0.01   0.00
    10   6    -0.00  -0.00   0.01    -0.03  -0.03   0.03     0.04  -0.01   0.02
    11   8     0.00  -0.00  -0.00     0.01  -0.00  -0.00    -0.00   0.01   0.01
    12   6    -0.01   0.01  -0.00    -0.05   0.03  -0.00    -0.03  -0.01   0.01
    13   6     0.01  -0.01   0.01     0.05  -0.03   0.02    -0.02  -0.01   0.01
    14   6     0.02  -0.01   0.00     0.06  -0.04   0.02    -0.02  -0.00  -0.00
    15   1    -0.10   0.15  -0.07    -0.34   0.53  -0.23     0.10  -0.26   0.06
    16   1     0.02  -0.02  -0.02     0.55   0.00  -0.06     0.10   0.00  -0.01
    17   1     0.04   0.09  -0.03     0.05  -0.08  -0.05     0.03   0.25  -0.10
    18   1    -0.00   0.00   0.02     0.02   0.07   0.02     0.15   0.14   0.08
    19   6    -0.02  -0.01   0.01    -0.09  -0.00  -0.00    -0.00   0.04  -0.02
    20   6     0.00   0.00  -0.00     0.00   0.03   0.00     0.00   0.17  -0.00
    21   8    -0.00  -0.00  -0.00    -0.00   0.00   0.00    -0.00   0.01   0.00
    22   6     0.01  -0.01   0.00    -0.02   0.00  -0.00     0.01  -0.00   0.01
    23   6    -0.00  -0.01   0.02    -0.00   0.01  -0.01    -0.01   0.00  -0.00
    24   6    -0.03   0.00  -0.01     0.01  -0.00   0.00    -0.00  -0.00   0.00
    25   6    -0.02   0.01  -0.02     0.01  -0.00   0.01     0.01   0.01  -0.00
    26   6     0.03   0.02  -0.00    -0.01  -0.00   0.00     0.00  -0.00   0.00
    27   1    -0.05  -0.16   0.13    -0.04  -0.01   0.03    -0.02  -0.10   0.05
    28   7    -0.00  -0.00  -0.00    -0.01  -0.01  -0.01    -0.07  -0.06  -0.03
    29   1     0.00   0.00  -0.00     0.00  -0.00   0.05    -0.02  -0.18   0.26
    30   1     0.05   0.04  -0.01     0.04   0.02   0.01    -0.03   0.14  -0.22
    31   1    -0.00   0.01  -0.02    -0.01   0.11  -0.18     0.01  -0.08   0.15
    32   1     0.17  -0.08   0.11    -0.10   0.04  -0.07    -0.11   0.06  -0.03
    33   7     0.01   0.00  -0.01     0.02  -0.02  -0.02    -0.03   0.03   0.05
    34   6    -0.06  -0.03  -0.00    -0.00   0.02   0.01     0.00  -0.04  -0.02
    35   6     0.02   0.03   0.03     0.00   0.00   0.02     0.02  -0.02  -0.03
    36   1     0.20  -0.25  -0.08    -0.02   0.03   0.01     0.04  -0.05   0.00
    37   1     0.07   0.16   0.04    -0.02   0.01   0.00     0.04  -0.03  -0.00
    38   1    -0.01   0.28   0.04     0.01  -0.02  -0.01    -0.00   0.03   0.02
    39   1     0.11  -0.05  -0.29    -0.01   0.01  -0.02    -0.03   0.02   0.03
    40   1    -0.11  -0.09   0.15    -0.03  -0.02   0.04     0.01   0.03  -0.01
    41   1    -0.11  -0.08   0.10    -0.02  -0.01   0.02     0.05   0.04  -0.12
    42   6    -0.00  -0.00   0.00     0.01  -0.02  -0.00     0.11  -0.04   0.02
    43   6    -0.00   0.00  -0.00     0.00   0.01   0.00    -0.06   0.01   0.00
    44   6     0.00  -0.00  -0.00    -0.00   0.00  -0.00    -0.05   0.01  -0.01
    45   1     0.00  -0.00  -0.00     0.00  -0.01   0.00    -0.03  -0.25  -0.20
    46   1     0.00   0.00   0.01     0.01   0.01   0.01     0.15   0.10   0.08
    47   1    -0.00  -0.00  -0.00     0.01  -0.00   0.00     0.13   0.00   0.06
    48   1    -0.00  -0.01   0.02     0.00  -0.11   0.01     0.07  -0.35   0.13
    49   1     0.00   0.01  -0.01    -0.01  -0.01   0.05    -0.05  -0.09   0.25
    50   1    -0.00   0.00  -0.00     0.01  -0.01   0.01     0.12  -0.02  -0.05
    51   1    -0.00  -0.00   0.01     0.02   0.01  -0.02     0.12   0.03  -0.08
    52   6     0.00   0.00  -0.00    -0.01   0.00   0.00    -0.03   0.01   0.02
    53   1    -0.00  -0.00   0.00    -0.00  -0.00  -0.00    -0.00  -0.01  -0.01
    54   1    -0.00  -0.00   0.00    -0.03   0.00   0.00    -0.11   0.01   0.01
    55   1     0.00  -0.00  -0.00     0.00  -0.00  -0.00    -0.03   0.00  -0.00
                     88                     89                     90
                      A                      A                      A
 Frequencies --   1123.5378              1143.8767              1148.7308
 Red. masses --      1.6469                 1.4949                 2.4662
 Frc consts  --      1.2249                 1.1525                 1.9174
 IR Inten    --      0.0000                 0.0000                 0.0000
  Atom  AN      X      Y      Z        X      Y      Z        X      Y      Z
     1  26     0.00  -0.00  -0.00    -0.00  -0.00   0.00    -0.00   0.00   0.00
     2   6    -0.01   0.02  -0.00     0.00  -0.00  -0.00    -0.01   0.04  -0.02
     3  46     0.00  -0.00   0.00    -0.00  -0.00  -0.00     0.00   0.00  -0.00
     4   6     0.01   0.01  -0.03     0.01  -0.02  -0.05    -0.00  -0.01   0.00
     5   1    -0.07  -0.04   0.06    -0.01  -0.01   0.02     0.05   0.02  -0.01
     6   1    -0.00   0.02  -0.02     0.04  -0.07   0.03    -0.03   0.07  -0.06
     7   1    -0.07  -0.01  -0.02     0.01  -0.01  -0.02    -0.13  -0.03  -0.02
     8   6    -0.02   0.01   0.01    -0.01   0.00   0.00     0.07  -0.04  -0.05
     9   8     0.00  -0.00  -0.00     0.00   0.00   0.00     0.01  -0.00  -0.00
    10   6     0.04  -0.04   0.05    -0.01   0.05   0.03    -0.00   0.02  -0.01
    11   8     0.01  -0.01  -0.01     0.01  -0.00   0.00    -0.01   0.01   0.02
    12   6    -0.07   0.01   0.02     0.06   0.00  -0.02     0.02  -0.01   0.00
    13   6    -0.01  -0.03   0.02     0.02   0.01  -0.01     0.00   0.00  -0.00
    14   6    -0.02  -0.04   0.01     0.01   0.03  -0.02     0.01   0.02  -0.01
    15   1     0.08  -0.27   0.10    -0.12   0.32  -0.10    -0.05   0.10  -0.07
    16   1     0.50   0.00  -0.08    -0.22  -0.01   0.02    -0.15  -0.01   0.02
    17   1     0.06   0.36  -0.17    -0.07  -0.36   0.18    -0.02  -0.11   0.05
    18   1    -0.03   0.02   0.00    -0.05  -0.00  -0.03     0.23   0.18   0.08
    19   6    -0.05   0.09  -0.04    -0.05  -0.06   0.03     0.00  -0.03   0.00
    20   6     0.02  -0.07   0.02    -0.00  -0.01  -0.00     0.12   0.04   0.10
    21   8    -0.00  -0.01   0.00    -0.00  -0.00   0.00    -0.03  -0.02   0.01
    22   6    -0.00   0.00  -0.01    -0.01  -0.01   0.00     0.00   0.02  -0.01
    23   6     0.00  -0.00   0.01     0.00  -0.00   0.00    -0.01  -0.01   0.01
    24   6     0.00  -0.01   0.01     0.01   0.00   0.00     0.00  -0.01   0.01
    25   6     0.00   0.00  -0.00     0.01   0.01  -0.00    -0.00  -0.00   0.00
    26   6    -0.00   0.01  -0.01    -0.01   0.00  -0.00     0.01   0.00   0.00
    27   1     0.02   0.08  -0.06     0.00   0.05  -0.02     0.05   0.05  -0.14
    28   7     0.01   0.02   0.01     0.01   0.00   0.00    -0.14  -0.07  -0.06
    29   1     0.03   0.14  -0.15     0.00  -0.00   0.03     0.13   0.53  -0.24
    30   1    -0.03   0.21  -0.33     0.02   0.21  -0.29     0.00  -0.02   0.03
    31   1     0.01  -0.06   0.13    -0.03  -0.20   0.41    -0.00  -0.02   0.04
    32   1     0.09  -0.05   0.04    -0.06   0.02  -0.03     0.08  -0.05   0.06
    33   7    -0.03   0.04   0.07    -0.01   0.07   0.08     0.00   0.00  -0.00
    34   6     0.01  -0.04  -0.02    -0.03  -0.06  -0.02    -0.00  -0.00  -0.00
    35   6     0.03  -0.02  -0.04     0.01  -0.05  -0.05    -0.00  -0.00  -0.00
    36   1     0.04  -0.06  -0.00     0.15  -0.19  -0.04     0.01  -0.01   0.01
    37   1     0.04  -0.02  -0.00     0.09   0.06   0.02     0.01   0.00  -0.00
    38   1     0.00   0.02   0.01    -0.01   0.18   0.04    -0.01   0.02   0.01
    39   1    -0.05   0.03   0.05    -0.08   0.04   0.20    -0.01   0.01   0.03
    40   1     0.01   0.04  -0.01     0.07   0.10  -0.09     0.01   0.01  -0.01
    41   1     0.07   0.05  -0.17     0.14   0.10  -0.20     0.01   0.01  -0.00
    42   6    -0.06   0.02   0.01    -0.01  -0.01  -0.03    -0.06   0.00   0.18
    43   6     0.03  -0.01  -0.01     0.01   0.00   0.02     0.01  -0.02  -0.09
    44   6     0.03  -0.00   0.00    -0.00   0.00   0.01     0.07   0.02  -0.07
    45   1     0.01   0.12   0.10     0.01   0.05   0.03    -0.00  -0.01   0.14
    46   1    -0.08  -0.06  -0.04    -0.01  -0.01  -0.02    -0.06   0.01   0.12
    47   1    -0.07  -0.02  -0.04    -0.00   0.03   0.02    -0.14  -0.27  -0.19
    48   1    -0.04   0.20  -0.04    -0.00  -0.02  -0.06    -0.05   0.01   0.24
    49   1     0.03   0.05  -0.15    -0.00  -0.00   0.01     0.07   0.06  -0.21
    50   1    -0.06   0.02   0.01    -0.02  -0.01   0.03    -0.00   0.02  -0.04
    51   1    -0.06  -0.02   0.04    -0.01  -0.00   0.00     0.02   0.01  -0.07
    52   6     0.01  -0.01  -0.01     0.00   0.00  -0.00    -0.03   0.01   0.02
    53   1     0.00   0.01   0.00     0.00  -0.00  -0.00    -0.02   0.00   0.00
    54   1     0.05  -0.00  -0.01     0.00  -0.00   0.00    -0.11   0.02  -0.00
    55   1    -0.00   0.00   0.01     0.01  -0.00  -0.00    -0.03   0.00  -0.01
                     91                     92                     93
                      A                      A                      A
 Frequencies --   1164.6288              1172.2342              1184.2038
 Red. masses --      2.5625                 1.9937                 1.9930
 Frc consts  --      2.0478                 1.6142                 1.6467
 IR Inten    --      0.0000                 0.0000                 0.0000
  Atom  AN      X      Y      Z        X      Y      Z        X      Y      Z
     1  26    -0.00   0.00  -0.00    -0.00   0.00  -0.00     0.00  -0.00  -0.00
     2   6    -0.02   0.00   0.02    -0.00   0.00   0.00     0.00   0.02  -0.02
     3  46    -0.00  -0.00   0.00    -0.00  -0.00   0.00    -0.00  -0.00   0.00
     4   6     0.01   0.00  -0.01    -0.06   0.03  -0.03     0.00  -0.00  -0.00
     5   1     0.08   0.05  -0.02    -0.02  -0.02   0.02    -0.02  -0.01   0.01
     6   1    -0.04   0.09  -0.07     0.02  -0.02   0.04     0.01  -0.03   0.02
     7   1    -0.14  -0.03  -0.02    -0.02  -0.01  -0.02     0.01  -0.00   0.00
     8   6    -0.04   0.02   0.03     0.01   0.00   0.00     0.02  -0.01  -0.01
     9   8    -0.01  -0.01  -0.01    -0.00  -0.00  -0.00     0.01   0.00   0.01
    10   6    -0.01   0.00   0.01    -0.01  -0.01   0.01    -0.00   0.00   0.00
    11   8     0.00  -0.01  -0.02    -0.01  -0.00  -0.01    -0.00  -0.00  -0.00
    12   6     0.00   0.02  -0.01    -0.03  -0.01   0.01     0.00   0.00  -0.00
    13   6     0.00   0.00   0.00    -0.01  -0.01   0.01     0.00  -0.00   0.00
    14   6     0.00  -0.00  -0.00     0.02  -0.02   0.01     0.01   0.01  -0.00
    15   1    -0.04   0.07  -0.07     0.03  -0.12   0.03    -0.06   0.10  -0.06
    16   1     0.02   0.00  -0.00     0.10  -0.00  -0.01    -0.01  -0.00   0.00
    17   1    -0.00  -0.02   0.01     0.04   0.11  -0.07    -0.00  -0.04   0.02
    18   1    -0.20  -0.14  -0.08     0.03  -0.01   0.05     0.10   0.10   0.05
    19   6    -0.02  -0.01   0.02     0.04   0.03  -0.02    -0.01  -0.01   0.00
    20   6    -0.14  -0.03  -0.07    -0.01  -0.00  -0.00     0.06  -0.04   0.04
    21   8     0.03   0.01  -0.01     0.00   0.00  -0.00    -0.02  -0.01   0.00
    22   6     0.00   0.02  -0.01    -0.00  -0.00   0.00    -0.00   0.00  -0.00
    23   6    -0.02  -0.01   0.00     0.00  -0.00   0.00     0.01  -0.00   0.00
    24   6    -0.00  -0.02   0.01     0.01  -0.00   0.00     0.00   0.00  -0.00
    25   6     0.01  -0.01   0.01     0.01   0.00  -0.00    -0.01  -0.00  -0.00
    26   6     0.02   0.00   0.00    -0.01   0.00  -0.00    -0.00  -0.00   0.00
    27   1     0.02  -0.03  -0.07     0.01   0.04  -0.04     0.02   0.08  -0.04
    28   7     0.14   0.05   0.05     0.01   0.00   0.01    -0.02  -0.01  -0.01
    29   1    -0.19  -0.21  -0.44    -0.01  -0.03  -0.03     0.02  -0.18  -0.05
    30   1     0.01   0.05  -0.07    -0.03  -0.11   0.17     0.01   0.01  -0.01
    31   1     0.00  -0.02   0.04     0.02  -0.05   0.06    -0.01   0.00  -0.00
    32   1     0.07  -0.03   0.06    -0.04   0.01  -0.01     0.04  -0.02   0.01
    33   7    -0.02   0.01   0.02     0.19   0.01  -0.08    -0.01   0.00   0.01
    34   6     0.00  -0.01  -0.01    -0.09   0.00   0.04     0.00  -0.00  -0.00
    35   6     0.01  -0.00  -0.01    -0.13  -0.06   0.03     0.01   0.00  -0.00
    36   1     0.00  -0.00   0.00     0.20  -0.24  -0.11    -0.01   0.02   0.01
    37   1     0.01  -0.02  -0.00     0.03   0.33   0.07     0.00  -0.02  -0.00
    38   1    -0.00  -0.01   0.00     0.03   0.30  -0.01    -0.00  -0.01   0.00
    39   1    -0.01   0.02  -0.01    -0.07  -0.02   0.51     0.00   0.00  -0.03
    40   1    -0.01  -0.00   0.01     0.24   0.16  -0.30    -0.01  -0.01   0.02
    41   1     0.00   0.00  -0.04     0.16   0.10   0.12    -0.01  -0.00  -0.01
    42   6     0.06  -0.00   0.22     0.01   0.01   0.02     0.07   0.21   0.02
    43   6    -0.07   0.00  -0.10    -0.01  -0.01  -0.01    -0.08  -0.10  -0.00
    44   6     0.01   0.01  -0.09    -0.00  -0.00  -0.01    -0.04  -0.09  -0.02
    45   1    -0.05  -0.29  -0.10    -0.01  -0.04  -0.03    -0.06  -0.12  -0.30
    46   1     0.10   0.13   0.21     0.01   0.00  -0.00     0.00  -0.13  -0.27
    47   1     0.00  -0.26  -0.13     0.01  -0.01  -0.00     0.11   0.20   0.13
    48   1     0.05  -0.03   0.33     0.01   0.03   0.03     0.07   0.48   0.06
    49   1     0.01   0.01   0.05    -0.00   0.00   0.02    -0.05   0.13   0.21
    50   1     0.13   0.04  -0.15     0.02   0.01  -0.03     0.17   0.16  -0.32
    51   1     0.11   0.04  -0.07     0.01   0.01   0.01    -0.04   0.04   0.30
    52   6     0.02  -0.00  -0.00    -0.00   0.00  -0.00    -0.01   0.00   0.00
    53   1     0.01  -0.01  -0.00    -0.00   0.00   0.00    -0.01  -0.00   0.00
    54   1     0.05  -0.00   0.00     0.00  -0.00   0.00    -0.01   0.00   0.01
    55   1     0.03  -0.01  -0.01    -0.00   0.00   0.00    -0.01   0.00   0.00
                     94                     95                     96
                      A                      A                      A
 Frequencies --   1196.0300              1219.6494              1233.5994
 Red. masses --      1.2811                 1.5415                 4.3855
 Frc consts  --      1.0798                 1.3511                 3.9321
 IR Inten    --      0.0000                 0.0000                 0.0000
  Atom  AN      X      Y      Z        X      Y      Z        X      Y      Z
     1  26     0.00  -0.00  -0.00    -0.00   0.00   0.00     0.00  -0.02  -0.02
     2   6    -0.00   0.00   0.00    -0.01  -0.03   0.02     0.00   0.00  -0.00
     3  46     0.00   0.00   0.00     0.00   0.00  -0.00    -0.00  -0.00  -0.00
     4   6     0.00  -0.00   0.01     0.00  -0.00   0.00    -0.01   0.02  -0.03
     5   1    -0.34  -0.24   0.14    -0.04  -0.04   0.04    -0.11   0.09  -0.20
     6   1     0.14  -0.31   0.25     0.03  -0.03   0.03    -0.20  -0.15  -0.03
     7   1     0.43   0.10   0.05     0.05   0.03  -0.00    -0.06  -0.27   0.10
     8   6     0.00  -0.00  -0.00    -0.03   0.01   0.01    -0.03  -0.00   0.00
     9   8    -0.00  -0.00  -0.00    -0.00   0.00   0.00     0.01   0.00   0.01
    10   6     0.00  -0.00  -0.00    -0.00  -0.00  -0.00     0.01  -0.03   0.03
    11   8    -0.00  -0.00  -0.00     0.01   0.01   0.01     0.01   0.03   0.03
    12   6    -0.00  -0.00   0.00    -0.00   0.01  -0.00     0.04   0.06  -0.03
    13   6     0.00  -0.00   0.00     0.00  -0.00   0.00    -0.01   0.03  -0.01
    14   6    -0.00  -0.00   0.00    -0.00  -0.00  -0.00    -0.05  -0.02   0.01
    15   1    -0.00  -0.01   0.00    -0.00   0.00  -0.01     0.07   0.03   0.03
    16   1     0.02  -0.00  -0.01     0.01  -0.00  -0.01     0.12   0.06   0.01
    17   1     0.00   0.03  -0.01    -0.00  -0.00  -0.00    -0.01   0.14  -0.01
    18   1     0.00   0.00   0.00    -0.05  -0.05  -0.02    -0.16  -0.18  -0.15
    19   6     0.00   0.00  -0.00    -0.00  -0.00   0.00    -0.02  -0.07   0.04
    20   6    -0.01   0.00   0.01     0.02   0.01  -0.13     0.00  -0.02  -0.03
    21   8     0.00   0.00   0.00     0.03   0.02  -0.01    -0.00   0.00  -0.00
    22   6    -0.01  -0.05   0.04    -0.02  -0.00  -0.00     0.22  -0.00   0.08
    23   6     0.06  -0.02   0.03     0.00  -0.02   0.02     0.12   0.18  -0.09
    24   6     0.04   0.04  -0.02     0.02  -0.01   0.01    -0.15   0.14  -0.10
    25   6    -0.03   0.05  -0.05     0.01   0.01  -0.01    -0.21  -0.07   0.05
    26   6    -0.06  -0.01  -0.01    -0.01   0.01  -0.01    -0.00  -0.17   0.17
    27   1     0.13   0.28  -0.26     0.03   0.08  -0.10     0.28  -0.05  -0.02
    28   7     0.01   0.00   0.00    -0.02  -0.01   0.01    -0.02  -0.02  -0.02
    29   1    -0.01   0.08  -0.15     0.08  -0.25   0.85     0.08   0.26   0.25
    30   1     0.00  -0.01   0.00     0.00  -0.00   0.00     0.01   0.07  -0.08
    31   1    -0.02   0.03  -0.03    -0.00   0.01  -0.01    -0.03   0.06  -0.07
    32   1    -0.36   0.15  -0.18    -0.05   0.00  -0.00     0.17   0.11  -0.16
    33   7    -0.01  -0.00  -0.00    -0.00   0.00  -0.00     0.04  -0.01   0.04
    34   6     0.00   0.00   0.00     0.00  -0.00   0.00    -0.01   0.01  -0.02
    35   6     0.00   0.00   0.00     0.00  -0.00   0.00    -0.01   0.01  -0.02
    36   1    -0.01   0.01   0.00     0.00  -0.00  -0.01     0.03  -0.02   0.02
    37   1    -0.01  -0.01  -0.00    -0.00   0.01   0.00     0.05  -0.05   0.00
    38   1     0.00  -0.02  -0.00     0.00  -0.00  -0.00    -0.03   0.07   0.03
    39   1     0.04  -0.03  -0.06     0.00  -0.00  -0.01     0.01  -0.00   0.06
    40   1    -0.03  -0.00   0.03    -0.01   0.00   0.01     0.06  -0.01  -0.09
    41   1    -0.00  -0.00   0.01     0.00   0.00  -0.01     0.00  -0.00   0.05
    42   6     0.02  -0.02   0.03    -0.08   0.04   0.09     0.01  -0.01   0.03
    43   6    -0.01   0.01  -0.02     0.01  -0.01  -0.03    -0.01   0.00  -0.01
    44   6    -0.01   0.01  -0.01     0.05  -0.02  -0.03    -0.01   0.00  -0.01
    45   1    -0.00  -0.04   0.02     0.00   0.03   0.06    -0.01  -0.04  -0.00
    46   1     0.01   0.02   0.04    -0.07  -0.03   0.01     0.02   0.03   0.04
    47   1     0.00  -0.05  -0.02    -0.08  -0.08  -0.08     0.01  -0.03  -0.01
    48   1     0.02  -0.00  -0.03    -0.07   0.07   0.14     0.03   0.10  -0.00
    49   1    -0.01  -0.02   0.04     0.05   0.08  -0.17    -0.01  -0.01   0.02
    50   1     0.03  -0.01  -0.01    -0.02   0.06  -0.07     0.03   0.00  -0.02
    51   1     0.04   0.01  -0.05    -0.09  -0.01   0.10     0.03   0.01  -0.02
    52   6    -0.00   0.00   0.00     0.02  -0.00  -0.01     0.01   0.00   0.00
    53   1    -0.00   0.00   0.00     0.02  -0.00  -0.01     0.02  -0.01  -0.01
    54   1    -0.00   0.00  -0.00    -0.00  -0.02   0.01    -0.03  -0.00  -0.00
    55   1    -0.00  -0.00  -0.00     0.02  -0.00   0.01     0.02  -0.01  -0.01
                     97                     98                     99
                      A                      A                      A
 Frequencies --   1241.2744              1243.2157              1249.1035
 Red. masses --      1.4955                 2.5017                 1.5460
 Frc consts  --      1.3576                 2.2782                 1.4212
 IR Inten    --      0.0000                 0.0000                 0.0000
  Atom  AN      X      Y      Z        X      Y      Z        X      Y      Z
     1  26    -0.00   0.00   0.01    -0.00   0.00   0.00     0.00  -0.00  -0.01
     2   6     0.01   0.01  -0.01     0.00   0.00  -0.00    -0.00  -0.00   0.00
     3  46    -0.00  -0.00  -0.00     0.00   0.00  -0.00     0.00   0.00   0.00
     4   6    -0.00   0.00  -0.00    -0.08   0.03  -0.07     0.01   0.07  -0.02
     5   1     0.04  -0.01   0.03    -0.00  -0.02   0.02    -0.02   0.00  -0.00
     6   1     0.04   0.04  -0.00     0.02   0.02  -0.01    -0.02   0.00  -0.01
     7   1    -0.01   0.05  -0.02     0.04   0.05   0.01     0.03   0.01   0.02
     8   6    -0.05  -0.00   0.00     0.00  -0.00  -0.00    -0.01   0.00   0.00
     9   8     0.01   0.00   0.02     0.00   0.00   0.00    -0.00  -0.00   0.00
    10   6     0.00  -0.01   0.00     0.02   0.00   0.00     0.01   0.04   0.02
    11   8     0.02   0.04   0.04    -0.00  -0.00  -0.00     0.00  -0.00  -0.00
    12   6     0.01   0.03  -0.02     0.01   0.00  -0.00    -0.03  -0.03   0.02
    13   6    -0.00   0.01  -0.01    -0.00  -0.01   0.00     0.00  -0.03   0.02
    14   6    -0.02  -0.01   0.00    -0.01   0.01  -0.01     0.04   0.01  -0.00
    15   1     0.04  -0.02   0.00     0.01  -0.00   0.00    -0.05   0.01  -0.01
    16   1     0.07   0.02  -0.02    -0.01  -0.01  -0.00    -0.03  -0.04   0.01
    17   1    -0.01   0.04  -0.02    -0.01  -0.01   0.01     0.03  -0.06   0.02
    18   1    -0.24  -0.31  -0.24     0.00   0.02  -0.00     0.01   0.04   0.02
    19   6     0.00  -0.02   0.02    -0.02   0.00   0.00    -0.02   0.04  -0.02
    20   6    -0.01  -0.07  -0.03     0.00   0.01   0.00    -0.00  -0.02  -0.01
    21   8    -0.01  -0.01   0.00    -0.00  -0.00   0.00     0.00   0.00  -0.00
    22   6    -0.04   0.00  -0.02    -0.02   0.00  -0.01     0.01   0.00   0.00
    23   6    -0.02  -0.03   0.01    -0.01  -0.02   0.01     0.01   0.01  -0.00
    24   6     0.03  -0.03   0.02     0.01  -0.01   0.01    -0.01   0.01  -0.01
    25   6     0.05   0.01  -0.01     0.02   0.01  -0.01    -0.02  -0.00   0.00
    26   6     0.00   0.03  -0.03    -0.00   0.02  -0.02     0.00  -0.01   0.01
    27   1    -0.07   0.00   0.04    -0.02   0.01  -0.01     0.01  -0.01   0.01
    28   7    -0.02  -0.03  -0.03     0.00   0.00   0.00    -0.00   0.00   0.00
    29   1     0.14   0.70   0.25    -0.02  -0.09  -0.03     0.02   0.12   0.07
    30   1     0.00   0.01  -0.00    -0.05   0.10  -0.15    -0.17   0.05  -0.26
    31   1    -0.01   0.02  -0.04     0.00  -0.05   0.05     0.23  -0.42   0.69
    32   1    -0.02  -0.02   0.03    -0.02  -0.01   0.01     0.01   0.00  -0.00
    33   7     0.01  -0.00   0.01     0.10  -0.17   0.18    -0.01  -0.09  -0.11
    34   6    -0.00   0.00  -0.00    -0.02   0.09  -0.09     0.02   0.05   0.04
    35   6    -0.00   0.00  -0.00    -0.04   0.11  -0.08    -0.01   0.02   0.05
    36   1     0.01  -0.01  -0.01    -0.03   0.12   0.24    -0.09   0.10  -0.03
    37   1     0.01  -0.01   0.00     0.16  -0.39  -0.03    -0.12   0.04  -0.01
    38   1    -0.01   0.02   0.01    -0.18   0.16   0.19     0.03  -0.20  -0.07
    39   1     0.01  -0.01  -0.01     0.23  -0.13  -0.10     0.04  -0.03  -0.07
    40   1     0.01   0.00  -0.01     0.19  -0.12  -0.33    -0.03  -0.09   0.05
    41   1     0.00  -0.00   0.02    -0.10  -0.12   0.44    -0.08  -0.05   0.09
    42   6     0.08  -0.03  -0.01    -0.01   0.01  -0.00     0.01  -0.01   0.00
    43   6    -0.05   0.01  -0.00     0.01  -0.00   0.00    -0.01   0.00  -0.00
    44   6    -0.04   0.01   0.00     0.01  -0.00  -0.00    -0.01   0.00  -0.00
    45   1    -0.02  -0.11  -0.11     0.00   0.01   0.01    -0.00  -0.02  -0.01
    46   1     0.10   0.07   0.04    -0.01  -0.01  -0.01     0.02   0.02   0.01
    47   1     0.09   0.00   0.04    -0.01   0.00  -0.00     0.01  -0.01   0.00
    48   1     0.09   0.22  -0.03    -0.01  -0.04   0.01     0.02   0.05  -0.01
    49   1    -0.04  -0.05   0.14     0.01   0.01  -0.02    -0.01  -0.01   0.02
    50   1     0.07  -0.02  -0.01    -0.01   0.00   0.00     0.01  -0.00  -0.00
    51   1     0.08   0.03  -0.05    -0.01  -0.00   0.01     0.01   0.00  -0.01
    52   6     0.03  -0.00   0.00    -0.00   0.00   0.00     0.00  -0.00  -0.00
    53   1     0.03  -0.01  -0.01    -0.00  -0.00   0.00     0.01   0.00  -0.00
    54   1    -0.04   0.01  -0.01     0.00  -0.00   0.00     0.01  -0.00  -0.00
    55   1     0.03  -0.02  -0.02    -0.00   0.00   0.00     0.01  -0.00   0.00
                    100                    101                    102
                      A                      A                      A
 Frequencies --   1260.2752              1275.7387              1297.4682
 Red. masses --      2.2661                 2.9640                 4.0026
 Frc consts  --      2.1206                 2.8422                 3.9699
 IR Inten    --      0.0000                 0.0000                 0.0000
  Atom  AN      X      Y      Z        X      Y      Z        X      Y      Z
     1  26     0.00  -0.00  -0.01     0.00  -0.00  -0.01    -0.00  -0.00  -0.00
     2   6    -0.04  -0.02   0.06     0.08   0.05  -0.12    -0.16  -0.11   0.22
     3  46     0.00  -0.00   0.00     0.00  -0.00   0.00    -0.00  -0.00   0.00
     4   6    -0.01  -0.03   0.00    -0.01  -0.02  -0.02     0.01   0.01  -0.04
     5   1    -0.00   0.03  -0.02    -0.02   0.01  -0.00     0.01   0.01  -0.01
     6   1    -0.03  -0.01   0.00    -0.02  -0.02   0.03    -0.01   0.01   0.01
     7   1    -0.01  -0.03  -0.00    -0.01  -0.02   0.01     0.01   0.00  -0.00
     8   6     0.00   0.03   0.03    -0.05  -0.02  -0.01    -0.02  -0.05  -0.04
     9   8    -0.03  -0.01  -0.03     0.06   0.02   0.07    -0.10  -0.04  -0.13
    10   6    -0.03   0.05  -0.03    -0.04   0.08  -0.04    -0.05   0.05  -0.01
    11   8    -0.01  -0.04  -0.04     0.03   0.05   0.05     0.04   0.07   0.07
    12   6    -0.07  -0.11   0.07    -0.10  -0.10   0.07    -0.05   0.01   0.01
    13   6     0.02  -0.06   0.03     0.02  -0.08   0.04     0.01  -0.03   0.01
    14   6     0.09   0.04  -0.01     0.12   0.02  -0.00     0.05  -0.03   0.01
    15   1    -0.17   0.03  -0.05    -0.16  -0.05  -0.02    -0.02  -0.07   0.01
    16   1    -0.19  -0.09   0.05    -0.13  -0.11   0.04     0.03  -0.03   0.01
    17   1     0.05  -0.18   0.05     0.08  -0.18   0.03     0.05  -0.03  -0.01
    18   1     0.29   0.36   0.30    -0.36  -0.50  -0.37    -0.43  -0.46  -0.34
    19   6     0.02   0.12  -0.07     0.04   0.16  -0.06     0.04   0.03  -0.00
    20   6    -0.02  -0.07  -0.05    -0.01   0.04   0.01     0.08   0.06   0.10
    21   8     0.06   0.03  -0.01    -0.11  -0.06   0.02     0.20   0.11  -0.04
    22   6     0.02   0.00   0.01     0.03   0.00   0.01    -0.00  -0.01   0.01
    23   6     0.01   0.02  -0.01     0.01   0.01  -0.01    -0.00   0.01  -0.00
    24   6    -0.02   0.02  -0.01    -0.01   0.02  -0.01    -0.00   0.00  -0.00
    25   6    -0.02  -0.01   0.01    -0.02  -0.01   0.01    -0.00  -0.00   0.00
    26   6     0.00  -0.01   0.01    -0.01  -0.01   0.01     0.01   0.00  -0.00
    27   1     0.01  -0.03   0.04     0.05   0.02  -0.03    -0.02  -0.02   0.04
    28   7    -0.01   0.04   0.05     0.02  -0.04  -0.05    -0.03  -0.07  -0.07
    29   1     0.08   0.42   0.21    -0.04  -0.17  -0.03    -0.01  -0.15  -0.29
    30   1     0.08  -0.08   0.19     0.06  -0.15   0.25     0.04  -0.12   0.19
    31   1    -0.09   0.08  -0.12    -0.07  -0.01   0.06    -0.02  -0.06   0.14
    32   1     0.04   0.00  -0.00     0.01   0.01  -0.00     0.00   0.00  -0.00
    33   7    -0.01   0.02   0.07    -0.02   0.02   0.05    -0.01   0.00   0.03
    34   6    -0.01  -0.01  -0.03     0.00  -0.01  -0.02    -0.00  -0.00  -0.01
    35   6     0.01   0.00  -0.03     0.01  -0.00  -0.02     0.01   0.00  -0.01
    36   1     0.02  -0.01   0.06     0.02  -0.02   0.00     0.02  -0.02  -0.01
    37   1     0.05  -0.06  -0.01     0.02  -0.05  -0.01     0.02  -0.04   0.00
    38   1    -0.04   0.06   0.05    -0.02   0.04   0.03    -0.01   0.00   0.01
    39   1    -0.00   0.01   0.00    -0.01   0.01  -0.02    -0.00   0.01   0.01
    40   1     0.01   0.02  -0.02    -0.02   0.02   0.02    -0.03   0.00   0.03
    41   1     0.02   0.01  -0.02     0.01   0.01  -0.03    -0.00  -0.01  -0.00
    42   6     0.04  -0.05   0.01    -0.01   0.04   0.01    -0.02   0.03  -0.01
    43   6    -0.03   0.02  -0.01     0.01  -0.01  -0.00     0.01  -0.02   0.00
    44   6    -0.03   0.01  -0.00     0.01  -0.01  -0.01     0.00  -0.01   0.00
    45   1    -0.02  -0.07  -0.04     0.01   0.02   0.02     0.00   0.04   0.01
    46   1     0.07   0.07   0.07    -0.03  -0.03  -0.03    -0.03  -0.04  -0.05
    47   1     0.05  -0.02   0.01    -0.03  -0.00  -0.01    -0.01   0.03   0.01
    48   1     0.06   0.27  -0.07    -0.03  -0.24   0.07    -0.01   0.08  -0.07
    49   1    -0.02  -0.04   0.08     0.01   0.03  -0.01    -0.00   0.03   0.01
    50   1     0.04  -0.02   0.01    -0.02   0.02  -0.01    -0.01   0.02  -0.02
    51   1     0.06   0.01  -0.06    -0.02  -0.00   0.03    -0.02   0.00   0.04
    52   6    -0.00  -0.01  -0.02     0.02   0.01   0.01     0.02   0.01   0.01
    53   1     0.01   0.05   0.00     0.01  -0.06  -0.01    -0.03  -0.06   0.01
    54   1     0.06  -0.01  -0.02    -0.05   0.01   0.01    -0.11   0.01   0.01
    55   1     0.02   0.00   0.04     0.00  -0.01  -0.05    -0.03   0.01  -0.06
                    103                    104                    105
                      A                      A                      A
 Frequencies --   1325.6877              1343.1709              1360.0651
 Red. masses --      2.0377                 1.3917                 1.8231
 Frc consts  --      2.1099                 1.4793                 1.9869
 IR Inten    --      0.0000                 0.0000                 0.0000
  Atom  AN      X      Y      Z        X      Y      Z        X      Y      Z
     1  26    -0.00   0.00   0.00     0.00  -0.00   0.00    -0.00   0.00  -0.00
     2   6     0.02   0.01  -0.02     0.02   0.01  -0.03     0.00   0.00  -0.00
     3  46    -0.00   0.00  -0.00    -0.00  -0.00   0.00    -0.00   0.00  -0.00
     4   6     0.03   0.07  -0.14    -0.00  -0.00   0.00    -0.00  -0.01   0.02
     5   1     0.01  -0.00   0.00     0.00   0.00  -0.00     0.00   0.00  -0.01
     6   1     0.00  -0.00   0.03    -0.00   0.00  -0.00     0.00   0.00  -0.01
     7   1    -0.01  -0.00  -0.01    -0.01   0.00  -0.00     0.00  -0.00   0.00
     8   6     0.05   0.01   0.01    -0.01  -0.01  -0.01     0.21   0.04   0.05
     9   8     0.01   0.00   0.01     0.01   0.00   0.01     0.00   0.00   0.00
    10   6    -0.10   0.05   0.01     0.01   0.00  -0.00     0.00   0.02  -0.01
    11   8    -0.03  -0.02  -0.02     0.00   0.01   0.01    -0.06  -0.04  -0.05
    12   6    -0.01   0.07  -0.03    -0.00   0.00  -0.00    -0.04   0.03  -0.01
    13   6    -0.00   0.03  -0.02    -0.00  -0.01   0.00     0.03  -0.03   0.02
    14   6     0.02  -0.11   0.05     0.00   0.01  -0.00     0.01   0.02  -0.01
    15   1     0.09  -0.09   0.03    -0.01   0.02  -0.01     0.01  -0.05   0.02
    16   1     0.18   0.05  -0.02     0.01  -0.01   0.00    -0.02  -0.04   0.01
    17   1     0.06   0.12  -0.09     0.00  -0.01   0.00    -0.01  -0.06   0.03
    18   1     0.10   0.08   0.10    -0.00  -0.04  -0.03    -0.43  -0.16  -0.09
    19   6     0.08  -0.08   0.02    -0.01  -0.00   0.00     0.00  -0.00   0.01
    20   6    -0.01  -0.01  -0.01     0.05   0.07   0.02     0.01  -0.01  -0.02
    21   8    -0.02  -0.01   0.00    -0.02  -0.01   0.01    -0.00  -0.00   0.00
    22   6    -0.01  -0.01   0.01    -0.01   0.00  -0.00     0.00   0.01  -0.01
    23   6    -0.00   0.01  -0.00     0.00  -0.00   0.00     0.01  -0.00   0.00
    24   6     0.01  -0.01   0.00    -0.00   0.00  -0.00    -0.01   0.00   0.00
    25   6    -0.00   0.00  -0.00     0.00  -0.00   0.00     0.00  -0.00   0.00
    26   6     0.01   0.00  -0.00     0.00   0.00  -0.00    -0.01  -0.00   0.00
    27   1     0.00   0.01  -0.01    -0.01   0.03   0.01    -0.01  -0.00   0.01
    28   7    -0.00   0.02   0.02     0.00  -0.01  -0.01    -0.03   0.02   0.03
    29   1     0.00   0.01   0.04    -0.03  -0.38  -0.03     0.02   0.01   0.04
    30   1     0.14  -0.39   0.63    -0.00  -0.00  -0.00    -0.02   0.06  -0.09
    31   1    -0.02  -0.17   0.41    -0.00   0.00  -0.00    -0.01   0.02  -0.04
    32   1    -0.00  -0.00  -0.01     0.03  -0.02   0.00    -0.00   0.00  -0.00
    33   7    -0.06   0.01   0.06     0.00   0.00  -0.00     0.00  -0.00  -0.01
    34   6     0.00  -0.01  -0.02     0.00  -0.00  -0.00    -0.01   0.00   0.01
    35   6     0.04  -0.00  -0.03    -0.00  -0.00   0.00    -0.00   0.00   0.00
    36   1     0.02  -0.02   0.05    -0.00   0.00  -0.00    -0.00  -0.00  -0.01
    37   1     0.02  -0.06  -0.01    -0.00   0.00  -0.00     0.03  -0.01   0.02
    38   1    -0.04  -0.00   0.04    -0.00   0.00   0.00     0.03  -0.01  -0.05
    39   1    -0.03   0.03  -0.00    -0.00   0.00   0.00     0.00  -0.00  -0.00
    40   1    -0.10   0.03   0.12     0.00   0.00  -0.00     0.01  -0.01  -0.02
    41   1     0.00  -0.02  -0.01    -0.00  -0.00   0.00    -0.00   0.00  -0.01
    42   6     0.00  -0.01  -0.00    -0.02  -0.14   0.01    -0.00  -0.01   0.00
    43   6    -0.00   0.00  -0.00    -0.02   0.03  -0.01    -0.00   0.00  -0.00
    44   6    -0.00   0.00   0.00    -0.01   0.03  -0.00     0.00   0.00  -0.00
    45   1    -0.00  -0.00   0.00    -0.02  -0.06   0.02    -0.00  -0.00   0.00
    46   1     0.01   0.01   0.01     0.05   0.08   0.11     0.01   0.01   0.01
    47   1     0.01  -0.00   0.00     0.07  -0.01   0.02     0.01  -0.00   0.00
    48   1     0.00   0.03   0.01     0.03   0.87  -0.08     0.00   0.08  -0.02
    49   1     0.00  -0.01  -0.01    -0.01  -0.07   0.01    -0.00   0.01   0.03
    50   1     0.00  -0.00   0.00     0.01  -0.04   0.05    -0.02   0.00   0.00
    51   1     0.00  -0.00  -0.01     0.01  -0.01  -0.09     0.00  -0.00  -0.02
    52   6    -0.01  -0.00  -0.00    -0.01   0.01   0.01     0.04  -0.03  -0.03
    53   1    -0.01   0.03   0.02     0.01  -0.04  -0.02    -0.39   0.13   0.28
    54   1     0.01  -0.00  -0.00     0.04  -0.01   0.01    -0.43  -0.03  -0.00
    55   1    -0.01   0.01   0.03     0.01  -0.01  -0.03    -0.38   0.27   0.15
                    106                    107                    108
                      A                      A                      A
 Frequencies --   1364.1224              1377.0595              1382.0429
 Red. masses --      3.9217                 1.2625                 2.0350
 Frc consts  --      4.2996                 1.4105                 2.2901
 IR Inten    --      0.0000                 0.0000                 0.0000
  Atom  AN      X      Y      Z        X      Y      Z        X      Y      Z
     1  26    -0.00  -0.00  -0.01     0.00   0.00  -0.00    -0.00  -0.00   0.00
     2   6    -0.00  -0.00   0.01    -0.00  -0.00   0.01    -0.00  -0.00  -0.00
     3  46     0.00   0.00  -0.00     0.00   0.00   0.00     0.00  -0.00   0.00
     4   6    -0.05  -0.02   0.01     0.00   0.00  -0.00    -0.01   0.02  -0.03
     5   1    -0.00   0.02  -0.02    -0.03  -0.03   0.01    -0.02  -0.00  -0.00
     6   1     0.03   0.01   0.02     0.01  -0.03   0.03    -0.00   0.02  -0.01
     7   1     0.01  -0.03   0.02    -0.01  -0.03   0.01     0.02   0.02  -0.00
     8   6    -0.02  -0.00  -0.00    -0.01   0.00   0.00    -0.12  -0.01  -0.02
     9   8    -0.00  -0.00  -0.00    -0.00  -0.00  -0.00     0.00   0.00   0.00
    10   6     0.27   0.02  -0.07    -0.02  -0.01   0.01     0.06  -0.05   0.01
    11   8     0.01  -0.00   0.00     0.00   0.00   0.00     0.03   0.01   0.02
    12   6    -0.07   0.17  -0.07     0.01  -0.02   0.01     0.11  -0.08   0.02
    13   6    -0.02  -0.19   0.12    -0.01   0.01  -0.01    -0.11   0.04  -0.01
    14   6     0.05   0.18  -0.08     0.00  -0.01   0.00     0.01   0.02  -0.01
    15   1     0.16  -0.23   0.10    -0.02   0.02  -0.06    -0.01   0.14  -0.03
    16   1     0.07  -0.21   0.03     0.00   0.02  -0.00     0.07   0.06  -0.02
    17   1     0.02  -0.10   0.06     0.00   0.01  -0.01     0.02   0.09  -0.05
    18   1     0.04   0.08   0.01     0.01   0.00   0.01     0.21   0.11   0.05
    19   6    -0.17  -0.08   0.06     0.01   0.01  -0.00    -0.06   0.04  -0.01
    20   6    -0.01  -0.01   0.00    -0.01  -0.01   0.01    -0.00   0.01   0.01
    21   8     0.00   0.00   0.00     0.01   0.00  -0.00     0.00  -0.00  -0.00
    22   6     0.01   0.05  -0.04     0.01   0.03  -0.03     0.02   0.02  -0.01
    23   6     0.05  -0.02   0.03     0.01  -0.02   0.02    -0.02  -0.02   0.00
    24   6    -0.04  -0.00   0.00     0.00  -0.00   0.00     0.02   0.03  -0.02
    25   6     0.03   0.01  -0.01    -0.02   0.02  -0.02     0.02  -0.03   0.03
    26   6    -0.04  -0.03   0.03    -0.00  -0.02   0.02    -0.04  -0.00  -0.01
    27   1    -0.01  -0.03  -0.00     0.04  -0.00  -0.11     0.01  -0.01   0.02
    28   7     0.01   0.00   0.00     0.00   0.00  -0.00     0.02  -0.01  -0.01
    29   1    -0.00   0.04  -0.00    -0.00   0.06  -0.02    -0.01  -0.03  -0.02
    30   1     0.04  -0.36   0.56    -0.00   0.02  -0.03     0.03  -0.14   0.23
    31   1     0.02  -0.12   0.15    -0.00   0.01  -0.01     0.02  -0.05   0.08
    32   1    -0.04   0.02  -0.01    -0.02  -0.00   0.01    -0.01  -0.02   0.01
    33   7    -0.01   0.02   0.01     0.00  -0.00   0.00    -0.01   0.01   0.00
    34   6    -0.00  -0.01  -0.01     0.00  -0.00  -0.00     0.00  -0.01  -0.01
    35   6     0.01  -0.01  -0.02     0.00   0.00   0.00     0.01  -0.00  -0.01
    36   1     0.01  -0.01   0.01    -0.00   0.00   0.00    -0.00   0.00   0.02
    37   1     0.00   0.01  -0.00     0.00   0.00   0.00    -0.02   0.02  -0.01
    38   1    -0.01   0.02   0.01    -0.00  -0.00   0.00    -0.02   0.01   0.04
    39   1    -0.03   0.03   0.07    -0.00   0.00   0.00    -0.01   0.01   0.04
    40   1    -0.08   0.05   0.08     0.00  -0.01  -0.00    -0.05   0.03   0.06
    41   1     0.01  -0.01   0.05    -0.01  -0.00  -0.01     0.01  -0.01   0.05
    42   6     0.00   0.01  -0.02    -0.00  -0.02  -0.11     0.00   0.00   0.01
    43   6    -0.00  -0.00   0.01    -0.04  -0.01   0.00     0.00   0.00   0.00
    44   6     0.01   0.00   0.01     0.06   0.01  -0.00    -0.01  -0.00   0.00
    45   1    -0.00   0.00  -0.02    -0.03   0.06  -0.01     0.00  -0.01   0.00
    46   1     0.02   0.01  -0.00     0.13   0.08   0.07    -0.02  -0.01  -0.01
    47   1     0.01   0.02   0.01     0.10   0.12   0.08    -0.01  -0.02  -0.01
    48   1    -0.02  -0.05   0.18    -0.09   0.08   0.88     0.01  -0.00  -0.09
    49   1     0.01  -0.01  -0.05     0.04  -0.02   0.02    -0.00   0.01   0.00
    50   1     0.00   0.00   0.01    -0.15  -0.06   0.15     0.01   0.02  -0.03
    51   1    -0.02  -0.01   0.01    -0.15  -0.02   0.12     0.02  -0.00  -0.04
    52   6    -0.01   0.00   0.00     0.01  -0.00  -0.00     0.15  -0.01  -0.02
    53   1     0.07  -0.01  -0.05    -0.04  -0.00   0.03    -0.41  -0.09   0.25
    54   1     0.08   0.01  -0.00    -0.04   0.00  -0.01    -0.45  -0.04   0.00
    55   1     0.07  -0.05  -0.02    -0.03   0.02  -0.01    -0.42   0.25  -0.06
                    109                    110                    111
                      A                      A                      A
 Frequencies --   1388.3605              1393.9165              1398.6035
 Red. masses --      3.7745                 6.5043                 3.5226
 Frc consts  --      4.2866                 7.4460                 4.0598
 IR Inten    --      0.0000                 0.0000                 0.0000
  Atom  AN      X      Y      Z        X      Y      Z        X      Y      Z
     1  26     0.00  -0.00  -0.00     0.00   0.00   0.00     0.00  -0.00   0.00
     2   6     0.01   0.00  -0.01    -0.00   0.00  -0.00    -0.00  -0.00   0.01
     3  46    -0.00  -0.00  -0.00     0.00  -0.00  -0.00     0.00   0.00   0.00
     4   6    -0.01  -0.02   0.03     0.02   0.01  -0.01    -0.02   0.03  -0.04
     5   1     0.08   0.01   0.02     0.11   0.13  -0.10     0.10   0.05  -0.04
     6   1    -0.03  -0.06   0.02     0.17   0.02   0.08    -0.01  -0.00   0.00
     7   1    -0.09  -0.03  -0.01     0.09  -0.18   0.04    -0.10  -0.05  -0.02
     8   6    -0.15  -0.02  -0.03    -0.05  -0.01  -0.01     0.08   0.01   0.02
     9   8     0.00   0.00   0.01     0.00   0.00   0.00    -0.00  -0.00  -0.00
    10   6    -0.01   0.05  -0.02    -0.08  -0.01   0.02     0.11  -0.08   0.02
    11   8     0.03   0.02   0.03     0.01   0.01   0.01    -0.01  -0.01  -0.01
    12   6    -0.14   0.10  -0.02    -0.04  -0.01   0.01     0.11  -0.13   0.04
    13   6     0.17  -0.04   0.01     0.10   0.03  -0.03    -0.08   0.06  -0.03
    14   6    -0.05  -0.02   0.01    -0.05  -0.05   0.02    -0.04   0.03  -0.02
    15   1    -0.00  -0.17   0.03    -0.05   0.00  -0.02    -0.09   0.23  -0.06
    16   1    -0.13  -0.08   0.03    -0.11   0.02   0.02    -0.05   0.08  -0.01
    17   1    -0.06  -0.08   0.05    -0.05  -0.01   0.01    -0.03   0.12  -0.04
    18   1     0.40   0.14   0.12     0.15   0.02   0.04    -0.29  -0.08  -0.09
    19   6     0.04  -0.06   0.00     0.07   0.02  -0.02    -0.08   0.08  -0.02
    20   6    -0.01   0.00   0.01     0.00   0.01   0.00     0.00  -0.00  -0.01
    21   8    -0.01  -0.00   0.00    -0.00  -0.00  -0.00     0.00   0.00   0.00
    22   6    -0.10  -0.14   0.08     0.02   0.25  -0.23    -0.12  -0.10   0.03
    23   6     0.02   0.09  -0.05     0.30  -0.12   0.16     0.11   0.06  -0.01
    24   6    -0.03  -0.09   0.05    -0.29  -0.14   0.08    -0.12  -0.10   0.06
    25   6    -0.10   0.10  -0.09     0.11   0.14  -0.14    -0.06   0.11  -0.10
    26   6     0.21   0.03   0.02    -0.15  -0.12   0.12     0.19   0.02   0.02
    27   1    -0.03   0.10  -0.07    -0.17  -0.09   0.18    -0.08   0.12  -0.03
    28   7     0.02  -0.01  -0.01     0.01  -0.01  -0.01    -0.01   0.00   0.01
    29   1    -0.01  -0.02  -0.02    -0.00  -0.03  -0.01     0.01   0.01   0.02
    30   1    -0.01   0.09  -0.12    -0.02   0.04  -0.09     0.08  -0.16   0.33
    31   1     0.00   0.02  -0.05    -0.02   0.03  -0.01     0.09  -0.08   0.06
    32   1     0.06   0.06  -0.05    -0.09   0.03  -0.05    -0.01   0.09  -0.10
    33   7     0.01  -0.00  -0.00     0.00  -0.00   0.00    -0.01   0.01   0.00
    34   6     0.02  -0.02  -0.01     0.01  -0.01  -0.01    -0.04   0.04   0.02
    35   6    -0.00   0.00   0.00     0.00   0.00  -0.00     0.01  -0.00  -0.01
    36   1    -0.06   0.06   0.03    -0.06   0.05   0.03     0.19  -0.18  -0.07
    37   1    -0.10   0.09  -0.03    -0.06   0.07  -0.02     0.21  -0.23   0.07
    38   1    -0.05   0.08   0.11    -0.03   0.06   0.07     0.10  -0.22  -0.23
    39   1    -0.01   0.00   0.00    -0.01   0.01   0.04    -0.03   0.03   0.04
    40   1     0.02  -0.01  -0.03     0.00  -0.04  -0.01    -0.04   0.02   0.04
    41   1    -0.01  -0.01  -0.00    -0.03  -0.02  -0.01    -0.01  -0.01   0.02
    42   6     0.00   0.00  -0.01    -0.00   0.00   0.02    -0.00   0.00   0.01
    43   6    -0.00   0.00   0.01     0.02   0.02   0.02     0.00  -0.00  -0.00
    44   6     0.00  -0.00   0.01    -0.03  -0.01   0.03     0.00   0.00  -0.02
    45   1     0.00  -0.02  -0.02     0.02  -0.09  -0.07     0.00   0.01   0.00
    46   1     0.00  -0.01  -0.03    -0.08  -0.06  -0.09     0.00   0.00   0.00
    47   1    -0.00  -0.02  -0.00    -0.07  -0.10  -0.05    -0.00   0.00  -0.00
    48   1    -0.01  -0.01   0.06     0.03  -0.01  -0.27     0.01   0.01  -0.05
    49   1     0.00   0.00  -0.03    -0.01   0.03  -0.11    -0.01  -0.00   0.08
    50   1    -0.00   0.03  -0.03     0.10   0.07  -0.11    -0.04  -0.04   0.05
    51   1    -0.00  -0.02  -0.05     0.10  -0.01  -0.13    -0.02   0.02   0.07
    52   6     0.12  -0.01  -0.01     0.03  -0.00  -0.00    -0.05   0.00   0.00
    53   1    -0.30  -0.11   0.17    -0.07  -0.04   0.04     0.10   0.06  -0.05
    54   1    -0.31  -0.02   0.00    -0.07  -0.01   0.01     0.09   0.01  -0.00
    55   1    -0.31   0.17  -0.09    -0.08   0.04  -0.03     0.10  -0.05   0.05
                    112                    113                    114
                      A                      A                      A
 Frequencies --   1400.6844              1407.5804              1410.9874
 Red. masses --      1.2309                 1.4679                 2.5653
 Frc consts  --      1.4228                 1.7135                 3.0091
 IR Inten    --      0.0000                 0.0000                 0.0000
  Atom  AN      X      Y      Z        X      Y      Z        X      Y      Z
     1  26     0.00  -0.00   0.00     0.00  -0.00   0.00     0.01   0.00   0.00
     2   6    -0.00  -0.00   0.00     0.00   0.00  -0.00    -0.00  -0.00   0.00
     3  46    -0.00  -0.00  -0.00     0.00  -0.00   0.00     0.00  -0.00   0.00
     4   6     0.00   0.01  -0.01    -0.01   0.01  -0.01    -0.02   0.03  -0.03
     5   1     0.00   0.00  -0.00     0.02   0.02  -0.01    -0.04  -0.05   0.03
     6   1    -0.01   0.01  -0.01     0.02   0.02   0.00     0.00  -0.04   0.03
     7   1    -0.00   0.01   0.01     0.04   0.02   0.00     0.02   0.01   0.02
     8   6     0.03   0.00   0.01    -0.01  -0.00  -0.01     0.01   0.00   0.00
     9   8    -0.00  -0.00  -0.00     0.00  -0.00   0.00    -0.00  -0.00  -0.00
    10   6     0.02  -0.02   0.01     0.04  -0.02   0.01     0.10  -0.08   0.03
    11   8    -0.01  -0.00  -0.01     0.00   0.00   0.00    -0.00  -0.00  -0.00
    12   6     0.02  -0.03   0.01    -0.04   0.00   0.01    -0.08  -0.03   0.03
    13   6    -0.01   0.01  -0.01     0.10   0.02  -0.02     0.22   0.06  -0.05
    14   6    -0.01   0.00  -0.00    -0.06  -0.01   0.01    -0.16  -0.03   0.01
    15   1    -0.02   0.05  -0.01    -0.04   0.00   0.00    -0.18   0.11  -0.08
    16   1    -0.02   0.02  -0.00    -0.12  -0.00   0.01    -0.31   0.02   0.03
    17   1    -0.01   0.02  -0.01    -0.06   0.02   0.01    -0.15   0.06   0.02
    18   1    -0.12  -0.04  -0.03     0.04   0.01   0.01    -0.06  -0.03  -0.02
    19   6    -0.02   0.02  -0.00    -0.01   0.01  -0.00    -0.04   0.05  -0.02
    20   6     0.00  -0.00  -0.00     0.00  -0.00  -0.00    -0.00   0.00   0.00
    21   8     0.00   0.00  -0.00    -0.00  -0.00   0.00     0.00   0.00  -0.00
    22   6    -0.01  -0.01   0.01     0.02   0.01  -0.00     0.04   0.03  -0.01
    23   6     0.01   0.01  -0.00    -0.01   0.00  -0.00    -0.07  -0.02  -0.01
    24   6    -0.01  -0.00   0.00    -0.00   0.00   0.00     0.07   0.04  -0.02
    25   6    -0.01   0.01  -0.01     0.03  -0.01   0.01    -0.00  -0.03   0.02
    26   6     0.03   0.01  -0.00    -0.05  -0.00  -0.01    -0.04  -0.01  -0.00
    27   1    -0.01   0.01  -0.00     0.01  -0.01   0.03     0.03  -0.05  -0.01
    28   7    -0.00   0.00   0.00     0.00  -0.00   0.00     0.00  -0.00  -0.00
    29   1     0.00   0.01   0.01     0.00  -0.00   0.00    -0.00  -0.00  -0.00
    30   1    -0.02  -0.02  -0.01     0.01  -0.05   0.08     0.08  -0.08   0.22
    31   1    -0.00  -0.01   0.01     0.02  -0.02   0.03     0.11  -0.08   0.04
    32   1    -0.01   0.01  -0.01     0.02  -0.01   0.01     0.02  -0.04   0.05
    33   7     0.01  -0.01  -0.01    -0.00   0.00   0.00    -0.01   0.01  -0.00
    34   6     0.06  -0.08  -0.03    -0.00   0.01   0.00    -0.02   0.02   0.01
    35   6     0.02   0.00  -0.05     0.00  -0.00  -0.01     0.02  -0.00  -0.05
    36   1    -0.32   0.31   0.12     0.04  -0.03  -0.01     0.09  -0.08  -0.02
    37   1    -0.28   0.40  -0.09     0.02  -0.04   0.01     0.10  -0.09   0.03
    38   1    -0.12   0.37   0.32     0.00  -0.04  -0.02     0.04  -0.11  -0.10
    39   1    -0.05   0.04   0.27    -0.00   0.00   0.02    -0.05   0.04   0.22
    40   1    -0.19  -0.00   0.19    -0.03   0.02   0.03    -0.18   0.03   0.19
    41   1    -0.03  -0.11   0.25     0.01  -0.00   0.03    -0.00  -0.08   0.21
    42   6    -0.00   0.00   0.00    -0.00   0.01   0.04     0.00  -0.01  -0.02
    43   6    -0.00  -0.00  -0.00    -0.00  -0.04  -0.04    -0.00   0.02   0.02
    44   6     0.00   0.00  -0.01     0.04   0.02  -0.11    -0.02  -0.02   0.07
    45   1    -0.00   0.01   0.01    -0.01   0.14   0.15     0.00  -0.09  -0.09
    46   1     0.00   0.00   0.01     0.06   0.06   0.18    -0.03  -0.03  -0.10
    47   1     0.00   0.01   0.00     0.06   0.17   0.05    -0.03  -0.10  -0.03
    48   1     0.00  -0.00  -0.01     0.02  -0.03  -0.24    -0.02   0.05   0.18
    49   1    -0.00  -0.00   0.04    -0.03  -0.10   0.51     0.02   0.08  -0.30
    50   1    -0.02  -0.02   0.03    -0.24  -0.26   0.32     0.13   0.17  -0.20
    51   1    -0.02   0.01   0.04    -0.24   0.08   0.41     0.15  -0.05  -0.26
    52   6    -0.02   0.00   0.00     0.01  -0.00   0.00    -0.01   0.00  -0.00
    53   1     0.04   0.03  -0.02    -0.02  -0.02   0.01     0.02   0.00  -0.01
    54   1     0.04   0.00   0.00    -0.01   0.01  -0.01     0.01  -0.01   0.01
    55   1     0.04  -0.02   0.03    -0.02   0.01  -0.03     0.02  -0.00   0.02
                    115                    116                    117
                      A                      A                      A
 Frequencies --   1416.4349              1421.0277              1425.0354
 Red. masses --      3.3032                 1.3471                 1.4277
 Frc consts  --      3.9046                 1.6027                 1.7082
 IR Inten    --      0.0000                 0.0000                 0.0000
  Atom  AN      X      Y      Z        X      Y      Z        X      Y      Z
     1  26     0.01  -0.00   0.00    -0.00   0.00  -0.00    -0.00  -0.00   0.00
     2   6     0.00   0.00  -0.00     0.00   0.00  -0.00     0.00  -0.00  -0.00
     3  46    -0.00   0.00  -0.00    -0.00  -0.00  -0.00    -0.00  -0.00  -0.00
     4   6    -0.02  -0.01   0.01    -0.03  -0.02   0.03    -0.00  -0.00   0.00
     5   1    -0.22   0.01  -0.10    -0.00  -0.03   0.04     0.07   0.08  -0.06
     6   1    -0.20   0.21  -0.23     0.03  -0.07   0.04     0.00   0.10  -0.07
     7   1    -0.29   0.05  -0.07     0.03  -0.02   0.03     0.06   0.07  -0.02
     8   6    -0.02  -0.00  -0.00    -0.01  -0.00  -0.00    -0.00  -0.00  -0.00
     9   8     0.00   0.00   0.00     0.00   0.00   0.00    -0.00  -0.00  -0.00
    10   6    -0.03   0.01   0.00    -0.05   0.03  -0.01    -0.01  -0.00   0.00
    11   8     0.00   0.00   0.00     0.00   0.00   0.00     0.00   0.00   0.00
    12   6    -0.03   0.02  -0.00     0.01   0.02  -0.01    -0.01   0.00  -0.00
    13   6     0.03  -0.01  -0.00    -0.05  -0.02   0.02     0.01  -0.00  -0.00
    14   6    -0.01  -0.01   0.00     0.05   0.00  -0.00    -0.00   0.00  -0.00
    15   1     0.00  -0.04  -0.00     0.05  -0.05   0.03    -0.00  -0.00  -0.00
    16   1    -0.02  -0.01   0.01     0.08  -0.01  -0.01    -0.01  -0.00   0.00
    17   1    -0.01  -0.02   0.01     0.04  -0.04   0.00    -0.00  -0.01   0.00
    18   1     0.07   0.01   0.02     0.05   0.01   0.02     0.02  -0.00   0.00
    19   6     0.02  -0.01   0.00     0.03  -0.02   0.00     0.01   0.00  -0.00
    20   6    -0.00  -0.00   0.00    -0.00   0.00   0.00    -0.00   0.00  -0.00
    21   8    -0.00  -0.00   0.00    -0.00  -0.00   0.00    -0.00  -0.00   0.00
    22   6    -0.15  -0.01  -0.04     0.02   0.02  -0.01    -0.01  -0.04   0.04
    23   6     0.19  -0.09   0.11    -0.03  -0.00  -0.01     0.04   0.03  -0.01
    24   6    -0.07   0.16  -0.11     0.02  -0.02   0.01    -0.07  -0.01   0.00
    25   6    -0.01  -0.17   0.16    -0.02   0.04  -0.03     0.06  -0.03   0.03
    26   6     0.11   0.08  -0.06     0.00  -0.02   0.02    -0.04   0.03  -0.04
    27   1    -0.14   0.12  -0.08    -0.01  -0.05   0.05     0.04   0.08  -0.07
    28   7     0.00  -0.00  -0.00     0.00  -0.00  -0.00     0.00  -0.00   0.00
    29   1    -0.00   0.01  -0.00    -0.00  -0.00  -0.00    -0.01  -0.01   0.00
    30   1     0.15   0.17  -0.01     0.20   0.29  -0.09     0.03   0.04  -0.01
    31   1     0.20  -0.08  -0.08     0.26  -0.09  -0.14     0.04  -0.01  -0.02
    32   1    -0.38   0.14  -0.18     0.04  -0.03   0.04    -0.00   0.04  -0.05
    33   7    -0.00  -0.00  -0.00    -0.00   0.00  -0.01    -0.00  -0.00  -0.00
    34   6    -0.01   0.01   0.00    -0.03   0.03   0.01    -0.00   0.00   0.00
    35   6     0.02   0.00  -0.02     0.03   0.00  -0.09     0.00  -0.00  -0.01
    36   1     0.04  -0.03   0.01     0.11  -0.10  -0.01     0.01  -0.01  -0.00
    37   1     0.07  -0.04   0.02     0.18  -0.12   0.05     0.02  -0.01   0.00
    38   1     0.03  -0.06  -0.07     0.08  -0.16  -0.18     0.01  -0.02  -0.02
    39   1    -0.07   0.06   0.14    -0.08   0.08   0.44     0.01  -0.00   0.05
    40   1    -0.07  -0.01   0.07    -0.31  -0.01   0.31    -0.05   0.01   0.05
    41   1    -0.06  -0.08   0.10    -0.05  -0.16   0.37     0.01  -0.01   0.06
    42   6     0.00   0.00  -0.01     0.00   0.00   0.01     0.00   0.01   0.01
    43   6     0.01   0.02   0.02     0.00  -0.00  -0.00    -0.03  -0.09  -0.07
    44   6     0.01   0.01  -0.02     0.00   0.00  -0.01    -0.02  -0.02   0.05
    45   1     0.01  -0.10  -0.08     0.00   0.01   0.01    -0.04   0.39   0.29
    46   1    -0.05  -0.05  -0.12    -0.00   0.00   0.02     0.25   0.19   0.40
    47   1    -0.04  -0.12  -0.04    -0.00   0.01   0.00     0.17   0.42   0.15
    48   1    -0.01  -0.02   0.05     0.01  -0.01  -0.06     0.00  -0.05   0.00
    49   1    -0.00  -0.03   0.08    -0.00  -0.02   0.04     0.01   0.07  -0.22
    50   1    -0.05  -0.04   0.06    -0.01  -0.02   0.03     0.12   0.12  -0.16
    51   1    -0.06   0.01   0.07    -0.02   0.01   0.03     0.14  -0.03  -0.19
    52   6     0.01   0.00   0.00     0.01   0.00   0.00     0.00   0.00  -0.00
    53   1    -0.02  -0.02   0.01    -0.01  -0.01   0.01     0.00  -0.00  -0.00
    54   1    -0.00   0.01  -0.01    -0.00   0.00  -0.00    -0.01  -0.01   0.01
    55   1    -0.01   0.00  -0.02    -0.01   0.00  -0.02    -0.00   0.01   0.01
                    118                    119                    120
                      A                      A                      A
 Frequencies --   1429.2488              1440.9272              1455.8079
 Red. masses --      2.4058                 1.1222                 1.0596
 Frc consts  --      2.8955                 1.3728                 1.3232
 IR Inten    --      0.0000                 0.0000                 0.0000
  Atom  AN      X      Y      Z        X      Y      Z        X      Y      Z
     1  26    -0.00  -0.00   0.00    -0.00   0.00  -0.00    -0.00  -0.00  -0.00
     2   6    -0.00  -0.00  -0.00    -0.00  -0.00   0.00    -0.00   0.00  -0.00
     3  46    -0.00   0.00   0.00     0.00  -0.00  -0.00    -0.00   0.00   0.00
     4   6     0.00  -0.00   0.00    -0.08  -0.01   0.00    -0.00  -0.00   0.00
     5   1     0.22   0.18  -0.12     0.02   0.01   0.00    -0.00   0.00  -0.00
     6   1     0.06   0.19  -0.10     0.03  -0.04   0.01    -0.00   0.00  -0.00
     7   1     0.23   0.16  -0.03     0.02  -0.00  -0.00    -0.00  -0.00  -0.00
     8   6    -0.00   0.00   0.00     0.01   0.00   0.00    -0.01   0.01  -0.01
     9   8     0.00   0.00   0.00    -0.00  -0.00  -0.00     0.00  -0.00  -0.00
    10   6    -0.02  -0.00   0.01     0.01   0.01  -0.01     0.00   0.00  -0.00
    11   8     0.00   0.00   0.00    -0.00  -0.00  -0.00     0.00   0.00   0.00
    12   6    -0.00   0.01  -0.00     0.00  -0.01   0.00     0.00   0.00  -0.00
    13   6     0.00  -0.00   0.00     0.00   0.01  -0.01    -0.00   0.00  -0.00
    14   6     0.00   0.01  -0.00    -0.01  -0.01   0.01     0.00  -0.00   0.00
    15   1     0.00  -0.01  -0.01    -0.01   0.01  -0.01     0.00  -0.00   0.00
    16   1    -0.00  -0.00   0.00    -0.00   0.01  -0.00     0.00   0.00  -0.00
    17   1    -0.00  -0.02   0.01     0.00   0.02  -0.01     0.00   0.00  -0.00
    18   1     0.02   0.00   0.01    -0.03  -0.01  -0.01     0.01   0.00   0.00
    19   6     0.01  -0.00  -0.00    -0.01   0.00   0.00    -0.00  -0.00   0.00
    20   6    -0.00  -0.00   0.00     0.00   0.00   0.00     0.00   0.00   0.00
    21   8     0.00   0.00  -0.00     0.00   0.00  -0.00    -0.00  -0.00   0.00
    22   6     0.04  -0.10   0.11     0.01  -0.00   0.01    -0.00   0.00  -0.00
    23   6     0.04   0.10  -0.06    -0.01   0.01  -0.01     0.00  -0.00   0.00
    24   6    -0.13  -0.06   0.03    -0.00  -0.01   0.01    -0.00   0.00  -0.00
    25   6     0.15  -0.03   0.04     0.01   0.01  -0.00     0.00  -0.00   0.00
    26   6    -0.14   0.05  -0.09    -0.02  -0.00  -0.00     0.00   0.00   0.00
    27   1     0.19   0.18  -0.21     0.02   0.00  -0.00    -0.00  -0.00  -0.00
    28   7     0.00   0.00  -0.00    -0.00  -0.00  -0.00     0.00  -0.00  -0.00
    29   1     0.00   0.01  -0.00     0.00   0.00  -0.00    -0.00   0.01  -0.03
    30   1     0.00   0.04  -0.05     0.45   0.34   0.23    -0.00   0.00  -0.01
    31   1     0.01   0.00  -0.02     0.56  -0.27  -0.15    -0.00   0.00  -0.00
    32   1     0.13   0.05  -0.04     0.02  -0.00   0.01    -0.00   0.00  -0.00
    33   7    -0.00  -0.00  -0.00    -0.01  -0.00   0.00     0.00   0.00  -0.00
    34   6    -0.00   0.01   0.00     0.01  -0.02  -0.02     0.00   0.01  -0.00
    35   6     0.00  -0.00  -0.02    -0.01  -0.01   0.04    -0.00  -0.00  -0.00
    36   1     0.02  -0.02  -0.01    -0.08   0.08   0.12     0.04  -0.04  -0.00
    37   1     0.02  -0.03   0.01    -0.01   0.15  -0.01    -0.05  -0.01  -0.02
    38   1     0.01  -0.03  -0.03    -0.03   0.05   0.06    -0.04  -0.04   0.04
    39   1     0.05  -0.03   0.08    -0.04   0.02  -0.24    -0.00   0.00   0.00
    40   1    -0.11   0.02   0.11     0.16   0.08  -0.14    -0.01   0.01   0.01
    41   1     0.06   0.00   0.12    -0.00   0.05  -0.16     0.01   0.00   0.01
    42   6    -0.00  -0.01  -0.03     0.00  -0.00  -0.00     0.00  -0.00  -0.00
    43   6     0.01   0.06   0.05    -0.00   0.00   0.00    -0.00   0.00   0.00
    44   6     0.02   0.01  -0.01     0.00  -0.00   0.00     0.00  -0.00  -0.00
    45   1     0.02  -0.28  -0.18     0.00  -0.01  -0.00     0.00  -0.01   0.00
    46   1    -0.15  -0.13  -0.32    -0.00  -0.00  -0.01     0.00  -0.00  -0.01
    47   1    -0.07  -0.32  -0.09     0.00  -0.01  -0.00     0.01  -0.01   0.00
    48   1    -0.02   0.05   0.23    -0.00   0.01   0.01     0.00   0.00   0.00
    49   1     0.01  -0.03   0.06     0.00   0.00  -0.00    -0.00   0.03   0.04
    50   1    -0.07  -0.03   0.07    -0.00   0.00  -0.00    -0.05   0.00   0.01
    51   1    -0.08  -0.00   0.07     0.00  -0.00  -0.00     0.01   0.00  -0.00
    52   6     0.00  -0.00   0.00    -0.00  -0.00  -0.00    -0.00   0.03  -0.06
    53   1    -0.01  -0.01   0.00     0.01   0.01  -0.00     0.24  -0.12  -0.22
    54   1     0.01   0.01  -0.01     0.00  -0.00   0.00    -0.13  -0.50   0.48
    55   1    -0.00  -0.01  -0.02     0.01   0.00   0.01    -0.01   0.25   0.55
                    121                    122                    123
                      A                      A                      A
 Frequencies --   1457.4143              1458.4983              1461.4719
 Red. masses --      1.0613                 1.0868                 6.8169
 Frc consts  --      1.3282                 1.3621                 8.5786
 IR Inten    --      0.0000                 0.0000                 0.0000
  Atom  AN      X      Y      Z        X      Y      Z        X      Y      Z
     1  26    -0.00  -0.00  -0.00    -0.00  -0.00   0.00    -0.00  -0.01  -0.00
     2   6     0.00   0.00   0.00     0.00   0.00  -0.00    -0.00  -0.00   0.00
     3  46     0.00  -0.00  -0.00     0.00  -0.00  -0.00     0.00   0.00   0.00
     4   6    -0.00  -0.00  -0.00    -0.00  -0.00   0.00    -0.08  -0.13   0.15
     5   1     0.00   0.00  -0.00     0.00   0.00  -0.00    -0.00   0.01  -0.01
     6   1     0.00   0.00   0.00     0.00   0.00  -0.00     0.00   0.03  -0.01
     7   1     0.01   0.01   0.00     0.00   0.00   0.00     0.01   0.00  -0.01
     8   6     0.01   0.00   0.00    -0.04  -0.01  -0.01     0.01  -0.00   0.00
     9   8    -0.00  -0.00  -0.00     0.00   0.00   0.00    -0.00  -0.00  -0.00
    10   6     0.01   0.02  -0.01     0.00   0.01  -0.01     0.20   0.43  -0.26
    11   8    -0.00  -0.00  -0.00     0.01   0.01   0.01     0.00  -0.01  -0.00
    12   6    -0.00  -0.00   0.00    -0.00  -0.00   0.00     0.04  -0.07   0.03
    13   6     0.00   0.00  -0.00     0.00   0.00  -0.00     0.01   0.10  -0.06
    14   6    -0.00  -0.01   0.01    -0.00  -0.01   0.00     0.01  -0.33   0.16
    15   1    -0.00   0.00  -0.00    -0.00   0.00  -0.00    -0.09   0.15  -0.07
    16   1    -0.00   0.00  -0.00    -0.00   0.00  -0.00     0.07   0.13  -0.04
    17   1     0.00   0.02  -0.01     0.00   0.01  -0.00     0.16   0.40  -0.21
    18   1     0.01  -0.01   0.01     0.06   0.01   0.01    -0.05   0.07  -0.01
    19   6    -0.00  -0.00   0.00    -0.00  -0.00  -0.00    -0.17  -0.01   0.03
    20   6    -0.00  -0.00  -0.00     0.00   0.01   0.01    -0.00  -0.00  -0.00
    21   8    -0.00   0.00   0.00    -0.00  -0.00   0.00     0.00   0.00   0.00
    22   6     0.00  -0.00   0.00     0.00  -0.00   0.00     0.00   0.01  -0.01
    23   6    -0.00   0.00  -0.00     0.00   0.00  -0.00     0.02   0.00   0.01
    24   6    -0.00  -0.00   0.00    -0.00   0.00  -0.00    -0.02   0.00  -0.00
    25   6     0.00  -0.00   0.00     0.00  -0.00   0.00     0.01  -0.01   0.01
    26   6    -0.00   0.00  -0.00    -0.00   0.00  -0.00    -0.02   0.00  -0.01
    27   1     0.00   0.00  -0.00     0.00   0.00  -0.00     0.00   0.00  -0.01
    28   7    -0.00   0.00   0.00     0.01  -0.01  -0.01     0.00   0.00   0.01
    29   1     0.00   0.02   0.01    -0.01  -0.05  -0.03     0.00   0.00   0.01
    30   1    -0.02  -0.03   0.02    -0.01  -0.01   0.01    -0.16  -0.06  -0.08
    31   1    -0.03  -0.00   0.03    -0.01  -0.00   0.01    -0.16  -0.01   0.05
    32   1     0.00   0.00   0.00     0.00   0.00   0.00    -0.01   0.01  -0.01
    33   7    -0.01  -0.01   0.01    -0.00  -0.00   0.00     0.02   0.00  -0.00
    34   6    -0.03  -0.04   0.02    -0.01  -0.02   0.01     0.00   0.02   0.01
    35   6     0.00   0.02   0.00     0.00   0.01   0.00    -0.01   0.00  -0.02
    36   1    -0.35   0.29  -0.06    -0.16   0.13  -0.04     0.10  -0.10  -0.10
    37   1     0.41   0.00   0.13     0.18  -0.01   0.06    -0.15  -0.09  -0.04
    38   1     0.36   0.32  -0.38     0.16   0.15  -0.17    -0.08  -0.06   0.09
    39   1     0.04  -0.02   0.04     0.02  -0.01   0.02     0.05  -0.04   0.06
    40   1     0.01  -0.14  -0.04     0.00  -0.07  -0.01    -0.05   0.01   0.03
    41   1    -0.07  -0.01  -0.09    -0.03  -0.01  -0.04     0.06   0.02   0.08
    42   6     0.00   0.00   0.00    -0.00  -0.00   0.00    -0.00  -0.00  -0.00
    43   6    -0.00  -0.00  -0.00     0.00   0.00  -0.00    -0.00   0.00   0.00
    44   6     0.00  -0.00   0.00    -0.00   0.00  -0.00     0.00  -0.00   0.00
    45   1    -0.00   0.00   0.00     0.00  -0.01  -0.00    -0.00  -0.00  -0.00
    46   1     0.00   0.00   0.00    -0.01  -0.00   0.00     0.01   0.00  -0.01
    47   1     0.00   0.00   0.00    -0.00   0.00  -0.00     0.00  -0.01  -0.00
    48   1     0.00  -0.01   0.00    -0.00   0.02  -0.00    -0.00   0.01   0.04
    49   1    -0.00   0.00   0.01     0.00  -0.01  -0.01     0.00   0.02  -0.01
    50   1    -0.02   0.01  -0.01     0.02  -0.03   0.02    -0.01   0.02  -0.01
    51   1    -0.01  -0.01  -0.01     0.01   0.01   0.03     0.01  -0.00  -0.02
    52   6     0.00   0.03   0.00     0.01  -0.05  -0.03    -0.00  -0.00   0.00
    53   1    -0.06  -0.29  -0.08     0.20   0.61   0.13    -0.03  -0.00   0.01
    54   1     0.14  -0.12   0.13    -0.34   0.13  -0.17     0.02   0.04  -0.03
    55   1    -0.13   0.04  -0.11     0.29  -0.02   0.37    -0.01  -0.02  -0.05
                    124                    125                    126
                      A                      A                      A
 Frequencies --   1476.3296              1486.0548              1486.6493
 Red. masses --      1.0627                 1.0581                 1.0547
 Frc consts  --      1.3646                 1.3768                 1.3734
 IR Inten    --      0.0000                 0.0000                 0.0000
  Atom  AN      X      Y      Z        X      Y      Z        X      Y      Z
     1  26    -0.00  -0.00   0.00    -0.00  -0.00   0.00    -0.00   0.00  -0.00
     2   6    -0.00   0.00  -0.00     0.00   0.00   0.00    -0.00  -0.00  -0.00
     3  46     0.00  -0.00  -0.00     0.00  -0.00   0.00     0.00  -0.00   0.00
     4   6     0.01  -0.00   0.01     0.01   0.00   0.00     0.00   0.00  -0.00
     5   1     0.00   0.00  -0.00     0.00   0.00  -0.00    -0.00  -0.00   0.00
     6   1    -0.00   0.01  -0.00    -0.00   0.01  -0.00    -0.00   0.00   0.00
     7   1     0.02   0.01   0.01     0.02   0.00  -0.00     0.01  -0.00   0.00
     8   6    -0.00  -0.00   0.00    -0.00  -0.00  -0.00    -0.00  -0.00   0.00
     9   8     0.00   0.00   0.00    -0.00  -0.00  -0.00     0.00   0.00   0.00
    10   6     0.01   0.01  -0.01    -0.00   0.00  -0.00    -0.00   0.00   0.00
    11   8     0.00   0.00   0.00     0.00   0.00   0.00     0.00   0.00   0.00
    12   6    -0.00  -0.00   0.00    -0.00   0.00  -0.00     0.00   0.00  -0.00
    13   6     0.00   0.00  -0.00    -0.00  -0.00   0.00    -0.00  -0.00   0.00
    14   6    -0.00  -0.01   0.00     0.00  -0.00   0.00     0.00   0.00  -0.00
    15   1    -0.00   0.00  -0.00     0.00  -0.00  -0.00     0.00   0.00   0.00
    16   1    -0.00   0.00  -0.00     0.00   0.00   0.00     0.00   0.00  -0.00
    17   1     0.00   0.01  -0.00     0.00   0.00  -0.00     0.00  -0.00   0.00
    18   1    -0.00  -0.02   0.01     0.01   0.00   0.00     0.00   0.00   0.00
    19   6    -0.00  -0.00   0.00     0.00  -0.00   0.00     0.00  -0.00  -0.00
    20   6     0.00   0.00   0.00    -0.00  -0.00   0.00     0.00   0.00  -0.00
    21   8    -0.00  -0.00   0.00     0.00   0.00  -0.00     0.00   0.00  -0.00
    22   6     0.00  -0.00   0.00     0.00  -0.00   0.00     0.00   0.00  -0.00
    23   6    -0.00   0.00  -0.00     0.00  -0.00   0.00    -0.00  -0.00   0.00
    24   6    -0.00  -0.00   0.00    -0.00  -0.00   0.00     0.00   0.00  -0.00
    25   6     0.00  -0.00   0.00     0.00   0.00  -0.00    -0.00   0.00  -0.00
    26   6    -0.00   0.00  -0.00    -0.00  -0.00   0.00     0.00  -0.00   0.00
    27   1     0.00   0.00  -0.00     0.00   0.00  -0.00    -0.01  -0.02   0.01
    28   7     0.00  -0.00  -0.00    -0.00   0.00  -0.00     0.00   0.00   0.00
    29   1    -0.00  -0.00  -0.00     0.00   0.01   0.00    -0.00  -0.02  -0.00
    30   1    -0.09  -0.06  -0.05    -0.07  -0.02  -0.06    -0.02  -0.01  -0.02
    31   1    -0.10   0.04   0.04    -0.06   0.02   0.03    -0.02   0.01   0.01
    32   1     0.00   0.00  -0.00     0.00   0.00   0.00    -0.00  -0.00  -0.00
    33   7    -0.00  -0.00  -0.01     0.01  -0.02   0.00     0.00  -0.01   0.00
    34   6    -0.03  -0.01  -0.06    -0.00   0.00   0.01    -0.00   0.00   0.00
    35   6     0.01  -0.00   0.01     0.02  -0.06  -0.00     0.01  -0.02  -0.00
    36   1     0.10   0.02   0.68    -0.07   0.06  -0.08    -0.02   0.02  -0.02
    37   1     0.39   0.43   0.11     0.04  -0.07   0.01     0.01  -0.02   0.00
    38   1    -0.07  -0.31  -0.04     0.07   0.08  -0.07     0.02   0.03  -0.02
    39   1    -0.11   0.08   0.00    -0.40   0.28  -0.32    -0.11   0.08  -0.09
    40   1     0.04   0.01  -0.03     0.12   0.63  -0.00     0.03   0.18  -0.00
    41   1    -0.11  -0.07  -0.02    -0.03  -0.13   0.32    -0.01  -0.04   0.09
    42   6    -0.00   0.00   0.00     0.00   0.00  -0.00    -0.01   0.00   0.02
    43   6    -0.00  -0.00  -0.00     0.01   0.00  -0.01    -0.05  -0.01   0.03
    44   6     0.00   0.00  -0.00    -0.00  -0.00   0.00     0.01   0.01   0.00
    45   1    -0.00   0.00   0.00     0.01  -0.12  -0.01    -0.03   0.43   0.02
    46   1     0.00   0.00  -0.00    -0.16  -0.03   0.11     0.55   0.10  -0.39
    47   1     0.00  -0.00   0.00    -0.06   0.12   0.01     0.19  -0.44  -0.03
    48   1     0.00  -0.00  -0.00     0.00   0.00   0.02    -0.01  -0.02  -0.07
    49   1    -0.00  -0.00   0.00    -0.00   0.02  -0.02     0.00  -0.07   0.06
    50   1    -0.00   0.00  -0.00     0.01  -0.02   0.01    -0.05   0.07  -0.05
    51   1    -0.00  -0.00  -0.00     0.03   0.01   0.02    -0.11  -0.06  -0.06
    52   6     0.00  -0.00  -0.00     0.00   0.00  -0.00    -0.00  -0.00   0.00
    53   1     0.01   0.01  -0.00    -0.00  -0.00  -0.00     0.00   0.01   0.00
    54   1    -0.01  -0.00   0.00    -0.00  -0.00   0.00    -0.00   0.01  -0.01
    55   1     0.01   0.00   0.01    -0.00   0.00   0.00     0.01  -0.01  -0.00
                    127                    128                    129
                      A                      A                      A
 Frequencies --   1501.1150              1505.2715              1507.7504
 Red. masses --      1.0593                 1.0586                 1.0572
 Frc consts  --      1.4063                 1.4132                 1.4161
 IR Inten    --      0.0000                 0.0000                 0.0000
  Atom  AN      X      Y      Z        X      Y      Z        X      Y      Z
     1  26     0.00   0.00   0.00     0.00   0.00  -0.00    -0.00   0.00  -0.00
     2   6    -0.00  -0.00  -0.00    -0.00   0.00  -0.00     0.00   0.00   0.00
     3  46     0.00  -0.00  -0.00     0.00  -0.00   0.00     0.00   0.00   0.00
     4   6     0.00   0.00  -0.00     0.00  -0.00   0.00     0.00  -0.00   0.00
     5   1    -0.00  -0.00   0.00    -0.01  -0.00   0.00     0.00   0.00  -0.00
     6   1    -0.00  -0.00   0.00    -0.01  -0.00   0.00    -0.00   0.00  -0.00
     7   1    -0.00  -0.00   0.00    -0.09  -0.04  -0.03     0.00   0.00   0.00
     8   6    -0.00  -0.00   0.00    -0.00   0.00   0.00    -0.00   0.00  -0.00
     9   8     0.00   0.00   0.00     0.00  -0.00   0.00    -0.00   0.00  -0.00
    10   6    -0.00  -0.00   0.00    -0.00  -0.00   0.00    -0.00   0.00  -0.00
    11   8     0.00   0.00   0.00     0.00   0.00   0.00     0.00   0.00   0.00
    12   6     0.00   0.00  -0.00    -0.00   0.00  -0.00    -0.00   0.00  -0.00
    13   6    -0.00  -0.00   0.00    -0.00  -0.00   0.00     0.00  -0.00   0.00
    14   6     0.00   0.00  -0.00     0.00   0.00  -0.00     0.00  -0.00   0.00
    15   1     0.01  -0.01   0.00     0.00  -0.00   0.00     0.01  -0.01   0.00
    16   1     0.00  -0.00   0.00     0.00  -0.00  -0.00    -0.00  -0.00   0.00
    17   1     0.00  -0.00   0.00    -0.00  -0.00   0.00     0.00  -0.00   0.00
    18   1     0.01   0.00   0.00    -0.00  -0.00   0.00     0.01   0.00   0.00
    19   6     0.00  -0.00   0.00     0.00  -0.00  -0.00     0.00  -0.00  -0.00
    20   6     0.00  -0.00   0.00     0.00   0.00   0.00     0.00   0.00  -0.00
    21   8     0.00   0.00  -0.00     0.00  -0.00  -0.00    -0.00  -0.00   0.00
    22   6    -0.00   0.00  -0.00    -0.00   0.01  -0.01     0.00  -0.00   0.00
    23   6     0.00  -0.00   0.00     0.00  -0.01   0.00     0.00   0.00  -0.00
    24   6     0.00   0.00  -0.00     0.00   0.00  -0.00    -0.00   0.00  -0.00
    25   6    -0.00   0.00  -0.00    -0.01   0.00  -0.00     0.00  -0.00   0.00
    26   6     0.00  -0.00   0.00     0.01  -0.01   0.01    -0.00   0.00  -0.00
    27   1    -0.01  -0.02   0.01    -0.01  -0.01   0.01     0.00   0.01  -0.01
    28   7    -0.00   0.00  -0.00    -0.00  -0.00  -0.00     0.00   0.00   0.00
    29   1     0.00  -0.00   0.01    -0.00  -0.00  -0.00    -0.00  -0.02   0.00
    30   1    -0.00  -0.00   0.00     0.01   0.02  -0.03    -0.00   0.00  -0.00
    31   1    -0.00   0.00  -0.00     0.01  -0.01   0.01    -0.00   0.00  -0.00
    32   1    -0.00  -0.00   0.00    -0.01   0.00  -0.00    -0.00   0.00   0.00
    33   7     0.00   0.00   0.00    -0.02  -0.00  -0.00     0.00  -0.00   0.00
    34   6     0.00  -0.00   0.00    -0.01  -0.01  -0.01    -0.00  -0.00   0.00
    35   6     0.00   0.00   0.00    -0.05  -0.02  -0.02     0.00  -0.00   0.00
    36   1    -0.00   0.00  -0.00    -0.04   0.05   0.12    -0.00   0.00  -0.00
    37   1    -0.00  -0.00  -0.00     0.12   0.08   0.03     0.00  -0.00   0.00
    38   1     0.00   0.00   0.00     0.04  -0.02  -0.06     0.00   0.00  -0.00
    39   1    -0.01   0.01   0.00     0.38  -0.29  -0.22    -0.01   0.00   0.00
    40   1     0.00  -0.01  -0.01    -0.17   0.27   0.21     0.00  -0.00  -0.00
    41   1    -0.01  -0.01  -0.01     0.59   0.33   0.23    -0.01  -0.01  -0.00
    42   6    -0.00   0.00  -0.01    -0.00  -0.00  -0.00    -0.01  -0.02  -0.01
    43   6    -0.02   0.03  -0.04    -0.00   0.00  -0.00     0.00  -0.01   0.02
    44   6     0.00  -0.04  -0.00    -0.00  -0.00  -0.00    -0.04  -0.03  -0.03
    45   1    -0.01  -0.25   0.51    -0.00  -0.00   0.01     0.00   0.17  -0.17
    46   1    -0.15  -0.09  -0.18    -0.00  -0.00  -0.00     0.16   0.05  -0.03
    47   1     0.52  -0.10   0.15     0.01  -0.00   0.00    -0.14  -0.07  -0.06
    48   1    -0.01  -0.01  -0.00    -0.00  -0.00  -0.00    -0.01   0.02   0.03
    49   1    -0.01   0.39   0.10    -0.00   0.01  -0.00    -0.00   0.45  -0.18
    50   1    -0.28   0.07   0.03    -0.00  -0.00   0.00     0.07  -0.31   0.26
    51   1     0.22   0.04  -0.07     0.01   0.00   0.00     0.55   0.28   0.28
    52   6    -0.00  -0.00   0.00     0.00  -0.00   0.00     0.00   0.00   0.00
    53   1    -0.00   0.01   0.01     0.00   0.00  -0.00    -0.01  -0.02  -0.00
    54   1     0.01   0.02  -0.02     0.00   0.00  -0.00     0.01  -0.00   0.00
    55   1     0.01  -0.02  -0.02     0.00  -0.00   0.00    -0.02   0.00  -0.02
                    130                    131                    132
                      A                      A                      A
 Frequencies --   1515.1304              1686.1566              1752.9501
 Red. masses --      1.0576                 9.3665                12.4512
 Frc consts  --      1.4305                15.6901                22.5424
 IR Inten    --      0.0000                 0.0000                 0.0000
  Atom  AN      X      Y      Z        X      Y      Z        X      Y      Z
     1  26     0.00  -0.00  -0.00    -0.00   0.00   0.00     0.00  -0.00   0.00
     2   6    -0.00  -0.00  -0.00    -0.02  -0.00  -0.00     0.66   0.30   0.42
     3  46     0.00  -0.00   0.00    -0.00  -0.00   0.00    -0.00   0.00   0.00
     4   6    -0.00  -0.00   0.00     0.00  -0.00  -0.00    -0.00   0.00  -0.00
     5   1    -0.00  -0.00   0.00     0.00  -0.00  -0.00    -0.00   0.00   0.00
     6   1    -0.00  -0.00   0.00     0.00  -0.00  -0.00    -0.00  -0.00  -0.00
     7   1    -0.00  -0.00  -0.00     0.00   0.00  -0.00    -0.01   0.01   0.00
     8   6     0.00   0.00  -0.00    -0.11   0.43   0.48    -0.01   0.01   0.01
     9   8     0.00   0.00   0.00     0.01   0.00   0.01    -0.30  -0.12  -0.33
    10   6     0.00   0.00  -0.00    -0.00   0.00  -0.00    -0.00   0.00   0.00
    11   8    -0.00  -0.00  -0.00    -0.04  -0.07  -0.08    -0.00   0.00   0.00
    12   6    -0.00  -0.00   0.00    -0.00   0.00  -0.00    -0.00   0.00   0.00
    13   6     0.00   0.00  -0.00     0.00   0.00  -0.00     0.00  -0.00   0.00
    14   6    -0.00  -0.00   0.00    -0.00  -0.00   0.00     0.00  -0.00   0.00
    15   1    -0.01   0.01  -0.01     0.00  -0.00   0.01     0.00  -0.00   0.00
    16   1    -0.00   0.00   0.00    -0.00   0.00   0.00     0.00  -0.00  -0.00
    17   1    -0.00   0.00  -0.00     0.00   0.00   0.00    -0.00  -0.01  -0.00
    18   1    -0.00  -0.00  -0.00    -0.19   0.31   0.28     0.04  -0.03  -0.02
    19   6    -0.00   0.00  -0.00     0.00  -0.01  -0.00     0.00   0.00   0.00
    20   6     0.00  -0.00   0.00     0.04   0.05   0.05    -0.02  -0.01  -0.00
    21   8     0.00   0.00  -0.00     0.01   0.00   0.00    -0.17  -0.10   0.01
    22   6    -0.00   0.00  -0.00    -0.00   0.00   0.00     0.00  -0.00  -0.00
    23   6     0.00  -0.00   0.00    -0.00  -0.00   0.00     0.00  -0.00   0.00
    24   6     0.00  -0.00   0.00     0.00  -0.00   0.00     0.00  -0.00   0.00
    25   6    -0.00   0.00  -0.00    -0.00   0.00  -0.00    -0.00  -0.00   0.00
    26   6     0.00  -0.00   0.00     0.00   0.00   0.00    -0.00  -0.00  -0.00
    27   1    -0.00  -0.01   0.00     0.00  -0.00  -0.00    -0.00   0.03  -0.00
    28   7    -0.00   0.00   0.00     0.09  -0.34  -0.37     0.01  -0.01  -0.03
    29   1     0.00  -0.00  -0.00     0.00  -0.05  -0.04     0.03  -0.01   0.15
    30   1    -0.00  -0.00  -0.00    -0.01  -0.00  -0.00     0.00   0.01  -0.00
    31   1    -0.00   0.00   0.00    -0.01   0.00   0.01     0.00  -0.00  -0.00
    32   1     0.00  -0.00   0.00     0.00  -0.00  -0.00     0.00  -0.00   0.00
    33   7     0.00  -0.00   0.00     0.00  -0.00  -0.00     0.00   0.00  -0.00
    34   6    -0.00  -0.00   0.00    -0.00   0.00   0.00     0.00   0.00  -0.00
    35   6     0.00  -0.00   0.00     0.00  -0.00  -0.00     0.00   0.00   0.00
    36   1    -0.00   0.00  -0.00     0.01  -0.00  -0.01     0.01  -0.01   0.01
    37   1     0.00  -0.00   0.00    -0.02  -0.00  -0.01    -0.00  -0.00  -0.00
    38   1     0.00   0.00  -0.00    -0.00  -0.00   0.01    -0.01  -0.02  -0.00
    39   1    -0.00   0.00  -0.00    -0.00   0.00   0.00     0.00  -0.01   0.01
    40   1     0.00   0.00  -0.00    -0.00  -0.00   0.00    -0.01  -0.01   0.01
    41   1    -0.00  -0.00   0.00    -0.00  -0.00  -0.00    -0.00   0.00   0.00
    42   6    -0.01   0.02  -0.01     0.01   0.02   0.01    -0.00   0.01   0.00
    43   6    -0.02   0.01  -0.02    -0.00  -0.00  -0.00    -0.01   0.01  -0.00
    44   6    -0.04   0.04  -0.00     0.00  -0.00  -0.00    -0.00  -0.00  -0.00
    45   1    -0.01  -0.10   0.29    -0.00   0.00  -0.00     0.00  -0.03   0.05
    46   1    -0.05  -0.05  -0.13     0.00   0.00   0.01     0.00  -0.02  -0.05
    47   1     0.30  -0.07   0.08    -0.00   0.00  -0.00     0.08  -0.09   0.00
    48   1    -0.02  -0.03   0.02    -0.00  -0.01  -0.01     0.01   0.00  -0.02
    49   1     0.01  -0.40  -0.32    -0.00   0.00   0.01     0.00   0.00   0.01
    50   1     0.55  -0.29   0.08    -0.01  -0.01   0.01     0.00   0.01  -0.01
    51   1    -0.05   0.10   0.31    -0.00   0.00   0.01    -0.00  -0.00   0.01
    52   6     0.00   0.00  -0.00     0.02  -0.03  -0.03     0.00  -0.00   0.00
    53   1    -0.01  -0.03  -0.01    -0.02   0.01   0.01    -0.00   0.01   0.00
    54   1    -0.01  -0.03   0.03     0.27  -0.00  -0.02    -0.00   0.00  -0.00
    55   1    -0.03   0.03   0.01    -0.01   0.00   0.01     0.00  -0.00   0.00
                    133                    134                    135
                      A                      A                      A
 Frequencies --   2825.6591              2861.9956              2869.3592
 Red. masses --      1.0739                 1.0740                 1.0707
 Frc consts  --      5.0521                 5.1832                 5.1938
 IR Inten    --      0.0000                 0.0000                 0.0000
  Atom  AN      X      Y      Z        X      Y      Z        X      Y      Z
     1  26     0.00   0.00   0.00     0.00   0.00  -0.00    -0.00   0.00   0.00
     2   6    -0.00  -0.00  -0.00     0.00   0.00   0.00     0.00   0.00   0.00
     3  46     0.00  -0.00  -0.00     0.00  -0.00   0.00    -0.00  -0.00  -0.00
     4   6    -0.00   0.00   0.00     0.01   0.02   0.01    -0.03  -0.06  -0.03
     5   1    -0.00   0.00  -0.00    -0.00   0.00  -0.00     0.00   0.00   0.00
     6   1    -0.00  -0.00  -0.00    -0.00  -0.00   0.00     0.00   0.00  -0.00
     7   1     0.00  -0.00   0.00    -0.00   0.00  -0.00    -0.00   0.00  -0.00
     8   6    -0.00   0.00   0.00     0.00  -0.00  -0.00     0.00  -0.00  -0.00
     9   8     0.00   0.00   0.00    -0.00  -0.00  -0.00    -0.00  -0.00  -0.00
    10   6     0.00   0.00   0.00     0.00   0.00   0.00    -0.00  -0.00  -0.00
    11   8    -0.00  -0.00  -0.00    -0.00   0.00   0.00     0.00   0.00   0.00
    12   6    -0.00  -0.00  -0.00     0.00   0.00  -0.00     0.00  -0.00   0.00
    13   6     0.00  -0.00   0.00     0.00  -0.00   0.00    -0.00   0.00  -0.00
    14   6     0.00   0.00   0.00     0.00  -0.00   0.00     0.00   0.00  -0.00
    15   1     0.00  -0.00  -0.00     0.00   0.00  -0.00    -0.00  -0.00   0.00
    16   1    -0.00   0.00   0.00     0.00   0.00  -0.00     0.00  -0.00   0.00
    17   1    -0.00   0.00   0.00     0.00   0.00   0.00    -0.00  -0.00   0.00
    18   1     0.00   0.00   0.00     0.00  -0.00  -0.00     0.00  -0.00  -0.00
    19   6    -0.00   0.00   0.00    -0.00   0.00   0.00     0.00   0.00  -0.00
    20   6     0.00   0.00  -0.00    -0.00   0.00   0.00    -0.00   0.00   0.00
    21   8     0.00   0.00  -0.00    -0.00  -0.00  -0.00    -0.00  -0.00   0.00
    22   6    -0.00  -0.00   0.00     0.00   0.00  -0.00     0.00  -0.00   0.00
    23   6    -0.00   0.00  -0.00    -0.00   0.00   0.00    -0.00   0.00  -0.00
    24   6     0.00  -0.00   0.00     0.00  -0.00   0.00    -0.00   0.00  -0.00
    25   6     0.00  -0.00  -0.00     0.00   0.00  -0.00    -0.00  -0.00   0.00
    26   6     0.00   0.00  -0.00    -0.00  -0.00  -0.00     0.00  -0.00   0.00
    27   1    -0.00   0.00   0.01    -0.00   0.00  -0.00    -0.00   0.00  -0.00
    28   7     0.00  -0.00   0.00     0.00   0.00   0.00    -0.00   0.00   0.00
    29   1    -0.05   0.01   0.00     0.00  -0.00  -0.00     0.01  -0.00  -0.00
    30   1     0.00  -0.00  -0.00     0.02  -0.00  -0.01    -0.04  -0.01   0.00
    31   1     0.00   0.00   0.00    -0.17  -0.29  -0.14     0.43   0.73   0.35
    32   1    -0.01   0.00   0.00    -0.00  -0.00   0.00     0.00   0.00  -0.00
    33   7    -0.00   0.00  -0.00     0.00  -0.01   0.00    -0.00  -0.00  -0.00
    34   6     0.00  -0.00   0.00    -0.05  -0.05   0.01    -0.02  -0.02   0.01
    35   6    -0.00   0.00   0.00     0.00   0.00  -0.00     0.01   0.01   0.00
    36   1     0.00   0.00  -0.00     0.61   0.68  -0.12     0.23   0.27  -0.04
    37   1    -0.00  -0.00   0.00    -0.02  -0.02  -0.03    -0.01  -0.01  -0.03
    38   1    -0.00   0.00  -0.00     0.06  -0.05   0.08    -0.01  -0.01   0.00
    39   1     0.00   0.00   0.00    -0.01  -0.01  -0.00    -0.08  -0.11  -0.00
    40   1    -0.00   0.00  -0.00     0.01  -0.00   0.01    -0.00   0.01  -0.01
    41   1     0.00  -0.00  -0.00     0.01  -0.01  -0.00     0.01  -0.00  -0.00
    42   6    -0.08   0.00  -0.01     0.00   0.00   0.00     0.00   0.00   0.00
    43   6     0.00  -0.00  -0.00    -0.00  -0.00   0.00    -0.00  -0.00   0.00
    44   6     0.00  -0.00   0.00    -0.00  -0.00  -0.00    -0.00  -0.00  -0.00
    45   1    -0.03  -0.00  -0.00     0.00  -0.00   0.00     0.00   0.00   0.00
    46   1    -0.00   0.01  -0.00    -0.00   0.00  -0.00    -0.00   0.00  -0.00
    47   1     0.00  -0.00   0.00     0.00   0.00   0.00     0.00   0.00  -0.00
    48   1     0.99  -0.04   0.09    -0.00   0.00  -0.00    -0.00   0.00  -0.00
    49   1    -0.03  -0.00  -0.00     0.00  -0.00   0.00     0.00   0.00   0.00
    50   1    -0.00  -0.01  -0.01     0.00   0.00   0.00     0.00   0.00   0.00
    51   1    -0.00   0.01  -0.00    -0.00   0.00  -0.00    -0.00   0.00  -0.00
    52   6     0.00  -0.00  -0.00    -0.00   0.00   0.00    -0.00   0.00   0.00
    53   1    -0.00  -0.00  -0.00    -0.00   0.00  -0.00    -0.00   0.00  -0.00
    54   1     0.00   0.00   0.00    -0.00   0.00   0.00    -0.00  -0.00  -0.00
    55   1    -0.00   0.00  -0.00    -0.00  -0.00   0.00     0.00  -0.00   0.00
                    136                    137                    138
                      A                      A                      A
 Frequencies --   2892.5668              2904.3901              2915.8568
 Red. masses --      1.0702                 1.0730                 1.0658
 Frc consts  --      5.2760                 5.3327                 5.3388
 IR Inten    --      0.0000                 0.0000                 0.0000
  Atom  AN      X      Y      Z        X      Y      Z        X      Y      Z
     1  26     0.00   0.00  -0.00     0.00   0.00  -0.00    -0.00  -0.00  -0.00
     2   6     0.00   0.00   0.00    -0.00  -0.00  -0.00     0.00   0.00   0.00
     3  46     0.00   0.00  -0.00    -0.00  -0.00  -0.00     0.00   0.00  -0.00
     4   6    -0.00  -0.01  -0.00     0.00   0.00   0.00    -0.00  -0.00  -0.00
     5   1    -0.00   0.00  -0.00     0.00  -0.00  -0.00    -0.00   0.00  -0.00
     6   1     0.00  -0.00  -0.00     0.00   0.00  -0.00    -0.00  -0.00  -0.00
     7   1     0.00   0.00  -0.00     0.00  -0.00   0.00    -0.00   0.00  -0.00
     8   6    -0.00  -0.00  -0.00    -0.00   0.00   0.00     0.00   0.00  -0.00
     9   8    -0.00  -0.00  -0.00     0.00   0.00   0.00    -0.00  -0.00  -0.00
    10   6    -0.00  -0.00  -0.00     0.00   0.00   0.00    -0.00  -0.00   0.00
    11   8     0.00   0.00   0.00     0.00  -0.00  -0.00    -0.00  -0.00   0.00
    12   6     0.00   0.00  -0.00    -0.00  -0.00   0.00    -0.00  -0.00   0.00
    13   6    -0.00   0.00  -0.00     0.00  -0.00   0.00     0.00  -0.00   0.00
    14   6     0.00   0.00  -0.00     0.00   0.00   0.00     0.00  -0.00  -0.00
    15   1    -0.00  -0.00   0.00     0.00   0.00  -0.00     0.00   0.00  -0.00
    16   1     0.00  -0.00  -0.00    -0.00   0.00   0.00     0.00   0.00  -0.00
    17   1    -0.00  -0.00   0.00     0.00   0.00   0.00    -0.00   0.00   0.00
    18   1     0.00  -0.00  -0.00    -0.00   0.00   0.00     0.00  -0.00  -0.00
    19   6    -0.00   0.00  -0.00     0.00  -0.00   0.00    -0.00   0.00   0.00
    20   6    -0.00   0.00   0.00    -0.07   0.01   0.01     0.00  -0.00  -0.00
    21   8    -0.00  -0.00  -0.00     0.00   0.00   0.00    -0.00  -0.00  -0.00
    22   6     0.00  -0.00   0.00    -0.00   0.00   0.00    -0.00   0.00  -0.00
    23   6    -0.00   0.00  -0.00    -0.00  -0.00   0.00    -0.00  -0.00   0.00
    24   6     0.00   0.00   0.00     0.00  -0.00   0.00     0.00  -0.00   0.00
    25   6    -0.00  -0.00   0.00     0.00  -0.00   0.00     0.00   0.00  -0.00
    26   6    -0.00  -0.00   0.00     0.00   0.00  -0.00     0.00  -0.00  -0.00
    27   1    -0.00   0.00  -0.00     0.00  -0.00   0.00     0.00  -0.00   0.00
    28   7    -0.00  -0.00   0.00    -0.00  -0.00  -0.00     0.00   0.00   0.00
    29   1     0.03  -0.01  -0.00     0.98  -0.14  -0.10    -0.02   0.00   0.00
    30   1    -0.01   0.00   0.00     0.00   0.00   0.00    -0.01   0.00   0.00
    31   1     0.06   0.10   0.05    -0.00  -0.01  -0.00     0.02   0.03   0.02
    32   1     0.00   0.00  -0.00    -0.00   0.00  -0.00     0.00   0.00  -0.00
    33   7    -0.00  -0.00   0.00     0.00   0.00  -0.00    -0.00   0.00  -0.00
    34   6    -0.00  -0.00  -0.00    -0.00   0.00  -0.00    -0.06   0.02  -0.04
    35   6    -0.04  -0.06  -0.01     0.00   0.00   0.00     0.00   0.00   0.00
    36   1     0.04   0.05  -0.00    -0.01  -0.01   0.00    -0.09  -0.07  -0.01
    37   1    -0.01  -0.00   0.02     0.00   0.00  -0.00    -0.01   0.00  -0.05
    38   1     0.02  -0.01   0.02     0.01  -0.00   0.01     0.78  -0.18   0.58
    39   1     0.59   0.79  -0.02    -0.02  -0.03   0.00    -0.01  -0.02  -0.00
    40   1     0.01  -0.04   0.03     0.00   0.00  -0.00    -0.01   0.00  -0.01
    41   1    -0.05  -0.00   0.00     0.00   0.00  -0.00    -0.00   0.01   0.00
    42   6    -0.00   0.00   0.00    -0.01   0.00  -0.00    -0.00  -0.00  -0.00
    43   6    -0.00  -0.00   0.00     0.00  -0.00   0.00    -0.00  -0.00  -0.00
    44   6    -0.00  -0.00   0.00     0.00  -0.00   0.00     0.00   0.00   0.00
    45   1     0.00   0.00   0.00    -0.02   0.00  -0.00     0.00  -0.00  -0.00
    46   1    -0.00   0.00  -0.00    -0.00   0.01  -0.00    -0.00   0.00  -0.00
    47   1     0.00   0.00  -0.00     0.00   0.00  -0.00    -0.00  -0.00   0.00
    48   1    -0.00   0.00  -0.00     0.04  -0.00   0.00     0.00  -0.00   0.00
    49   1     0.00   0.00   0.00    -0.02   0.00  -0.00     0.00   0.00   0.00
    50   1     0.00   0.00   0.00     0.00   0.00   0.00    -0.00  -0.00  -0.00
    51   1    -0.00   0.00  -0.00    -0.00   0.01  -0.00    -0.00   0.00  -0.00
    52   6    -0.00   0.00   0.00     0.00   0.00   0.00    -0.00  -0.00   0.00
    53   1    -0.00   0.00  -0.00    -0.00   0.00  -0.01    -0.00   0.00  -0.00
    54   1    -0.00  -0.00  -0.00     0.00  -0.00  -0.00     0.00   0.00   0.00
    55   1    -0.00  -0.00   0.00    -0.00  -0.01   0.00     0.00   0.00  -0.00
                    139                    140                    141
                      A                      A                      A
 Frequencies --   2979.7249              3010.3094              3013.6032
 Red. masses --      1.0717                 1.0716                 1.0656
 Frc consts  --      5.6065                 5.7215                 5.7019
 IR Inten    --      0.0000                 0.0000                 0.0000
  Atom  AN      X      Y      Z        X      Y      Z        X      Y      Z
     1  26     0.00   0.00  -0.00     0.00  -0.00  -0.00    -0.00   0.00   0.00
     2   6    -0.00  -0.00  -0.00     0.00  -0.00  -0.00     0.00   0.00   0.00
     3  46    -0.00  -0.00  -0.00     0.00   0.00  -0.00    -0.00   0.00  -0.00
     4   6    -0.00   0.00   0.00     0.03  -0.03  -0.02    -0.04   0.03   0.03
     5   1     0.00  -0.00   0.00    -0.00   0.00  -0.00    -0.00   0.00  -0.00
     6   1     0.00   0.00  -0.00     0.00  -0.00  -0.00    -0.00   0.00   0.00
     7   1    -0.00  -0.00   0.00     0.00  -0.00   0.01     0.00  -0.00   0.01
     8   6    -0.00   0.00   0.00    -0.00   0.00   0.00     0.00   0.00   0.00
     9   8     0.00   0.00   0.00    -0.00  -0.00   0.00    -0.00  -0.00  -0.00
    10   6    -0.00  -0.00   0.00     0.00  -0.00  -0.00    -0.00   0.00   0.00
    11   8    -0.00   0.00  -0.00    -0.00   0.00   0.00     0.00  -0.00  -0.00
    12   6     0.00   0.00  -0.00    -0.00  -0.00   0.00     0.00   0.00  -0.00
    13   6    -0.00   0.00  -0.00     0.00  -0.00  -0.00    -0.00  -0.00   0.00
    14   6     0.00  -0.00  -0.00    -0.00   0.00   0.00     0.00  -0.00  -0.00
    15   1    -0.00  -0.00  -0.00     0.00   0.00  -0.00    -0.00  -0.00   0.00
    16   1     0.00  -0.00  -0.00    -0.00   0.00  -0.00     0.00  -0.00   0.00
    17   1    -0.00  -0.00  -0.00     0.00  -0.00  -0.00    -0.01   0.00   0.00
    18   1     0.00   0.00  -0.00     0.00  -0.00  -0.00    -0.00   0.00   0.00
    19   6     0.00   0.00  -0.00    -0.00   0.00  -0.00     0.00   0.00   0.00
    20   6    -0.00   0.00   0.00     0.00  -0.00  -0.00     0.00  -0.00   0.00
    21   8     0.00  -0.00   0.00    -0.00  -0.00   0.00    -0.00  -0.00   0.00
    22   6     0.00  -0.00   0.00     0.00  -0.00   0.00    -0.00  -0.00  -0.00
    23   6     0.00   0.00  -0.00    -0.00   0.00  -0.00    -0.00  -0.00   0.00
    24   6    -0.00   0.00  -0.00     0.00   0.00   0.00    -0.00  -0.00   0.00
    25   6    -0.00  -0.00   0.00    -0.00  -0.00  -0.00     0.00   0.00   0.00
    26   6    -0.00   0.00   0.00    -0.00   0.00  -0.00    -0.00   0.00  -0.00
    27   1    -0.00   0.00  -0.00    -0.00   0.00  -0.00     0.00   0.00   0.00
    28   7    -0.00  -0.00  -0.00     0.00  -0.00  -0.00    -0.00  -0.00  -0.00
    29   1     0.00  -0.00  -0.00    -0.00   0.00   0.00    -0.00   0.00   0.00
    30   1     0.02  -0.02  -0.01    -0.40   0.37   0.29     0.50  -0.46  -0.36
    31   1     0.01   0.01   0.01     0.01  -0.03  -0.02    -0.00   0.04   0.03
    32   1    -0.00  -0.00   0.00    -0.00  -0.00   0.00     0.00   0.00  -0.00
    33   7     0.00  -0.00  -0.00     0.00  -0.00  -0.00    -0.00   0.00  -0.00
    34   6     0.02   0.00  -0.07     0.00   0.00  -0.00    -0.00   0.00  -0.00
    35   6     0.00   0.00   0.00    -0.04   0.01  -0.04    -0.03   0.00  -0.03
    36   1     0.03   0.03  -0.04    -0.00   0.00  -0.00    -0.01  -0.01   0.00
    37   1    -0.27  -0.04   0.96    -0.01  -0.00   0.04     0.00  -0.00  -0.00
    38   1     0.03  -0.00  -0.01     0.01  -0.00   0.00     0.01  -0.00   0.01
    39   1    -0.01  -0.02   0.00    -0.05  -0.03  -0.01    -0.03  -0.02  -0.01
    40   1    -0.03   0.01  -0.02     0.56  -0.09   0.52     0.46  -0.08   0.42
    41   1     0.00  -0.00  -0.00     0.00  -0.03  -0.02    -0.07   0.08   0.01
    42   6     0.00   0.00   0.00    -0.00   0.00  -0.00     0.00  -0.00  -0.00
    43   6     0.00   0.00   0.00    -0.00   0.00  -0.00     0.00  -0.00  -0.00
    44   6    -0.00  -0.00  -0.00     0.00   0.00   0.00    -0.00  -0.00  -0.00
    45   1    -0.00   0.00   0.00     0.00   0.00   0.00    -0.00  -0.00  -0.00
    46   1     0.00  -0.00   0.00     0.00  -0.00   0.00    -0.00   0.00  -0.00
    47   1     0.00   0.00  -0.00     0.00   0.00  -0.00    -0.00  -0.00   0.00
    48   1    -0.00   0.00  -0.00     0.00  -0.00  -0.00    -0.00   0.00   0.00
    49   1    -0.00  -0.00  -0.00    -0.00   0.00   0.00     0.00  -0.00  -0.00
    50   1     0.00   0.00   0.00    -0.00  -0.00  -0.00     0.01   0.01   0.01
    51   1     0.00  -0.00   0.00     0.00  -0.00   0.00    -0.00   0.01  -0.00
    52   6     0.00   0.00  -0.00     0.00   0.00   0.00    -0.00  -0.00   0.00
    53   1     0.00  -0.00   0.00    -0.00   0.00  -0.00    -0.00   0.00  -0.00
    54   1     0.00  -0.00  -0.00    -0.00  -0.00  -0.00    -0.00  -0.00   0.00
    55   1    -0.00  -0.00   0.00    -0.00  -0.00   0.00     0.00   0.01  -0.00
                    142                    143                    144
                      A                      A                      A
 Frequencies --   3014.8286              3019.8346              3022.2593
 Red. masses --      1.0874                 1.0927                 1.0925
 Frc consts  --      5.8234                 5.8711                 5.8792
 IR Inten    --      0.0000                 0.0000                 0.0000
  Atom  AN      X      Y      Z        X      Y      Z        X      Y      Z
     1  26    -0.00  -0.00   0.00     0.00   0.00  -0.00    -0.00  -0.00   0.00
     2   6    -0.00  -0.00  -0.00    -0.00  -0.00  -0.00    -0.00   0.00   0.00
     3  46     0.00   0.00  -0.00     0.00  -0.00   0.00    -0.00   0.00  -0.00
     4   6     0.00  -0.00  -0.00     0.00  -0.00  -0.00    -0.00   0.00   0.00
     5   1    -0.00   0.00  -0.00     0.00  -0.00   0.00    -0.00   0.00  -0.00
     6   1    -0.00  -0.00   0.00    -0.00  -0.00  -0.00     0.00   0.00   0.00
     7   1    -0.00   0.00   0.00     0.00  -0.00   0.00    -0.00   0.00  -0.00
     8   6    -0.00  -0.00  -0.00    -0.00  -0.00   0.00     0.00  -0.00   0.00
     9   8     0.00   0.00   0.00     0.00   0.00   0.00     0.00  -0.00  -0.00
    10   6     0.00  -0.00  -0.00     0.00   0.00  -0.00    -0.00  -0.00   0.00
    11   8     0.00   0.00   0.00     0.00  -0.00   0.00     0.00  -0.00  -0.00
    12   6     0.00   0.00  -0.00    -0.00  -0.00   0.00     0.00   0.00  -0.00
    13   6     0.00  -0.00  -0.00    -0.00   0.00  -0.00     0.00  -0.00   0.00
    14   6    -0.00   0.00   0.00    -0.00  -0.00   0.00    -0.00   0.00   0.00
    15   1    -0.00  -0.00   0.00    -0.00   0.00  -0.00    -0.01  -0.00   0.00
    16   1     0.00  -0.00   0.00     0.00  -0.00   0.00    -0.00   0.00  -0.00
    17   1     0.00  -0.00  -0.00     0.00   0.00   0.00     0.00  -0.00  -0.00
    18   1     0.00   0.00  -0.00    -0.00  -0.00   0.00    -0.00   0.00   0.00
    19   6    -0.00   0.00   0.00     0.00  -0.00  -0.00    -0.00   0.00   0.00
    20   6     0.00  -0.00   0.00    -0.00  -0.00   0.00    -0.00   0.00  -0.00
    21   8     0.00   0.00   0.00    -0.00   0.00   0.00     0.00   0.00  -0.00
    22   6    -0.00   0.00  -0.00     0.00  -0.00   0.00    -0.00   0.00  -0.00
    23   6    -0.00  -0.00   0.00     0.00   0.00  -0.00    -0.00  -0.00   0.00
    24   6     0.00   0.00  -0.00    -0.00  -0.00  -0.00     0.00  -0.00   0.00
    25   6    -0.00  -0.00   0.00     0.00   0.00   0.00    -0.00  -0.00  -0.00
    26   6     0.00  -0.00   0.00    -0.00   0.00  -0.00     0.00  -0.00   0.00
    27   1     0.00  -0.00   0.00    -0.00   0.00  -0.00     0.00  -0.00   0.00
    28   7     0.00   0.00   0.00     0.00  -0.00  -0.00    -0.00  -0.00   0.00
    29   1    -0.01   0.00  -0.00     0.00   0.00  -0.00     0.02  -0.00  -0.00
    30   1    -0.01   0.01   0.01    -0.00   0.00   0.00     0.00  -0.00  -0.00
    31   1     0.00  -0.00  -0.00    -0.00  -0.00  -0.00    -0.00  -0.00  -0.00
    32   1     0.00   0.00  -0.00    -0.00  -0.00   0.00     0.00   0.00  -0.00
    33   7     0.00  -0.00   0.00     0.00  -0.00   0.00     0.00   0.00  -0.00
    34   6    -0.00   0.00   0.00     0.00  -0.00  -0.00     0.00   0.00  -0.00
    35   6     0.00   0.00   0.00     0.00   0.00   0.00    -0.00  -0.00  -0.00
    36   1    -0.00  -0.00   0.00     0.00   0.00  -0.00    -0.00  -0.00   0.00
    37   1     0.00   0.00  -0.00    -0.00  -0.00   0.00    -0.00   0.00   0.00
    38   1     0.00  -0.00   0.00    -0.00   0.00  -0.00     0.00  -0.00   0.00
    39   1     0.00   0.00   0.00     0.00   0.00   0.00    -0.00  -0.00  -0.00
    40   1    -0.01   0.00  -0.01    -0.00   0.00  -0.00     0.00  -0.00   0.00
    41   1     0.00  -0.00  -0.00     0.00  -0.00  -0.00    -0.00   0.00   0.00
    42   6    -0.00  -0.00  -0.00     0.00  -0.00   0.00    -0.00   0.00  -0.00
    43   6     0.00   0.01  -0.00    -0.00   0.00  -0.00     0.02  -0.02   0.00
    44   6    -0.02  -0.07  -0.04     0.00  -0.00   0.00    -0.07   0.04  -0.02
    45   1    -0.06   0.00  -0.00     0.00   0.00  -0.00    -0.09  -0.01   0.00
    46   1     0.05  -0.12   0.03     0.01  -0.02   0.00    -0.09   0.24  -0.07
    47   1    -0.01  -0.00   0.02    -0.00   0.00   0.00     0.01  -0.01   0.01
    48   1     0.01  -0.00   0.00    -0.00  -0.00   0.00     0.02  -0.00   0.00
    49   1     0.15  -0.04  -0.01    -0.03  -0.00  -0.00     0.70   0.02   0.05
    50   1     0.26   0.63   0.63    -0.00  -0.02  -0.02    -0.00   0.10   0.07
    51   1    -0.11   0.24  -0.11    -0.02   0.07  -0.02     0.17  -0.58   0.18
    52   6    -0.00  -0.00  -0.00    -0.01  -0.07   0.06     0.00  -0.00   0.01
    53   1     0.01  -0.00   0.01    -0.30   0.17  -0.47    -0.06   0.04  -0.10
    54   1    -0.00   0.01   0.01    -0.00  -0.02   0.03     0.00  -0.00   0.00
    55   1     0.01   0.01  -0.00     0.37   0.66  -0.25     0.01   0.00   0.00
                    145                    146                    147
                      A                      A                      A
 Frequencies --   3026.6868              3027.3092              3031.3381
 Red. masses --      1.0687                 1.0480                 1.0432
 Frc consts  --      5.7683                 5.6589                 5.6477
 IR Inten    --      0.0000                 0.0000                 0.0000
  Atom  AN      X      Y      Z        X      Y      Z        X      Y      Z
     1  26     0.00   0.00  -0.00     0.00  -0.00  -0.00     0.00   0.00  -0.00
     2   6     0.00   0.00   0.00    -0.00  -0.00   0.00     0.00   0.00  -0.00
     3  46     0.00  -0.00   0.00    -0.00  -0.00   0.00     0.00  -0.00   0.00
     4   6     0.00  -0.00  -0.00     0.00  -0.00  -0.00     0.00  -0.00  -0.00
     5   1    -0.00   0.00  -0.00     0.00  -0.00  -0.00    -0.00  -0.00  -0.00
     6   1    -0.00  -0.00  -0.00     0.00  -0.00  -0.00    -0.00  -0.00  -0.00
     7   1     0.00  -0.00   0.00     0.00  -0.00   0.00     0.00  -0.00   0.00
     8   6    -0.00   0.00  -0.00    -0.00  -0.00  -0.00     0.00   0.00   0.00
     9   8    -0.00  -0.00  -0.00     0.00   0.00  -0.00    -0.00  -0.00   0.00
    10   6     0.00   0.00  -0.00     0.00  -0.00   0.00     0.00   0.00  -0.00
    11   8    -0.00   0.00   0.00     0.00   0.00   0.00    -0.00  -0.00  -0.00
    12   6     0.00   0.00  -0.00    -0.00  -0.00   0.00    -0.00  -0.00   0.00
    13   6    -0.00   0.00  -0.00     0.00  -0.00   0.00    -0.00   0.00  -0.00
    14   6    -0.00  -0.00   0.00     0.00   0.00  -0.00     0.00  -0.00   0.00
    15   1    -0.00  -0.00   0.00     0.00   0.00  -0.00     0.01   0.00  -0.00
    16   1     0.00  -0.00   0.00     0.00   0.00  -0.00    -0.00  -0.00   0.00
    17   1     0.00   0.00   0.00    -0.00   0.00   0.00    -0.00   0.00   0.00
    18   1     0.00  -0.00  -0.00     0.00  -0.00  -0.00     0.00   0.00   0.00
    19   6    -0.00  -0.00  -0.00    -0.00   0.00   0.00    -0.00   0.00  -0.00
    20   6     0.00  -0.00  -0.00    -0.00   0.00   0.00     0.00   0.00   0.00
    21   8    -0.00  -0.00   0.00     0.00   0.00  -0.00    -0.00  -0.00   0.00
    22   6     0.00   0.00   0.00    -0.00  -0.00   0.00    -0.00   0.00   0.00
    23   6     0.00   0.00  -0.00    -0.00  -0.00   0.00     0.00   0.00  -0.00
    24   6    -0.00  -0.00  -0.00     0.00  -0.00   0.00    -0.00  -0.00  -0.00
    25   6     0.00   0.00   0.00    -0.00  -0.00  -0.00     0.00   0.00  -0.00
    26   6     0.00   0.00   0.00    -0.00   0.00  -0.00     0.00   0.00  -0.00
    27   1    -0.00  -0.00   0.00     0.00   0.00   0.00    -0.00  -0.00   0.00
    28   7     0.00  -0.00  -0.00     0.00  -0.00  -0.00    -0.00   0.00  -0.00
    29   1    -0.01   0.00   0.00     0.02  -0.00   0.00    -0.00   0.00   0.00
    30   1    -0.00   0.00   0.00    -0.00   0.00   0.00    -0.00   0.00   0.00
    31   1    -0.00  -0.00  -0.00    -0.00  -0.00  -0.00    -0.00  -0.00  -0.00
    32   1    -0.00  -0.00   0.00     0.00   0.00  -0.00    -0.00  -0.00   0.00
    33   7    -0.00  -0.00   0.00    -0.00  -0.00   0.00    -0.00  -0.00   0.00
    34   6     0.00   0.00  -0.00     0.00   0.00   0.00     0.00   0.00  -0.00
    35   6    -0.00   0.00   0.00    -0.00   0.00   0.00    -0.00   0.00   0.00
    36   1    -0.00  -0.00   0.00     0.00   0.00  -0.00    -0.00  -0.00   0.00
    37   1    -0.00   0.00   0.00    -0.00   0.00   0.00    -0.00  -0.00   0.00
    38   1    -0.00   0.00  -0.00    -0.00   0.00  -0.00    -0.00   0.00  -0.00
    39   1    -0.00  -0.00   0.00    -0.00  -0.00   0.00    -0.00  -0.00   0.00
    40   1    -0.00   0.00  -0.00    -0.00   0.00  -0.00    -0.00   0.00  -0.00
    41   1     0.00  -0.00  -0.00     0.00  -0.00  -0.00     0.00  -0.01  -0.00
    42   6     0.00  -0.00   0.00    -0.00   0.00   0.00     0.00  -0.00   0.00
    43   6     0.03  -0.06   0.02    -0.00   0.01  -0.00     0.03  -0.02   0.00
    44   6     0.02  -0.01  -0.01    -0.01   0.00   0.00    -0.02  -0.03   0.03
    45   1    -0.03  -0.03   0.01    -0.03   0.00  -0.00    -0.20  -0.02  -0.00
    46   1    -0.31   0.78  -0.22     0.05  -0.13   0.04    -0.11   0.29  -0.09
    47   1     0.03  -0.02  -0.03    -0.01   0.00   0.02    -0.01  -0.03   0.06
    48   1    -0.02   0.00  -0.00     0.01  -0.00   0.00    -0.00   0.00   0.00
    49   1    -0.37  -0.01  -0.03     0.23   0.00   0.02     0.51  -0.02   0.05
    50   1     0.07   0.13   0.13    -0.03  -0.06  -0.06    -0.08  -0.20  -0.18
    51   1     0.02  -0.03   0.01    -0.02   0.05  -0.01    -0.23   0.63  -0.20
    52   6    -0.01  -0.00  -0.01    -0.05  -0.01  -0.03     0.01   0.00   0.00
    53   1     0.09  -0.07   0.15     0.36  -0.26   0.62    -0.05   0.04  -0.08
    54   1    -0.00  -0.00  -0.00    -0.02  -0.04  -0.04     0.00  -0.00  -0.00
    55   1     0.07   0.13  -0.06     0.24   0.47  -0.21    -0.05  -0.09   0.04
                    148                    149                    150
                      A                      A                      A
 Frequencies --   3041.5227              3049.0525              3063.4070
 Red. masses --      1.0770                 1.0702                 1.0579
 Frc consts  --      5.8703                 5.8617                 5.8493
 IR Inten    --      0.0000                 0.0000                 0.0000
  Atom  AN      X      Y      Z        X      Y      Z        X      Y      Z
     1  26     0.00  -0.00   0.00     0.00  -0.00  -0.00     0.00   0.00   0.00
     2   6    -0.00  -0.00  -0.00    -0.00  -0.00  -0.00    -0.00  -0.00   0.00
     3  46     0.00   0.00   0.00     0.00  -0.00  -0.00    -0.00  -0.00  -0.00
     4   6     0.00   0.00   0.00     0.00  -0.00  -0.00     0.00  -0.00  -0.00
     5   1     0.00  -0.00   0.00     0.00  -0.00   0.00    -0.00   0.00  -0.00
     6   1     0.00   0.00  -0.00    -0.00  -0.00   0.00    -0.00  -0.00   0.00
     7   1     0.00  -0.00   0.00    -0.00   0.00  -0.00     0.00  -0.00   0.00
     8   6    -0.00   0.00   0.00    -0.00  -0.00   0.00    -0.00   0.00   0.00
     9   8     0.00   0.00   0.00     0.00   0.00   0.00     0.00   0.00  -0.00
    10   6    -0.00   0.00   0.00     0.00  -0.00  -0.00     0.00   0.00  -0.00
    11   8    -0.00  -0.00  -0.00    -0.00   0.00   0.00    -0.00  -0.00  -0.00
    12   6    -0.00  -0.00   0.00    -0.00  -0.00   0.00     0.00   0.00  -0.00
    13   6     0.00  -0.00   0.00     0.00  -0.00  -0.00     0.00  -0.00   0.00
    14   6     0.00   0.00   0.00    -0.00   0.00   0.00     0.00   0.00   0.00
    15   1     0.00   0.00  -0.00     0.00   0.00  -0.00    -0.00  -0.00   0.00
    16   1    -0.00   0.00  -0.00     0.00   0.00  -0.00    -0.00   0.00  -0.00
    17   1    -0.00   0.00   0.00     0.00  -0.00  -0.00    -0.00   0.00   0.00
    18   1    -0.00   0.00   0.00     0.00  -0.00   0.00     0.00   0.00  -0.00
    19   6     0.00  -0.00  -0.00     0.00   0.00  -0.00    -0.00   0.00  -0.00
    20   6    -0.00   0.00   0.00    -0.00  -0.00  -0.00    -0.00   0.00   0.00
    21   8     0.00   0.00  -0.00    -0.00   0.00  -0.00    -0.00   0.00  -0.00
    22   6     0.00  -0.00   0.00     0.00   0.00   0.00    -0.00   0.00  -0.00
    23   6    -0.00  -0.00   0.00    -0.00   0.00  -0.00     0.00   0.00  -0.00
    24   6     0.00   0.00  -0.00     0.00   0.00   0.00     0.00  -0.00   0.00
    25   6    -0.00  -0.00  -0.00     0.00  -0.00  -0.00     0.00   0.00  -0.00
    26   6     0.00   0.00  -0.00    -0.00  -0.00   0.00     0.00   0.00  -0.00
    27   1    -0.00   0.00  -0.00    -0.00   0.00  -0.00     0.01  -0.00   0.01
    28   7    -0.00  -0.00  -0.00     0.00  -0.00  -0.00    -0.00  -0.00  -0.00
    29   1     0.01  -0.00  -0.00    -0.00   0.00   0.00     0.00  -0.00  -0.00
    30   1     0.00   0.00  -0.00    -0.07   0.06   0.05    -0.00   0.00   0.00
    31   1    -0.00  -0.00  -0.00     0.00  -0.01  -0.00    -0.00  -0.00  -0.00
    32   1     0.00   0.00  -0.00     0.00  -0.00   0.00    -0.00  -0.00   0.00
    33   7     0.00  -0.00  -0.00     0.00  -0.00  -0.00     0.00  -0.00  -0.00
    34   6     0.00   0.00  -0.00    -0.00  -0.00  -0.00     0.00   0.00  -0.00
    35   6     0.00   0.00   0.00     0.04  -0.06  -0.02     0.00  -0.00  -0.00
    36   1    -0.00  -0.00   0.00     0.01   0.01  -0.00     0.00   0.00  -0.00
    37   1    -0.00   0.00   0.00    -0.00  -0.00   0.00    -0.00  -0.00   0.00
    38   1    -0.00   0.00  -0.00    -0.01   0.00  -0.00    -0.00   0.00  -0.00
    39   1    -0.00  -0.00   0.00    -0.00  -0.06  -0.00    -0.00  -0.00   0.00
    40   1    -0.00   0.00  -0.00    -0.01  -0.02  -0.03    -0.00  -0.00  -0.00
    41   1     0.00  -0.00  -0.00    -0.53   0.81   0.22    -0.00   0.00   0.00
    42   6    -0.00  -0.00   0.00    -0.00  -0.00   0.00    -0.00   0.00  -0.00
    43   6    -0.07  -0.01   0.02     0.00  -0.00   0.00     0.00   0.01  -0.07
    44   6    -0.01  -0.01   0.00     0.00  -0.00   0.00     0.00   0.00  -0.00
    45   1     0.93   0.02   0.03    -0.00  -0.00   0.00     0.28   0.02  -0.02
    46   1    -0.08   0.10  -0.02    -0.00   0.00  -0.00    -0.01   0.06  -0.04
    47   1     0.05   0.06  -0.24     0.00   0.00  -0.00    -0.32  -0.23   0.86
    48   1     0.03  -0.00   0.00     0.00   0.00  -0.00     0.00  -0.00  -0.00
    49   1     0.19  -0.00   0.01     0.00  -0.00   0.00    -0.01   0.00  -0.00
    50   1    -0.00   0.01   0.01    -0.00  -0.00  -0.00     0.00   0.01   0.00
    51   1    -0.04   0.10  -0.04    -0.00   0.00  -0.00     0.01  -0.02   0.01
    52   6    -0.00   0.00   0.00    -0.00  -0.00   0.00     0.00   0.01   0.01
    53   1     0.00  -0.00   0.00    -0.00   0.00  -0.00    -0.00   0.00   0.00
    54   1     0.00  -0.01  -0.01    -0.00  -0.00  -0.00     0.00  -0.08  -0.08
    55   1     0.00  -0.00  -0.00     0.00   0.00  -0.00    -0.00   0.00   0.00
                    151                    152                    153
                      A                      A                      A
 Frequencies --   3064.0996              3193.7773              3200.4579
 Red. masses --      1.0742                 1.0837                 1.0833
 Frc consts  --      5.9423                 6.5127                 6.5377
 IR Inten    --      0.0000                 0.0000                 0.0000
  Atom  AN      X      Y      Z        X      Y      Z        X      Y      Z
     1  26    -0.00   0.00  -0.00     0.00  -0.00  -0.00     0.00  -0.00  -0.00
     2   6    -0.00  -0.00   0.00    -0.00  -0.00   0.00    -0.00  -0.00  -0.00
     3  46    -0.00  -0.00  -0.00    -0.00  -0.00   0.00     0.00   0.00   0.00
     4   6     0.00  -0.00  -0.00    -0.00   0.00   0.00     0.00  -0.00  -0.00
     5   1    -0.00   0.00  -0.00    -0.01   0.01  -0.01    -0.08   0.06  -0.08
     6   1    -0.00  -0.00   0.00    -0.00  -0.00  -0.00     0.69   0.28  -0.05
     7   1    -0.00   0.00  -0.00     0.00  -0.01   0.01     0.02  -0.20   0.20
     8   6     0.00  -0.00  -0.00     0.00  -0.00   0.00    -0.00  -0.00  -0.00
     9   8     0.00   0.00   0.00     0.00   0.00  -0.00     0.00   0.00   0.00
    10   6     0.00   0.00  -0.00     0.00   0.00  -0.00    -0.00   0.00  -0.00
    11   8     0.00   0.00   0.00     0.00  -0.00  -0.00     0.00   0.00   0.00
    12   6    -0.00  -0.00   0.00    -0.07  -0.03   0.02     0.00   0.00  -0.00
    13   6     0.00  -0.00   0.00    -0.00   0.02  -0.01    -0.00   0.00  -0.00
    14   6     0.00  -0.00   0.00     0.01  -0.00  -0.00     0.01  -0.00  -0.00
    15   1     0.00   0.00  -0.00     0.84   0.41  -0.19    -0.01  -0.01   0.00
    16   1    -0.00   0.00  -0.00     0.03  -0.22   0.07     0.01  -0.06   0.02
    17   1    -0.00   0.00  -0.00    -0.14   0.03   0.02    -0.08   0.02   0.01
    18   1    -0.00   0.00  -0.00    -0.00  -0.00   0.00    -0.00  -0.00   0.00
    19   6    -0.00   0.00   0.00    -0.00   0.00  -0.00     0.00   0.00  -0.00
    20   6    -0.00   0.00   0.00     0.00  -0.00  -0.00    -0.00   0.00  -0.00
    21   8     0.00   0.00  -0.00     0.00   0.00  -0.00     0.00  -0.00   0.00
    22   6    -0.00   0.00  -0.00    -0.00  -0.00  -0.00     0.04  -0.00   0.02
    23   6     0.00   0.00  -0.00     0.00   0.00  -0.00    -0.00  -0.00   0.00
    24   6     0.00  -0.00   0.00     0.00  -0.00   0.00     0.01  -0.00   0.01
    25   6     0.00   0.00  -0.00     0.00   0.00  -0.00    -0.06  -0.02   0.01
    26   6     0.00  -0.00   0.00     0.00   0.00  -0.00    -0.00   0.01  -0.02
    27   1     0.00  -0.00   0.00     0.02  -0.00   0.01    -0.52   0.03  -0.21
    28   7    -0.00   0.00   0.00    -0.00   0.00  -0.00    -0.00  -0.00   0.00
    29   1     0.01  -0.00   0.00    -0.00   0.00   0.00     0.00  -0.00   0.00
    30   1    -0.00   0.00   0.00     0.00  -0.00  -0.00     0.00   0.00   0.00
    31   1     0.00   0.00   0.00     0.00   0.00   0.00    -0.00  -0.00  -0.00
    32   1    -0.00  -0.00   0.00    -0.01  -0.01   0.01     0.05   0.06  -0.05
    33   7     0.00   0.00  -0.00     0.00   0.00  -0.00     0.00   0.00   0.00
    34   6     0.00  -0.00  -0.00     0.00  -0.00   0.00    -0.00  -0.00   0.00
    35   6     0.00  -0.00  -0.00    -0.00   0.00   0.00     0.00  -0.00   0.00
    36   1     0.00   0.00   0.00     0.00   0.00  -0.00    -0.00  -0.00   0.00
    37   1     0.00  -0.00   0.00    -0.00   0.00   0.00     0.00  -0.00  -0.00
    38   1    -0.00   0.00  -0.00    -0.00   0.00  -0.00     0.00  -0.00   0.00
    39   1     0.00   0.00   0.00     0.00   0.00  -0.00     0.00  -0.00  -0.00
    40   1     0.00  -0.00   0.00    -0.00   0.00  -0.00    -0.00   0.00  -0.00
    41   1    -0.00   0.00   0.00     0.00  -0.00  -0.00     0.00   0.00   0.00
    42   6    -0.00   0.00  -0.00     0.00  -0.00  -0.00     0.00   0.00  -0.00
    43   6     0.00   0.00  -0.01     0.00   0.00  -0.00     0.00   0.00  -0.00
    44   6    -0.00   0.00   0.00    -0.00   0.00  -0.00    -0.00  -0.00  -0.00
    45   1     0.04   0.00  -0.00    -0.00  -0.00  -0.00    -0.00  -0.00   0.00
    46   1    -0.00   0.00  -0.00     0.00  -0.00   0.00    -0.00   0.00  -0.00
    47   1    -0.04  -0.03   0.10    -0.00  -0.00   0.00     0.00   0.00   0.01
    48   1     0.00  -0.00   0.00    -0.00   0.00  -0.00     0.00  -0.00  -0.00
    49   1     0.01   0.00   0.00    -0.00   0.00   0.00     0.00  -0.00  -0.00
    50   1    -0.00  -0.01  -0.01    -0.00   0.01   0.00     0.00   0.00   0.00
    51   1    -0.00   0.00   0.00     0.00  -0.01   0.00     0.00  -0.00   0.00
    52   6    -0.00  -0.05  -0.06    -0.00  -0.00   0.00     0.00  -0.00  -0.00
    53   1     0.02  -0.04   0.01    -0.00   0.00  -0.00    -0.00   0.00  -0.00
    54   1    -0.01   0.70   0.70    -0.00  -0.00  -0.00     0.00   0.00   0.00
    55   1     0.00  -0.01  -0.03     0.00   0.00  -0.00    -0.00  -0.00  -0.00
                    154                    155                    156
                      A                      A                      A
 Frequencies --   3202.7953              3209.2652              3220.2904
 Red. masses --      1.0840                 1.0843                 1.0879
 Frc consts  --      6.5516                 6.5798                 6.6468
 IR Inten    --      0.0000                 0.0000                 0.0000
  Atom  AN      X      Y      Z        X      Y      Z        X      Y      Z
     1  26     0.00   0.00   0.00     0.00   0.00   0.00     0.00   0.00   0.00
     2   6     0.00   0.00   0.00     0.00   0.00   0.00    -0.00   0.00   0.00
     3  46    -0.00  -0.00  -0.00    -0.00  -0.00   0.00    -0.00  -0.00  -0.00
     4   6    -0.00  -0.00  -0.00    -0.00   0.00   0.00     0.00  -0.00  -0.00
     5   1    -0.13   0.10  -0.13    -0.04   0.03  -0.04     0.17  -0.14   0.18
     6   1     0.52   0.21  -0.04     0.08   0.03  -0.01     0.19   0.08  -0.02
     7   1    -0.01   0.03  -0.03     0.00  -0.02   0.02    -0.00   0.03  -0.03
     8   6     0.00  -0.00  -0.00     0.00  -0.00  -0.00     0.00  -0.00  -0.00
     9   8    -0.00  -0.00  -0.00    -0.00   0.00  -0.00    -0.00  -0.00  -0.00
    10   6    -0.00  -0.00  -0.00    -0.00  -0.00   0.00    -0.00  -0.00   0.00
    11   8    -0.00   0.00   0.00     0.00   0.00  -0.00     0.00   0.00   0.00
    12   6     0.00   0.00  -0.00    -0.02  -0.01   0.00    -0.00  -0.00   0.00
    13   6    -0.00   0.00  -0.00     0.00  -0.02   0.01     0.00  -0.00   0.00
    14   6     0.00  -0.00  -0.00    -0.07   0.02   0.01    -0.01   0.00   0.00
    15   1    -0.03  -0.01   0.01     0.18   0.09  -0.04     0.04   0.02  -0.01
    16   1     0.00  -0.01   0.00    -0.04   0.29  -0.09    -0.01   0.06  -0.02
    17   1    -0.04   0.01   0.01     0.88  -0.22  -0.10     0.08  -0.02  -0.01
    18   1     0.00  -0.00  -0.00    -0.00  -0.00  -0.00    -0.00   0.00   0.00
    19   6    -0.00  -0.00   0.00     0.00   0.00  -0.00    -0.00   0.00  -0.00
    20   6     0.00  -0.00   0.00     0.00   0.00   0.00     0.00   0.00  -0.00
    21   8    -0.00   0.00  -0.00    -0.00  -0.00  -0.00     0.00   0.00  -0.00
    22   6    -0.06   0.00  -0.02     0.00  -0.00   0.00    -0.03   0.00  -0.01
    23   6     0.01   0.02  -0.01     0.00   0.01  -0.00    -0.04  -0.05   0.04
    24   6     0.01  -0.01   0.01     0.00  -0.00   0.00    -0.01   0.01  -0.01
    25   6    -0.04  -0.02   0.00    -0.01  -0.00   0.00    -0.02  -0.01   0.00
    26   6     0.00  -0.00   0.00    -0.00   0.00  -0.00     0.00  -0.00   0.00
    27   1     0.66  -0.04   0.28    -0.05   0.00  -0.02     0.29  -0.02   0.12
    28   7     0.00   0.00  -0.00    -0.00   0.00  -0.00    -0.00   0.00  -0.00
    29   1    -0.00   0.00   0.00    -0.00   0.00   0.00    -0.00   0.00   0.00
    30   1     0.00   0.00   0.00     0.01  -0.00  -0.01     0.00   0.00   0.00
    31   1     0.00  -0.00  -0.00     0.00   0.00   0.00     0.00  -0.00  -0.00
    32   1    -0.18  -0.21   0.18    -0.05  -0.06   0.05     0.47   0.55  -0.48
    33   7     0.00   0.00  -0.00     0.00   0.00  -0.00     0.00   0.00  -0.00
    34   6    -0.00  -0.00  -0.00    -0.00  -0.00  -0.00     0.00  -0.00  -0.00
    35   6    -0.00  -0.00  -0.00    -0.00   0.00   0.00    -0.00  -0.00  -0.00
    36   1     0.00   0.00  -0.00     0.00   0.00  -0.00     0.00   0.00  -0.00
    37   1    -0.00  -0.00   0.00    -0.00  -0.00  -0.00    -0.00  -0.00   0.00
    38   1    -0.00  -0.00  -0.00     0.00  -0.00   0.00    -0.00   0.00  -0.00
    39   1     0.00   0.00  -0.00     0.00   0.00  -0.00     0.00   0.00  -0.00
    40   1     0.00  -0.00   0.00     0.00  -0.00   0.00     0.00  -0.00   0.00
    41   1    -0.00   0.00  -0.00     0.00  -0.00  -0.00    -0.00   0.00  -0.00
    42   6    -0.00  -0.00   0.00     0.00  -0.00  -0.00    -0.00   0.00   0.00
    43   6    -0.00  -0.00   0.00     0.00   0.00  -0.00     0.00  -0.00   0.00
    44   6     0.00   0.00   0.00    -0.00   0.00  -0.00     0.00  -0.00   0.00
    45   1     0.00   0.00  -0.00    -0.00  -0.00   0.00    -0.00   0.00  -0.00
    46   1     0.00  -0.00   0.00     0.00  -0.00   0.00    -0.00   0.00  -0.00
    47   1    -0.00  -0.00  -0.01     0.00   0.00   0.00    -0.00  -0.00  -0.00
    48   1    -0.00   0.00   0.00     0.00   0.00   0.00     0.00  -0.00  -0.00
    49   1    -0.00   0.00   0.00    -0.00   0.00   0.00    -0.00  -0.00   0.00
    50   1    -0.00  -0.00  -0.00    -0.00   0.00   0.00    -0.00  -0.00  -0.00
    51   1    -0.00   0.00  -0.00     0.00  -0.00   0.00    -0.00   0.00  -0.00
    52   6    -0.00   0.00   0.00    -0.00  -0.00   0.00    -0.00  -0.00   0.00
    53   1    -0.00   0.00  -0.00    -0.00   0.00  -0.00     0.00  -0.00   0.00
    54   1    -0.00   0.00   0.00    -0.00  -0.00  -0.00    -0.00   0.00   0.00
    55   1    -0.00  -0.00   0.00     0.00   0.00  -0.00     0.00   0.00  -0.00
                    157                    158                    159
                      A                      A                      A
 Frequencies --   3227.5827              3231.3748              3237.7659
 Red. masses --      1.0912                 1.0917                 1.0914
 Frc consts  --      6.6975                 6.7163                 6.7411
 IR Inten    --      0.0000                 0.0000                 0.0000
  Atom  AN      X      Y      Z        X      Y      Z        X      Y      Z
     1  26    -0.00  -0.00  -0.00    -0.00   0.00  -0.00     0.00  -0.00  -0.00
     2   6    -0.00  -0.00  -0.00    -0.00  -0.00  -0.00     0.00   0.00  -0.00
     3  46     0.00  -0.00  -0.00    -0.00   0.00   0.00     0.00  -0.00   0.00
     4   6     0.00  -0.00  -0.00    -0.00   0.00   0.00    -0.00  -0.00   0.00
     5   1     0.08  -0.06   0.09    -0.01   0.00  -0.00     0.56  -0.44   0.57
     6   1    -0.01  -0.01   0.00     0.18   0.07  -0.01     0.16   0.06  -0.01
     7   1     0.02  -0.20   0.20    -0.06   0.64  -0.64    -0.00   0.01  -0.00
     8   6    -0.00   0.00   0.00     0.00  -0.00  -0.00     0.00  -0.00  -0.00
     9   8     0.00   0.00   0.00     0.00   0.00   0.00    -0.00  -0.00  -0.00
    10   6     0.00   0.00  -0.00     0.00   0.00  -0.00    -0.00  -0.00   0.00
    11   8    -0.00  -0.00  -0.00     0.00  -0.00  -0.00    -0.00   0.00   0.00
    12   6    -0.01  -0.01   0.00    -0.00  -0.00   0.00     0.00   0.00  -0.00
    13   6     0.01  -0.07   0.02     0.00  -0.02   0.01    -0.00   0.01  -0.00
    14   6     0.03  -0.01  -0.00     0.01  -0.00  -0.00    -0.01   0.00   0.00
    15   1     0.14   0.07  -0.03     0.05   0.02  -0.01    -0.01  -0.00   0.00
    16   1    -0.11   0.82  -0.26    -0.03   0.24  -0.08     0.02  -0.13   0.04
    17   1    -0.31   0.08   0.04    -0.10   0.02   0.01     0.06  -0.01  -0.01
    18   1    -0.00   0.00   0.00    -0.00   0.00   0.00     0.00  -0.00  -0.00
    19   6    -0.00   0.00   0.00    -0.00   0.00  -0.00     0.00  -0.00  -0.00
    20   6     0.00  -0.00  -0.00    -0.00   0.00  -0.00     0.00  -0.00   0.00
    21   8     0.00   0.00   0.00     0.00  -0.00  -0.00    -0.00  -0.00   0.00
    22   6    -0.00  -0.00  -0.00     0.02  -0.00   0.01     0.00  -0.00   0.00
    23   6     0.00   0.00  -0.00     0.00   0.00  -0.00     0.02   0.02  -0.02
    24   6    -0.01   0.01  -0.01     0.00   0.00  -0.00    -0.05   0.04  -0.05
    25   6     0.00   0.00   0.00    -0.02  -0.01   0.00    -0.02  -0.01   0.00
    26   6    -0.00   0.02  -0.02     0.01  -0.05   0.06     0.00  -0.00   0.00
    27   1     0.03  -0.00   0.01    -0.20   0.01  -0.08    -0.02   0.00  -0.01
    28   7    -0.00   0.00  -0.00     0.00   0.00   0.00     0.00  -0.00   0.00
    29   1    -0.00   0.00   0.00     0.00  -0.00  -0.00     0.00  -0.00  -0.00
    30   1    -0.00   0.00   0.00     0.00  -0.00   0.00     0.00  -0.00  -0.00
    31   1     0.00   0.00   0.00    -0.00  -0.00  -0.00    -0.00  -0.00  -0.00
    32   1    -0.04  -0.05   0.04    -0.01  -0.01   0.01    -0.18  -0.21   0.18
    33   7     0.00   0.00  -0.00    -0.00   0.00  -0.00    -0.00  -0.00   0.00
    34   6     0.00  -0.00   0.00     0.00   0.00   0.00    -0.00  -0.00   0.00
    35   6     0.00  -0.00   0.00    -0.00  -0.00  -0.00    -0.00  -0.00  -0.00
    36   1     0.00   0.00   0.00    -0.00  -0.00   0.00     0.00   0.00  -0.00
    37   1    -0.00   0.00   0.00    -0.00  -0.00   0.00     0.00  -0.00  -0.00
    38   1    -0.00   0.00  -0.00    -0.00   0.00  -0.00     0.00  -0.00   0.00
    39   1     0.00   0.00  -0.00    -0.00  -0.00   0.00     0.00   0.00   0.00
    40   1    -0.00   0.00  -0.00     0.01  -0.00   0.00     0.00  -0.00   0.00
    41   1     0.00   0.00   0.00    -0.00  -0.01  -0.00    -0.00  -0.00   0.00
    42   6     0.00  -0.00   0.00    -0.00  -0.00  -0.00    -0.00  -0.00  -0.00
    43   6     0.00  -0.00   0.00     0.00   0.00  -0.00    -0.00   0.00  -0.00
    44   6    -0.00  -0.00  -0.00    -0.00  -0.00  -0.00    -0.00   0.00  -0.00
    45   1    -0.00  -0.00  -0.00     0.00  -0.00   0.00     0.00   0.00   0.00
    46   1    -0.00   0.00  -0.00    -0.00   0.00  -0.00     0.00  -0.00   0.00
    47   1     0.00   0.00  -0.00     0.00  -0.00   0.00     0.00   0.00   0.00
    48   1    -0.00   0.00  -0.00     0.00  -0.00   0.00     0.00   0.00   0.00
    49   1    -0.00   0.00   0.00     0.00   0.00  -0.00     0.00   0.00  -0.00
    50   1    -0.00   0.00   0.00     0.00   0.00   0.00     0.00   0.00   0.00
    51   1     0.00  -0.00   0.00    -0.00   0.00  -0.00     0.00  -0.00   0.00
    52   6     0.00  -0.00   0.00    -0.00  -0.00   0.00    -0.00   0.00  -0.00
    53   1    -0.00   0.00  -0.00     0.00  -0.00   0.00     0.00   0.00   0.00
    54   1    -0.00  -0.00  -0.00     0.00  -0.00  -0.00    -0.00   0.00  -0.00
    55   1     0.00   0.00  -0.00     0.00   0.00  -0.00    -0.00  -0.00   0.00

 -------------------
 - Thermochemistry -
 -------------------
 Temperature   298.150 Kelvin.  Pressure   1.00000 Atm.
 Atom     1 has atomic number 26 and mass  55.93494
 Atom     2 has atomic number  6 and mass  12.00000
 Atom     3 has atomic number 46 and mass 105.90320
 Atom     4 has atomic number  6 and mass  12.00000
 Atom     5 has atomic number  1 and mass   1.00783
 Atom     6 has atomic number  1 and mass   1.00783
 Atom     7 has atomic number  1 and mass   1.00783
 Atom     8 has atomic number  6 and mass  12.00000
 Atom     9 has atomic number  8 and mass  15.99491
 Atom    10 has atomic number  6 and mass  12.00000
 Atom    11 has atomic number  8 and mass  15.99491
 Atom    12 has atomic number  6 and mass  12.00000
 Atom    13 has atomic number  6 and mass  12.00000
 Atom    14 has atomic number  6 and mass  12.00000
 Atom    15 has atomic number  1 and mass   1.00783
 Atom    16 has atomic number  1 and mass   1.00783
 Atom    17 has atomic number  1 and mass   1.00783
 Atom    18 has atomic number  1 and mass   1.00783
 Atom    19 has atomic number  6 and mass  12.00000
 Atom    20 has atomic number  6 and mass  12.00000
 Atom    21 has atomic number  8 and mass  15.99491
 Atom    22 has atomic number  6 and mass  12.00000
 Atom    23 has atomic number  6 and mass  12.00000
 Atom    24 has atomic number  6 and mass  12.00000
 Atom    25 has atomic number  6 and mass  12.00000
 Atom    26 has atomic number  6 and mass  12.00000
 Atom    27 has atomic number  1 and mass   1.00783
 Atom    28 has atomic number  7 and mass  14.00307
 Atom    29 has atomic number  1 and mass   1.00783
 Atom    30 has atomic number  1 and mass   1.00783
 Atom    31 has atomic number  1 and mass   1.00783
 Atom    32 has atomic number  1 and mass   1.00783
 Atom    33 has atomic number  7 and mass  14.00307
 Atom    34 has atomic number  6 and mass  12.00000
 Atom    35 has atomic number  6 and mass  12.00000
 Atom    36 has atomic number  1 and mass   1.00783
 Atom    37 has atomic number  1 and mass   1.00783
 Atom    38 has atomic number  1 and mass   1.00783
 Atom    39 has atomic number  1 and mass   1.00783
 Atom    40 has atomic number  1 and mass   1.00783
 Atom    41 has atomic number  1 and mass   1.00783
 Atom    42 has atomic number  6 and mass  12.00000
 Atom    43 has atomic number  6 and mass  12.00000
 Atom    44 has atomic number  6 and mass  12.00000
 Atom    45 has atomic number  1 and mass   1.00783
 Atom    46 has atomic number  1 and mass   1.00783
 Atom    47 has atomic number  1 and mass   1.00783
 Atom    48 has atomic number  1 and mass   1.00783
 Atom    49 has atomic number  1 and mass   1.00783
 Atom    50 has atomic number  1 and mass   1.00783
 Atom    51 has atomic number  1 and mass   1.00783
 Atom    52 has atomic number  6 and mass  12.00000
 Atom    53 has atomic number  1 and mass   1.00783
 Atom    54 has atomic number  1 and mass   1.00783
 Atom    55 has atomic number  1 and mass   1.00783
 Molecular mass:   506.04813 amu.
 Principal axes and moments of inertia in atomic units:
                           1         2         3
     Eigenvalues --  6855.643829737.49457**********
           X            0.99750   0.05894  -0.03908
           Y           -0.06019   0.99769  -0.03151
           Z            0.03713   0.03378   0.99874
 This molecule is an asymmetric top.
 Rotational symmetry number  1.
 Warning -- assumption of classical behavior for rotation
           may cause significant error
 Rotational temperatures (Kelvin)      0.01263     0.00889     0.00793
 Rotational constants (GHZ):           0.26325     0.18534     0.16520
    1 imaginary frequencies ignored.
 Zero-point vibrational energy    1155338.4 (Joules/Mol)
                                  276.13250 (Kcal/Mol)
 Warning -- explicit consideration of  45 degrees of freedom as
           vibrations may cause significant error
 Vibrational temperatures:     33.24    46.72    81.36    86.17   111.98
          (Kelvin)            136.99   139.48   149.05   176.48   189.33
                              202.51   210.51   220.86   231.28   251.16
                              271.79   282.33   297.28   315.19   325.67
                              344.84   366.40   398.33   405.70   417.55
                              429.38   461.61   469.98   493.37   520.39
                              524.34   574.82   589.21   604.04   632.99
                              658.65   665.27   690.72   702.34   736.75
                              748.17   796.69   822.09   837.98   852.71
                              900.80   912.57   929.72   957.70   962.32
                             1002.91  1044.44  1064.52  1085.62  1108.07
                             1121.80  1130.45  1140.30  1154.73  1166.19
                             1183.15  1220.51  1224.69  1241.40  1249.63
                             1258.96  1280.08  1300.11  1327.01  1372.38
                             1378.70  1402.37  1426.30  1430.30  1457.09
                             1463.46  1477.23  1481.68  1506.02  1525.11
                             1537.55  1549.00  1556.98  1567.84  1590.44
                             1610.24  1616.52  1645.78  1652.77  1675.64
                             1686.58  1703.81  1720.82  1754.80  1774.87
                             1785.92  1788.71  1797.18  1813.25  1835.50
                             1866.77  1907.37  1932.52  1956.83  1962.67
                             1981.28  1988.45  1997.54  2005.53  2012.28
                             2015.27  2025.19  2030.10  2037.93  2044.54
                             2050.31  2056.37  2073.17  2094.58  2096.89
                             2098.45  2102.73  2124.11  2138.10  2138.96
                             2159.77  2165.75  2169.32  2179.93  2426.00
                             2522.10  4065.49  4117.77  4128.37  4161.76
                             4178.77  4195.27  4287.16  4331.16  4335.90
                             4337.67  4344.87  4348.36  4354.73  4355.62
                             4361.42  4376.07  4386.91  4407.56  4408.56
                             4595.13  4604.75  4608.11  4617.42  4633.28
                             4643.77  4649.23  4658.42
 
 Zero-point correction=                           0.440045 (Hartree/Particle)
 Thermal correction to Energy=                    0.467521
 Thermal correction to Enthalpy=                  0.468465
 Thermal correction to Gibbs Free Energy=         0.384014
 Sum of electronic and zero-point Energies=            -82.528366
 Sum of electronic and thermal Energies=               -82.500890
 Sum of electronic and thermal Enthalpies=             -82.499946
 Sum of electronic and thermal Free Energies=          -82.584397
 
                     E (Thermal)             CV                S
                      KCal/Mol        Cal/Mol-Kelvin    Cal/Mol-Kelvin
 Total                  293.374            108.456            177.743
 Electronic               0.000              0.000              0.000
 Translational            0.889              2.981             44.551
 Rotational               0.889              2.981             34.943
 Vibrational            291.596            102.495             98.248
 Vibration     1          0.593              1.985              6.348
 Vibration     2          0.594              1.983              5.673
 Vibration     3          0.596              1.975              4.574
 Vibration     4          0.597              1.973              4.461
 Vibration     5          0.599              1.964              3.945
 Vibration     6          0.603              1.953              3.550
 Vibration     7          0.603              1.951              3.515
 Vibration     8          0.605              1.946              3.386
 Vibration     9          0.610              1.930              3.058
 Vibration    10          0.612              1.922              2.923
 Vibration    11          0.615              1.913              2.794
 Vibration    12          0.617              1.907              2.720
 Vibration    13          0.619              1.899              2.628
 Vibration    14          0.622              1.890              2.541
 Vibration    15          0.627              1.874              2.386
 Vibration    16          0.633              1.855              2.239
 Vibration    17          0.636              1.845              2.168
 Vibration    18          0.641              1.830              2.073
 Vibration    19          0.647              1.812              1.967
 Vibration    20          0.650              1.801              1.908
 Vibration    21          0.657              1.780              1.805
 Vibration    22          0.665              1.755              1.698
 Vibration    23          0.678              1.716              1.553
 Vibration    24          0.681              1.707              1.522
 Vibration    25          0.686              1.692              1.473
 Vibration    26          0.692              1.677              1.426
 Vibration    27          0.706              1.634              1.306
 Vibration    28          0.710              1.622              1.277
 Vibration    29          0.722              1.590              1.199
 Vibration    30          0.736              1.551              1.115
 Vibration    31          0.738              1.545              1.103
 Vibration    32          0.766              1.471              0.964
 Vibration    33          0.774              1.450              0.928
 Vibration    34          0.783              1.427              0.893
 Vibration    35          0.800              1.383              0.827
 Vibration    36          0.816              1.344              0.773
 Vibration    37          0.820              1.333              0.759
 Vibration    38          0.836              1.294              0.710
 Vibration    39          0.844              1.276              0.688
 Vibration    40          0.867              1.223              0.629
 Vibration    41          0.875              1.206              0.610
 Vibration    42          0.909              1.132              0.536
 Vibration    43          0.928              1.093              0.502
 Vibration    44          0.939              1.069              0.481
 Vibration    45          0.950              1.047              0.462
                       Q            Log10(Q)             Ln(Q)
 Total Bot       0.232356-176       -176.633845       -406.714459
 Total V=0       0.592507D+26         25.772693         59.343819
 Vib (Bot)       0.537174-192       -192.269885       -442.717771
 Vib (Bot)    1  0.896533D+01          0.952567          2.193365
 Vib (Bot)    2  0.637566D+01          0.804525          1.852487
 Vib (Bot)    3  0.365321D+01          0.562675          1.295607
 Vib (Bot)    4  0.344818D+01          0.537590          1.237847
 Vib (Bot)    5  0.264696D+01          0.422747          0.973411
 Vib (Bot)    6  0.215733D+01          0.333917          0.768872
 Vib (Bot)    7  0.211826D+01          0.325980          0.750597
 Vib (Bot)    8  0.197964D+01          0.296586          0.682916
 Vib (Bot)    9  0.166497D+01          0.221406          0.509807
 Vib (Bot)   10  0.154863D+01          0.189949          0.437374
 Vib (Bot)   11  0.144438D+01          0.159680          0.367678
 Vib (Bot)   12  0.138736D+01          0.142189          0.327402
 Vib (Bot)   13  0.131960D+01          0.120443          0.277330
 Vib (Bot)   14  0.125739D+01          0.099470          0.229037
 Vib (Bot)   15  0.115271D+01          0.061721          0.142118
 Vib (Bot)   16  0.105993D+01          0.025275          0.058199
 Vib (Bot)   17  0.101760D+01          0.007576          0.017444
 Vib (Bot)   18  0.962552D+00         -0.016576         -0.038168
 Vib (Bot)   19  0.903297D+00         -0.044170         -0.101704
 Vib (Bot)   20  0.871514D+00         -0.059726         -0.137524
 Vib (Bot)   21  0.818223D+00         -0.087128         -0.200620
 Vib (Bot)   22  0.764682D+00         -0.116519         -0.268295
 Vib (Bot)   23  0.695595D+00         -0.157643         -0.362987
 Vib (Bot)   24  0.681120D+00         -0.166777         -0.384017
 Vib (Bot)   25  0.658874D+00         -0.181197         -0.417223
 Vib (Bot)   26  0.637817D+00         -0.195304         -0.449704
 Vib (Bot)   27  0.585626D+00         -0.232380         -0.535074
 Vib (Bot)   28  0.573182D+00         -0.241707         -0.556551
 Vib (Bot)   29  0.540505D+00         -0.267200         -0.615251
 Vib (Bot)   30  0.506195D+00         -0.295682         -0.680834
 Vib (Bot)   31  0.501451D+00         -0.299772         -0.690250
 Vib (Bot)   32  0.446286D+00         -0.350387         -0.806796
 Vib (Bot)   33  0.432177D+00         -0.364338         -0.838920
 Vib (Bot)   34  0.418295D+00         -0.378517         -0.871567
 Vib (Bot)   35  0.392945D+00         -0.405668         -0.934086
 Vib (Bot)   36  0.372226D+00         -0.429193         -0.988254
 Vib (Bot)   37  0.367119D+00         -0.435193         -1.002068
 Vib (Bot)   38  0.348351D+00         -0.457983         -1.054544
 Vib (Bot)   39  0.340208D+00         -0.468256         -1.078199
 Vib (Bot)   40  0.317506D+00         -0.498248         -1.147258
 Vib (Bot)   41  0.310408D+00         -0.508067         -1.169867
 Vib (Bot)   42  0.282395D+00         -0.549144         -1.264450
 Vib (Bot)   43  0.268989D+00         -0.570266         -1.313086
 Vib (Bot)   44  0.261000D+00         -0.583360         -1.343235
 Vib (Bot)   45  0.253847D+00         -0.595428         -1.371024
 Vib (V=0)       0.136979D+11         10.136654         23.340507
 Vib (V=0)    1  0.947927D+01          0.976775          2.249107
 Vib (V=0)    2  0.689523D+01          0.838549          1.930830
 Vib (V=0)    3  0.418727D+01          0.621931          1.432049
 Vib (V=0)    4  0.398424D+01          0.600346          1.382347
 Vib (V=0)    5  0.319377D+01          0.504303          1.161202
 Vib (V=0)    6  0.271451D+01          0.433692          0.998613
 Vib (V=0)    7  0.267648D+01          0.427563          0.984501
 Vib (V=0)    8  0.254181D+01          0.405143          0.932876
 Vib (V=0)    9  0.223843D+01          0.349943          0.805773
 Vib (V=0)   10  0.212735D+01          0.327839          0.754877
 Vib (V=0)   11  0.202847D+01          0.307169          0.707282
 Vib (V=0)   12  0.197471D+01          0.295503          0.680421
 Vib (V=0)   13  0.191115D+01          0.281295          0.647706
 Vib (V=0)   14  0.185315D+01          0.267912          0.616889
 Vib (V=0)   15  0.175648D+01          0.244644          0.563313
 Vib (V=0)   16  0.167194D+01          0.223221          0.513984
 Vib (V=0)   17  0.163380D+01          0.213199          0.490909
 Vib (V=0)   18  0.158467D+01          0.199938          0.460375
 Vib (V=0)   19  0.153245D+01          0.185385          0.426865
 Vib (V=0)   20  0.150476D+01          0.177466          0.408631
 Vib (V=0)   21  0.145890D+01          0.164026          0.377683
 Vib (V=0)   22  0.141364D+01          0.150339          0.346168
 Vib (V=0)   23  0.135665D+01          0.132468          0.305020
 Vib (V=0)   24  0.134494D+01          0.128703          0.296350
 Vib (V=0)   25  0.132711D+01          0.122908          0.283006
 Vib (V=0)   26  0.131044D+01          0.117417          0.270362
 Vib (V=0)   27  0.127004D+01          0.103817          0.239047
 Vib (V=0)   28  0.126062D+01          0.100583          0.231601
 Vib (V=0)   29  0.123631D+01          0.092126          0.212128
 Vib (V=0)   30  0.121150D+01          0.083324          0.191860
 Vib (V=0)   31  0.120813D+01          0.082115          0.189076
 Vib (V=0)   32  0.117020D+01          0.068261          0.157176
 Vib (V=0)   33  0.116089D+01          0.064791          0.149188
 Vib (V=0)   34  0.115190D+01          0.061414          0.141411
 Vib (V=0)   35  0.113593D+01          0.055351          0.127451
 Vib (V=0)   36  0.112334D+01          0.050511          0.116306
 Vib (V=0)   37  0.112030D+01          0.049336          0.113600
 Vib (V=0)   38  0.110938D+01          0.045082          0.103805
 Vib (V=0)   39  0.110477D+01          0.043270          0.099633
 Vib (V=0)   40  0.109229D+01          0.038339          0.088278
 Vib (V=0)   41  0.108852D+01          0.036836          0.084817
 Vib (V=0)   42  0.107424D+01          0.031100          0.071610
 Vib (V=0)   43  0.106776D+01          0.028475          0.065566
 Vib (V=0)   44  0.106402D+01          0.026951          0.062056
 Vib (V=0)   45  0.106075D+01          0.025612          0.058974
 Electronic      0.100000D+01          0.000000          0.000000
 Translational   0.447447D+09          8.650742         19.919069
 Rotational      0.966714D+07          6.985298         16.084243
 ***** Axes restored to original set *****
 -------------------------------------------------------------------
 Center     Atomic                   Forces (Hartrees/Bohr)
 Number     Number              X              Y              Z
 -------------------------------------------------------------------
      1       26           0.000009353    0.000002948   -0.000003648
      2        6          -0.000002381    0.000001601   -0.000004470
      3       46          -0.000006000   -0.000000759    0.000002206
      4        6           0.000003017   -0.000004849   -0.000005238
      5        1          -0.000001055    0.000001768   -0.000002180
      6        1          -0.000001248   -0.000000028    0.000000055
      7        1          -0.000000589    0.000000236    0.000000061
      8        6          -0.000002519   -0.000004101   -0.000002048
      9        8           0.000001673    0.000000113    0.000003683
     10        6          -0.000003933   -0.000006335    0.000001594
     11        8           0.000006023    0.000000335   -0.000000094
     12        6           0.000000078    0.000004961   -0.000000650
     13        6          -0.000006201    0.000000043    0.000001571
     14        6           0.000002506    0.000007759   -0.000006315
     15        1          -0.000000612    0.000001285   -0.000001717
     16        1           0.000000634   -0.000001534    0.000000993
     17        1           0.000001278    0.000000390   -0.000000441
     18        1          -0.000006333    0.000005031   -0.000001357
     19        6           0.000004793   -0.000009740    0.000008562
     20        6          -0.000001549    0.000003594    0.000002482
     21        8           0.000001186   -0.000001237   -0.000002421
     22        6           0.000001677    0.000011688   -0.000010078
     23        6           0.000001913   -0.000003462    0.000006375
     24        6          -0.000000152   -0.000002896    0.000001492
     25        6           0.000000873   -0.000000751    0.000001158
     26        6          -0.000003000   -0.000005653    0.000003822
     27        1           0.000000131   -0.000000420   -0.000000278
     28        7           0.000000106   -0.000001916    0.000000145
     29        1          -0.000000474   -0.000000489   -0.000000871
     30        1          -0.000002378    0.000002965    0.000001769
     31        1           0.000000191    0.000001454    0.000001370
     32        1           0.000001189   -0.000000350   -0.000000075
     33        7           0.000002102    0.000000978    0.000003403
     34        6          -0.000002191   -0.000004331   -0.000001725
     35        6          -0.000003308    0.000003097    0.000000968
     36        1           0.000003558    0.000003986    0.000000218
     37        1          -0.000000271   -0.000000455    0.000000044
     38        1          -0.000000097    0.000000221    0.000000357
     39        1          -0.000000142    0.000000055   -0.000000133
     40        1           0.000002095   -0.000000679    0.000001391
     41        1           0.000000290   -0.000003534   -0.000001896
     42        6           0.000005039   -0.000002389    0.000004478
     43        6          -0.000003803   -0.000000726   -0.000002061
     44        6           0.000004702   -0.000001046    0.000005187
     45        1           0.000002290   -0.000000028   -0.000000337
     46        1          -0.000001523    0.000000618    0.000000957
     47        1           0.000001707   -0.000000355   -0.000000330
     48        1          -0.000003961    0.000001501   -0.000000461
     49        1          -0.000000181    0.000000419    0.000000398
     50        1          -0.000002152   -0.000002994   -0.000003707
     51        1          -0.000001346    0.000003333   -0.000001691
     52        6           0.000000942    0.000003048    0.000006056
     53        1          -0.000002160    0.000001087   -0.000001983
     54        1          -0.000000015   -0.000003904   -0.000003130
     55        1           0.000000228    0.000000445   -0.000001457
 -------------------------------------------------------------------
 Cartesian Forces:  Max     0.000011688 RMS     0.000003162
 Z-matrix is all fixed cartesians, so copy forces.
 Leave Link  716 at Mon Oct 14 18:09:26 2024, MaxMem=   104857600 cpu:               0.1 elap:               0.4
 (Enter /home/echo/g16/l103.exe)

 GradGradGradGradGradGradGradGradGradGradGradGradGradGradGradGradGradGrad
 Berny optimization.
 Search for a local minimum.
 Step number   1 out of a maximum of    2
 All quantities printed in internal units (Hartrees-Bohrs-Radians)
 Second derivative matrix not updated -- analytic derivatives used.
 ITU=  0
     Eigenvalues ---   -0.03881   0.00008   0.00028   0.00036   0.00051
     Eigenvalues ---    0.00060   0.00088   0.00123   0.00162   0.00176
     Eigenvalues ---    0.00219   0.00274   0.00295   0.00303   0.00392
     Eigenvalues ---    0.00479   0.00573   0.00654   0.00684   0.00821
     Eigenvalues ---    0.00855   0.00974   0.01066   0.01132   0.01158
     Eigenvalues ---    0.01305   0.01409   0.01518   0.01698   0.01779
     Eigenvalues ---    0.01874   0.01893   0.02121   0.02204   0.02310
     Eigenvalues ---    0.02376   0.02504   0.02711   0.03422   0.03645
     Eigenvalues ---    0.04036   0.04212   0.04259   0.04414   0.04485
     Eigenvalues ---    0.04646   0.04831   0.04867   0.05076   0.05228
     Eigenvalues ---    0.05343   0.05441   0.05608   0.05795   0.05962
     Eigenvalues ---    0.06122   0.06204   0.06395   0.06449   0.06675
     Eigenvalues ---    0.06875   0.07293   0.07384   0.08026   0.08319
     Eigenvalues ---    0.08843   0.09354   0.09970   0.10359   0.10531
     Eigenvalues ---    0.10729   0.10980   0.11366   0.11391   0.11560
     Eigenvalues ---    0.11995   0.12032   0.12335   0.12473   0.12797
     Eigenvalues ---    0.13476   0.13953   0.14373   0.14503   0.14636
     Eigenvalues ---    0.14929   0.15126   0.15974   0.16293   0.16847
     Eigenvalues ---    0.18050   0.18506   0.18583   0.18773   0.19476
     Eigenvalues ---    0.19958   0.20277   0.21135   0.21862   0.22026
     Eigenvalues ---    0.22228   0.23096   0.23911   0.25890   0.26640
     Eigenvalues ---    0.29826   0.31391   0.33471   0.34242   0.35202
     Eigenvalues ---    0.37589   0.37881   0.39023   0.40180   0.42555
     Eigenvalues ---    0.43616   0.43874   0.48581   0.49525   0.50143
     Eigenvalues ---    0.54701   0.57640   0.59650   0.61149   0.64525
     Eigenvalues ---    0.64789   0.66233   0.68290   0.68648   0.69803
     Eigenvalues ---    0.70243   0.70546   0.71285   0.72191   0.73202
     Eigenvalues ---    0.73749   0.74167   0.74729   0.75121   0.76520
     Eigenvalues ---    0.77675   0.77705   0.78542   0.79226   0.79782
     Eigenvalues ---    0.82661   0.84941   0.90738   0.92728   1.00791
     Eigenvalues ---    1.01730   1.02233   1.09608   1.13945   1.16156
     Eigenvalues ---    1.16713   1.21707   1.35752   1.54635
 Eigenvalue     1 is  -3.88D-02 should be greater than     0.000000 Eigenvector:
                          X18       Y18       Z19       Z18       Y19
   1                    0.72448  -0.52516   0.21762  -0.20569   0.13145
                          X19       X8        X10       X1        Y1
   1                   -0.11229   0.10877  -0.08927  -0.07930   0.06140
 Angle between quadratic step and forces=  85.03 degrees.
 Linear search not attempted -- first point.
 B after Tr=     0.000004   -0.000026    0.000016
         Rot=    1.000000   -0.000002    0.000004    0.000001 Ang=  -0.00 deg.
 Variable       Old X    -DE/DX   Delta X   Delta X   Delta X     New X
                                 (Linear)    (Quad)   (Total)
    X1       -2.86932   0.00001   0.00000   0.00037   0.00038  -2.86894
    Y1        1.84545   0.00000   0.00000   0.00003   0.00002   1.84547
    Z1       -0.63952  -0.00000   0.00000   0.00008   0.00008  -0.63944
    X2        4.49587  -0.00000   0.00000  -0.00049  -0.00051   4.49535
    Y2       -0.24109   0.00000   0.00000   0.00009   0.00004  -0.24105
    Z2        3.50106  -0.00000   0.00000   0.00012   0.00017   3.50123
    X3        0.28484  -0.00001   0.00000  -0.00011  -0.00011   0.28473
    Y3       -1.55349  -0.00000   0.00000  -0.00043  -0.00045  -1.55394
    Z3        0.47670   0.00000   0.00000  -0.00001   0.00001   0.47671
    X4       -5.28447   0.00000   0.00000   0.00000   0.00000  -5.28446
    Y4       -2.78935  -0.00000   0.00000   0.00018   0.00017  -2.78918
    Z4       -0.47330  -0.00001   0.00000   0.00001  -0.00002  -0.47332
    X5       -5.84137  -0.00000   0.00000   0.00028   0.00030  -5.84107
    Y5        5.81665   0.00000   0.00000   0.00002   0.00001   5.81666
    Z5       -0.88645  -0.00000   0.00000   0.00022   0.00022  -0.88624
    X6       -7.17338  -0.00000   0.00000   0.00037   0.00037  -7.17301
    Y6        2.05264  -0.00000   0.00000  -0.00004  -0.00005   2.05259
    Z6        2.07439   0.00000   0.00000   0.00021   0.00018   2.07457
    X7       -2.94584  -0.00000   0.00000   0.00047   0.00044  -2.94539
    Y7        0.47642   0.00000   0.00000  -0.00007  -0.00010   0.47632
    Z7        4.54649   0.00000   0.00000   0.00006   0.00006   4.54655
    X8        4.39452  -0.00000   0.00000   0.00003   0.00005   4.39457
    Y8       -2.71057  -0.00000   0.00000   0.00004   0.00002  -2.71055
    Z8       -2.62672  -0.00000   0.00000   0.00000   0.00004  -2.62668
    X9        6.00247   0.00000   0.00000  -0.00092  -0.00095   6.00152
    Y9        0.34675   0.00000   0.00000   0.00071   0.00065   0.34740
    Z9        5.13692   0.00000   0.00000   0.00032   0.00038   5.13729
   X10       -4.08052  -0.00000   0.00000   0.00007   0.00009  -4.08043
   Y10       -1.13472  -0.00001   0.00000   0.00015   0.00014  -1.13458
   Z10       -2.38655   0.00000   0.00000   0.00003   0.00001  -2.38654
   X11        2.65990   0.00001   0.00000   0.00021   0.00023   2.66014
   Y11       -3.86124   0.00000   0.00000   0.00012   0.00010  -3.86114
   Z11       -3.98681  -0.00000   0.00000  -0.00022  -0.00020  -3.98701
   X12       -1.02151   0.00000   0.00000   0.00022   0.00026  -1.02125
   Y12        1.48039   0.00000   0.00000  -0.00007  -0.00008   1.48032
   Z12       -3.79903  -0.00000   0.00000   0.00001   0.00003  -3.79900
   X13       -3.35292  -0.00001   0.00000   0.00032   0.00036  -3.35257
   Y13        2.70119   0.00000   0.00000   0.00014   0.00013   2.70133
   Z13       -4.15940   0.00000   0.00000   0.00011   0.00011  -4.15929
   X14       -5.26298   0.00000   0.00000   0.00023   0.00026  -5.26272
   Y14        1.08716   0.00001   0.00000   0.00028   0.00028   1.08744
   Z14       -3.26567  -0.00001   0.00000   0.00010   0.00009  -3.26559
   X15        0.75461  -0.00000   0.00000   0.00024   0.00028   0.75489
   Y15        2.34884   0.00000   0.00000  -0.00020  -0.00021   2.34862
   Z15       -4.21755  -0.00000   0.00000  -0.00016  -0.00013  -4.21768
   X16       -3.60324   0.00000   0.00000   0.00047   0.00052  -3.60271
   Y16        4.60872  -0.00000   0.00000   0.00017   0.00017   4.60889
   Z16       -4.75689   0.00000   0.00000   0.00017   0.00017  -4.75672
   X17       -7.20732   0.00000   0.00000   0.00027   0.00030  -7.20702
   Y17        1.57163   0.00000   0.00000   0.00043   0.00044   1.57206
   Z17       -3.04255  -0.00000   0.00000   0.00015   0.00012  -3.04243
   X18        0.82192  -0.00001   0.00000  -0.00005  -0.00003   0.82189
   Y18       -2.91726   0.00001   0.00000   0.00012   0.00011  -2.91716
   Z18       -3.52903  -0.00000   0.00000  -0.00026  -0.00025  -3.52927
   X19       -1.42455   0.00000   0.00000   0.00009   0.00011  -1.42444
   Y19       -0.99768  -0.00001   0.00000  -0.00012  -0.00013  -0.99781
   Z19       -2.81804   0.00001   0.00000  -0.00009  -0.00009  -2.81812
   X20        5.20072  -0.00000   0.00000  -0.00031  -0.00031   5.20041
   Y20        0.44367   0.00000   0.00000  -0.00001  -0.00005   0.44362
   Z20        0.65407   0.00000   0.00000   0.00018   0.00023   0.65430
   X21        2.43497   0.00000   0.00000  -0.00015  -0.00018   2.43479
   Y21       -1.40048  -0.00000   0.00000  -0.00057  -0.00062  -1.40109
   Z21        3.82978  -0.00000   0.00000  -0.00002   0.00001   3.82979
   X22       -1.05129   0.00000   0.00000   0.00037   0.00037  -1.05093
   Y22        3.36350   0.00001   0.00000   0.00004   0.00001   3.36351
   Z22        2.28003  -0.00001   0.00000   0.00006   0.00008   2.28011
   X23       -1.98143   0.00000   0.00000   0.00030   0.00032  -1.98112
   Y23        5.17845  -0.00000   0.00000   0.00005   0.00002   5.17848
   Z23        0.57057   0.00001   0.00000   0.00015   0.00017   0.57073
   X24       -4.61469  -0.00000   0.00000   0.00031   0.00032  -4.61437
   Y24        4.84822  -0.00000   0.00000  -0.00002  -0.00004   4.84819
   Z24        0.38267   0.00000   0.00000   0.00017   0.00017   0.38284
   X25       -5.30361   0.00000   0.00000   0.00038   0.00038  -5.30323
   Y25        2.79577  -0.00000   0.00000  -0.00005  -0.00007   2.79570
   Z25        1.93092   0.00000   0.00000   0.00015   0.00014   1.93106
   X26       -3.10822  -0.00000   0.00000   0.00042   0.00040  -3.10782
   Y26        1.88064  -0.00001   0.00000  -0.00006  -0.00008   1.88055
   Z26        3.11032   0.00000   0.00000   0.00008   0.00008   3.11040
   X27        0.79784   0.00000   0.00000   0.00037   0.00037   0.79821
   Y27        3.25898  -0.00000   0.00000   0.00004   0.00000   3.25899
   Z27        3.08371  -0.00000   0.00000   0.00003   0.00007   3.08378
   X28        3.70235   0.00000   0.00000  -0.00013  -0.00012   3.70223
   Y28       -1.15137  -0.00000   0.00000  -0.00015  -0.00018  -1.15155
   Z28       -0.91693   0.00000   0.00000   0.00013   0.00017  -0.91677
   X29        7.24156  -0.00000   0.00000  -0.00028  -0.00028   7.24128
   Y29        0.14267  -0.00000   0.00000   0.00006   0.00001   0.14269
   Z29        0.43730  -0.00000   0.00000   0.00033   0.00040   0.43770
   X30       -6.64590  -0.00000   0.00000   0.00012   0.00012  -6.64578
   Y30       -1.57237   0.00000   0.00000   0.00026   0.00025  -1.57212
   Z30        0.47835   0.00000   0.00000   0.00012   0.00008   0.47843
   X31       -6.28232   0.00000   0.00000  -0.00017  -0.00017  -6.28249
   Y31       -4.43515   0.00000   0.00000   0.00029   0.00029  -4.43486
   Z31       -1.25512   0.00000   0.00000   0.00001  -0.00003  -1.25515
   X32       -0.88978   0.00000   0.00000   0.00026   0.00028  -0.88950
   Y32        6.45067  -0.00000   0.00000   0.00008   0.00006   6.45074
   Z32       -0.54983  -0.00000   0.00000   0.00015   0.00018  -0.54965
   X33       -3.37074   0.00000   0.00000   0.00001   0.00000  -3.37074
   Y33       -3.59201   0.00000   0.00000  -0.00004  -0.00007  -3.59208
   Z33        1.37733   0.00000   0.00000  -0.00007  -0.00009   1.37723
   X34       -2.23745  -0.00000   0.00000  -0.00025  -0.00027  -2.23772
   Y34       -6.01721  -0.00000   0.00000  -0.00014  -0.00016  -6.01737
   Z34        0.62792  -0.00000   0.00000  -0.00021  -0.00023   0.62768
   X35       -4.49732  -0.00000   0.00000   0.00012   0.00008  -4.49724
   Y35       -3.91160   0.00000   0.00000  -0.00001  -0.00004  -3.91164
   Z35        3.86736   0.00000   0.00000  -0.00002  -0.00005   3.86731
   X36       -3.59917   0.00000   0.00000  -0.00037  -0.00039  -3.59956
   Y36       -7.57317   0.00000   0.00000  -0.00000  -0.00002  -7.57319
   Z36        0.86803   0.00000   0.00000  -0.00014  -0.00017   0.86785
   X37       -1.66825  -0.00000   0.00000  -0.00039  -0.00039  -1.66864
   Y37       -5.96730  -0.00000   0.00000  -0.00015  -0.00016  -5.96747
   Z37       -1.35631   0.00000   0.00000  -0.00025  -0.00027  -1.35658
   X38       -0.58430  -0.00000   0.00000  -0.00021  -0.00023  -0.58453
   Y38       -6.40542   0.00000   0.00000  -0.00031  -0.00035  -6.40576
   Z38        1.81937   0.00000   0.00000  -0.00033  -0.00034   1.81903
   X39       -5.74554  -0.00000   0.00000   0.00007   0.00003  -5.74551
   Y39       -5.57052   0.00000   0.00000   0.00003   0.00001  -5.57051
   Z39        3.92439  -0.00000   0.00000   0.00003  -0.00001   3.92438
   X40       -3.00555   0.00000   0.00000   0.00018   0.00014  -3.00541
   Y40       -4.16159  -0.00000   0.00000  -0.00006  -0.00010  -4.16169
   Z40        5.26551   0.00000   0.00000  -0.00009  -0.00011   5.26541
   X41       -5.61334   0.00000   0.00000   0.00018   0.00015  -5.61319
   Y41       -2.25800  -0.00000   0.00000   0.00001  -0.00002  -2.25801
   Z41        4.35548  -0.00000   0.00000   0.00002  -0.00001   4.35547
   X42        4.51197   0.00001   0.00000  -0.00034  -0.00032   4.51164
   Y42        3.17438  -0.00000   0.00000  -0.00010  -0.00014   3.17424
   Z42       -0.13748   0.00000   0.00000  -0.00012  -0.00006  -0.13754
   X43        5.36518  -0.00000   0.00000  -0.00050  -0.00049   5.36468
   Y43        5.12840  -0.00000   0.00000   0.00020   0.00015   5.12855
   Z43        1.79951  -0.00000   0.00000  -0.00035  -0.00027   1.79924
   X44        5.68985   0.00000   0.00000  -0.00025  -0.00022   5.68963
   Y44        3.77628  -0.00000   0.00000  -0.00032  -0.00035   3.77593
   Z44       -2.71081   0.00001   0.00000  -0.00014  -0.00007  -2.71088
   X45        7.41763   0.00000   0.00000  -0.00049  -0.00049   7.41714
   Y45        5.20272  -0.00000   0.00000   0.00142   0.00137   5.20409
   Z45        1.87100  -0.00000   0.00000  -0.00142  -0.00134   1.86966
   X46        4.65487  -0.00000   0.00000  -0.00188  -0.00187   4.65300
   Y46        6.98976   0.00000   0.00000  -0.00017  -0.00021   6.98955
   Z46        1.29201   0.00000   0.00000   0.00025   0.00033   1.29234
   X47        4.71094   0.00000   0.00000   0.00082   0.00081   4.71174
   Y47        4.65946  -0.00000   0.00000  -0.00043  -0.00048   4.65898
   Z47        3.68661  -0.00000   0.00000  -0.00005   0.00002   3.68663
   X48        2.43508  -0.00000   0.00000  -0.00034  -0.00033   2.43476
   Y48        3.21669   0.00000   0.00000  -0.00020  -0.00023   3.21646
   Z48       -0.37704  -0.00000   0.00000  -0.00023  -0.00019  -0.37722
   X49        7.74272  -0.00000   0.00000  -0.00025  -0.00022   7.74250
   Y49        3.79049   0.00000   0.00000  -0.00043  -0.00046   3.79003
   Z49       -2.58823   0.00000   0.00000  -0.00011  -0.00003  -2.58825
   X50        5.12991  -0.00000   0.00000  -0.00032  -0.00028   5.12963
   Y50        2.39009  -0.00000   0.00000  -0.00035  -0.00037   2.38971
   Z50       -4.12472  -0.00000   0.00000  -0.00010  -0.00004  -4.12476
   X51        5.07384  -0.00000   0.00000  -0.00014  -0.00010   5.07374
   Y51        5.63233   0.00000   0.00000  -0.00030  -0.00033   5.63200
   Z51       -3.34621  -0.00000   0.00000  -0.00024  -0.00017  -3.34638
   X52        7.09141   0.00000   0.00000   0.00011   0.00013   7.09153
   Y52       -3.29523   0.00000   0.00000   0.00026   0.00023  -3.29500
   Z52       -3.29239   0.00001   0.00000   0.00007   0.00013  -3.29227
   X53        8.09780  -0.00000   0.00000   0.00060   0.00061   8.09841
   Y53       -3.96835   0.00000   0.00000   0.00194   0.00190  -3.96645
   Z53       -1.62981  -0.00000   0.00000   0.00043   0.00049  -1.62932
   X54        7.12247  -0.00000   0.00000   0.00026   0.00029   7.12276
   Y54       -4.73879  -0.00000   0.00000  -0.00092  -0.00095  -4.73974
   Z54       -4.75051  -0.00000   0.00000   0.00122   0.00127  -4.74923
   X55        8.03262   0.00000   0.00000  -0.00052  -0.00049   8.03213
   Y55       -1.60279   0.00000   0.00000  -0.00005  -0.00008  -1.60287
   Z55       -3.98504  -0.00000   0.00000  -0.00156  -0.00150  -3.98653
         Item               Value     Threshold  Converged?
 Maximum Force            0.000012     0.000450     YES
 RMS     Force            0.000003     0.000300     YES
 Maximum Displacement     0.001904     0.001800     NO 
 RMS     Displacement     0.000400     0.001200     YES
 Predicted change in Energy=-1.074347D-08
 GradGradGradGradGradGradGradGradGradGradGradGradGradGradGradGradGradGrad

 Leave Link  103 at Mon Oct 14 18:09:27 2024, MaxMem=   104857600 cpu:               0.0 elap:               0.1
 (Enter /home/echo/g16/l9999.exe)
 Unable to Open any file for archive entry.
 1\1\GINC-ECHO\Freq\External='./xtb.sh'\ZDO\C20H28Fe1N2O3Pd1\ECHO\14-Oc
 t-2024\0\\#p freq external='./xtb.sh'\\Generate automatically by rxnb\
 \0,1\Fe,-1.51838,0.97657,-0.33842\C,2.37911,-0.12758,1.85268\Pd,0.1507
 3,-0.82207,0.25226\C,-2.79642,-1.47606,-0.25046\H,-3.09112,3.07804,-0.
 46909\H,-3.79599,1.08621,1.09772\H,-1.55887,0.25211,2.4059\C,2.32548,-
 1.43437,-1.39\O,3.17637,0.18349,2.71834\C,-2.15932,-0.60047,-1.26291\O
 ,1.40756,-2.04328,-2.10973\C,-0.54056,0.78339,-2.01036\C,-1.77429,1.42
 941,-2.20106\C,-2.78505,0.5753,-1.72812\H,0.39932,1.24295,-2.23183\H,-
 1.90675,2.43883,-2.51724\H,-3.81395,0.83167,-1.61005\H,0.43494,-1.5437
 5,-1.86748\C,-0.75384,-0.52795,-1.49124\C,2.7521,0.23478,0.34612\O,1.2
 8853,-0.7411,2.02663\C,-0.55632,1.77989,1.20654\C,-1.04853,2.74032,0.3
 0193\C,-2.44199,2.56557,0.2025\C,-2.80655,1.47946,1.0218\C,-1.6448,0.9
 9519,1.64591\H,0.4222,1.72458,1.63183\N,1.9592,-0.60928,-0.48522\H,3.8
 3207,0.0755,0.23141\H,-3.51686,-0.83206,0.25313\H,-3.32446,-2.34698,-0
 .66418\H,-0.47085,3.41355,-0.29096\N,-1.78372,-1.90081,0.72885\C,-1.18
 401,-3.18417,0.33228\C,-2.37988,-2.06993,2.04652\H,-1.9046,-4.00755,0.
 45934\H,-0.8828,-3.15776,-0.71773\H,-0.3092,-3.3896,0.96277\H,-3.04041
 ,-2.94779,2.0767\H,-1.59047,-2.20222,2.78639\H,-2.97045,-1.19488,2.304
 82\C,2.38763,1.67981,-0.07275\C,2.83913,2.71383,0.95226\C,3.01094,1.99
 832,-1.4345\H,3.92524,2.75316,0.99009\H,2.46325,3.69882,0.6837\H,2.492
 92,2.46568,1.95087\H,1.28859,1.7022,-0.19952\H,4.09727,2.00584,-1.3696
 3\H,2.71463,1.26478,-2.18271\H,2.68496,2.9805,-1.77074\C,3.75261,-1.74
 376,-1.74226\H,4.28517,-2.09996,-0.86246\H,3.76905,-2.50766,-2.51386\H
 ,4.25068,-0.84816,-2.10879\\Version=ES64L-G16RevC.01\HF=-82.968411\RMS
 D=0.000e+00\RMSF=3.162e-06\ZeroPoint=0.4400451\Thermal=0.4675209\ETot=
 -82.5008901\HTot=-82.4999459\GTot=-82.5843973\Dipole=0.,0.,0.\PG=C01 [
 X(C20H28Fe1N2O3Pd1)]\NImag=1\\0.39132332,-0.04313588,0.50536684,-0.016
 81799,0.15546000,0.59425834,-0.00018086,-0.00120297,0.00005282,0.72310
 430,-0.00042448,-0.00087275,0.00004840,0.25314254,0.32431276,0.0013235
 5,-0.00031953,0.00033996,0.21989297,0.07949505,0.52434467,-0.04153737,
 0.04269584,-0.00672227,-0.01690838,-0.00739576,-0.00131383,0.22676892,
 0.03579714,-0.03672810,0.01000302,0.00043991,0.00078589,-0.00347079,-0
 .03580182,0.09600840,-0.01580595,0.01472572,-0.00682378,-0.00825501,-0
 .00652524,0.01348331,0.04028884,-0.03142505,0.21898632,-0.00543357,-0.
 00124970,0.00408272,-0.00089506,-0.00045768,0.00006224,-0.00397731,-0.
 00090438,-0.00234605,0.47373163,-0.00206022,-0.00226017,0.00505611,-0.
 00017133,-0.00004602,0.00016346,-0.00090873,0.00204209,-0.00199471,-0.
 00724278,0.51761273,-0.00453303,-0.00593420,-0.00142864,-0.00029488,-0
 .00012953,-0.00030660,-0.00195618,-0.00173912,0.00005622,-0.04219287,0
 .01901432,0.45773795,-0.00244236,0.00014533,-0.00150593,0.00018877,-0.
 00000351,0.00003357,0.00017799,-0.00050821,0.00008033,-0.00004202,-0.0
 0036708,0.00007236,0.16433695,0.00142150,-0.00370638,0.00345551,-0.000
 06653,-0.00003696,0.00001955,-0.00068530,0.00063283,-0.00020032,0.0003
 7807,0.00066644,-0.00009491,-0.09274595,0.11040230,0.00224131,-0.00224
 087,0.00005926,0.00027992,0.00010668,-0.00001173,-0.00008997,0.0000458
 1,-0.00022935,0.00001473,0.00014394,-0.00008972,0.12765856,-0.10901966
 ,0.16384646,-0.00162855,-0.00095871,-0.00229690,0.00014098,-0.00006537
 ,0.00013304,-0.00051452,-0.00045309,0.00040152,-0.00046719,-0.00062695
 ,0.00004433,0.00014364,0.00009367,0.00056402,0.31744469,0.00368970,0.0
 0097233,0.00021762,0.00001528,0.00001051,0.00007459,0.00016805,-0.0000
 1552,-0.00000870,0.00074711,-0.00102748,-0.00099557,0.00030742,-0.0006
 1640,-0.00046867,0.11159624,0.08190553,0.00298434,0.00187591,0.0002456
 6,-0.00001315,-0.00007557,0.00001440,-0.00058813,0.00039257,-0.0000209
 1,0.00065993,0.00010201,-0.00046721,0.00039565,-0.00037304,-0.00054847
 ,-0.01802717,-0.01847956,0.03118155,-0.00029392,-0.00155506,-0.0000049
 7,-0.00124465,-0.00038594,0.00044988,0.00038237,0.00105052,0.00147586,
 0.00004965,-0.00012657,-0.00005504,0.00036250,0.00075320,-0.00076679,-
 0.00003346,0.00014910,0.00034825,0.04495313,-0.00003280,0.00428770,-0.
 00179059,-0.00007166,0.00022604,0.00007947,0.00061813,0.00085507,0.000
 09249,-0.00022583,-0.00007279,-0.00013391,-0.00033707,-0.00002373,0.00
 074464,0.00014518,-0.00013091,-0.00061547,-0.01131095,0.19783646,0.000
 25586,0.00511557,0.00229818,0.00089978,0.00019279,0.00012549,0.0036071
 5,-0.00134364,-0.00414608,-0.00018566,0.00034071,-0.00055188,0.0003833
 1,0.00009259,0.00026527,0.00001697,-0.00046466,-0.00065654,0.01910943,
 -0.17205837,0.19265124,0.00113402,0.00037420,0.00212896,0.00431872,0.0
 0062616,-0.00464283,-0.00762249,0.00425874,0.01415996,-0.00026986,-0.0
 0024808,0.00001548,0.00003157,-0.00006097,0.00000064,0.00010872,-0.000
 02734,-0.00007765,0.00019751,-0.00008109,-0.00025070,0.57301819,0.0010
 8058,-0.00027720,0.00191784,0.00195221,0.00278320,-0.00460330,0.004254
 30,0.00091271,0.00510360,0.00010853,-0.00014572,0.00015419,-0.00008390
 ,-0.00000121,-0.00004203,-0.00017403,-0.00008045,-0.00000863,0.0000911
 8,-0.00011923,0.00001809,-0.03477519,0.43602715,0.00138719,-0.00024526
 ,0.00168310,0.00052666,-0.00037618,-0.00881923,0.00653454,0.00023796,0
 .00326722,0.00034094,-0.00024562,0.00039175,-0.00010576,0.00000060,-0.
 00008472,-0.00018151,-0.00007926,-0.00003570,0.00017166,-0.00015982,-0
 .00002314,-0.02839471,0.31832122,0.50749227,-0.00005775,0.00058216,-0.
 00020198,-0.30865350,-0.09537225,-0.26296604,0.00147362,-0.00261570,0.
 00323245,0.00040331,0.00003074,0.00024657,-0.00004598,0.00002398,-0.00
 013796,-0.00004769,-0.00004347,-0.00000824,0.00046058,-0.00007171,-0.0
 0032493,-0.00144536,0.00104766,0.00067520,0.36951222,-0.00013085,0.000
 60559,-0.00029924,-0.09366065,-0.10036331,-0.09936701,0.00014529,0.000
 26858,0.00253971,0.00019445,-0.00000016,0.00012480,0.00001222,0.000003
 69,-0.00004627,0.00004237,0.00001381,0.00000408,0.00011706,-0.00011823
 ,-0.00013350,0.00007849,0.00007198,0.00058907,0.14132725,0.08605621,-0
 .00067896,0.00067527,-0.00016239,-0.27048950,-0.10522881,-0.36279419,-
 0.00019877,-0.00050392,-0.00319211,0.00024950,0.00002344,0.00020083,-0
 .00000569,-0.00000362,-0.00005408,-0.00003828,-0.00005469,0.00000763,0
 .00003073,-0.00014865,-0.00019231,0.00046095,0.00320929,0.00230864,0.3
 2347812,0.11856546,0.42971855,-0.02598784,-0.03862379,-0.01464332,-0.0
 0131143,-0.00084992,0.00014567,-0.00966291,-0.00019733,-0.00294307,-0.
 09890072,-0.04202410,0.06179007,-0.00014761,0.00040056,0.00030293,-0.0
 0052598,-0.00044357,-0.00035236,-0.00020461,0.00081163,0.00083243,-0.0
 0113190,-0.00028147,-0.00065476,0.00059393,0.00058818,0.00061222,0.542
 61562,-0.03848763,-0.08709238,-0.04203588,0.00013006,0.00028985,-0.000
 11182,0.00583149,0.00033961,-0.00311104,-0.04555899,-0.11406879,0.0777
 2420,-0.00044039,0.00034815,0.00024043,-0.00056371,0.00015905,0.000439
 05,0.00047469,-0.00048122,-0.00003994,0.00080420,0.00058061,0.00079084
 ,-0.00008099,-0.00028840,-0.00020902,0.02842978,0.55290990,-0.01193371
 ,-0.03155249,-0.03934470,0.00171408,0.00114248,-0.00017995,-0.00589216
 ,-0.00225056,0.00006862,0.05719495,0.07134142,-0.12892032,-0.00004831,
 0.00043478,0.00032928,0.00007017,0.00019261,0.00025826,-0.00024567,0.0
 0021802,0.00038919,-0.00004567,-0.00042195,-0.00069871,-0.00051532,-0.
 00034759,-0.00023087,-0.07629362,-0.19863283,0.31685011,-0.00622952,0.
 00322197,-0.00718981,-0.01150649,-0.00743317,0.01279564,-0.00402725,0.
 00200920,-0.00718019,-0.00016291,0.00070277,-0.00035853,0.00008286,-0.
 00020353,-0.00016865,0.00006167,-0.00003447,-0.00002222,-0.00024742,0.
 00023375,0.00008236,-0.17919773,-0.06781272,-0.08389752,0.00080119,0.0
 0073455,-0.00595709,-0.00039396,0.00127607,0.00051000,0.26405475,0.001
 87552,-0.00092402,0.00189163,-0.00266515,-0.00442663,0.00465356,0.0058
 2998,-0.00499475,-0.00413763,0.00004587,-0.00039394,0.00009177,-0.0000
 0180,0.00014188,0.00012918,0.00004694,0.00007203,0.00005670,-0.0001070
 1,-0.00010385,0.00015708,-0.07735659,-0.12855639,-0.09134017,-0.001696
 71,0.00015328,-0.00461976,0.00138595,-0.00177457,0.00012638,0.07052482
 ,0.20482750,-0.00072801,-0.00015777,0.00037471,-0.00246753,-0.00218596
 ,0.00637119,0.00322004,-0.00117132,-0.01020005,-0.00017820,0.00004001,
 -0.00026225,0.00004762,0.00005395,0.00009622,0.00001834,0.00006007,0.0
 0005489,-0.00014301,-0.00003079,0.00036263,-0.09747850,-0.09325014,-0.
 14910311,-0.00060066,0.00011225,-0.00296630,0.00112840,-0.00066600,0.0
 0034972,0.10692990,0.16997331,0.22197569,-0.05237114,-0.00666184,0.053
 89131,0.00063130,0.00038956,-0.00013458,0.00322157,0.00664928,-0.00238
 343,-0.00477675,0.00220673,0.00116899,-0.00004961,-0.00033650,0.000118
 62,0.00044162,-0.00020127,-0.00083720,-0.00007753,-0.00016750,-0.00033
 255,-0.00150296,-0.00112521,-0.00178179,-0.00037996,-0.00007846,-0.000
 08981,-0.01674319,-0.02306457,0.01269851,0.00340607,-0.00061813,0.0004
 6747,0.71801156,-0.00815001,-0.01227205,-0.01073808,0.00138505,0.00097
 837,0.00007656,0.00088105,-0.00478143,0.00194868,-0.00188184,0.0017446
 8,0.00224880,0.00008338,-0.00009324,-0.00012635,0.00005669,-0.00064177
 ,-0.00035467,-0.00002177,0.00023757,0.00036402,0.00200896,0.00165561,0
 .00150110,-0.00045718,-0.00057809,-0.00048385,-0.03672714,-0.00545316,
 0.01761763,-0.00433078,0.00095338,-0.00036511,0.05976493,0.47731986,0.
 04027170,-0.00626826,-0.09227717,0.00022153,0.00021660,0.00038886,0.00
 294754,0.00457947,-0.00522489,0.00024983,-0.00030221,0.00107272,-0.000
 30570,0.00071449,0.00044848,-0.00009644,-0.00021472,-0.00004710,-0.000
 08879,0.00021808,0.00071933,-0.00047881,-0.00129287,-0.00158838,-0.000
 20244,-0.00005729,-0.00024890,0.00590342,0.00656105,-0.00586433,0.0008
 2443,0.00038422,0.00097134,-0.10324467,-0.15164200,0.22597163,0.000881
 63,0.00061823,-0.01585817,0.00119890,0.00083154,-0.00082315,0.00077874
 ,0.00020909,-0.00150866,-0.00075073,0.00234118,0.00090446,-0.00030302,
 0.00074611,0.00056023,-0.00007596,-0.00012589,0.00046072,-0.00020535,-
 0.00008585,-0.00016730,-0.00017388,0.00023238,-0.00005756,-0.00048816,
 -0.00026795,-0.00000220,0.01835689,-0.01779597,0.01438279,-0.00147448,
 0.00040323,0.00049924,-0.26603479,0.08693870,-0.00322006,0.53804882,0.
 00449836,-0.02577238,0.03230902,-0.00082464,-0.00053866,0.00057154,-0.
 00183540,-0.00220159,0.00154200,0.00369381,-0.00155407,0.00238426,0.00
 091274,-0.00071348,-0.00180110,0.00009013,-0.00017232,-0.00002903,0.00
 019583,-0.00053113,-0.00077971,0.00067466,0.00022107,0.00078836,0.0003
 5398,0.00029751,-0.00010652,-0.00262987,-0.04078516,0.02622143,-0.0001
 2205,-0.00012446,-0.00086832,0.11318340,-0.11730849,0.02133841,-0.0389
 9390,0.67456817,-0.01522641,0.01945518,-0.11569454,-0.00002803,-0.0000
 1475,0.00018404,-0.00047297,0.00110006,-0.00080379,-0.00068938,0.00055
 317,0.00027555,-0.00040402,0.00024287,-0.00053584,-0.00056716,0.000440
 48,0.00086970,0.00040164,-0.00075383,-0.00035788,-0.00004471,-0.000217
 83,-0.00032845,0.00004331,0.00004447,0.00000025,0.00389479,0.01214803,
 -0.00524520,-0.00008051,0.00011204,0.00027860,-0.04338118,0.03772334,-
 0.03976331,-0.01731454,-0.24021918,0.27748566,-0.07244506,-0.01609849,
 -0.06402278,0.00047890,0.00024800,-0.00005852,-0.00273281,-0.00027301,
 0.00060398,0.00609934,-0.00835482,0.00633004,0.00023204,0.00121092,0.0
 0042964,-0.00038134,-0.00008249,0.00107127,-0.00008550,0.00015249,0.00
 048334,0.00001893,-0.00027504,-0.00039551,-0.00010286,-0.00013418,0.00
 003321,-0.11465406,0.11219460,-0.03066287,-0.00135602,0.00098801,0.000
 63006,-0.05056250,-0.00356312,-0.00166289,-0.20500363,-0.12328357,0.08
 240399,0.77860476,-0.01474582,-0.00777472,-0.02353799,-0.00093350,-0.0
 0060309,0.00041668,0.00081346,0.00100307,0.00080947,0.00696646,-0.0194
 8166,0.01137910,-0.00013104,-0.00074298,-0.00050116,-0.00020636,-0.000
 14150,-0.00044519,0.00000117,0.00029910,0.00040592,-0.00003973,-0.0000
 1320,-0.00011163,0.00039932,0.00026032,0.00009340,0.07139389,-0.224842
 91,0.07475877,0.00101071,-0.00070222,-0.00018522,-0.01109480,0.0117875
 4,-0.01178198,-0.09453141,-0.16138955,0.07518139,-0.04458162,0.4743418
 3,-0.04371664,-0.02204622,-0.07282860,0.00019607,0.00018292,-0.0000276
 6,0.00061421,0.00002761,-0.00106464,-0.00587162,0.01155788,-0.00837893
 ,-0.00053414,0.00013349,-0.00040551,-0.00072033,-0.00005430,0.00018326
 ,0.00017384,0.00003021,0.00045191,0.00006576,0.00009083,0.00006516,-0.
 00006336,0.00001798,-0.00005479,-0.02309699,0.08671749,-0.06233097,-0.
 00063699,0.00026752,0.00008404,0.02164468,-0.00841455,0.01154278,0.048
 79213,0.06117826,-0.06302154,-0.02500645,-0.13831911,0.22838428,-0.000
 26396,-0.00102134,-0.00186826,-0.00008789,-0.00012540,0.00010952,0.000
 23128,-0.00078463,0.00189454,0.00003386,0.00042166,0.00003356,0.000102
 38,-0.00036148,-0.00007179,0.00019148,0.00004427,-0.00034511,0.0000616
 9,0.00007939,-0.00011017,0.00023984,0.00011867,0.00009018,0.00003376,0
 .00001296,0.00001042,-0.00121411,0.00006827,0.00095354,0.00021134,-0.0
 0010133,-0.00026425,-0.25982080,-0.10739648,0.05327091,-0.02133138,-0.
 00967970,0.00537490,-0.00498758,0.00167031,0.00114518,0.29140951,0.001
 61081,-0.00047474,0.00018948,-0.00011593,-0.00015690,0.00036686,-0.000
 29746,-0.00095955,0.00182266,-0.00158371,0.00038289,0.00053342,-0.0000
 2369,0.00014752,-0.00004832,-0.00006769,-0.00017309,0.00005325,-0.0000
 4753,-0.00011556,-0.00001107,0.00082405,-0.00077234,0.00020595,-0.0000
 4622,0.00000626,-0.00021439,-0.00247541,-0.00447349,0.00398176,0.00068
 472,-0.00006347,-0.00068161,-0.10788428,-0.09099402,0.03077544,0.01068
 135,0.00556864,-0.00342002,0.00167820,-0.00104557,0.00094657,0.1189251
 7,0.09903011,0.00696586,0.00530862,0.00049889,0.00050529,0.00036698,-0
 .00050899,0.00119908,0.00121604,-0.00139747,-0.00013486,-0.00032601,0.
 00062088,-0.00028266,0.00022487,0.00009074,-0.00014197,-0.00004243,0.0
 0011516,-0.00009193,-0.00012328,0.00027043,-0.00029161,0.00053412,0.00
 026212,-0.00014110,-0.00014615,0.00017580,0.00035271,0.00082920,0.0010
 2380,-0.00000194,-0.00026678,-0.00017929,0.05862242,0.03251206,-0.0370
 7775,-0.00697348,-0.00424869,0.00055195,-0.00218096,0.00136163,0.00195
 954,-0.05664437,-0.03587555,0.03829770,-0.00233906,0.00064351,0.000403
 40,0.00031278,0.00016287,-0.00006492,0.00014428,0.00069801,-0.00029010
 ,0.00062590,-0.00066722,0.00040310,-0.00031446,0.00052754,0.00093815,0
 .00000489,-0.00014841,0.00010658,-0.00014696,-0.00004964,-0.00000887,-
 0.00000782,-0.00015693,-0.00020809,-0.00010877,-0.00008217,-0.00002723
 ,-0.00312391,-0.00239443,0.00243997,-0.00001707,0.00007737,0.00014268,
 -0.00129299,0.02201438,-0.00759581,-0.04343052,0.03507510,-0.01028304,
 0.00448226,-0.01939569,0.00606150,0.00000879,0.00028867,0.00014929,0.0
 4909254,-0.00032559,-0.00098934,-0.00204067,-0.00045698,-0.00028273,0.
 00004287,-0.00042527,-0.00073686,0.00016271,0.00079561,-0.00006497,0.0
 0041553,0.00007708,0.00036404,-0.00030161,0.00011573,-0.00007646,-0.00
 016205,-0.00007556,0.00005768,-0.00001738,-0.00002288,0.00011978,0.000
 25843,0.00018099,0.00009313,0.00009251,-0.00110511,-0.00289704,0.00347
 785,0.00001471,-0.00005398,-0.00021079,0.00134386,-0.01096222,0.003071
 25,0.03398038,-0.30177345,0.08824210,0.00262375,-0.01416657,0.00373823
 ,0.00028162,0.00024121,-0.00041419,-0.03881697,0.33244337,-0.00028074,
 0.00597248,0.00011865,-0.00006844,-0.00006531,0.00006628,0.00019049,-0
 .00095946,0.00030411,-0.00020149,-0.00030155,0.00040478,0.00124272,-0.
 00039123,-0.00113156,-0.00038632,0.00002498,0.00034186,0.00005681,-0.0
 0022171,0.00034326,0.00011895,0.00011779,0.00008549,0.00004082,0.00003
 452,0.00002238,0.00042508,0.00059676,0.00173702,-0.00009699,-0.0001316
 7,-0.00009050,-0.00172468,-0.00061873,-0.00182172,-0.00974665,0.088816
 04,-0.05074275,-0.00031801,0.00430921,-0.00402577,-0.00012658,-0.00033
 859,-0.00114953,0.00963799,-0.09746418,0.05334201,-0.00201486,0.002529
 79,0.00228230,0.00033993,0.00018277,0.00016779,-0.00016024,-0.00038822
 ,0.00034696,0.00002716,-0.00079559,0.00018349,0.00001870,-0.00069150,-
 0.00010809,0.00018074,0.00015714,-0.00015056,0.00013472,-0.00009290,0.
 00026891,0.00018624,-0.00023559,-0.00019850,-0.00012415,-0.00003190,-0
 .00013627,-0.00902142,0.00236416,0.00054132,-0.00005035,0.00017929,0.0
 0008253,-0.00361014,-0.00111085,0.00035369,-0.01597432,0.00408788,0.00
 058920,-0.31008823,0.06882110,0.03405989,-0.00034208,0.00037546,-0.000
 68576,-0.00012163,-0.00044381,-0.00016739,0.34209190,-0.00130592,-0.00
 073940,0.00027654,-0.00038714,-0.00023739,0.00006813,0.00101558,-0.000
 31745,-0.00023515,0.00027916,-0.00027109,-0.00102469,-0.00028624,-0.00
 106114,-0.00038468,-0.00009587,0.00029423,0.00002704,0.00011130,-0.000
 11386,0.00001748,-0.00003450,0.00005459,0.00015584,0.00012495,0.000089
 69,0.00004451,0.02237962,-0.00440697,-0.00379687,0.00023467,-0.0002095
 9,-0.00019310,-0.00176958,-0.00210875,0.00179996,-0.01589206,0.0044224
 4,-0.00021079,0.06927634,-0.05267768,-0.00169604,-0.00068463,0.0003563
 7,-0.00006756,-0.00027010,0.00004134,-0.00017353,-0.07581906,0.0592886
 7,-0.00507212,0.00261005,-0.00037115,-0.00016298,-0.00010137,0.0000024
 6,0.00054684,-0.00020516,-0.00013705,-0.00119979,-0.00099135,-0.000076
 51,-0.00031405,-0.00039187,0.00017389,0.00013940,0.00004092,-0.0010581
 4,0.00002363,-0.00009262,0.00029375,0.00009779,0.00015955,0.00015296,0
 .00007030,0.00004647,0.00004678,-0.00488852,0.00026610,-0.00160049,-0.
 00030155,0.00000393,-0.00006773,0.00409237,0.00206350,0.00182253,0.010
 93480,-0.00568302,-0.00248316,0.03275904,0.00033816,-0.02817919,0.0008
 4859,-0.00010463,0.00063626,-0.00031299,-0.00022086,-0.00109451,-0.037
 92077,0.00060575,0.02988270,0.00711854,-0.00521757,0.00786652,0.008966
 75,0.00475117,-0.00738233,0.00656422,0.00039594,0.01183397,0.00001136,
 -0.00101587,0.00037559,-0.00006818,0.00022507,0.00022407,0.00005155,0.
 00009439,-0.00001276,0.00016982,-0.00018565,-0.00032003,-0.05717237,-0
 .02575721,-0.03457234,-0.00148678,-0.00074493,0.00286451,-0.00160624,0
 .00020175,-0.00041339,0.00800329,0.01029454,0.01779090,-0.00322716,0.0
 0508267,-0.00012226,0.00229135,-0.00020380,0.00051344,0.00107751,-0.00
 105921,0.00117378,-0.00033190,-0.00154478,-0.00015076,0.00012925,-0.00
 018503,0.00011857,0.00006157,-0.00017488,0.00021069,0.02129959,-0.0040
 1413,0.00300377,-0.00297361,-0.00556101,-0.00248590,0.00337555,-0.0038
 5887,0.00312184,-0.00789692,-0.00001417,0.00057936,-0.00039039,-0.0000
 2477,-0.00010173,-0.00010983,-0.00009261,-0.00004843,0.00000343,-0.000
 10246,0.00013187,0.00023544,0.00486000,0.02602702,0.02206777,0.0013336
 0,0.00048438,-0.00096641,-0.00025179,0.00228953,0.00042828,-0.00443780
 ,-0.04313163,-0.02305834,0.00434566,-0.00567612,-0.00050284,-0.0006634
 9,-0.00079538,-0.00003353,-0.00136581,0.00051780,-0.00054364,0.0000061
 8,-0.00009956,0.00034431,0.00009530,0.00004851,0.00002909,-0.00033695,
 0.00025985,-0.00017633,0.02985778,0.02550001,-0.00049473,0.00156198,-0
 .00043750,-0.00365321,-0.00211006,0.00177987,-0.00124015,-0.00086454,-
 0.00124848,0.00014969,0.00026649,0.00002872,-0.00000512,-0.00003984,-0
 .00004785,-0.00005399,0.00001508,-0.00000058,0.00000441,-0.00003235,-0
 .00009366,-0.00291383,0.01728820,0.01900954,0.00079021,0.00044580,-0.0
 0049674,-0.00146093,0.00089069,-0.00066019,-0.00511553,-0.01728193,-0.
 03784250,-0.00100648,0.00157461,-0.00072506,-0.00036107,0.00070855,-0.
 00037980,-0.00078218,-0.00010518,-0.00003915,0.00016070,0.00048680,0.0
 0008363,-0.00022764,0.00029028,-0.00002172,-0.00016480,0.00027846,0.00
 006190,0.01675229,0.00135695,0.03108247,-0.02532066,0.03312223,0.00547
 776,0.00093312,0.00119633,-0.00065068,-0.03652949,0.00003075,-0.044489
 07,-0.00936608,-0.00189923,0.00278674,0.00026007,-0.00103204,-0.000454
 05,0.00033276,0.00011596,-0.00020280,0.00009286,-0.00058001,-0.0007080
 7,0.01100991,0.00956434,0.01061500,-0.00040824,-0.00045002,-0.00016348
 ,-0.27074987,-0.01863091,0.02900636,-0.03958386,0.01706311,0.00243234,
 -0.06879379,-0.01858457,0.01115249,-0.00148062,0.01568427,-0.00612503,
 -0.03371274,0.03909907,-0.00214460,-0.00085998,-0.02058198,0.00396545,
 -0.00358876,0.00179391,0.00121231,-0.00208365,0.00390486,0.00079040,0.
 02078946,-0.01886785,-0.00081254,0.45805543,0.04732771,-0.05904577,-0.
 01085001,0.00420803,0.00202979,-0.00137606,-0.00033214,-0.00778824,0.0
 2590390,-0.01659018,0.00090684,0.00356521,-0.00077754,0.00120505,0.000
 66104,-0.00046187,0.00061698,0.00115095,-0.00000391,-0.00077693,-0.000
 35023,-0.01074596,-0.00983779,-0.01205749,-0.00058565,-0.00027754,0.00
 064328,0.00555171,-0.05207926,0.01355954,0.03519702,-0.00749660,0.0007
 9046,-0.03962538,-0.24106565,0.10157336,0.03010096,-0.03569133,0.00265
 030,0.01309333,-0.00003191,0.00064269,-0.00084205,-0.00732356,0.000336
 69,0.00266803,-0.00169079,-0.00011472,0.00002158,-0.00242932,0.0013596
 1,-0.02587970,0.00387409,-0.00107808,-0.02865352,0.40151205,0.03179508
 ,-0.03854025,-0.00964819,0.00663312,0.00389413,-0.00442807,-0.04996942
 ,0.01445622,-0.08622796,0.01193305,-0.00268169,-0.00769557,-0.00014084
 ,0.00040303,0.00012194,-0.00055329,0.00032076,0.00037596,0.00021294,-0
 .00009361,0.00045448,-0.00950395,-0.00919345,-0.01003383,-0.00261172,-
 0.00130038,0.00070692,0.03742509,0.02415142,-0.04153258,0.03451599,-0.
 01084651,0.00449318,0.00606430,0.07599054,-0.06464852,-0.02294645,0.02
 370673,0.00344616,-0.00680184,0.00835678,0.00104865,0.00004556,0.00198
 813,-0.00405248,-0.00213682,0.00311910,0.00256506,-0.00093124,0.003161
 59,0.00147896,-0.03019642,0.01736121,-0.00304310,-0.00197784,-0.127399
 94,0.21076058,0.00066968,-0.00024091,0.00054991,-0.05931569,0.00386779
 ,0.01412931,-0.00581667,-0.00290128,-0.00476853,0.00012624,0.00002050,
 0.00008186,0.00006188,0.00000913,0.00001651,0.00011215,-0.00002358,-0.
 00001312,0.00010474,-0.00015752,-0.00001635,0.00880996,0.00181787,0.00
 124682,0.00279343,-0.00239425,-0.03013880,-0.00030686,0.00023011,0.000
 01357,0.00173378,0.00106199,0.00189767,0.00005132,0.00007935,0.0002885
 2,0.00004484,0.00012444,0.00004952,0.00001647,-0.00011253,0.00016682,-
 0.00002409,0.00037326,-0.00014114,0.00004507,0.00001035,0.00005360,0.0
 0009004,-0.00000689,-0.00000100,-0.00108768,-0.00023349,-0.00029167,-0
 .00057150,-0.00050209,-0.00032334,0.52790390,-0.00003324,-0.00039597,-
 0.00002409,0.00706381,-0.05971845,-0.00287510,-0.00082244,0.00030192,0
 .00075245,0.00001756,0.00006020,-0.00001371,0.00000576,0.00001488,-0.0
 0001212,0.00002698,-0.00000414,-0.00002562,0.00013881,-0.00000046,-0.0
 0006391,-0.00605161,-0.01772456,-0.01231477,-0.00316233,0.01589650,-0.
 00468084,-0.00012210,0.00007757,0.00016020,-0.00495904,0.00140332,-0.0
 0974369,0.00011337,0.00002668,0.00014946,-0.00000496,0.00001920,0.0000
 3376,-0.00000161,0.00003555,0.00007730,0.00001488,-0.00000607,0.000027
 67,-0.00000143,-0.00003750,-0.00000917,0.00007361,-0.00002370,-0.00002
 098,0.00107938,-0.00089420,-0.00045257,-0.00040203,0.00057689,0.000216
 18,0.01245376,0.39312710,-0.00015369,-0.00009953,0.00003927,0.00522336
 ,0.00313600,-0.05277280,-0.00538456,-0.00018328,-0.00317887,-0.0002397
 8,-0.00004926,-0.00007969,0.00002236,-0.00002769,0.00001568,-0.0000127
 1,-0.00003182,-0.00003394,-0.00019444,0.00004919,0.00008178,-0.0060144
 4,-0.01143305,-0.01763225,-0.01540832,-0.00069349,-0.05977426,-0.00037
 354,-0.00003304,0.00051333,-0.01146863,-0.01376712,-0.00250337,0.00026
 532,0.00017406,0.00010828,0.00034910,-0.00025217,-0.00006045,0.0002088
 0,-0.00021467,-0.00001509,-0.00006904,0.00012426,-0.00002063,0.0001059
 0,-0.00011292,-0.00001898,0.00007456,-0.00010513,-0.00002490,0.0049012
 7,-0.00260324,-0.00204618,0.00037357,0.00172061,0.00225431,0.02373539,
 0.02292666,0.38101691,0.00063522,-0.00060607,0.00027732,-0.34043575,-0
 .15702014,0.03439444,-0.01414452,0.00345630,-0.02079235,0.00062202,0.0
 0037781,0.00009532,-0.00013190,0.00005548,-0.00021525,-0.00000486,-0.0
 0006253,-0.00001221,0.00048274,0.00021240,-0.00058987,-0.00192062,-0.0
 0202760,-0.00306339,-0.06748184,-0.04492977,-0.02152996,0.00173706,-0.
 00067154,-0.00197167,0.00837012,0.00134296,0.00213502,-0.00044750,-0.0
 0210203,-0.00077401,-0.00143146,0.00094718,0.00009276,-0.00056038,0.00
 135013,-0.00024089,-0.00003332,0.00008128,-0.00035597,-0.00025582,0.00
 038544,0.00016779,-0.00024528,0.00036895,0.00020274,-0.00678033,0.0043
 7121,0.00294102,0.00168605,-0.00283356,-0.00073205,-0.02047195,-0.0238
 2576,0.02998995,0.44932092,0.00048018,0.00058708,0.00064288,-0.1611055
 1,-0.14922604,0.02485774,0.00330721,-0.01413529,0.00347227,0.00027363,
 0.00003088,0.00000969,0.00004744,0.00005263,0.00007856,0.00006568,0.00
 002793,0.00008747,-0.00014312,-0.00033728,0.00018840,-0.00213267,-0.00
 166553,-0.00104812,-0.04077663,-0.00083696,-0.00996457,0.00020624,0.00
 051715,-0.00053755,0.00529101,0.00189119,0.00179835,-0.00166650,0.0002
 0987,-0.00068180,0.00014886,0.00047146,-0.00009365,-0.00006493,-0.0003
 4339,-0.00003142,-0.00005119,-0.00000237,-0.00005233,-0.00020668,0.000
 24075,0.00004966,-0.00016322,0.00014317,0.00001451,-0.00382992,0.00194
 850,0.00129530,0.00156671,0.00186764,-0.00257648,-0.02413356,-0.000233
 37,0.01783895,0.22492996,0.15837425,-0.00006904,-0.00106195,-0.0000911
 3,0.04842984,0.03081418,-0.08800012,-0.00224885,0.00981303,-0.06229712
 ,0.00010855,0.00034194,0.00007384,0.00004988,-0.00005707,0.00004025,0.
 00004305,-0.00004797,-0.00000255,-0.00080333,-0.00007999,0.00017944,0.
 00081587,0.00033154,0.00035259,-0.04436658,-0.02293619,0.00910294,0.00
 020950,0.00106100,-0.00251211,0.00006667,-0.00079293,-0.00004565,-0.00
 049704,-0.00133581,-0.00047339,-0.00049425,0.00035311,0.00023327,-0.00
 093537,0.00081084,0.00040700,-0.00008038,-0.00007033,0.00012061,-0.000
 12088,0.00010404,0.00017694,-0.00009253,0.00042875,0.00016783,-0.00134
 756,0.00131384,0.00041416,-0.00499298,-0.00373067,0.00554145,0.0314090
 2,0.02082864,-0.01741493,-0.02603431,-0.03786635,0.16349361,-0.0514780
 3,-0.01536573,-0.03543293,0.00000488,0.00053884,0.00031006,0.00090701,
 -0.00018061,-0.00009663,-0.00024057,0.00060453,0.00025100,-0.00523481,
 -0.00241206,-0.00150416,-0.00421041,-0.00000804,-0.00465398,0.00263287
 ,0.00120821,0.00023739,-0.00043097,-0.00039728,-0.00056999,-0.00017213
 ,-0.00027513,-0.00026325,-0.00147580,0.00388476,0.00102604,0.00051779,
 0.00010280,0.00048069,0.00659432,-0.00370835,0.00086592,-0.00063506,-0
 .00055169,0.00268020,0.00177957,-0.00265408,-0.00144989,-0.00009894,-0
 .00001904,-0.00003154,-0.00005728,-0.00000103,0.00060374,0.00059637,0.
 00040623,0.00100594,-0.00065747,0.00057144,0.00000695,0.00586056,0.002
 61059,-0.00286057,0.00004210,-0.00039062,-0.00018238,-0.00088175,0.000
 87088,-0.00035725,0.72408918,-0.01378503,-0.02354946,-0.02991715,-0.00
 067625,-0.00044027,-0.00041528,0.00597957,-0.00555724,-0.00403798,0.00
 023041,0.00066178,0.00021344,0.00059247,0.00158524,0.00328495,0.000582
 84,-0.00035069,0.00178039,-0.01448685,-0.01205096,0.00233451,0.0005071
 8,0.00081798,0.00080916,0.00003916,-0.00004612,0.00028547,-0.00722475,
 0.00374992,-0.00277839,-0.00147883,0.00023215,-0.00029481,0.00492173,-
 0.00048181,-0.00177734,0.00180469,-0.00081339,0.00418957,-0.00220104,-
 0.00718579,0.00114703,-0.00026591,-0.00023404,-0.00010633,0.00017564,0
 .00032224,0.00102909,0.00006522,-0.00017908,0.00006284,0.00172152,-0.0
 0091384,-0.00013634,-0.00000727,0.00732236,0.00217417,-0.00033439,0.00
 004879,0.00018428,0.00140267,-0.00131444,0.00061138,0.05542205,0.36093
 536,-0.03527209,-0.02752120,-0.04996142,-0.00077680,0.00001242,-0.0010
 4491,-0.00008551,-0.00187576,0.00050220,0.00126688,0.00121643,0.000016
 71,-0.00106419,0.00042542,-0.00016501,-0.00087692,0.00230229,0.0005450
 2,0.01425334,0.01042241,-0.00382355,-0.00060190,0.00003604,0.00017038,
 0.00030866,0.00016920,0.00052617,0.00208587,0.00443871,0.00276616,0.00
 167256,-0.00052342,-0.00037129,-0.00108024,-0.00399305,0.00445906,-0.0
 0678776,-0.00233241,-0.00084512,0.00122545,0.00510100,-0.00382807,-0.0
 0046275,0.00040704,0.00127301,0.00008310,-0.00012053,0.00070584,0.0003
 6516,0.00023914,-0.00004786,-0.00214932,0.00116019,0.00055769,0.006089
 98,-0.00446482,-0.00597284,-0.00051915,0.00004909,0.00006752,-0.000114
 29,0.00051678,0.00007125,0.17689296,-0.19476349,0.37424522,-0.01392041
 ,-0.03505761,-0.00172132,0.00019601,0.00001765,-0.00014814,0.00066363,
 0.00113316,0.00006846,-0.00035501,0.00043833,0.00060885,-0.01377668,-0
 .00238335,-0.00070347,-0.00126180,-0.00378257,-0.00054990,-0.00283799,
 -0.00242274,-0.00018939,-0.00004089,0.00033553,0.00021067,-0.00000865,
 0.00019108,0.00006476,-0.00606600,0.00639696,-0.00134154,-0.00103743,0
 .00040354,0.00006566,0.00486154,0.00061533,-0.00263122,0.00223313,-0.0
 0420493,0.00072662,-0.00179918,-0.00599745,-0.00155433,-0.00020174,0.0
 0005246,-0.00056862,0.00031286,0.00043307,0.00045921,0.00007945,-0.000
 24848,0.00020366,0.00144586,-0.00065983,-0.00012707,0.00256888,0.00684
 983,0.00177947,-0.00017496,0.00001349,-0.00014051,-0.00034524,-0.00000
 069,0.00009454,-0.10038757,0.03647701,-0.06451417,0.59547757,-0.030772
 80,-0.11100423,-0.04185938,0.00008214,-0.00043194,-0.00027203,0.000080
 15,-0.00274327,-0.00045051,-0.00029499,0.00000420,0.00002317,0.0132801
 4,0.00312324,-0.00013432,-0.00029793,-0.00232167,0.00254458,-0.0024817
 3,-0.00159517,0.00070962,-0.00008446,0.00015853,0.00022713,0.00000866,
 0.00011273,0.00018147,0.00309683,-0.00182993,-0.00244204,-0.00061194,0
 .00030341,0.00010023,-0.00282413,0.00490881,0.00059064,0.00381176,0.00
 247460,0.00070790,0.00224354,-0.00157261,0.00358574,-0.00062179,0.0003
 9969,0.00069553,0.00053462,-0.00031217,0.00068680,0.00051773,0.0003166
 4,0.00098288,0.00054840,-0.00013804,0.00011719,-0.00630065,-0.00095305
 ,0.00341571,0.00010436,-0.00020912,0.00006869,-0.00035852,0.00070299,-
 0.00018452,0.06740070,-0.16606028,0.14846021,0.14202385,0.51792233,0.0
 0205861,-0.02890386,-0.03057599,-0.00010892,0.00023310,-0.00034446,0.0
 0143977,0.00131605,0.00030171,-0.00087337,-0.00074133,-0.00005962,-0.0
 1521873,-0.00586074,-0.00277902,0.00044311,0.00430663,-0.00063110,0.00
 177722,0.00365105,0.00042712,0.00025383,0.00055237,0.00070782,-0.00000
 276,-0.00007222,-0.00000532,-0.00514797,0.00107663,-0.00030223,-0.0012
 0701,0.00021826,-0.00029984,0.00240143,-0.00178193,0.00106550,-0.00114
 418,-0.00181655,0.00214277,-0.00111052,-0.00662672,0.00001635,-0.00019
 106,-0.00044146,-0.00014842,-0.00034169,-0.00043450,-0.00018450,0.0002
 7675,0.00016940,0.00037325,0.00128070,-0.00072039,-0.00008788,-0.00155
 773,0.00289785,0.00130627,-0.00023123,0.00014770,0.00008676,-0.0001565
 1,-0.00035637,-0.00014170,-0.06726719,0.11055423,-0.15502012,-0.012718
 12,-0.26266567,0.37188039,-0.03650077,0.05990049,0.01917420,0.00034863
 ,0.00025653,-0.00012579,-0.00024360,0.00004791,0.00047455,0.00042513,-
 0.00022081,-0.00075593,-0.14946285,0.08526238,-0.11600861,-0.00452149,
 -0.02138696,0.01356817,-0.00350690,0.00113992,-0.00072352,0.00009972,0
 .00002069,-0.00004255,-0.00007735,-0.00013195,0.00005439,0.00111673,-0
 .00550971,-0.00351763,0.00010590,-0.00019301,-0.00015459,-0.00330344,0
 .00646975,-0.00023584,0.00450838,0.00455712,-0.00186224,0.00264386,-0.
 00340030,0.00044780,0.00006035,-0.00000851,-0.00031302,0.00040682,-0.0
 0000125,-0.00071659,-0.00061594,-0.00075407,-0.00040344,-0.00021722,-0
 .00001362,-0.00002212,-0.00446211,-0.00515901,0.00221234,0.00014231,0.
 00004478,0.00012797,-0.00017666,-0.00011510,0.00013388,-0.03283715,0.0
 3789432,-0.01951502,-0.31368731,-0.05937360,-0.02151523,0.63453884,0.0
 5128390,-0.09562091,-0.03656435,-0.00012397,-0.00006425,-0.00004046,-0
 .00129937,0.00110197,-0.00025137,0.00122531,0.00138359,-0.00045996,0.0
 8519719,-0.10080754,0.09901334,-0.00204203,-0.00832910,0.00386306,0.00
 127329,-0.00050078,0.00116070,-0.00031955,-0.00021117,-0.00016249,0.00
 002452,0.00005911,0.00005973,0.00688185,-0.00442343,-0.00082731,0.0005
 6955,-0.00006175,0.00017127,-0.00271980,0.00124123,0.00267718,0.001069
 82,0.00175848,0.00033867,0.00332012,0.00140615,-0.00028615,-0.00042576
 ,0.00043641,0.00095737,-0.00010024,-0.00036803,0.00069347,0.00040240,0
 .00014998,-0.00001412,-0.00064837,0.00034561,0.00004574,-0.00444371,-0
 .00456129,-0.00016316,-0.00006355,-0.00004356,-0.00004266,-0.00000143,
 0.00007440,-0.00005148,0.00983981,0.01302372,0.00260993,-0.01220980,-0
 .06093984,0.02260128,-0.06882810,0.48084042,0.00984829,-0.02464046,-0.
 01724203,0.00018186,-0.00001321,-0.00015182,-0.00233389,0.00235062,-0.
 00087556,0.00001117,0.00027194,-0.00012194,-0.11642703,0.09905051,-0.1
 4737356,0.00106891,-0.00011884,-0.00234379,-0.00316610,0.00336160,0.00
 008915,-0.00039803,-0.00034023,-0.00030768,0.00001426,-0.00005035,0.00
 011118,0.00215867,0.00056802,0.00082873,0.00173271,-0.00043191,0.00003
 015,0.00151318,-0.00473837,0.00063610,0.00161105,-0.00014565,-0.001069
 53,-0.00233233,-0.00229326,0.00152781,-0.00016155,0.00019929,0.0004168
 9,0.00064786,-0.00083119,-0.00172188,0.00001289,-0.00092009,-0.0005988
 8,-0.00204561,0.00104031,0.00010712,0.00422533,-0.00339785,-0.00498306
 ,-0.00005159,-0.00004460,0.00004217,0.00004861,0.00004585,0.00023787,-
 0.02016319,0.01151631,-0.01293292,-0.02172576,0.01831620,-0.04904681,0
 .12059773,-0.25359592,0.38484379,-0.06948907,0.01617008,0.05950486,-0.
 00053699,-0.00018025,0.00035823,-0.00161130,0.00066150,0.00152754,-0.0
 0094130,-0.00102319,0.00079205,0.00671395,0.01160394,-0.01062426,-0.28
 907743,-0.09751408,0.01869969,0.00040751,0.00115293,0.00052728,0.00027
 394,-0.00009906,0.00000070,0.00026576,0.00010260,-0.00010002,0.0050192
 8,-0.00273914,-0.00098174,0.00008040,-0.00011072,-0.00031292,0.0002996
 1,0.00485305,-0.00106270,0.00122758,0.00054876,-0.00264707,0.00142879,
 0.00179536,-0.00224702,0.00027168,-0.00022499,-0.00067133,-0.00018779,
 -0.00001006,-0.00071707,-0.00041003,-0.00005756,-0.00124361,0.00005221
 ,-0.00014682,-0.00010838,-0.00270797,-0.00456431,0.00070051,0.00003128
 ,0.00013501,-0.00008406,0.00066564,-0.00024705,-0.00027139,-0.05062330
 ,-0.00644208,0.00944060,-0.02208961,-0.01969909,0.01282377,-0.09071804
 ,-0.07121919,0.04287829,0.76205811,0.00678259,-0.02047316,-0.02297686,
 -0.00017106,-0.00018187,-0.00001683,0.00116421,-0.00064176,-0.00082390
 ,-0.00116919,-0.00054166,0.00000726,-0.00347426,-0.00998445,0.00565189
 ,-0.10067965,-0.07020411,0.01736542,0.01639160,-0.00782368,0.00379757,
 -0.00003565,0.00006372,0.00010296,0.00008746,-0.00006625,0.00012764,0.
 00272575,0.00442777,0.00143983,0.00034848,-0.00013071,0.00005925,0.004
 98607,-0.00488799,0.00142788,-0.00369834,-0.00060023,0.00250440,-0.001
 88082,0.00426850,0.00029669,0.00003069,-0.00030997,-0.00067920,-0.0001
 7503,0.00003647,0.00064958,0.00053989,-0.00000730,-0.00067429,-0.00066
 841,0.00031466,0.00011030,0.00452989,0.00175367,-0.00391753,-0.0000722
 9,-0.00005520,-0.00002255,-0.00004736,0.00018349,-0.00002274,-0.006513
 81,-0.00168501,-0.00732652,-0.04401658,-0.00297779,0.00981204,-0.03500
 140,-0.19990427,0.12058696,0.10016511,0.39116609,0.04974108,-0.0291092
 5,-0.06449082,-0.00025696,-0.00017530,-0.00000479,-0.00141767,-0.00081
 339,0.00153250,-0.00062645,-0.00020908,0.00017798,0.00548020,0.0097692
 0,-0.01071293,0.01747607,0.01591450,-0.03028849,-0.01484588,0.00552455
 ,-0.00536593,0.00003302,0.00026534,0.00027652,0.00008492,0.00016837,-0
 .00000096,-0.00366865,-0.00031677,0.00093424,-0.00106457,0.00034623,-0
 .00004586,-0.00133600,0.00461294,-0.00321968,0.00816261,-0.00084479,-0
 .00257643,0.00266238,-0.00388129,0.00276992,-0.00057692,-0.00001627,-0
 .00063825,0.00029696,0.00000048,0.00069492,0.00040016,-0.00015622,-0.0
 0008650,0.00125669,-0.00058637,-0.00003576,-0.00169585,0.00537561,0.00
 370524,-0.00003388,-0.00000420,-0.00010284,-0.00004238,0.00025326,-0.0
 0027764,-0.01857897,-0.00689841,0.01813423,0.01635502,0.00316238,-0.00
 442817,0.02366732,0.14456751,-0.13135241,-0.00616758,-0.20139563,0.331
 34838,-0.00413433,0.00274244,0.01306924,0.00020009,0.00031564,-0.00052
 927,-0.00256101,0.00491182,0.00241120,0.00136328,0.00131254,-0.0004302
 1,-0.00068522,-0.00119969,-0.00226501,-0.01756886,0.00765061,-0.011890
 29,-0.03978553,0.01477664,-0.02172291,-0.00078389,-0.00014168,-0.00006
 669,-0.00000091,0.00004490,0.00017941,0.00498415,0.00242616,0.00051416
 ,0.00189282,-0.00062758,-0.00006340,0.00018430,-0.00358626,0.00662994,
 -0.01013743,-0.00104410,0.00044958,-0.00005518,0.00524512,-0.00606625,
 -0.00000091,0.00008435,0.00015242,-0.00023432,-0.00017304,-0.00008922,
 -0.00010254,-0.00018724,-0.00066339,-0.00240508,0.00111726,0.00036009,
 0.00425508,-0.00789731,-0.00602922,-0.00019092,-0.00011618,-0.00006462
 ,-0.00076656,-0.00025976,0.00039855,-0.21409205,-0.11609859,0.02891007
 ,0.00522558,-0.01139264,0.02223056,0.01035734,0.02142790,-0.03062333,-
 0.24273050,0.06408952,-0.07500696,0.52749323,0.00102155,-0.02507318,0.
 01362345,-0.00088381,-0.00028962,-0.00022153,0.00134469,0.00029467,-0.
 00105684,0.00033739,-0.00028946,0.00035986,-0.00198467,-0.00175155,0.0
 0502359,-0.00754781,0.00242751,-0.00856708,0.01541126,-0.16932382,0.16
 034786,0.00038805,0.00037539,0.00038571,0.00018053,0.00011651,0.000139
 09,-0.00055121,0.00371921,-0.00063700,-0.00017153,-0.00022417,-0.00058
 461,-0.00097056,0.00069741,-0.00081353,-0.00027080,0.00225725,-0.00008
 637,-0.00012813,0.00016329,-0.00140710,0.00005866,-0.00009066,0.000087
 90,-0.00016473,-0.00013861,-0.00091092,0.00006560,0.00000648,0.0002175
 3,0.00026236,-0.00017388,0.00018204,0.00109068,0.00206338,-0.00032261,
 -0.00018216,0.00000048,-0.00001610,0.00111997,-0.00011201,-0.00000612,
 -0.11110012,-0.12462721,0.04612377,-0.00121825,-0.02885561,0.03633592,
 0.00342913,-0.02562940,0.03007265,0.07227236,-0.07923351,0.05197563,0.
 02832355,0.45091599,0.00930989,0.01294602,-0.09481556,-0.00090432,-0.0
 0089213,-0.00026963,0.00106787,-0.00232356,-0.00075146,0.00058765,0.00
 095165,0.00015426,0.00094704,0.00258802,-0.00134662,0.00293915,-0.0024
 7178,0.00086987,-0.01874602,0.15237764,-0.18534401,-0.00029734,-0.0001
 0714,-0.00004235,0.00038799,0.00037258,0.00048572,0.00577970,-0.004436
 00,0.00184932,0.00091994,-0.00020006,-0.00021606,-0.00686370,0.0054848
 6,0.00321003,0.00027235,-0.00184540,-0.00248419,0.00287037,0.00376401,
 -0.00027318,-0.00046604,0.00039636,0.00112676,0.00003254,-0.00033245,0
 .00068760,0.00062763,0.00039672,0.00096234,-0.00138513,0.00059307,0.00
 043800,-0.00437456,-0.00903809,0.00022476,-0.00001139,-0.00014137,-0.0
 0016206,0.00040437,0.00075636,-0.00009847,0.07266221,0.07805739,-0.078
 42116,0.01335997,0.01381177,-0.01047465,-0.01400768,0.01411774,-0.0178
 1987,-0.12218383,0.07055527,-0.10489482,0.06607770,-0.33270411,0.48624
 454,0.00156452,-0.00013654,0.00179205,0.00058780,0.00160656,0.00005165
 ,0.00013904,-0.00227237,-0.00186461,-0.00001181,0.00030445,-0.00002687
 ,-0.00015542,-0.00048713,-0.00013270,-0.00043998,0.00015604,-0.0007761
 9,0.00021769,0.00007975,0.00051397,0.00003868,0.00005955,0.00011824,-0
 .00065723,-0.00066115,-0.00034944,0.00010081,-0.00007777,0.00001524,-0
 .00046320,0.00001684,0.00002570,-0.00020454,0.00018927,0.00010338,0.00
 022653,0.00000715,0.00017922,0.00007951,0.00015279,0.00037388,-0.00009
 054,0.00006825,0.00024647,0.00002284,-0.00003260,0.00029597,0.00019415
 ,0.00009016,0.00025998,0.00033835,-0.00004711,-0.00009827,-0.00034085,
 0.00024668,0.00043711,-0.00018754,0.00008446,0.00030417,-0.00072561,0.
 00112057,-0.00001526,-0.28041944,0.01161686,-0.11035700,-0.00671855,0.
 00146584,-0.00244035,-0.00148440,0.00000784,-0.00187799,-0.00367734,-0
 .00240820,-0.00055562,-0.01781126,0.00153356,-0.00654662,0.31521296,-0
 .00420216,0.00146239,0.00201031,0.00334488,-0.00021032,-0.00020539,-0.
 00135777,-0.00335219,-0.00241609,-0.00001337,0.00011485,-0.00008920,0.
 00106954,0.00034788,0.00043930,-0.00050846,0.00050753,-0.00001760,-0.0
 0010916,-0.00034723,-0.00050559,-0.00023326,-0.00031048,-0.00041434,-0
 .00049933,-0.00009229,-0.00004953,0.00006418,0.00027335,0.00046291,0.0
 0035518,0.00023161,0.00032454,0.00077255,-0.00056483,0.00058532,-0.000
 28465,-0.00021640,0.00001782,0.00021590,-0.00037316,-0.00075342,-0.000
 04145,0.00005218,-0.00001669,0.00011840,0.00002004,-0.00007953,-0.0000
 6252,-0.00008525,0.00009531,-0.00035410,0.00013013,-0.00009012,0.00055
 502,0.00043110,-0.00050760,0.00023627,-0.00003115,0.00003638,-0.000758
 03,-0.00075976,0.00113829,0.00533190,-0.03101242,0.01126347,0.01946329
 ,-0.00175676,0.00577352,0.00206473,-0.00155347,0.00437332,-0.00173926,
 -0.00045783,0.00129052,-0.01035689,0.00133180,-0.00556928,-0.01237827,
 0.03495017,-0.00396608,0.00189107,0.00284598,-0.00024954,-0.00022292,0
 .00183429,-0.00127338,-0.00414794,-0.00127197,0.00006155,0.00017759,0.
 00005831,-0.00039242,-0.00009020,0.00041351,0.00080519,0.00010368,0.00
 048697,0.00010353,-0.00085550,-0.00047004,-0.00010817,-0.00058126,-0.0
 0054091,0.00004461,-0.00009676,-0.00061669,0.00003745,0.00063833,0.000
 41281,0.00042495,0.00022175,0.00039958,0.00042458,-0.00042866,0.000918
 03,-0.00022649,-0.00012523,0.00043235,0.00045269,-0.00009193,-0.000766
 54,-0.00013671,0.00004552,-0.00016609,0.00009564,-0.00009228,0.0002503
 0,0.00009669,0.00014649,0.00011346,-0.00048323,0.00025987,-0.00008224,
 0.00083181,0.00047176,-0.00043224,0.00041410,-0.00013346,-0.00025733,0
 .00014373,0.00050535,-0.00037442,-0.11813349,0.01596944,-0.07857944,-0
 .01114471,-0.00135513,-0.00397821,-0.00102793,0.00202679,-0.00075453,0
 .00250246,0.00233318,0.00036694,0.01160309,-0.00215775,0.00392441,0.11
 478329,-0.01569109,0.08245397,0.00069763,0.00161415,-0.00016196,0.0097
 3361,0.00653305,-0.00983047,-0.06383053,-0.01632690,0.02603939,0.00016
 382,-0.00011546,-0.00007028,0.00005086,-0.00004554,-0.00006216,0.00004
 337,-0.00009220,-0.00005076,-0.00021220,0.00012841,-0.00006216,-0.1274
 1327,0.08085614,0.09148736,0.00154284,-0.00044573,0.00347962,-0.000307
 74,0.00205089,-0.00044329,0.00779410,-0.03100616,-0.03434687,-0.003296
 43,0.00246765,-0.00055484,0.00089600,-0.00010176,0.00017119,0.00009235
 ,-0.00057226,0.00044595,-0.00033193,0.00030560,0.00010327,0.00003527,-
 0.00000603,0.00016101,-0.00000661,0.00000264,0.00001441,-0.00446023,0.
 00094923,-0.00075401,-0.00152578,-0.00560122,-0.00660187,-0.12954707,-
 0.05043952,-0.04280307,-0.00455109,-0.00398732,0.00070586,-0.00093871,
 0.00041660,0.00009159,0.00021882,-0.00028471,-0.00018385,0.00000673,0.
 00024527,0.00017827,0.00010972,-0.00013826,0.00016302,0.00041641,0.000
 24708,-0.00032249,0.00028671,0.00003527,-0.00018442,0.36291151,0.00147
 512,-0.00247388,-0.00185054,0.00211700,0.00220637,-0.01151368,0.001657
 06,-0.00384534,-0.00067462,-0.00019427,-0.00085611,0.00051225,-0.00006
 843,0.00002450,-0.00000944,0.00004197,0.00003434,0.00004306,-0.0000509
 6,0.00011035,-0.00017526,0.08817404,-0.23441653,-0.22467092,-0.0000881
 4,0.00008380,0.00258121,-0.00015689,-0.00103967,-0.00043447,-0.0131836
 0,-0.02704519,-0.03737071,0.00149995,-0.00132267,0.00029951,-0.0007194
 1,0.00032261,-0.00019841,-0.00014329,0.00036055,-0.00027060,0.00059429
 ,0.00043087,-0.00009096,0.00000709,0.00009077,-0.00005605,0.00004161,0
 .00000221,-0.00008135,0.00842732,-0.00831828,-0.00172374,-0.00445904,0
 .00520119,0.00474478,-0.06049535,-0.10714655,-0.05171095,-0.00465606,-
 0.00026602,0.00137241,0.00061046,-0.00108013,0.00006569,-0.00035131,0.
 00023699,-0.00019874,0.00001478,0.00010901,0.00013569,0.00007563,0.000
 01083,0.00022395,0.00037136,-0.00028690,0.00039094,0.00005254,-0.00019
 518,0.00030819,0.00391387,0.43538117,-0.00005671,-0.00118915,-0.001747
 10,-0.01332368,-0.01964256,-0.02559690,0.01414023,0.00709347,-0.029822
 30,0.00044483,0.00056726,0.00011240,-0.00000310,0.00005701,0.00005954,
 -0.00000753,0.00007200,0.00005961,0.00004376,0.00015544,-0.00012596,0.
 09702010,-0.22244612,-0.27839531,-0.00060749,0.00285472,-0.01117408,-0
 .00054938,-0.00053753,-0.00004750,-0.01514729,-0.03492185,-0.03486908,
 0.00189016,-0.00065303,0.00051710,0.00012015,-0.00081975,0.00002241,-0
 .00012005,0.00019911,-0.00021963,-0.00035286,-0.00000972,0.00004321,0.
 00015777,-0.00019569,-0.00009669,-0.00003767,-0.00001706,-0.00005340,0
 .01140392,-0.00585126,-0.00606252,-0.00906058,0.00473836,0.00567214,-0
 .05442649,-0.05772492,-0.10537020,-0.00156600,-0.00190185,-0.00168412,
 0.00065701,-0.00085325,-0.00007553,-0.00006548,-0.00015407,-0.00007891
 ,0.00010534,-0.00003373,-0.00001961,-0.00007720,-0.00018963,-0.0001245
 6,0.00044501,-0.00038845,0.00013584,-0.00009556,-0.00020388,-0.0002385
 9,-0.04007947,0.36310812,0.49385018,0.00020371,0.00009723,-0.00001403,
 -0.01229841,0.00065937,0.00277697,-0.00137413,-0.00062851,-0.00188377,
 0.00011476,0.00000647,0.00009480,0.00000760,-0.00000994,-0.00001832,-0
 .00000037,-0.00001547,-0.00001064,0.00003396,0.00000606,-0.00008283,-0
 .00088578,0.00081386,0.00107611,0.00249324,0.00016485,-0.00125504,0.00
 011079,0.00009036,0.00001810,0.00090736,-0.00008343,0.00004185,-0.0001
 8367,0.00011178,-0.00005687,0.00007501,-0.00002291,0.00002765,0.000060
 92,-0.00004013,0.00004220,-0.00013126,-0.00005231,0.00003277,-0.000004
 49,-0.00000244,0.00002351,0.00000205,-0.00000286,0.00000829,-0.0001899
 2,0.00025395,0.00014687,0.00017890,-0.00025240,-0.00006216,-0.24599214
 ,0.03577250,0.02652089,0.00007452,-0.00134546,0.00220805,-0.00018939,0
 .00000212,0.00007082,0.00000082,-0.00004418,0.00004313,0.00004496,-0.0
 0003232,0.00001941,0.00007923,-0.00000686,0.00003498,0.00007926,0.0001
 0209,0.00001758,-0.00010474,-0.00008496,-0.00009227,-0.02857050,-0.006
 69344,-0.00550170,0.29410266,0.00000872,0.00018778,-0.00012158,-0.0037
 4083,0.00220503,0.00309407,-0.00109523,-0.00046033,-0.00132491,0.00003
 088,-0.00001099,0.00001390,-0.00001568,0.00000436,0.00000005,0.0000152
 5,0.00000756,0.00000447,0.00000194,-0.00001848,-0.00000512,-0.00067750
 ,0.00111587,0.00111999,-0.00063118,-0.00071830,-0.00057401,0.00006483,
 -0.00003086,-0.00004086,0.00044624,-0.00001479,0.00020201,0.00001520,-
 0.00001046,0.00012272,-0.00004083,-0.00002278,0.00000341,0.00001101,-0
 .00002182,-0.00000546,0.00005813,-0.00003931,-0.00006397,-0.00002063,0
 .00001818,-0.00002478,-0.00000324,0.00000344,-0.00000134,0.00014574,-0
 .00002528,-0.00007565,-0.00009651,0.00001330,0.00016100,0.03318902,-0.
 04457065,-0.00617687,-0.00008359,-0.00055902,0.00075790,0.00019540,-0.
 00006368,-0.00008287,0.00008178,0.00000101,-0.00005348,-0.00006768,0.0
 0003608,-0.00000674,-0.00000537,0.00000964,0.00002730,-0.00000210,-0.0
 0002344,0.00007170,0.00003307,-0.00003576,0.00012909,-0.02169450,0.000
 79366,-0.00053670,-0.03550847,0.05646153,0.00001140,0.00001030,-0.0000
 1031,0.02262519,-0.00529331,-0.00159139,0.00073986,-0.00011513,-0.0010
 5841,0.00001447,-0.00004057,0.00003118,0.00000705,0.00000169,-0.000002
 41,-0.00000638,-0.00000151,0.00000015,-0.00006504,-0.00002683,0.000037
 93,-0.00088622,0.00128486,0.00128994,-0.00114674,0.00106340,0.00130007
 ,-0.00002172,0.00009362,-0.00008992,0.00061468,0.00003155,-0.00013387,
 -0.00008334,0.00002097,-0.00004437,-0.00001983,0.00001826,0.00000004,-
 0.00000960,-0.00003363,0.00002878,-0.00002270,0.00000315,-0.00001627,0
 .00000106,0.00001742,0.00000742,-0.00000562,0.00001290,-0.00000229,-0.
 00018215,-0.00005601,0.00016628,-0.00011436,-0.00014724,-0.00023040,0.
 02831011,-0.00843855,-0.04560647,0.00397391,0.00484363,-0.00587511,0.0
 0000615,-0.00007527,0.00006695,0.00001290,0.00007138,-0.00003828,-0.00
 003078,0.00003005,0.00001491,-0.00007518,0.00001375,0.00001796,0.00003
 401,-0.00002821,0.00005696,-0.00002809,0.00016790,0.00003075,-0.020735
 76,-0.00161721,0.00073418,-0.02532553,0.00498242,0.05087053,0.00100875
 ,0.00282180,-0.00045179,0.00010456,0.00014833,0.00010365,-0.00173245,0
 .00025650,-0.00001122,-0.13638401,0.09149602,0.06778173,-0.00004468,0.
 00024953,0.00001862,0.00091813,0.00019207,0.00021606,-0.00024782,-0.00
 005153,-0.00033403,0.00022245,-0.00005333,-0.00016182,-0.00000048,-0.0
 0004078,-0.00003973,-0.01559661,0.00228459,0.01498124,0.00028777,-0.00
 031491,-0.00004694,-0.00066775,-0.00053997,-0.00038649,-0.00057151,-0.
 00003732,-0.00033820,0.00094708,0.00084861,-0.00136875,0.00021539,-0.0
 0018148,-0.00030315,0.00006426,0.00014658,-0.00021248,0.00024749,-0.00
 011155,-0.00002407,-0.00043836,0.00023565,-0.00004018,0.00003410,-0.00
 143330,0.00201446,0.00009501,0.00006426,0.00001783,0.00005500,-0.00023
 025,0.00014942,-0.00004071,-0.00008339,0.00027109,0.00009159,0.0004032
 4,0.00005308,-0.00040616,-0.00001046,0.00034722,0.00077303,0.00048523,
 0.00064977,-0.00094463,-0.00014345,0.00031899,0.00011416,0.00007885,0.
 00013762,-0.00015156,-0.00009139,0.00022842,0.00002135,-0.00000283,-0.
 00001786,0.16531826,0.00326057,0.00175089,-0.00017941,0.00010580,0.000
 04417,-0.00001040,0.00082122,0.00000636,0.00020355,0.09291676,-0.12288
 067,-0.06880471,-0.00025366,0.00021925,0.00023985,0.00136061,-0.002468
 07,-0.00165438,0.00003173,0.00004027,0.00025773,-0.00009779,-0.0002124
 8,-0.00018454,-0.00000947,-0.00000205,-0.00002381,-0.01276408,0.004816
 64,0.00964351,0.00018483,0.00015900,0.00011741,-0.00017867,-0.00092710
 ,-0.00046075,-0.00018731,0.00014572,-0.00056557,-0.00253685,-0.0002133
 2,0.00086902,0.00021554,-0.00029963,-0.00028835,-0.00001415,0.00011650
 ,-0.00046934,0.00003395,-0.00038612,0.00047499,-0.00003059,-0.00013036
 ,-0.00012254,0.00053880,-0.00092392,0.00109341,-0.00000813,0.00002072,
 0.00004949,0.00002284,-0.00006299,-0.00002611,0.00038156,0.00021958,0.
 00101236,-0.00020803,0.00056524,-0.00014973,-0.00002390,0.00064425,0.0
 0079295,-0.00254279,-0.00282092,-0.00038385,-0.00040718,-0.00002396,0.
 00010678,0.00029548,0.00005980,0.00015348,-0.00003076,-0.00009112,0.00
 001776,-0.00000955,-0.00000182,-0.00000650,-0.10883664,0.14895647,-0.0
 0206813,-0.00192048,-0.00171032,-0.00019105,-0.00009534,-0.00001253,0.
 00018129,0.00027081,0.00009933,0.07240429,-0.07107241,-0.09295960,0.00
 003664,0.00012044,-0.00007487,0.00052039,-0.00148598,0.00037211,-0.000
 26212,0.00000469,-0.00027183,-0.00005554,0.00009221,0.00003550,0.00004
 630,0.00002341,0.00003088,0.02199922,-0.00661475,-0.01556156,-0.000098
 00,0.00000910,0.00003101,0.00111546,0.00079532,0.00023610,0.00051534,0
 .00025090,-0.00007668,0.00080911,-0.00029312,-0.00018170,-0.00018025,0
 .00035687,0.00016960,0.00006443,-0.00005048,0.00011694,-0.00078940,0.0
 0096522,-0.00058266,0.00015202,-0.00003294,0.00001792,-0.00010189,0.00
 157932,-0.00248637,-0.00003731,-0.00003103,-0.00003321,0.00015084,0.00
 006750,-0.00000910,-0.00018996,-0.00003592,0.00022866,-0.00009046,0.00
 012589,-0.00017890,0.00048658,0.00012697,0.00012412,-0.00059858,-0.001
 53461,-0.00029982,-0.00020341,-0.00045300,-0.00028842,-0.00000232,0.00
 001862,0.00005374,0.00002105,-0.00012628,0.00007102,0.00000064,0.00000
 446,0.00000079,-0.08216956,0.07282297,0.11760615,-0.00037939,-0.000416
 06,-0.00003635,0.00027541,0.00009459,0.00011157,-0.00056511,-0.0000289
 9,-0.00151192,-0.08207304,-0.07604507,-0.03152549,0.00001464,0.0000392
 1,0.00002886,0.00017081,-0.00012134,-0.00005066,-0.00003404,-0.0000179
 2,-0.00000605,-0.00011155,-0.00035531,-0.00037386,-0.00008896,-0.00003
 800,-0.00004848,-0.00525396,-0.01376720,-0.00178943,0.00014101,0.00026
 512,0.00022646,-0.00005490,-0.00013455,0.00022782,-0.00009540,-0.00027
 251,0.00017998,-0.00024813,-0.00031220,-0.00042904,0.00008288,-0.00003
 558,-0.00006232,-0.00007167,0.00004655,-0.00001102,0.00005365,-0.00006
 133,-0.00005087,-0.00012614,-0.00022826,-0.00012059,-0.00060592,-0.000
 29823,0.00013393,0.00008837,0.00005637,0.00005847,-0.00009007,-0.00005
 429,0.00017860,0.00007179,-0.00013123,0.00009560,0.00008623,0.00011675
 ,-0.00013272,-0.00012371,-0.00003931,0.00010066,0.00005361,0.00044889,
 0.00028006,-0.00015855,0.00026718,0.00017075,0.00007615,0.00006885,0.0
 0006571,-0.00027364,-0.00000272,0.00037687,-0.00001658,0.00000381,0.00
 000454,0.00808752,0.01458344,0.00752951,0.10410155,-0.00148080,-0.0013
 5640,0.00171585,0.00042643,0.00012620,0.00009376,-0.00026584,-0.000589
 29,-0.00030899,-0.07281438,-0.17671336,-0.06515689,-0.00006604,0.00014
 307,0.00000721,-0.00020997,-0.00003691,0.00000449,0.00002751,-0.000147
 85,0.00010745,-0.00000210,-0.00028022,-0.00023722,-0.00015149,-0.00002
 483,-0.00009039,-0.01032646,-0.01670820,-0.00005478,-0.00001593,0.0002
 8520,0.00016811,0.00006503,-0.00053690,0.00019858,-0.00025451,-0.00030
 596,0.00015196,-0.00055551,-0.00016545,0.00031352,0.00016414,0.0000412
 5,0.00002731,-0.00001542,0.00012673,-0.00007528,0.00001638,-0.00035226
 ,-0.00022137,0.00007810,-0.00030899,-0.00014554,0.00014330,-0.00019441
 ,-0.00066741,0.00010895,0.00004200,0.00005545,-0.00028258,-0.00005126,
 0.00013578,0.00016010,-0.00011289,0.00047332,0.00009653,-0.00011332,-0
 .00060496,-0.00023439,0.00033981,0.00011896,-0.00048495,-0.00019301,-0
 .00017870,0.00046535,0.00042047,0.00032914,0.00011356,0.00005704,0.000
 05808,-0.00000886,0.00016579,-0.00006745,-0.00002505,0.00001111,0.0000
 0972,-0.00660563,-0.01798573,-0.01021671,0.09000893,0.20575818,0.00163
 072,0.00205948,-0.00111619,0.00010793,0.00005708,0.00010254,0.00007218
 ,0.00072805,-0.00083468,-0.03286291,-0.06327377,-0.06946185,0.00000108
 ,0.00001382,0.00000093,-0.00014344,0.00000721,0.00003166,0.00000594,-0
 .00000280,0.00010029,-0.00002077,-0.00009264,-0.00015486,-0.00006381,-
 0.00004151,-0.00004908,0.00861223,0.01553975,0.00749874,0.00015554,-0.
 00006977,0.00007530,0.00021849,0.00012475,-0.00017965,0.00008298,0.000
 21718,-0.00020431,0.00031789,0.00014822,-0.00030038,-0.00001754,0.0001
 1208,-0.00005205,0.00007248,0.00002385,-0.00002404,-0.00007034,0.00001
 189,0.00011685,-0.00017083,0.00014847,-0.00002297,0.00061310,0.0007599
 2,-0.00013536,0.00001856,0.00002732,0.00003068,0.00004718,-0.00005342,
 0.00014431,0.00009563,-0.00009015,-0.00005168,-0.00017550,0.00033097,0
 .00008211,0.00013689,0.00015309,-0.00010440,-0.00019157,-0.00058018,0.
 00014968,-0.00021151,-0.00025173,0.00010964,0.00003328,0.00003296,0.00
 002727,-0.00013138,-0.00017966,0.00019498,-0.00002225,-0.00000761,-0.0
 0000479,-0.00517603,-0.01510680,-0.00601686,0.04721432,0.07356764,0.08
 516534,-0.00050286,0.00092186,0.00011764,0.00007249,-0.00001243,-0.000
 10240,-0.00021857,0.00019449,-0.00011950,-0.00007054,0.00023601,-0.000
 05981,-0.00026777,0.00018962,0.00007196,-0.00002997,-0.00137847,0.0003
 1591,0.00040860,0.00029061,-0.00035726,-0.00002829,0.00002677,0.000025
 45,0.00000838,-0.00002738,0.00006514,-0.00013436,0.00038291,0.00008289
 ,-0.00002531,0.00001263,-0.00001417,0.00024811,-0.00000854,0.00030365,
 -0.00006283,-0.00049411,0.00042426,-0.00001923,-0.00004434,0.00028219,
 0.00003318,0.00011962,0.00028401,-0.00027192,-0.00007145,-0.00060607,0
 .00017182,0.00000054,0.00025688,0.00002764,0.00003294,-0.00001758,-0.0
 0011517,0.00038018,0.00001883,0.00005627,0.00001190,0.00003265,-0.0000
 2854,0.00000288,0.00003299,0.00707800,0.00625110,-0.00455071,-0.124949
 89,-0.10089247,0.08676920,-0.01295796,-0.01749359,0.01462817,-0.005124
 89,-0.00269982,-0.00046578,-0.00136111,0.00121167,-0.00160722,0.000219
 03,-0.00001286,0.00007723,-0.00004378,0.00002848,-0.00002429,-0.000010
 96,-0.00003025,0.00001605,0.00007772,0.00029048,-0.00003120,0.00001250
 ,0.00004691,-0.00000660,0.13918954,-0.00245311,-0.00332051,0.00503485,
 -0.00036667,-0.00029904,0.00029975,-0.00084130,-0.00045842,-0.00008398
 ,0.00031934,0.00058681,-0.00000773,-0.00000406,-0.00065789,-0.00078031
 ,0.00050726,0.00034197,-0.00003232,-0.00074626,-0.00008676,-0.00009776
 ,-0.00012932,-0.00026581,-0.00013622,0.00011460,0.00013071,-0.00007836
 ,0.00050181,0.00046696,-0.00055891,0.00020754,0.00018296,0.00012296,-0
 .00058152,0.00017948,0.00060539,0.00009503,-0.00030164,0.00065290,0.00
 064350,0.00030329,0.00059334,0.00018811,-0.00031422,-0.00034124,-0.000
 35624,0.00001912,-0.00011703,0.00042789,0.00021873,0.00027161,-0.00018
 008,0.00010124,0.00010238,-0.00055243,0.00085766,0.00093681,-0.0001407
 4,-0.00000083,-0.00012469,0.00020148,0.00016844,-0.00014334,-0.0077346
 1,-0.01120001,0.00629448,-0.10271472,-0.14891954,0.11188973,-0.0008586
 6,-0.00092603,-0.00160413,0.00042864,0.00128380,0.00059566,0.00071243,
 -0.00088952,0.00227980,0.00008413,-0.00049079,-0.00033334,-0.00026210,
 0.00026035,-0.00005951,-0.00004807,0.00010595,0.00001764,0.00021844,0.
 00041784,0.00000553,0.00005820,0.00006360,-0.00001902,0.11155128,0.162
 68594,-0.00190720,-0.00245109,0.00155209,0.00031683,0.00024712,-0.0001
 7263,-0.00004623,0.00062157,-0.00004509,0.00021505,0.00027590,-0.00007
 152,0.00017806,-0.00074842,-0.00019353,-0.00005067,0.00042429,0.000325
 97,0.00064081,0.00096657,0.00026974,0.00002267,0.00007841,0.00006912,-
 0.00015242,-0.00015002,-0.00003322,0.00025075,0.00031363,-0.00067943,-
 0.00018510,0.00000784,-0.00003966,-0.00040577,0.00013611,-0.00015295,0
 .00024867,-0.00063963,0.00001735,0.00028216,-0.00003196,0.00056118,0.0
 0014066,-0.00029193,-0.00010173,-0.00046987,-0.00013374,-0.00033601,0.
 00018518,0.00000663,0.00005840,0.00014813,-0.00009081,-0.00001165,-0.0
 0060553,0.00052985,0.00058971,0.00000026,-0.00004403,0.00007179,-0.000
 27493,-0.00002231,-0.00000435,0.01156455,0.00867433,-0.00951858,0.0861
 5259,0.11162751,-0.11984665,-0.00071779,-0.00245011,-0.00050624,-0.000
 09978,0.00296836,-0.00003312,0.00037211,0.00567083,-0.00151199,0.00008
 448,-0.00064012,-0.00056943,-0.00002579,-0.00010022,0.00006389,0.00000
 162,-0.00004981,-0.00001612,0.00000035,0.00012616,-0.00011561,0.000029
 25,0.00006934,-0.00002549,-0.09560782,-0.12506645,0.12996298,0.0026087
 1,-0.00422613,-0.00088223,-0.00031945,-0.00043792,0.00203941,-0.023285
 98,0.01009346,0.00778813,-0.12866500,0.01230428,-0.04628886,-0.0000214
 2,-0.00000379,0.00006429,0.00003858,-0.00000493,0.00008492,-0.00008840
 ,-0.00056700,0.00023731,-0.00072921,-0.00173720,-0.00162104,0.00003280
 ,-0.00004216,-0.00058813,0.00916081,-0.00005893,0.00218070,0.00012261,
 0.00096297,0.00206677,0.00094415,0.00033617,-0.00038116,-0.00050248,-0
 .00008382,-0.00004265,-0.00042925,-0.00124931,0.00045999,0.00015240,0.
 00018100,-0.00029058,-0.00002583,0.00003492,0.00006399,0.00014117,-0.0
 0023637,0.00003436,-0.00004228,-0.00023021,-0.00013546,0.00027730,0.00
 219853,0.00411232,-0.00138141,0.00032805,0.00037653,-0.00040655,0.0011
 9767,-0.00174537,0.00065432,-0.00031686,-0.00028035,-0.00018629,0.0003
 1251,-0.00019667,0.00011700,-0.00026295,-0.00009593,-0.00038545,0.0004
 0903,0.00018873,0.00082723,-0.00178755,-0.00029255,0.00019188,0.000118
 90,0.00019151,0.00230010,-0.01022192,-0.00089505,-0.00045291,-0.000343
 34,-0.00038325,-0.01946204,0.00969628,-0.01220983,-0.02332867,-0.00073
 198,-0.02136440,0.00005466,0.00023946,-0.00004665,0.37976672,0.0023052
 7,0.00147469,-0.00215658,0.00060952,0.00001266,0.00107692,-0.01109891,
 -0.00188176,0.00652653,0.03352134,-0.06972168,0.02050513,-0.00014833,0
 .00044645,0.00021621,-0.00003819,0.00003785,0.00029863,-0.00001679,-0.
 00118623,-0.00043775,-0.00050385,-0.00114825,-0.00087285,-0.00031011,-
 0.00004172,-0.00043304,0.00997032,-0.01045940,0.01838522,-0.00069675,0
 .00141026,0.00077517,0.00123212,-0.00048227,-0.00123128,-0.00045199,-0
 .00063243,-0.00019366,-0.00201171,-0.00089926,0.00155104,0.00027838,0.
 00009695,-0.00031797,-0.00021270,-0.00000021,-0.00038545,-0.00027075,0
 .00000799,-0.00030111,0.00130430,-0.00114391,-0.00032257,-0.00069275,0
 .00255141,0.00276161,-0.00063351,0.00022067,0.00017993,-0.00076860,0.0
 0060833,-0.00101728,0.00104656,0.00015633,-0.00036707,0.00008319,0.000
 98544,0.00029498,-0.00015323,0.00024428,0.00002493,-0.00073023,0.00005
 682,0.00013361,0.00058368,-0.00469585,-0.00030672,0.00018975,0.0001837
 5,0.00031092,0.00438442,-0.00150396,-0.00261063,-0.00019859,-0.0001094
 5,-0.00014716,0.01779300,-0.00898350,0.01094617,-0.01324977,0.00540557
 ,-0.01382967,0.00006534,0.00037701,0.00016595,-0.08453034,0.39207449,-
 0.00149191,-0.00199410,-0.00172389,-0.00054816,-0.00027370,-0.00050082
 ,0.00063031,-0.00136434,-0.01655529,-0.06285165,0.00684673,-0.12092092
 ,0.00007002,-0.00019998,-0.00010088,-0.00002367,-0.00000415,-0.0001194
 3,0.00023578,-0.00064360,-0.00062223,-0.00049260,0.00024643,0.00040926
 ,0.00015590,0.00010234,0.00014003,-0.01581522,0.01959483,-0.02633108,0
 .00024596,-0.00039557,-0.00019856,-0.00050215,0.00050397,0.00000879,0.
 00043876,0.00158421,0.00021771,0.00192381,0.00040157,-0.00258936,-0.00
 007570,-0.00010606,0.00022753,0.00034222,0.00018502,0.00031452,0.00010
 836,0.00009948,0.00010792,0.00031101,-0.00015083,-0.00022520,0.0012581
 0,0.00046990,-0.00012135,0.00107304,-0.00024560,-0.00054248,0.00026807
 ,-0.00077717,0.00223877,-0.00009848,-0.00005979,0.00030541,-0.00020022
 ,-0.00005215,-0.00013258,0.00016661,0.00009367,0.00009464,0.00017540,-
 0.00023960,-0.00065610,0.00036041,-0.00041722,0.00004061,-0.00012264,-
 0.00005719,-0.00009093,0.00276799,0.00338894,0.00405117,0.00019238,0.0
 0020603,0.00031226,0.00569925,-0.00139389,0.00571147,-0.02006185,-0.00
 089602,-0.01614283,-0.00005457,-0.00016344,-0.00005927,-0.01929023,-0.
 02130380,0.50117560,-0.00007230,0.00013084,-0.00008904,-0.00006266,-0.
 00033089,0.00021830,-0.00131569,-0.00609904,-0.00040037,-0.01810327,0.
 02214149,0.00191663,-0.00001757,-0.00001608,0.00001637,-0.00004533,0.0
 0006208,0.00000274,0.00010171,-0.00000796,0.00002517,-0.00036609,-0.00
 054461,-0.00039603,-0.00000514,0.00011806,-0.00009074,-0.00001282,-0.0
 0034807,0.00041219,0.00046419,0.00021264,0.00007757,0.00011950,-0.0003
 3026,-0.00011394,-0.00011365,-0.00006714,-0.00003958,0.00027463,0.0002
 4370,-0.00047514,0.00005152,0.00002013,-0.00003839,-0.00001233,0.00004
 169,-0.00000165,-0.00001798,0.00001429,0.00001065,-0.00009631,-0.00061
 458,0.00018762,-0.00029055,0.00007919,0.00097735,0.00012175,0.00012925
 ,-0.00002624,-0.00018765,0.00033793,0.00005825,0.00008049,-0.00005928,
 0.00010511,-0.00008477,0.00009155,0.00002281,-0.00005461,0.00005309,0.
 00001361,-0.00014202,0.00025050,-0.00006247,0.00015826,-0.00021652,0.0
 0010066,0.00002027,-0.00004426,0.00002954,-0.00077732,-0.00034198,0.00
 075307,-0.00002751,-0.00004345,-0.00002054,-0.00388696,0.00316760,-0.0
 0256979,0.00086259,0.00280951,0.00116053,-0.00000512,0.00008092,0.0000
 2743,-0.07640885,0.03184575,0.00647333,0.48943913,0.00005272,0.0002976
 3,-0.00020178,-0.00078296,-0.00013043,-0.00067147,-0.00231502,-0.00539
 206,0.00005407,0.00775906,-0.01252175,-0.00096125,-0.00002696,0.000014
 28,-0.00007467,-0.00010322,-0.00005938,0.00003258,0.00004878,-0.000181
 21,-0.00032159,0.00023581,0.00095655,0.00080713,0.00024911,0.00009411,
 0.00030571,-0.00070696,0.00025903,-0.00053142,-0.00017211,-0.00052039,
 -0.00073126,0.00041822,-0.00052724,-0.00001488,-0.00001077,-0.00016904
 ,-0.00008546,-0.00014096,0.00001507,-0.00007954,0.00003366,0.00001767,
 -0.00007243,-0.00001277,0.00005389,-0.00001682,-0.00007433,0.00003652,
 -0.00003409,0.00009063,-0.00043539,0.00054112,-0.00030017,-0.00134884,
 0.00221580,-0.00011498,-0.00022808,-0.00011696,-0.00021082,-0.00050106
 ,-0.00099210,-0.00003591,-0.00024526,0.00021079,-0.00003208,0.00003907
 ,0.00005254,0.00000141,0.00011462,0.00010147,0.00013199,0.00026054,0.0
 0014265,0.00009114,0.00045299,0.00048422,0.00001696,-0.00008731,0.0000
 0049,0.00013089,-0.00046625,-0.00016978,0.00012625,-0.00001398,0.00003
 952,0.00057053,-0.00055301,0.00113380,-0.00143293,0.00242723,-0.001170
 04,0.00002260,0.00009989,-0.00007378,0.06153281,-0.16848338,-0.0338385
 4,0.00438521,0.41754282,0.00032997,0.00000387,0.00003744,-0.00039660,-
 0.00025547,-0.00014256,0.00108454,-0.00005149,0.00211977,-0.00954198,0
 .01616050,0.00427461,-0.00000842,-0.00002792,-0.00002822,-0.00000961,-
 0.00001480,-0.00007662,0.00017046,-0.00002550,-0.00009234,0.00065298,0
 .00071421,0.00080837,0.00014143,0.00011378,0.00002959,-0.00071640,0.00
 050414,-0.00057635,-0.00031214,-0.00105271,-0.00030669,-0.00005348,0.0
 0020446,0.00000497,-0.00002528,0.00028475,-0.00005404,0.00013171,-0.00
 000396,-0.00026798,-0.00000227,0.00005380,-0.00002887,0.00002087,0.000
 05034,0.00004275,0.00001430,0.00000089,0.00003989,-0.00065168,0.001042
 34,0.00029371,0.00046495,-0.00083482,-0.00038759,-0.00008223,-0.000124
 17,-0.00015931,0.00019446,0.00048847,0.00002459,-0.00004327,-0.0000137
 0,-0.00012241,-0.00004827,-0.00001931,0.00003992,0.00002518,-0.0000425
 3,-0.00001042,0.00007418,0.00007668,0.00011588,-0.00019494,0.00007325,
 0.00000910,0.00001063,-0.00004179,0.00001282,0.00001006,-0.00004270,-0
 .00018705,0.00001966,-0.00000536,0.00000981,-0.00299144,0.00197745,-0.
 00169544,-0.00012915,0.00078670,0.00063120,0.00001235,-0.00000788,-0.0
 0002921,0.01173769,-0.02611404,-0.08274818,0.00458642,-0.01735890,0.52
 787566,-0.00023636,0.00006370,0.00013524,-0.00054696,-0.00028763,0.000
 05427,0.00034273,0.00067320,0.00276116,0.00531382,0.00339029,-0.020036
 46,0.00000748,0.00001403,-0.00003254,-0.00015708,0.00006527,-0.0000770
 9,0.00051619,-0.00161392,0.00033460,0.00002297,0.00004973,0.00013706,0
 .00024783,0.00011755,0.00006326,-0.00128574,0.00055574,-0.00284993,0.0
 0010502,-0.00020331,-0.00012362,0.00011942,0.00005185,0.00007112,-0.00
 005262,0.00030942,0.00007338,0.00041472,0.00011105,-0.00058992,-0.0000
 0802,0.00004806,-0.00003275,0.00005499,0.00008805,0.00006619,-0.000026
 65,0.00001623,-0.00001954,-0.00030748,0.00031915,0.00024902,-0.0004802
 0,0.00001124,0.00014841,-0.00017189,0.00004837,-0.00004860,0.00027339,
 0.00037585,-0.00046040,0.00018826,-0.00032207,0.00033073,-0.00003212,0
 .00000556,0.00014249,-0.00001202,0.00004979,-0.00009486,-0.00021739,-0
 .00019259,0.00009552,-0.00115627,-0.00136765,-0.00025267,-0.00002582,-
 0.00004139,0.00001156,-0.00085980,-0.00075233,-0.00013564,-0.00000815,
 -0.00004910,-0.00006478,0.00106823,0.00010115,-0.00286810,-0.00078647,
 0.00015880,-0.00171650,-0.00001006,-0.00000501,0.00002450,-0.09567934,
 0.00095113,0.06458265,-0.01041683,0.00108668,0.01777053,0.50515309,0.0
 0074705,0.00111641,-0.00101552,-0.00004079,0.00001450,-0.00000950,0.00
 064005,0.00094814,0.00250930,-0.00134271,-0.00315009,0.00809279,-0.000
 04842,0.00004431,0.00003193,0.00022702,-0.00017447,0.00022859,-0.00183
 452,-0.00331548,0.00025380,-0.00011949,-0.00019798,-0.00010222,0.00004
 155,-0.00001351,0.00001922,0.00182149,-0.00167403,0.00226960,0.0000414
 4,0.00025361,0.00003494,0.00012049,0.00011366,-0.00008968,-0.00006069,
 -0.00010790,-0.00007195,-0.00029343,-0.00011654,0.00016774,0.00002991,
 0.00003331,-0.00006238,-0.00001740,-0.00001372,-0.00002137,-0.00006416
 ,-0.00004614,-0.00001394,0.00007856,-0.00019787,0.00004859,-0.00035960
 ,-0.00004397,0.00020919,-0.00015117,0.00005997,0.00008409,-0.00001439,
 0.00010517,-0.00027827,0.00026805,-0.00035569,0.00013048,-0.00012017,-
 0.00003169,0.00021454,0.00006252,-0.00003997,0.00007319,-0.00013454,0.
 00016740,0.00015029,-0.00101450,-0.00032413,-0.00102597,-0.00001408,-0
 .00003215,0.00007916,-0.00087975,-0.00060960,-0.00003568,-0.00002906,-
 0.00003933,-0.00006005,0.00009691,0.00032258,0.00264522,-0.00057145,0.
 00015355,-0.00080885,0.00005541,0.00003893,0.00001590,-0.00737002,-0.0
 6742268,0.03035203,0.01306848,-0.00539705,-0.02768280,-0.03816503,0.51
 184413,0.00033760,-0.00112069,0.00003880,0.00036464,0.00006292,0.00085
 709,0.00064184,0.00098143,0.00008834,0.00437277,0.00703380,-0.03039559
 ,0.00000512,-0.00006212,0.00004344,0.00020852,-0.00002352,0.00007682,-
 0.00019164,-0.00048146,0.00034161,0.00016716,-0.00022465,-0.00030311,-
 0.00016264,-0.00004498,-0.00037337,-0.00253283,0.00104189,-0.00271101,
 -0.00019347,0.00005899,0.00027904,0.00016494,0.00024216,0.00009372,-0.
 00011870,0.00044911,0.00006507,0.00034659,0.00023750,-0.00046190,-0.00
 004602,-0.00003056,-0.00001863,0.00004888,-0.00001913,0.00001923,0.000
 10513,0.00003687,0.00000596,0.00027161,-0.00014812,-0.00034950,-0.0004
 8350,0.00019079,0.00005912,0.00012148,0.00012062,-0.00006877,-0.000117
 91,0.00002597,-0.00050433,-0.00011384,-0.00028241,-0.00026957,-0.00003
 896,-0.00004661,-0.00003429,0.00000924,-0.00026359,0.00014829,0.000096
 33,-0.00003381,-0.00030563,0.00024574,0.00031870,-0.00059202,0.0000566
 8,0.00001554,0.00003279,-0.00001297,-0.00026302,0.00011011,-0.00006307
 ,-0.00000527,-0.00004213,0.00166795,-0.00074161,-0.00000704,-0.0001712
 0,0.00011980,0.00018504,0.00003376,0.00003191,0.00003764,0.04576321,0.
 01128714,-0.18235155,0.01096450,-0.00243217,-0.01680013,0.03406511,0.0
 1632453,0.47066575,0.00035363,0.00016950,-0.00034665,0.00056906,0.0003
 1190,0.00005501,-0.00076344,-0.00094890,0.00044195,0.00173461,0.001358
 86,0.00104442,0.00001143,-0.00000455,0.00000982,0.00004269,-0.00001148
 ,0.00001130,-0.00005547,-0.00000270,0.00004331,0.00031042,-0.00005541,
 -0.00021824,-0.00028763,-0.00011422,-0.00018444,-0.00022451,-0.0000843
 1,-0.00004025,-0.00008645,0.00011827,0.00010456,0.00017674,0.00005204,
 -0.00000251,-0.00005656,0.00000600,-0.00004966,-0.00006177,0.00002576,
 -0.00006341,0.00004150,0.00000924,-0.00004402,0.00001936,-0.00002229,-
 0.00002131,0.00003184,-0.00003224,-0.00001082,0.00012534,-0.00027614,-
 0.00022083,-0.00029908,-0.00009275,0.00046983,0.00004271,0.00002752,0.
 00013267,-0.00041806,-0.00026683,-0.00030817,0.00004889,-0.00012402,-0
 .00005957,-0.00008878,0.00009827,-0.00003536,0.00000109,0.00005003,0.0
 0006684,-0.00003700,0.00002235,0.00003219,-0.00006951,0.00008938,0.000
 06991,0.00005182,0.00004074,0.00005606,-0.00004722,-0.00012648,0.00001
 468,-0.00003062,-0.00001506,-0.00000833,0.00005275,0.00001625,0.000114
 53,0.00034854,-0.00062400,0.00024887,0.00001142,0.00002685,0.00000267,
 0.00877799,0.00235672,-0.00149839,-0.14067232,-0.09516072,0.01861231,0
 .00210777,0.00297611,-0.00059170,0.15748201,0.00023756,0.00020903,-0.0
 0021553,0.00038358,0.00006171,0.00015900,0.00049621,-0.00147849,-0.000
 59518,-0.00193101,0.00041830,-0.00139302,-0.00000400,0.00001657,0.0000
 2607,-0.00003000,-0.00001960,0.00000535,0.00000758,-0.00005842,0.00012
 463,0.00003298,-0.00027738,-0.00017134,-0.00015028,-0.00003425,-0.0001
 2067,0.00005978,0.00004714,0.00019807,-0.00017476,0.00038282,0.0001007
 3,0.00011812,0.00008026,-0.00006315,-0.00009190,0.00003773,-0.00003157
 ,0.00004557,0.00003974,-0.00009250,0.00003745,0.00001808,-0.00003035,0
 .00001458,0.00000877,-0.00001798,0.00000574,-0.00003082,-0.00002630,0.
 00034517,-0.00045123,-0.00020243,-0.00026044,0.00041697,0.00035689,0.0
 0009289,0.00005374,0.00007255,-0.00020696,0.00004914,-0.00006233,0.000
 12974,-0.00003672,-0.00011940,-0.00005666,0.00008114,-0.00001344,0.000
 02288,0.00001189,-0.00001113,-0.00005916,0.00005298,-0.00003632,-0.000
 02134,-0.00031988,-0.00008076,0.00007224,0.00003806,0.00006104,-0.0000
 2526,0.00026595,0.00004179,-0.00002329,0.00000368,-0.00000617,-0.00042
 290,0.00046200,-0.00000142,0.00096584,0.00053512,0.00084420,0.00000423
 ,0.00001075,0.00000996,-0.01054920,-0.04664321,-0.00399118,-0.09996120
 ,-0.14314156,0.02106427,-0.00109452,0.00077792,0.00207187,0.11687757,0
 .18693247,-0.00006941,-0.00017164,-0.00004073,0.00004578,0.00004411,-0
 .00002100,0.00056376,0.00004703,0.00060766,0.00098968,0.00067815,0.000
 64649,-0.00000341,0.00000877,-0.00000933,-0.00002119,0.00000150,0.0000
 0616,-0.00000692,-0.00004899,0.00001268,-0.00013390,0.00003243,0.00008
 941,-0.00004503,-0.00002439,0.00000556,0.00021822,-0.00005153,-0.00006
 456,-0.00020571,0.00010027,-0.00007599,-0.00012095,0.00004619,0.000024
 25,0.00002670,0.00001776,0.00002055,0.00000202,0.00003955,0.00003400,-
 0.00002988,-0.00002198,0.00001269,-0.00001849,-0.00000310,-0.00000365,
 -0.00001611,0.00000920,-0.00000144,0.00006933,0.00016450,-0.00003368,0
 .00031408,0.00034208,-0.00028007,0.00000029,0.00001114,0.00000163,-0.0
 0001339,0.00000299,-0.00014265,-0.00001609,-0.00000390,-0.00000342,-0.
 00000543,-0.00002539,-0.00001944,-0.00000256,0.00000712,0.00001764,0.0
 0001854,0.00000467,-0.00001520,0.00001768,-0.00003113,-0.00000242,-0.0
 0000318,0.00000673,-0.00000425,0.00001388,0.00003116,-0.00001405,0.000
 01201,0.00001116,-0.00000288,-0.00009474,-0.00007461,-0.00008616,-0.00
 059920,0.00006939,-0.00012530,0.00000228,0.00000165,-0.00001003,-0.002
 77972,-0.00767894,-0.00067898,0.01752070,0.01991195,-0.04960820,-0.002
 06301,-0.00348838,0.00148648,-0.02219299,-0.01970706,0.05234870,-0.000
 43608,-0.00008897,-0.00004430,0.00004393,-0.00000557,-0.00022658,0.000
 42242,-0.00154274,0.00013740,0.00013984,0.00001784,0.00086153,0.000007
 48,-0.00001923,-0.00000581,-0.00000272,0.00000750,0.00002149,-0.000029
 31,-0.00003113,-0.00000723,-0.00099715,-0.00077330,-0.00035160,0.00001
 714,0.00003071,0.00012315,0.00024059,0.00028344,-0.00016795,0.00016603
 ,0.00089528,0.00012558,-0.00000552,-0.00005842,-0.00002845,-0.00001430
 ,-0.00002645,-0.00001156,-0.00015857,0.00019796,0.00004764,-0.00002396
 ,-0.00005100,0.00003378,-0.00004094,-0.00001572,0.00002120,-0.00003504
 ,0.00000790,0.00000244,0.00041137,-0.00171390,0.00071251,0.00023757,-0
 .00025856,0.00043526,-0.00007912,-0.00002038,0.00009739,-0.00010959,0.
 00018240,-0.00003464,-0.00001583,-0.00004655,0.00000760,-0.00005028,-0
 .00007524,-0.00004240,0.00002515,-0.00005272,-0.00000241,0.00001393,0.
 00005462,-0.00010519,0.00012608,0.00002476,-0.00006075,-0.00002296,0.0
 0000032,-0.00000719,-0.00002488,0.00002234,0.00012152,-0.00000002,0.00
 002180,0.00002166,0.00015637,-0.00032882,0.00001318,-0.00113550,0.0000
 9899,0.00024468,-0.00000587,-0.00000614,-0.00000691,-0.00530162,0.0019
 6121,0.01290136,-0.05852807,-0.00130916,0.05470322,-0.00131256,0.00318
 676,0.00177006,-0.00723891,-0.00506991,0.02221306,0.06659508,-0.000590
 10,0.00101070,-0.00033920,-0.00015599,-0.00010633,-0.00013502,-0.00141
 910,-0.00293966,-0.00198926,0.00001531,0.00087299,-0.00041138,-0.00000
 438,0.00005747,0.00001384,-0.00011341,0.00004341,0.00003747,0.00005309
 ,0.00003609,0.00011304,-0.00041663,-0.00007103,-0.00006414,0.00014132,
 0.00005240,0.00016814,0.00055929,-0.00013585,-0.00031784,-0.00005613,0
 .00015014,0.00002734,-0.00000488,-0.00055113,0.00010621,-0.00003061,-0
 .00001629,-0.00006677,0.00014284,-0.00022623,-0.00000864,0.00001960,-0
 .00000936,-0.00005199,-0.00003430,0.00009194,-0.00006563,-0.00007971,0
 .00003192,-0.00005637,-0.00074562,-0.00122690,0.00089382,-0.00039524,-
 0.00083898,0.00130006,0.00000249,-0.00000148,-0.00002328,0.00011369,0.
 00012833,0.00028135,0.00007120,-0.00006197,0.00020559,-0.00005095,0.00
 007266,-0.00005679,0.00000584,0.00014215,0.00002664,-0.00009402,0.0000
 1141,0.00002977,0.00013466,-0.00008136,0.00022286,0.00004536,0.0000473
 1,0.00004914,-0.00026519,-0.00012147,0.00006616,0.00006781,0.00002131,
 0.00002083,-0.00032523,0.00014245,-0.00016413,0.00021103,0.00003556,-0
 .00004148,-0.00001385,0.00007158,0.00002804,0.00812471,-0.00158443,-0.
 02632261,-0.00224602,-0.04104119,0.01291632,0.00297710,-0.00426011,-0.
 00189445,-0.00768367,-0.00233869,0.02108346,0.00238600,0.05205027,0.00
 017549,0.00034707,-0.00017637,-0.00032913,-0.00016553,-0.00020877,-0.0
 0083842,-0.00279009,-0.00199468,-0.00072890,0.00066326,0.00083663,-0.0
 0003210,0.00004141,-0.00000681,-0.00005327,-0.00001990,-0.00001303,0.0
 0000211,0.00006140,0.00000332,-0.00054094,0.00001442,0.00043691,0.0001
 6445,0.00000828,0.00022229,0.00002087,0.00005477,0.00011974,-0.0002125
 3,0.00071104,-0.00039257,-0.00016012,0.00020526,-0.00004079,-0.0000081
 4,0.00019183,-0.00006220,-0.00011854,-0.00001200,-0.00003798,0.0000133
 5,-0.00002098,-0.00004920,-0.00001354,0.00002769,-0.00003984,-0.000030
 51,-0.00000496,-0.00003764,0.00113192,0.00037247,0.00012895,0.00033200
 ,0.00070116,-0.00064247,-0.00002879,-0.00007080,-0.00001531,0.00021019
 ,-0.00014363,0.00022316,-0.00002172,0.00000788,0.00013839,0.00007146,0
 .00009932,0.00007792,-0.00007170,0.00008801,0.00002411,0.00000404,-0.0
 0005579,0.00018453,-0.00008781,0.00012293,0.00010101,0.00016398,-0.000
 01363,0.00004517,-0.00045329,-0.00020867,-0.00014595,0.00007915,-0.000
 01132,-0.00000690,-0.00020943,0.00030860,-0.00006753,-0.00007640,0.000
 21919,0.00024539,0.00004294,0.00006394,-0.00002852,0.00389642,-0.00251
 951,-0.01106111,0.06063729,0.00908114,-0.25740939,0.00123092,-0.003383
 86,-0.00088891,0.00324611,0.00291194,-0.00612824,-0.07049684,-0.008934
 30,0.29652213,-0.00025085,-0.00062943,-0.00010409,0.00031206,-0.000025
 56,-0.00004332,0.00028753,0.00236322,-0.00058172,-0.00150332,0.0029569
 5,0.00113862,-0.00000884,-0.00002688,0.00002186,0.00001418,-0.00001957
 ,-0.00003725,0.00001055,0.00004051,0.00008025,0.00002370,-0.00011898,0
 .00001714,-0.00013479,0.00000146,0.00003433,-0.00035981,0.00020430,-0.
 00001771,-0.00016468,0.00017904,-0.00006872,0.00000540,0.00005918,-0.0
 0005772,0.00007607,-0.00011047,0.00000211,0.00004364,0.00015585,-0.000
 04283,-0.00005493,-0.00008180,0.00002388,0.00000048,-0.00004832,-0.000
 01351,0.00006760,-0.00005773,0.00001451,0.00046297,-0.00022561,-0.0001
 7900,-0.00010991,0.00051747,0.00019327,-0.00003314,-0.00006622,-0.0000
 1443,-0.00057853,-0.00043459,-0.00029699,0.00006353,0.00008356,-0.0000
 5223,-0.00000418,-0.00008658,0.00016362,0.00004286,-0.00004089,0.00003
 525,-0.00009234,0.00004507,-0.00008332,0.00010478,-0.00014076,-0.00016
 507,-0.00001522,-0.00005058,-0.00001072,0.00021699,0.00021595,-0.00014
 896,-0.00002607,0.00003147,0.00000751,-0.00045319,0.00039494,-0.000546
 09,0.00052810,0.00023105,0.00057833,-0.00002056,-0.00000926,0.00003526
 ,-0.01101513,0.00725580,-0.00762548,-0.17987029,0.02881308,-0.09953703
 ,0.00011540,-0.00013082,-0.00019411,-0.02150499,-0.00075217,-0.0142701
 3,0.00680543,-0.00157459,0.00311267,0.20687388,-0.00076850,0.00074555,
 -0.00035939,-0.00088746,-0.00072565,-0.00011431,-0.00006835,-0.0042219
 8,0.00154114,0.00396645,-0.00400141,-0.00199626,-0.00000815,0.00003959
 ,-0.00002403,-0.00009043,0.00001931,0.00005063,0.00007386,-0.00003271,
 -0.00003225,-0.00015293,-0.00004308,0.00031764,0.00043336,0.00025589,0
 .00027890,0.00020228,-0.00005719,-0.00013951,-0.00006645,0.00008640,-0
 .00030239,-0.00005768,-0.00014547,-0.00010274,-0.00003674,0.00008144,-
 0.00009031,-0.00016332,0.00017413,0.00007448,0.00002944,-0.00000435,-0
 .00004946,-0.00004297,0.00004133,-0.00002318,-0.00009525,0.00006365,-0
 .00005852,0.00016189,-0.00015921,0.00023362,0.00017327,-0.00025060,-0.
 00001767,0.00011210,0.00003017,-0.00013684,0.00013515,0.00064461,-0.00
 038548,0.00001902,-0.00004003,0.00021713,-0.00001268,0.00007578,-0.000
 00805,-0.00002114,0.00013629,-0.00003984,-0.00002225,-0.00005361,0.000
 02686,0.00009542,0.00000011,0.00023634,0.00002620,-0.00002741,0.000032
 87,-0.00034045,0.00007174,-0.00000642,0.00007115,0.00002317,-0.0000199
 2,0.00137812,-0.00072864,0.00105200,-0.00021111,-0.00007585,-0.0002320
 2,-0.00000754,0.00005514,0.,0.02349252,-0.01017869,0.01532131,0.028305
 06,-0.04499870,0.02051493,0.00015364,0.00035145,0.00078248,-0.01849497
 ,0.00269770,-0.01182553,0.00158390,0.00045077,0.00239548,-0.03877134,0
 .05988419,0.00004445,-0.00032461,-0.00008298,0.00011837,0.00007378,0.0
 0036992,-0.00009218,0.00347116,-0.00005563,0.00050521,-0.00041903,0.00
 045246,0.00000985,-0.00001378,-0.00000412,0.00002937,-0.00000577,-0.00
 003154,0.00002013,-0.00000808,0.00003003,0.00062971,0.00021214,-0.0003
 5599,-0.00008997,-0.00002138,-0.00017607,-0.00027114,-0.00008308,0.000
 22353,-0.00001714,-0.00041778,0.00015372,0.00006309,0.00006892,0.00004
 185,0.00001752,-0.00011598,0.00006769,0.00011078,-0.00010031,0.0000371
 0,-0.00004398,-0.00001487,0.00001616,0.00003493,-0.00004855,0.00000180
 ,0.00006243,-0.00001858,0.00000530,-0.00027694,0.00003295,-0.00029243,
 -0.00025186,0.00008693,0.00024507,0.00011808,0.00009308,-0.00007433,-0
 .00010867,-0.00029111,-0.00033170,0.00000593,0.00001023,-0.00001777,0.
 00002295,-0.00000867,0.00004534,-0.00002566,-0.00004505,0.00002451,0.0
 0003637,-0.00003664,-0.00005420,-0.00002770,-0.00006361,-0.00012165,-0
 .00005046,-0.00002710,-0.00002789,0.00026030,0.00029150,0.00005954,-0.
 00003319,0.00000955,-0.00001952,0.00031558,-0.00003468,0.00021209,0.00
 036180,0.00024195,0.00010645,-0.00001555,-0.00001497,0.00001490,0.0056
 4945,-0.00047501,0.00363279,-0.10481761,0.02163220,-0.12016853,0.00088
 533,-0.00060524,0.00099258,0.00187162,-0.00055051,0.00230376,-0.023703
 81,0.00461185,-0.02013739,0.11829811,-0.02659692,0.13342305,0.00036764
 ,0.00019302,-0.00009615,0.00048220,0.00018611,0.00015744,0.00086367,0.
 00043722,0.00091407,0.00059566,0.00054251,-0.00052810,0.00000398,0.000
 00897,0.00002543,0.00011053,-0.00004559,0.00005078,-0.00033681,0.00000
 516,-0.00002105,0.00001752,-0.00030865,-0.00033565,-0.00022414,-0.0000
 8580,-0.00016228,0.00019344,-0.00015144,0.00009280,0.00007933,0.000186
 25,0.00020286,0.00006292,0.00001279,-0.00005557,-0.00007520,0.00001456
 ,-0.00003311,-0.00002612,0.00003751,-0.00004590,0.00003184,0.00001353,
 -0.00003198,-0.00000481,-0.00000387,-0.00002319,0.00001094,-0.00002288
 ,0.00000822,0.00004441,-0.00008900,-0.00009705,-0.00014197,0.00011957,
 0.00002722,-0.00002799,0.00004312,0.00012068,-0.00019954,0.00004599,-0
 .00014175,0.00004121,0.00007039,-0.00010632,-0.00002039,0.00009598,-0.
 00006028,0.00000425,0.00000077,0.00004221,-0.00006561,-0.00001197,0.00
 002289,0.00016898,0.00015508,0.00000102,0.00004016,0.00005230,0.000035
 46,-0.00041512,-0.00025638,0.00002301,-0.00006326,-0.00001837,-0.00002
 040,-0.00001422,0.00005854,0.00008971,0.00019610,0.00000453,0.00038826
 ,0.00000859,0.00003312,0.00001167,-0.01589162,-0.01366508,0.01607088,0
 .00036155,-0.00187282,-0.00044818,-0.11609337,-0.09770057,-0.00663280,
 0.00016453,0.00138102,0.00079602,0.00023504,-0.00000457,-0.00049907,-0
 .00024094,-0.00014078,0.00006367,0.13838923,0.00038412,0.00028887,-0.0
 0018850,0.00058313,0.00020265,0.00020117,0.00063779,0.00027547,0.00014
 683,-0.00008702,0.00058328,-0.00072970,-0.00000635,0.00001127,0.000025
 33,-0.00007576,-0.00007450,-0.00002002,0.00007732,-0.00045712,0.000422
 50,0.00003002,-0.00030071,-0.00031001,-0.00024542,-0.00007911,-0.00019
 879,0.00014869,-0.00009856,-0.00009991,0.00000244,0.00020301,0.0002144
 0,0.00006499,0.00008600,-0.00004143,-0.00002826,-0.00001651,-0.0000329
 4,0.00002797,0.00000839,-0.00008698,0.00003389,0.00002969,-0.00000670,
 0.00002204,0.00000567,-0.00001112,0.00001285,-0.00005818,-0.00000215,0
 .00014796,-0.00013365,-0.00014505,-0.00021832,0.00026032,0.00013099,0.
 00001762,0.00004124,0.00010427,-0.00031711,-0.00002273,-0.00007613,0.0
 0026931,-0.00009230,0.00013052,-0.00005787,0.00011574,-0.00001937,-0.0
 0002488,0.00007719,-0.00001144,-0.00021748,0.00002545,0.00001437,-0.00
 064005,-0.00025271,-0.00022285,0.00008901,0.00005112,0.00005092,-0.000
 16203,-0.00010763,0.00002139,-0.00006529,-0.00000907,-0.00001038,-0.00
 008059,-0.00056365,0.00004059,0.00024800,0.00027529,0.00051712,0.00001
 839,-0.00000814,0.00002614,-0.01185304,-0.00874020,0.01351077,0.002869
 63,0.00317858,-0.00151141,-0.09577986,-0.17845537,-0.00582459,-0.00042
 970,0.00055891,0.00035311,0.00023520,-0.00002187,-0.00043335,-0.000111
 85,-0.00028318,0.00010367,0.12004017,0.20970602,-0.00038985,-0.0000188
 8,-0.00012843,0.00010394,0.00006136,-0.00027895,-0.00075283,-0.0008715
 2,-0.00116071,0.00116325,0.00052040,0.00128625,-0.00000168,-0.00002469
 ,0.00001040,-0.00007519,0.00002593,-0.00001269,0.00007138,0.00010416,0
 .00015907,-0.00006747,0.00019557,0.00021858,-0.00008308,-0.00002702,0.
 00006067,-0.00027256,0.00017199,-0.00025794,-0.00012918,0.00000368,-0.
 00008690,-0.00008337,-0.00010279,0.00002554,0.00004495,-0.00005561,0.0
 0002725,-0.00000259,0.00002127,0.00000844,-0.00001659,-0.00003233,0.00
 002589,-0.00000958,-0.00001442,0.00000471,0.00000042,0.00001678,-0.000
 00175,0.00013038,-0.00005421,0.00003084,0.00022450,-0.00003247,-0.0000
 3938,0.00005019,-0.00008475,-0.00001677,-0.00014780,-0.00011386,0.0003
 1630,0.00005048,-0.00003106,0.00013977,-0.00004033,0.00000113,0.000061
 86,0.00001009,0.00006132,0.00005201,-0.00010454,-0.00001565,-0.0000198
 2,-0.00009434,-0.00003473,-0.00001526,0.00002837,-0.00000453,-0.000014
 44,0.00049187,0.00036100,-0.00003157,0.00003542,0.00001895,0.00004571,
 -0.00009761,0.00007303,-0.00004252,0.00015072,-0.00040151,0.00010814,0
 .00000362,-0.00001075,0.00003284,0.02604701,0.02421361,-0.01276834,0.0
 0055896,0.00295950,0.00061985,-0.00304914,-0.00194805,-0.04322890,-0.0
 0054833,-0.00108452,-0.00013695,-0.00030529,0.00029366,0.00042994,-0.0
 0028325,-0.00021089,-0.00021652,-0.00559055,-0.00208537,0.05430152,-0.
 00022569,0.00002019,-0.00006777,-0.00031957,-0.00025530,0.00006979,0.0
 0097096,-0.00001757,-0.00005001,0.00024691,0.00047928,0.00169390,0.000
 00633,-0.00003672,0.00000283,0.00004038,-0.00008065,0.00003533,0.00037
 603,0.00031953,-0.00002319,0.00003047,0.00002218,0.00004708,0.00014280
 ,0.00009834,0.00008519,0.00027813,-0.00019643,0.00027652,-0.00001981,0
 .00002346,0.00000402,0.00000053,0.00010667,0.00001184,-0.00006370,-0.0
 0005990,0.00006230,-0.00000991,0.00004458,0.00005309,-0.00001234,0.000
 00803,-0.00000963,0.00000512,-0.00001835,0.00002840,0.00002493,-0.0000
 0919,0.00000519,-0.00002202,-0.00002787,-0.00000562,-0.00001897,-0.000
 05496,-0.00011704,0.00006464,0.00003373,-0.00009545,0.00009674,0.00024
 457,-0.00019757,0.00008798,-0.00009462,0.00008514,-0.00006489,0.000008
 79,0.00001606,0.00005646,-0.00001926,0.00001991,-0.00014885,-0.0000277
 0,-0.00001673,-0.00019552,0.00000289,-0.00018182,0.00003302,-0.0000170
 5,0.00001794,-0.00007648,0.00009506,-0.00011501,-0.00000484,0.00000289
 ,-0.00000937,0.00011786,-0.00029556,-0.00024142,0.00047101,0.00003954,
 0.00048321,0.00000822,-0.00001349,0.00000979,0.00881807,-0.00068184,0.
 00704582,0.00077209,-0.00053662,0.00089927,-0.17414896,0.02151798,-0.1
 1820192,-0.00045268,0.00005119,-0.00006462,-0.00002054,-0.00005483,0.0
 0003895,0.00004864,0.00007903,0.00028765,-0.01753309,-0.00061417,-0.01
 347885,0.19570745,-0.00020872,0.00031460,-0.00038836,-0.00056286,-0.00
 017016,0.00020365,-0.00023760,0.00009237,0.00081051,0.00005137,0.00056
 737,0.00179928,-0.00001534,0.00006305,-0.00006029,-0.00011306,0.000077
 82,-0.00003441,0.00018995,-0.00159275,0.00026607,0.00012270,0.00004214
 ,0.00002299,0.00023566,0.00005335,0.00002342,0.00015489,0.00002335,0.0
 0017565,-0.00000384,-0.00016820,-0.00009470,-0.00004796,0.00003106,-0.
 00004969,0.00003257,0.00001496,-0.00003569,-0.00004870,0.00010107,0.00
 000840,-0.00000484,-0.00000077,-0.00001554,-0.00000182,-0.00000748,-0.
 00000270,-0.00005434,0.00002066,-0.00005948,-0.00004237,0.00005774,-0.
 00000425,0.00004730,-0.00018331,-0.00006281,0.00007158,0.00007370,-0.0
 0011076,0.00047712,-0.00003036,-0.00039904,-0.00010815,0.00000804,-0.0
 0000397,0.00003769,0.00003239,-0.00001525,-0.00009365,0.00009727,-0.00
 006628,0.00024833,-0.00003771,0.00006737,0.00010008,-0.00002725,0.0002
 3263,-0.00007486,-0.00006103,0.00000465,0.00001480,0.00007616,0.000011
 40,0.00001943,0.00000326,-0.00003097,-0.00020309,0.00015791,0.00014924
 ,0.00008974,-0.00003956,0.00040621,-0.00001121,0.00004041,-0.00004539,
 0.00330195,-0.00078420,0.00477552,-0.00004527,0.00043722,-0.00061385,0
 .02068316,-0.04754640,0.01697395,-0.00033742,-0.00014730,0.00003079,0.
 00002677,-0.00006235,0.00007073,0.00030429,-0.00001570,-0.00046421,-0.
 02161705,0.00077552,-0.01674238,-0.02422957,0.05245972,0.00033864,-0.0
 0073646,0.00047936,0.00061561,0.00038165,-0.00006729,0.00082251,0.0011
 2995,-0.00129585,0.00194551,0.00008713,-0.00624401,0.00001690,-0.00006
 258,0.00001899,0.00001345,0.00001368,-0.00005825,-0.00003769,0.0005124
 2,0.00049519,-0.00013056,0.00005220,-0.00006990,-0.00031067,-0.0001714
 7,-0.00015280,-0.00104371,0.00057599,-0.00103392,0.00001151,0.00010934
 ,0.00016989,0.00007318,0.00005325,0.00009592,-0.00000349,0.00003181,0.
 00009501,0.00026919,-0.00011851,-0.00024256,-0.00002284,0.00000347,0.0
 0003975,0.00004529,0.00000780,0.00004136,0.00007794,-0.00002452,0.0000
 4151,-0.00001753,0.00002134,-0.00002324,-0.00026606,0.00029281,0.00021
 485,-0.00015186,-0.00006578,0.00011099,-0.00048810,-0.00037712,0.00022
 866,0.00013943,0.00006040,-0.00013785,-0.00003058,-0.00002866,0.000025
 76,0.00000933,-0.00011481,0.00004709,-0.00008831,0.00004184,-0.0000640
 9,-0.00007950,-0.00013087,-0.00036642,0.00002027,0.00003219,-0.0000021
 8,0.00011541,-0.00026128,-0.00010426,-0.00003971,-0.00001260,0.0000197
 7,0.00067006,-0.00035622,0.00013504,-0.00034948,0.00015132,-0.00016212
 ,-0.00000085,-0.00005311,0.00001129,-0.01894484,0.00661059,-0.02917050
 ,-0.00063277,0.00033831,0.00024291,-0.11420989,0.01664655,-0.14338028,
 -0.00008507,0.00000999,-0.00017695,-0.00003540,0.00014583,0.00040987,0
 .00066915,-0.00042908,-0.00029749,-0.00448446,-0.00114073,-0.00062103,
 0.13293155,-0.02322495,0.17646904,0.00001508,0.00067079,-0.00057705,-0
 .00015216,0.00009763,0.00009410,-0.00106711,0.00035785,0.00061559,0.00
 095205,-0.00031192,-0.00177051,-0.00001399,0.00008435,-0.00006192,0.00
 008482,0.00026281,-0.00013938,-0.00246085,-0.00336973,-0.00067879,0.00
 019814,0.00005496,-0.00006749,0.00007269,-0.00003525,-0.00001498,-0.00
 003216,-0.00010642,-0.00022142,0.00013066,-0.00032626,-0.00008589,-0.0
 0000595,0.00008051,-0.00002391,-0.00002953,0.00006557,-0.00007135,0.00
 001436,0.00002715,-0.00002532,0.00003227,-0.00000780,-0.00009004,-0.00
 000739,-0.00000965,-0.00004007,-0.00002887,0.00000738,-0.00006323,-0.0
 0023920,0.00024446,-0.00000251,0.00002434,-0.00037472,-0.00008546,0.00
 003463,0.00004396,-0.00000209,0.00023301,-0.00024944,-0.00004116,-0.00
 042625,-0.00010178,-0.00005772,0.00001891,0.00006949,-0.00003819,-0.00
 013978,-0.00003034,0.00003991,0.00067954,0.00006053,0.00023111,0.00021
 810,-0.00061480,0.00051424,-0.00009355,-0.00001474,0.00000168,-0.00007
 353,-0.00001923,0.00009946,0.00002147,-0.00000270,-0.00001996,0.000677
 00,0.00008113,-0.00078545,-0.00019113,-0.00014991,-0.00009917,-0.00001
 073,0.00012299,-0.00005029,-0.01041324,0.01297053,0.00745369,-0.001079
 39,-0.00044277,0.00356520,-0.11207604,0.10543642,0.02829615,-0.0000190
 8,-0.00043795,-0.00008289,-0.00014771,0.00095858,0.00039617,0.00028246
 ,-0.00023457,-0.00006671,0.00897901,-0.01485233,-0.00359148,-0.0151215
 3,0.02178835,0.00273891,0.13107672,0.00061028,0.00050201,-0.00134195,-
 0.00008983,-0.00007592,-0.00002215,0.00041244,0.00001735,0.00010251,-0
 .00043353,0.00047105,0.00148318,-0.00004400,0.00012120,-0.00000378,0.0
 0049642,-0.00033898,0.00036770,-0.00297918,-0.00244652,-0.00022570,-0.
 00008857,-0.00003044,-0.00000456,0.00002777,0.00003067,0.00002586,-0.0
 0026445,-0.00006230,-0.00006710,0.00002828,0.00010423,0.00002731,-0.00
 011050,0.00019527,-0.00012882,0.00030713,0.00002178,-0.00012278,-0.000
 16553,-0.00002519,-0.00014617,-0.00003081,0.00002118,-0.00000440,0.000
 05687,0.00001038,-0.00004344,-0.00013176,-0.00000190,-0.00006214,0.000
 03050,-0.00006848,-0.00000989,0.00014949,-0.00017285,-0.00011704,-0.00
 003279,-0.00000049,-0.00000288,0.00008133,0.00009174,-0.00003098,-0.00
 017630,-0.00017928,0.00042978,-0.00002113,0.00015812,0.00011178,0.0000
 2158,0.00008375,0.00022494,-0.00015880,-0.00074582,0.00035292,-0.00166
 683,-0.00225646,0.00010409,0.00005611,0.00002814,0.00005912,0.00000419
 ,-0.00007908,-0.00000513,0.00000223,-0.00000340,-0.00000161,-0.0000489
 9,0.00089736,0.00050123,0.00013212,-0.00023307,-0.00002985,0.00006423,
 0.00004212,-0.00004938,0.00106039,0.00016938,-0.00282918,0.00071972,0.
 00039283,-0.00112752,0.10739451,-0.20284881,-0.04457156,0.00027499,0.0
 0060936,0.00009004,0.00013118,0.00016896,-0.00004552,-0.00026441,0.000
 10574,0.00002148,0.01214702,-0.02709844,-0.00504276,0.00415062,-0.0047
 1028,0.00001342,-0.12176668,0.23709519,-0.00096204,-0.00117526,0.00112
 890,0.00005443,-0.00000070,-0.00001812,0.00071536,0.00006830,-0.000351
 78,0.00171400,-0.00169512,-0.00046007,0.00004875,-0.00010390,-0.000019
 86,-0.00049872,0.00046935,-0.00006288,-0.00011216,-0.00018583,0.001306
 89,-0.00014961,-0.00004535,0.00003602,-0.00006617,-0.00002362,-0.00004
 586,0.00044034,-0.00008446,0.00038431,-0.00018012,0.00026856,0.0000409
 2,-0.00010969,-0.00021249,0.00008776,-0.00012312,-0.00015130,0.0001734
 8,0.00010168,0.00017943,0.00012733,-0.00005338,-0.00006599,0.00005462,
 -0.00006269,-0.00006453,0.00008254,0.00002846,0.00007663,-0.00001849,0
 .00031441,-0.00026231,-0.00003126,-0.00001677,0.00047426,0.00026345,-0
 .00005486,-0.00002401,0.00001621,-0.00012103,0.00005114,-0.00010190,-0
 .00000991,0.00011183,-0.00018292,-0.00006940,-0.00024123,0.00000111,0.
 00005093,-0.00002639,-0.00017075,0.00017994,0.00031009,-0.00037204,0.0
 0049905,-0.00011181,0.00003287,-0.00009163,-0.00005003,-0.00006752,0.0
 0016005,0.00008176,-0.00003896,-0.00001607,0.00000094,0.00000349,-0.00
 118487,0.00073121,-0.00238029,-0.00002377,0.00010218,0.00011375,-0.000
 07889,-0.00007887,0.00003707,0.01671761,-0.02322576,-0.01244396,0.0029
 9300,-0.00006028,-0.00627915,0.02552267,-0.03989828,-0.05254300,-0.000
 12955,0.00053804,0.00004423,0.00100656,-0.00167391,-0.00058433,-0.0000
 8409,0.00017213,-0.00000830,0.00027304,-0.00279545,0.00108907,-0.01135
 802,0.01650892,0.00426757,-0.03519857,0.05214632,0.06685109,0.00170061
 ,0.00052952,-0.00010865,0.00348356,-0.00496626,-0.00014076,-0.00059083
 ,-0.00331251,0.00074769,0.00004006,-0.00001698,-0.00003464,0.00005735,
 -0.00005965,0.00001001,0.00012409,0.00003664,-0.00003801,-0.00004562,-
 0.00000711,-0.00008164,0.00057259,-0.00103635,0.00171078,-0.00005599,0
 .00023292,0.00031019,0.00018030,-0.00008251,-0.00012019,-0.00264556,-0
 .00010849,-0.00236158,0.00025930,0.00026810,0.00113962,-0.00040745,-0.
 00005667,0.00011611,0.00022520,0.00014039,-0.00006363,-0.00022940,-0.0
 0009832,-0.00093166,-0.00005356,-0.00001037,0.00001353,0.00009679,0.00
 003145,-0.00004389,0.00117340,-0.00087788,-0.00037577,-0.00067173,0.00
 040563,0.00049972,-0.07232395,0.02527556,-0.00638810,-0.00260483,-0.00
 009446,0.00121819,-0.00042991,-0.00103580,-0.00008335,0.00062512,-0.00
 069354,-0.00041923,-0.00021217,-0.00005227,0.00006753,0.00002006,0.000
 03302,-0.00005577,-0.00019966,0.00040909,0.00020988,-0.00130462,-0.000
 28571,0.00131109,0.00356557,-0.01613177,-0.00034492,-0.01120303,0.0277
 6345,-0.00584824,0.00003480,-0.00003347,0.00000699,0.00004041,0.000075
 16,-0.00001558,-0.00028961,0.00051139,-0.00020225,-0.00019293,-0.00005
 659,0.00001390,-0.00003774,0.00004841,-0.00000249,-0.00002517,0.000005
 74,-0.00000028,0.00004915,0.00005528,-0.00000935,0.00005189,0.00003120
 ,0.00005907,-0.00000049,0.00006361,-0.00005075,0.00003068,0.00004254,0
 .00001755,0.00001929,0.00000112,-0.00005575,0.00000130,0.00000597,-0.0
 0000809,0.51228152,0.00000019,-0.00083896,-0.00008538,-0.00219078,-0.0
 0745832,0.01405549,-0.00208159,-0.00040886,-0.00015043,-0.00005944,0.0
 0003821,-0.00003171,0.00001092,0.00003516,0.00001041,-0.00002292,-0.00
 000167,0.00000644,-0.00004152,-0.00000860,0.00004917,-0.00242800,-0.00
 112476,0.00325994,-0.00146689,-0.00110351,-0.00270589,-0.00008143,-0.0
 0001299,0.00023787,-0.00032699,0.00076956,-0.00152133,0.00001686,0.000
 08581,-0.00006664,0.00023868,-0.00013419,-0.00003106,-0.00002160,-0.00
 003493,0.00002935,-0.00028214,-0.00000529,-0.00012298,0.00004797,-0.00
 005418,-0.00001986,0.00001166,-0.00004806,-0.00002383,0.00037939,-0.00
 024409,-0.00019472,-0.00003495,0.00046107,0.00045504,0.03205154,-0.132
 93487,0.02328099,0.00299521,0.00170984,-0.00086342,-0.00027342,0.00017
 228,0.00005322,0.00028447,-0.00032966,0.00008526,0.00005013,0.00000030
 ,-0.00004437,0.00000123,-0.00005028,-0.00004600,0.00013406,-0.00006296
 ,-0.00015465,-0.00001109,0.00057166,-0.00014323,-0.00475928,-0.0420933
 2,-0.01127909,0.00576555,-0.00884565,0.00319001,0.00003490,0.00001466,
 -0.00002075,0.00002802,0.00002752,0.00002740,0.00024917,0.00004762,-0.
 00004923,0.00024382,0.00016613,-0.00014169,-0.00002562,-0.00019692,-0.
 00005575,-0.00002301,0.00003219,0.00006141,0.00000760,0.00003585,0.000
 00859,-0.00000691,-0.00001452,0.00001161,-0.00002128,-0.00004595,-0.00
 000578,0.00003988,0.00004824,-0.00002411,-0.00001207,-0.00001546,0.000
 01682,0.00000697,-0.00001069,-0.00001010,0.01725624,0.45113682,0.00024
 970,-0.00001507,-0.00070169,-0.00387063,0.02078364,-0.00526455,0.00069
 261,-0.00024163,0.00076011,0.00002697,-0.00004902,0.00005575,0.0000007
 0,0.00000045,-0.00001830,0.00000667,0.00001578,0.00005201,0.00006044,0
 .00000560,-0.00004020,-0.00168998,0.00027514,0.00227246,0.00038012,-0.
 00339469,-0.00137826,-0.00009448,0.00005438,0.00001179,-0.00103163,0.0
 0003290,-0.00271980,-0.00006044,0.00013406,-0.00020224,-0.00015664,0.0
 0008181,0.00001247,0.00000576,0.00010368,0.00004390,-0.00085679,-0.000
 22417,-0.00054367,-0.00004286,-0.00001210,0.00000390,0.00005128,-0.000
 00422,0.00000240,0.00009422,-0.00022002,0.00009383,0.00007240,-0.00026
 204,-0.00023887,-0.01030160,0.03523437,-0.06053437,0.00201554,-0.00147
 009,-0.00237041,0.00080680,0.00003414,-0.00187549,-0.00015899,-0.00007
 125,-0.00012439,0.00001710,0.00000930,0.00003016,0.00026902,0.00014041
 ,0.00012152,0.00022302,-0.00008108,-0.00013355,0.00308795,-0.00011999,
 -0.00098610,0.00055155,-0.02332492,0.00104245,0.00011462,-0.00133549,0
 .00094354,0.00001165,-0.00002076,-0.00002509,-0.00000481,-0.00000058,-
 0.00002731,-0.00004441,0.00004446,0.00009953,-0.00019631,-0.00009589,-
 0.00001952,-0.00002971,0.00008434,0.00004205,0.00001660,0.00001010,-0.
 00002045,0.00000817,0.00000224,-0.00000897,0.00000492,0.00000178,0.000
 04542,-0.00002010,0.00002603,-0.00003374,-0.00001433,-0.00001879,0.000
 00316,0.00000736,0.00000681,-0.00001490,0.00000464,-0.00000426,0.00000
 471,0.00819513,0.02289855,0.45528396,-0.00009352,0.00010009,0.00023262
 ,-0.00042258,-0.00062117,-0.00013216,-0.00049469,0.00000071,-0.0003191
 1,-0.00001100,0.00000718,-0.00003205,-0.00004266,-0.00001354,-0.000001
 15,-0.00004542,0.00001015,0.00000538,-0.00004750,-0.00001841,-0.000010
 79,0.00001301,-0.00022937,-0.00028469,0.00008218,0.00096144,0.00007097
 ,0.00011074,-0.00001514,0.00003053,0.00045308,0.00018310,0.00050986,-0
 .00000373,-0.00011243,-0.00016057,0.00010050,-0.00009907,0.00005655,-0
 .00001809,-0.00004867,-0.00005461,-0.00011880,-0.00008578,0.00020459,0
 .00001151,-0.00002472,0.00000447,-0.00003047,-0.00000155,-0.00002039,-
 0.00016481,0.00013423,0.00007994,0.00007364,0.00018835,0.00003789,0.00
 255679,0.00308687,0.00369098,0.00050636,0.00027535,0.00015882,0.000364
 51,-0.00033104,-0.00004014,-0.00012850,-0.00000127,0.00004877,0.000079
 67,0.00008422,-0.00001457,-0.00010687,-0.00005519,-0.00002056,0.000059
 46,0.00012138,-0.00009732,-0.00104053,-0.00009479,-0.00001810,0.000100
 35,0.00090661,-0.00008794,0.00017067,0.00041138,0.00014354,0.00001020,
 -0.00002073,0.00000562,-0.00000033,-0.00001805,0.00001634,-0.00012091,
 -0.00010100,0.00004162,0.00003149,0.00003818,-0.00001891,-0.00002167,-
 0.00005968,-0.00001729,-0.00000702,0.00000081,0.00000530,-0.00001184,-
 0.00001070,0.00000533,-0.00000746,0.00000230,-0.00002591,0.00002444,-0
 .00001945,0.00002949,0.00000303,0.00000240,-0.00000054,0.00000158,-0.0
 0000222,0.00000650,0.00001165,-0.00000226,-0.00000763,-0.07971619,-0.0
 2722048,-0.02908762,0.51258452,-0.00007977,-0.00003357,0.00007641,0.00
 067729,0.00049373,0.00017935,-0.00042529,-0.00034388,-0.00016936,-0.00
 001552,0.00000168,-0.00004801,0.00002281,0.00002269,0.00002733,0.00000
 629,0.00002253,0.00004092,0.00000293,-0.00000599,0.00000230,-0.0007557
 5,-0.00100335,-0.00011511,-0.00045049,-0.00208047,-0.00000032,0.000136
 43,-0.00008760,-0.00006562,-0.00039158,0.00034231,-0.00066047,0.000103
 07,-0.00009491,0.00002527,-0.00001867,-0.00004221,0.00001378,0.0000440
 8,-0.00004771,-0.00004948,-0.00004636,0.00000898,0.00001288,0.00001249
 ,0.00001612,0.00000743,-0.00002548,0.00001069,-0.00002299,0.00052664,-
 0.00031095,-0.00002861,-0.00020291,0.00026391,0.00025087,-0.00675752,-
 0.02311693,-0.01444383,-0.00012677,-0.00032905,-0.00002326,0.00047714,
 -0.00003150,-0.00020237,-0.00012368,0.00004490,-0.00024705,-0.00001407
 ,0.00004425,0.00003769,-0.00000388,0.00004526,0.00001574,-0.00007564,-
 0.00006247,0.00006615,-0.00038445,-0.00009804,0.00014600,0.00143508,-0
 .00728163,-0.00061981,-0.00022842,0.00013714,0.00002489,-0.00001454,-0
 .00001869,0.00000456,0.00000548,0.00001126,0.00000866,0.00013906,0.000
 05960,0.00012140,-0.00003238,0.00001858,-0.00000268,-0.00000557,-0.000
 06942,-0.00003000,-0.00001355,-0.00000273,0.00000672,-0.00001748,0.000
 00304,0.00000601,0.00002635,0.00000840,-0.00000783,0.00002694,0.000011
 53,0.00000129,0.00000757,0.00001594,0.00000284,0.00000992,-0.00000639,
 -0.00000325,-0.00000710,-0.00000502,0.00000353,-0.02698770,-0.12220034
 ,-0.06170101,-0.01657197,0.49104173,-0.00005400,0.00002259,-0.00011706
 ,-0.00058209,0.00064130,0.00031801,-0.00033829,0.00006111,0.00000137,-
 0.00001948,-0.00000069,-0.00003559,-0.00000557,0.00002743,0.00000181,-
 0.00000664,0.00001730,0.00003235,0.00002509,0.00001369,-0.00000156,-0.
 00002110,-0.00050814,-0.00080755,0.00048661,0.00071838,-0.00010162,0.0
 0000686,0.00000200,0.00001676,0.00063829,0.00040294,0.00088594,0.00013
 689,0.00004111,0.00002267,-0.00004710,-0.00005219,0.00001683,-0.000001
 73,-0.00002987,-0.00002193,0.00006824,-0.00007217,-0.00003155,0.000004
 72,-0.00001647,-0.00002154,-0.00001664,-0.00000539,-0.00002216,0.00002
 113,0.00003537,-0.00004293,-0.00005130,0.00004187,0.00008781,0.0018912
 5,0.00010982,0.00360786,0.00030332,0.00016717,-0.00012315,-0.00015901,
 -0.00019274,-0.00035857,0.00000570,0.00000939,-0.00003710,-0.00004200,
 0.00000275,0.00002412,0.00006027,0.00003040,0.00003438,-0.00001811,-0.
 00000118,-0.00003635,0.00121552,0.00037667,0.00048406,-0.00010279,0.00
 183610,0.00017769,0.00006390,0.00033529,0.00012096,-0.00000218,-0.0000
 1495,0.00000142,0.00000359,0.00000016,0.00000742,-0.00005865,0.0000269
 4,-0.00007344,0.00004910,0.00004117,-0.00000942,-0.00000185,-0.0000558
 7,-0.00003403,-0.00000053,0.00000957,0.00001969,0.00000124,0.00000304,
 0.00000278,-0.00001396,-0.00001080,-0.00001449,0.00002548,-0.00001792,
 0.00003306,0.00000524,0.00000598,-0.00000814,0.00000518,0.00000561,0.0
 0001111,0.00000524,-0.00000326,0.00000733,-0.02796279,-0.05837621,-0.1
 2329369,-0.01234319,-0.03370517,0.50722663,0.00030988,0.00010409,-0.00
 013557,-0.00019149,0.00117754,0.00053937,-0.00042436,0.00007229,0.0001
 4967,-0.00002186,0.00001114,-0.00003054,-0.00000404,0.00000412,0.00000
 534,-0.00004293,0.00002460,0.00002229,0.00000650,0.00003049,-0.0000395
 1,-0.00034063,-0.00020020,0.00008813,-0.00018104,-0.00039364,-0.000189
 01,0.00002306,-0.00004116,0.00008129,0.00038848,0.00014056,0.00007862,
 0.00045793,0.00026130,-0.00003132,-0.00006965,-0.00018272,0.00005799,-
 0.00005132,0.00001431,-0.00004013,-0.00082648,-0.00028663,-0.00019753,
 -0.00001192,-0.00001368,0.00001902,-0.00002462,-0.00002010,-0.00001896
 ,-0.00028585,0.00014067,0.00011123,-0.00011000,0.00000073,-0.00002832,
 0.00275463,0.00133510,-0.00500369,0.00066821,0.00016505,-0.00049418,-0
 .00027450,-0.00011080,0.00056489,-0.00003471,-0.00007240,-0.00000940,0
 .00010628,-0.00002724,0.00002552,-0.00001566,-0.00002474,-0.00000504,-
 0.00003583,0.00015652,-0.00008674,-0.00045601,0.00006009,-0.00005950,0
 .00002533,-0.00083315,0.00010547,0.00094115,0.00073067,-0.00114919,0.0
 0001640,-0.00003815,-0.00000680,0.00000134,-0.00001641,0.00000841,-0.0
 0009224,-0.00006849,0.00007654,0.00004174,0.00005128,-0.00002128,-0.00
 002262,-0.00005623,-0.00000795,0.00000501,0.00001295,0.00001204,0.0000
 0139,-0.00000594,-0.00000174,-0.00001290,-0.00000664,-0.00002950,0.000
 03401,-0.00001777,0.00003523,0.00000365,0.00000007,-0.00000949,0.00000
 566,0.00000505,0.00000405,0.00002065,-0.00000735,-0.00000283,-0.089863
 28,-0.01040300,0.04707867,0.00294153,0.00070808,-0.00541187,0.50957666
 ,0.00025084,-0.00011370,0.00000461,0.00173123,-0.00376432,-0.00324740,
 0.00031286,-0.00024448,0.00053048,0.00002173,-0.00001600,0.00000575,0.
 00002547,0.00000415,-0.00000197,0.00000402,0.00000130,0.00001240,0.000
 03448,-0.00001851,-0.00002366,0.00075011,-0.00030553,0.00099439,0.0004
 7358,0.00116396,0.00157663,0.00001374,0.00000278,-0.00007319,-0.000700
 93,-0.00021567,-0.00066728,0.00018620,0.00006124,-0.00005602,-0.000090
 93,0.00010592,-0.00000422,0.00000971,0.00002875,-0.00001726,-0.0007403
 6,0.00028838,0.00001557,0.00002330,0.00001204,0.00001687,0.00001206,0.
 00001380,-0.00001369,0.00014914,-0.00022278,0.00005939,-0.00005403,-0.
 00017308,-0.00010707,-0.00829551,-0.01584264,0.02657326,-0.00224004,-0
 .00033643,0.00130620,0.00002428,0.00001271,-0.00001189,-0.00004308,0.0
 0005534,-0.00004609,0.00002129,-0.00001272,0.00001795,0.00006921,0.000
 03325,0.00001168,-0.00007007,0.00001323,0.00000354,-0.00014084,-0.0000
 7924,0.00001707,-0.00008331,0.00016944,0.00147924,-0.00092663,0.001174
 42,0.00031624,0.00000313,-0.00000642,-0.00000444,-0.00000494,-0.000000
 66,-0.00000611,0.00006171,0.00000124,-0.00005418,-0.00009160,-0.000038
 12,0.00004621,0.00000015,0.00000091,0.00001265,-0.00000077,0.00000170,
 -0.00000585,-0.00000674,0.00000498,-0.00000499,0.00000417,0.00000443,0
 .00003012,-0.00000584,0.00003472,-0.00001745,-0.00000946,-0.00000818,0
 .00000106,0.00001947,0.00000653,-0.00001401,-0.00000472,0.00000403,-0.
 00000098,-0.01124967,-0.06593446,0.02247479,0.00612745,0.00147984,-0.0
 1852895,-0.00639491,0.51964869,0.00021792,-0.00010895,-0.00023128,-0.0
 0100883,0.00129912,0.00105617,0.00039166,0.00023604,0.00024016,0.00000
 407,0.00000095,0.00007909,0.00000595,-0.00003047,-0.00002053,-0.000003
 77,-0.00003365,-0.00003771,-0.00002049,-0.00002199,-0.00001104,0.00039
 949,-0.00002070,0.00151572,-0.00008437,-0.00016213,-0.00037088,-0.0002
 1360,0.00006946,0.00013507,-0.00045108,-0.00042925,-0.00085716,0.00014
 978,0.00022043,-0.00018859,0.00005949,0.00004725,-0.00002744,-0.000074
 58,0.00011256,0.00006243,-0.00082270,0.00007087,0.00007352,-0.00000767
 ,-0.00003868,0.00001079,0.00003502,-0.00002899,0.00004496,-0.00034652,
 0.00009397,0.00008436,0.00021796,-0.00028410,-0.00031790,0.00288951,0.
 01214721,-0.01294988,0.00098562,0.00020866,-0.00070669,-0.00035741,0.0
 0013510,-0.00002972,-0.00004785,-0.00010304,0.00015572,0.00005660,-0.0
 0007404,-0.00001935,0.00003501,-0.00002724,-0.00003259,0.00010821,0.00
 006397,-0.00008280,0.00011416,-0.00004791,-0.00023615,-0.00028491,-0.0
 0088450,-0.00054905,0.00048016,-0.00104056,0.00044603,0.00002128,0.000
 01546,-0.00001174,-0.00000572,-0.00000794,-0.00000218,0.00002227,-0.00
 005096,0.00000984,-0.00002801,-0.00004577,0.00001037,0.00000206,0.0000
 7221,0.00003485,0.00001644,0.00000664,-0.00003164,0.00001154,0.0000011
 6,-0.00000168,-0.00001585,0.00000567,0.00004335,-0.00004312,0.00000079
 ,-0.00003736,-0.00001049,-0.00001557,0.00000738,-0.00000667,-0.0000070
 5,0.00000305,0.00000108,0.00000478,-0.00000767,0.04676511,0.01928187,-
 0.15798891,0.00771024,-0.00119628,-0.02838454,0.02692775,0.01721005,0.
 46099844,0.00001438,-0.00009301,0.00007272,-0.00137318,-0.00077969,-0.
 00025069,-0.00006671,0.00013299,0.00007616,0.00000659,0.00000023,0.000
 04431,-0.00000420,-0.00001680,-0.00000948,-0.00002540,-0.00001945,-0.0
 0001263,0.00000594,0.00001183,-0.00002455,-0.00009185,0.00024678,0.000
 23113,0.00077686,0.00058930,0.00019932,-0.00004810,0.00004103,0.000044
 60,0.00009447,-0.00011222,-0.00006854,-0.00004076,0.00006690,-0.000052
 34,0.00006965,0.00001562,0.00000055,-0.00001915,0.00003421,0.00000763,
 -0.00007348,-0.00002805,0.00006716,0.00000773,-0.00002144,0.00001742,0
 .00000205,-0.00001074,0.00000724,-0.00017368,0.00013222,0.00003862,0.0
 0014415,-0.00007335,-0.00010693,0.00020600,0.00028515,0.00026559,0.000
 58531,0.00017315,-0.00004960,-0.00011976,0.00000342,-0.00010057,-0.000
 03058,-0.00010562,0.00007364,0.00011295,-0.00001436,0.00001947,0.00003
 936,-0.00001779,-0.00002774,0.00008893,0.00007356,-0.00011069,-0.00002
 035,0.00012427,-0.00017912,0.00009381,0.00004228,0.00008283,0.00040029
 ,-0.00033232,-0.00010155,0.00002084,0.00000810,0.00000022,-0.00000610,
 -0.00003186,-0.00000383,0.00002434,-0.00010217,0.00011249,0.00000903,-
 0.00005297,-0.00001395,-0.00000679,0.00005551,0.00001957,0.00001641,0.
 00001436,-0.00002345,-0.00001194,-0.00001910,0.00000362,-0.00000343,0.
 00001437,0.00002717,-0.00001727,0.00000208,-0.00001756,-0.00001693,-0.
 00002931,-0.00000153,-0.00000423,0.00000550,-0.00000104,0.00001588,0.0
 0000630,-0.00001016,-0.01445182,-0.00447783,-0.00457444,-0.28493939,-0
 .00474538,-0.00556138,0.00102830,0.00062399,0.00091022,0.32970959,-0.0
 0003939,-0.00002016,-0.00004872,-0.00107673,-0.00058987,-0.00023777,-0
 .00012207,-0.00000651,-0.00006314,-0.00000069,0.00000515,0.00000731,-0
 .00000061,0.00000709,-0.00000078,0.00000174,-0.00000133,0.00000213,0.0
 0001643,0.00000884,-0.00000601,-0.00008769,0.00008006,0.00002252,0.000
 66577,0.00037420,0.00004313,0.00000826,0.00000672,0.00003437,0.0000725
 2,0.00004184,0.00005886,-0.00004148,-0.00005382,-0.00008900,0.00002882
 ,-0.00003108,0.00000078,-0.00000306,-0.00000821,-0.00000436,-0.0000169
 5,-0.00003227,0.00006132,0.00000444,-0.00001427,-0.00000846,-0.0000038
 4,-0.00000592,0.00000125,-0.00000047,0.00003169,0.00001513,0.00002381,
 0.00006945,0.00001140,-0.00074774,0.00071584,0.00003887,0.00052827,0.0
 0028832,-0.00001918,-0.00010843,0.00005483,0.00000199,-0.00003390,0.00
 000413,0.00010873,-0.00000071,0.00002721,-0.00001104,0.00000349,0.0000
 1198,-0.00000053,0.00003231,-0.00002566,-0.00000465,0.00013340,-0.0000
 2673,0.00005210,0.00017338,-0.00012494,0.00009364,0.00024526,-0.000315
 75,-0.00024851,0.00000743,-0.00000095,-0.00000008,0.00000407,-0.000001
 72,0.00000078,-0.00008563,-0.00003890,-0.00007576,0.00001462,0.0000017
 0,-0.00001283,-0.00000422,-0.00000562,-0.00000043,0.00000091,0.0000048
 0,0.00000108,-0.00000119,0.00000295,0.00000433,-0.00000072,0.00000620,
 0.00000370,-0.00000586,0.00000207,-0.00000443,0.00000215,-0.00000003,-
 0.00000405,-0.00000309,0.00000326,-0.00000140,0.00000724,-0.00000157,-
 0.00000273,-0.02249187,-0.00226675,-0.00300398,-0.00544195,-0.04449439
 ,0.00069330,-0.00015739,0.00046263,0.00091652,0.00792529,0.04900795,-0
 .00000801,-0.00006787,-0.00001711,0.00050978,0.00002110,0.00031400,-0.
 00002378,-0.00006467,-0.00001555,-0.00000232,-0.00001002,0.00001114,0.
 00001804,0.00000637,0.00000012,0.00000016,-0.00000165,0.00000717,-0.00
 000162,-0.00001949,0.00002127,-0.00006640,0.00003217,0.00001025,-0.000
 41346,-0.00013577,-0.00011660,0.00001868,0.00000372,0.00000394,0.00002
 057,0.00000058,0.00002706,-0.00006009,-0.00003085,-0.00008976,0.000027
 90,-0.00000900,0.00000572,-0.00000350,0.00001012,0.00001653,-0.0000427
 5,-0.00002120,0.00006074,0.00000901,-0.00000852,0.00000784,-0.00000127
 ,0.00000073,-0.00000179,0.00001194,0.00001028,0.00001649,0.00000507,0.
 00005130,-0.00002433,0.00008432,0.00042643,0.00013852,-0.00026707,-0.0
 0008637,-0.00008875,-0.00005516,0.00018993,0.00015071,0.00005280,0.000
 04909,0.00002271,-0.00000851,-0.00000799,0.00000267,-0.00000565,0.0000
 0584,0.00000959,0.00011534,-0.00001559,0.00006825,-0.00038700,-0.00023
 806,-0.00008962,0.00009350,0.00001950,0.00002464,0.00002751,-0.0001122
 8,0.00007855,-0.00000178,-0.00000301,-0.00000197,0.00000372,0.00000024
 ,-0.00000208,0.00003485,-0.00000893,-0.00001255,0.00001243,0.00000335,
 -0.00000852,0.00000386,-0.00000166,-0.00000013,0.00000138,0.00000200,0
 .00000467,-0.00000433,0.00000207,0.00000036,0.00000023,0.00000622,0.00
 000779,-0.00000432,0.00000455,-0.00000659,-0.00000153,0.00000012,0.000
 00041,0.00000227,-0.00000575,-0.00000152,-0.00000665,-0.00000019,-0.00
 000167,-0.02137621,-0.00275641,-0.00306538,-0.00580402,0.00085167,-0.0
 4373085,-0.00146480,-0.00010963,0.00073259,0.00765783,0.00253856,0.050
 31055,0.00010528,0.00018495,-0.00005122,-0.00039018,-0.00022734,-0.000
 40169,-0.00010960,-0.00004798,-0.00005279,-0.00001297,-0.00000574,0.00
 000084,0.00001155,0.00000347,-0.00000105,0.00003407,0.00003063,-0.0000
 0085,0.00002703,0.00002104,-0.00002151,-0.00003688,-0.00009781,-0.0000
 8911,0.00023315,0.00024326,0.00002347,0.00004622,-0.00002941,0.0000003
 6,-0.00006864,0.00008522,-0.00001359,0.00000053,-0.00003269,0.00002378
 ,-0.00000292,-0.00002938,0.00001898,0.00000396,0.00004191,-0.00001512,
 0.00000905,-0.00002268,0.00001187,-0.00000888,-0.00001099,-0.00000523,
 0.00000412,0.00000949,-0.00000199,0.00011866,-0.00006521,-0.00001865,-
 0.00002702,0.00010312,0.00008753,0.00016051,-0.00139362,-0.00072465,0.
 00017139,0.00010939,0.00002980,-0.00000393,-0.00003242,0.00009904,-0.0
 0007961,-0.00005235,0.00015496,-0.00007181,0.00002726,-0.00007879,0.00
 003590,0.00000801,-0.00000656,-0.00002919,-0.00004912,-0.00000190,0.00
 012741,-0.00012745,0.00010716,0.00019040,-0.00041173,0.00001105,0.0001
 2923,-0.00032464,-0.00006697,0.00000126,-0.00000234,0.00000472,0.00000
 774,0.00001213,0.00000217,-0.00016891,0.00004826,-0.00025252,0.0000242
 9,0.00003963,-0.00001010,0.00000364,-0.00002976,-0.00000944,-0.0000098
 3,0.00000260,0.00001468,0.00000577,0.00001248,0.00000164,0.00000354,-0
 .00000028,-0.00000226,0.00000296,0.00000516,0.00000117,0.00001024,0.00
 001306,-0.00000326,0.00000093,0.00000153,-0.00000292,0.00000110,-0.000
 00092,0.00000175,0.00287722,-0.00783570,0.00163461,-0.07352212,0.07629
 786,-0.02104648,0.00006913,0.00010574,0.00015312,-0.01613491,0.0309348
 0,-0.00958496,0.08179641,0.00030404,0.00039408,-0.00022477,0.00086120,
 0.00048441,-0.00063928,0.00057595,-0.00026720,0.00014709,0.00007713,0.
 00003254,0.00002975,0.00001167,-0.00001459,-0.00002028,0.00005576,0.00
 000651,-0.00003186,0.00004210,0.00000749,-0.00003820,0.00000476,0.0004
 5745,0.00086735,-0.00031336,-0.00026440,0.00007571,0.00010699,0.000056
 12,-0.00006470,-0.00073699,-0.00029925,-0.00068861,-0.00014924,-0.0000
 9640,0.00004344,-0.00010714,-0.00000177,0.00004494,0.00004906,0.000021
 47,0.00004041,0.00000567,-0.00011376,-0.00007618,-0.00005513,0.0000332
 8,-0.00000806,0.00002012,0.00002945,0.00003701,0.00032242,-0.00015712,
 -0.00001132,-0.00013213,0.00002228,-0.00003647,-0.00170212,-0.00240267
 ,-0.00303433,-0.00062827,-0.00022495,-0.00000870,-0.00003181,0.0000771
 2,0.00012984,0.00002641,-0.00000544,0.00011715,-0.00017293,-0.00004243
 ,-0.00007736,0.00009416,0.00003683,0.00001362,0.00006117,-0.00000742,0
 .00011908,-0.00013135,-0.00059009,0.00032274,0.00023764,-0.00172411,-0
 .00019558,-0.00015920,0.00007722,0.00007621,-0.00001067,0.00003454,0.0
 0000993,-0.00000503,0.00000826,-0.00002423,-0.00020389,0.00024422,-0.0
 0028426,-0.00008687,-0.00004073,0.00002317,0.00001948,0.00007646,0.000
 02590,0.00002191,-0.00000537,-0.00003108,-0.00001899,-0.00000771,0.000
 00138,0.00002723,0.00002498,0.00003926,-0.00001370,0.00004218,-0.00004
 388,-0.00002056,-0.00002224,0.00001144,0.00000718,0.00000438,-0.000018
 42,-0.00001472,0.00001467,0.00000155,0.00619757,-0.02517950,0.00248508
 ,0.07618361,-0.23533620,0.05605144,0.00009427,0.00055893,0.00075034,0.
 00295688,-0.00161220,0.00117247,-0.08763046,0.27506794,0.00001119,0.00
 009583,0.00000313,-0.00058419,-0.00013367,-0.00051497,-0.00013081,-0.0
 0003347,-0.00007684,-0.00000437,-0.00000295,-0.00000320,-0.00000820,-0
 .00001146,0.00000375,0.00000430,0.00000934,-0.00000145,-0.00001573,-0.
 00000124,-0.00001319,-0.00009275,-0.00004550,0.00008804,0.00032425,0.0
 0063829,0.00005434,0.00004188,-0.00001966,-0.00000381,-0.00010465,0.00
 003521,-0.00017653,-0.00000314,-0.00001851,0.00003559,0.00001100,-0.00
 000744,0.00000835,-0.00000452,-0.00000318,-0.00000822,-0.00000124,-0.0
 0005437,-0.00000431,-0.00001912,0.00000288,0.,0.00000492,0.00000478,-0
 .00000512,0.00006103,-0.00003224,0.00000393,0.00002054,0.00004847,0.00
 005794,-0.00097588,-0.00208029,-0.00180845,0.00017561,0.00006795,0.000
 05839,0.00005526,-0.00014205,-0.00000237,0.00001191,-0.00009745,0.0000
 2262,0.00005485,0.00002451,0.00000128,0.00001668,0.00000033,-0.0000092
 9,-0.00000966,0.00004330,-0.00005135,-0.00008735,0.00030441,-0.0001327
 9,0.00015297,-0.00124096,-0.00004915,0.00013707,-0.00010455,-0.0000399
 4,0.00000402,-0.00000364,0.00000121,0.00000565,-0.00000052,0.00000060,
 -0.00014839,-0.00001626,0.00008397,0.00000938,0.00000996,-0.00001173,-
 0.00000183,-0.00000318,-0.00000819,-0.00000700,0.00000361,0.00000471,0
 .00000204,0.00000309,0.00000115,0.00000765,0.00000414,-0.00000163,0.00
 000690,0.00000021,-0.00000175,0.00000535,0.00000257,0.00000026,-0.0000
 0387,-0.00000339,-0.00000283,0.00000215,-0.00000015,0.00000026,0.00625
 102,-0.01888283,0.00338663,-0.02120960,0.05589348,-0.05839315,-0.00003
 804,-0.00092977,0.00046570,-0.00053657,0.00099243,0.00034401,0.0264193
 9,-0.06312165,0.06721603,0.00005557,-0.00001727,0.00001544,0.00219781,
 0.00096915,0.00124029,0.00010228,-0.00017881,0.00002936,-0.00000456,-0
 .00001371,0.00001398,0.00004214,-0.00000314,0.00000984,0.00003739,0.00
 000394,0.00001654,-0.00000893,-0.00005149,0.00003676,0.00002908,0.0000
 3035,0.00002148,-0.00072803,-0.00123223,-0.00067955,0.00003802,-0.0000
 2891,-0.00002449,-0.00012312,-0.00004691,-0.00002709,-0.00003346,-0.00
 000391,-0.00000280,0.00001423,0.00002880,0.00001501,-0.00001038,0.0000
 3506,-0.00000711,-0.00001039,0.00000056,0.00002285,0.00000980,-0.00000
 338,0.00002274,-0.00000324,0.00001267,0.00000099,0.00007425,-0.0000336
 4,0.00000174,-0.00004762,0.00003656,-0.00002562,0.00015226,0.00022452,
 -0.00014541,-0.00102913,-0.00028430,-0.00012530,-0.00079787,-0.0000352
 2,-0.00017929,0.00007123,0.00015540,-0.00007035,-0.00006610,-0.0000324
 6,-0.00000531,-0.00001067,0.00000487,-0.00000916,0.00004701,-0.0000707
 9,0.00011542,-0.00151088,-0.00088947,-0.00027928,0.00003516,0.00018343
 ,-0.00001339,-0.00015765,-0.00001163,0.00011309,-0.00000642,0.00000051
 ,0.00000292,0.00000583,0.00001401,-0.00000070,0.00004962,0.00002937,-0
 .00003830,0.00001265,0.00003181,0.00000219,0.00001296,-0.00001539,-0.0
 0000280,-0.00000459,-0.00000301,0.00000711,0.00000251,0.00001334,-0.00
 000300,0.00000129,0.00000582,0.00000689,0.00000043,0.00001093,-0.00000
 464,0.00000375,0.00001080,0.00000263,0.00000742,-0.00001003,-0.0000007
 8,-0.00001833,0.00000104,0.00000087,0.00317613,0.00213819,-0.00740240,
 -0.06914732,-0.01890657,0.07175704,0.00014004,-0.00078857,-0.00086974,
 -0.01643728,-0.00931546,0.03172170,0.00395128,0.00366265,-0.01009657,0
 .07938288,0.00006605,-0.00009337,0.00017163,-0.00205295,-0.00345333,-0
 .00264730,-0.00036891,-0.00005584,-0.00039173,-0.00001543,0.00000032,-
 0.00000650,0.00001067,-0.00001529,0.00001181,0.00000668,-0.00000575,0.
 00000046,-0.00005514,-0.00002667,0.00002534,-0.00004739,0.00006968,-0.
 00011236,0.00123948,-0.00012536,0.00203005,-0.00000689,-0.00001037,0.0
 0004909,0.00013871,0.00012731,0.00017451,0.00000066,0.00004840,0.00000
 654,0.00006193,-0.00002370,-0.00000419,0.00000753,-0.00003396,-0.00001
 315,0.00001516,-0.00001725,0.00002163,0.00001865,-0.00001865,0.0000118
 4,0.00000226,-0.00001036,-0.00000442,-0.00004102,0.00004560,-0.0000072
 4,0.00007989,0.00003773,0.00013057,0.00010254,0.00070577,0.00021640,0.
 00080349,0.00045021,0.00034098,-0.00029424,-0.00016901,-0.00017639,0.0
 0004903,-0.00001308,0.00000676,0.00009959,-0.00000558,0.00003466,-0.00
 000812,-0.00000345,-0.00002919,-0.00003325,0.00001956,-0.00004509,-0.0
 0073111,0.00059195,-0.00015703,-0.00005470,0.00001756,0.00012106,0.000
 03915,-0.00000299,0.00003889,0.00000972,-0.00000184,-0.00000027,0.0000
 0917,0.00000574,0.00000797,-0.00004975,-0.00007140,0.00006632,0.000039
 37,0.00002336,-0.00002892,-0.00000615,0.00000273,-0.00001398,-0.000018
 20,0.00000411,0.00000255,0.00002083,0.00001031,0.00000177,-0.00000188,
 0.00000090,-0.00000486,-0.00000064,-0.00001909,0.00000046,0.00001615,0
 .00001277,0.00000328,-0.00001030,-0.00001428,0.00001271,0.00000099,-0.
 00000041,-0.00000167,0.00658848,0.00378831,-0.01871362,-0.01936041,-0.
 05688335,0.05525977,-0.00104655,-0.00238359,-0.00326883,-0.00078884,0.
 00068028,0.00134570,-0.00915600,-0.01043920,0.02850541,0.02436455,0.06
 692062,0.00040880,0.00007268,0.00003762,0.00019617,-0.00033718,0.00048
 854,-0.00012963,-0.00045382,-0.00027803,0.00001972,0.00001862,0.000006
 41,0.00006098,-0.00002017,0.00000743,0.00007107,-0.00000565,-0.0000009
 4,0.00000683,-0.00000295,0.00002854,0.00002286,0.00009418,-0.00008367,
 0.00008418,0.00116298,-0.00022350,0.00006105,-0.00000165,0.00000671,-0
 .00000517,0.00011210,0.00022504,-0.00008647,0.00002553,-0.00000721,-0.
 00001139,-0.00005060,0.00003409,0.00008053,0.00004153,0.00002789,0.000
 04860,-0.00000490,-0.00001275,0.00001199,-0.00002250,0.00002114,0.0000
 2018,0.00000184,0.00002820,0.00008191,-0.00001341,-0.00005768,-0.00011
 809,0.00009978,0.00007407,0.00023760,0.00074756,0.00034781,-0.00041571
 ,-0.00003307,0.00007659,0.00008364,0.00025982,-0.00012046,0.00001946,0
 .00015174,-0.00007082,-0.00000501,-0.00003290,-0.00000224,0.00006744,0
 .00006463,-0.00000755,0.00003946,-0.00017289,0.00016169,-0.00128094,-0
 .00058240,0.00063355,-0.00013236,0.00024218,0.00001128,0.00002473,0.00
 002655,-0.00006802,-0.00000337,0.00001669,0.00000768,0.00001131,0.0000
 2002,-0.00000422,-0.00000353,0.00007108,-0.00013099,0.00001383,-0.0000
 0244,-0.00002284,0.00001823,0.00005569,0.00000222,-0.00000163,-0.00001
 019,-0.00000816,0.00002057,0.00001201,0.00000201,0.00000334,0.00001226
 ,0.00002914,-0.00002678,0.00000904,-0.00002308,0.00000742,0.00001014,0
 .00001046,-0.00000294,-0.00000835,0.00000469,-0.00001323,0.00000506,0.
 00000263,0.00627170,0.00148517,-0.02289838,0.07332885,0.05474145,-0.24
 944252,-0.00161395,-0.00339464,-0.00353201,0.00357784,0.00130826,-0.00
 197325,0.00330138,0.00597584,-0.01055606,-0.08457071,-0.06189656,0.287
 75601,0.00506047,0.00154984,0.00106486,-0.00074054,-0.00009275,-0.0012
 3394,0.00118927,-0.00043743,-0.00053651,0.00041937,0.00050964,0.000109
 49,0.00033831,-0.00034812,-0.00014270,0.00026019,0.00007121,-0.0001361
 4,-0.00001051,0.00008925,-0.00041287,-0.00018248,0.00125685,0.00096149
 ,0.00023098,-0.00005937,0.00035826,0.00095594,0.00040882,0.00028717,-0
 .00064664,-0.00043428,-0.00041371,-0.00184091,-0.00051491,-0.00133206,
 0.00005960,-0.00009718,0.00098543,0.00033935,0.00046968,0.00030889,-0.
 00025569,-0.00052641,-0.00106836,0.00001576,-0.00010615,0.00047188,0.0
 0024604,0.00019222,0.00019792,0.00025780,0.00012302,0.00020674,-0.0007
 3157,0.00045388,0.00045069,-0.01195884,0.00495795,-0.00198986,0.000143
 48,0.00013910,0.00003881,-0.00425949,-0.00025824,0.00501701,-0.0036115
 0,0.00105610,-0.00011264,0.00042874,-0.00056110,-0.00051838,0.00048556
 ,-0.00046040,-0.00060600,-0.00033880,-0.00030612,-0.00081550,-0.001698
 14,0.00046665,0.00334582,0.00129809,-0.00273910,0.00037251,-0.00052810
 ,0.00186532,-0.00070661,0.00016736,0.00029494,0.00002871,0.00004603,0.
 00003877,-0.00004502,-0.00070064,0.00094301,-0.00014967,-0.00019738,0.
 00054390,-0.00002867,0.00000386,-0.00013147,-0.00000836,0.00003716,0.0
 0004089,-0.00011471,-0.00004830,-0.00001806,0.00000160,-0.00000058,0.0
 0004668,-0.00006245,0.00008998,0.00003920,0.00006372,-0.00001051,-0.00
 001056,0.00001036,0.00003177,0.00001908,0.00001676,0.00001204,0.000112
 44,-0.00002142,-0.24119891,0.00609781,-0.02369243,-0.01083054,-0.00249
 784,-0.00347233,-0.01659359,-0.00068334,0.00318018,-0.00006767,-0.0015
 6357,-0.00144068,0.00055106,0.00031721,0.00034576,0.00011949,0.0001583
 0,0.00019057,0.28329775,0.00091962,-0.00153729,0.00042008,0.00122806,0
 .00065256,-0.00089782,-0.00154852,-0.00271335,0.00110428,0.00003363,0.
 00009824,-0.00004333,0.00008018,0.00001480,0.00002048,-0.00000178,-0.0
 0010448,0.00004280,-0.00009399,-0.00004066,0.00005290,0.00056163,-0.00
 082684,-0.00030694,-0.00015499,0.00006361,0.00009698,-0.00010106,-0.00
 001744,0.00010671,0.00031313,0.00026810,0.00029796,-0.00052912,0.00033
 665,-0.00053087,0.00009141,0.00020039,-0.00002924,0.00010635,-0.000177
 85,0.00003883,-0.00019856,0.00070319,-0.00079749,0.00016732,-0.0000390
 2,0.00012203,0.00002609,-0.00007623,-0.00001046,-0.00023607,-0.0001301
 5,-0.00011553,-0.00065366,-0.00046901,-0.00042609,0.02653918,-0.007260
 42,0.00388201,-0.00046583,-0.00012528,-0.00001756,-0.00023151,0.000906
 60,-0.00052755,0.00055123,0.00028358,-0.00059618,0.00046229,0.00004493
 ,0.00011610,0.00003260,-0.00014318,0.00006541,-0.00027056,0.00003106,-
 0.00000799,-0.00001125,0.00140533,-0.00001542,0.00257631,0.00019505,0.
 00006755,0.00149051,-0.00492729,0.00105891,0.00003936,0.00003752,-0.00
 000500,0.00002357,0.00004364,-0.00000305,0.00084692,-0.00130433,0.0003
 5678,0.00008574,0.00001014,-0.00002087,-0.00001404,0.00004505,0.000035
 03,0.00000346,0.00000072,-0.00000335,0.00003917,0.00002400,-0.00001684
 ,-0.00002302,-0.00003877,0.00004115,-0.00006348,-0.00000830,-0.0000417
 6,0.00002434,0.00002042,-0.00000918,0.00000357,-0.00001351,0.00000970,
 -0.00001747,0.00003245,-0.00001707,0.00762425,-0.04211602,0.00164096,-
 0.01933448,-0.00153409,-0.00442616,-0.00619701,0.00090547,0.00120369,-
 0.00189800,-0.00225836,-0.00293354,-0.00069188,0.00044845,0.00010700,0
 .00008240,0.00027308,0.00037086,-0.00977135,0.05833002,0.00071701,0.00
 026563,-0.00172357,-0.00155525,-0.00021019,0.00067134,0.00019263,0.001
 29857,0.00097042,0.00012250,0.00009831,-0.00004799,-0.00003909,-0.0000
 6187,-0.00007530,-0.00010998,0.00005093,-0.00003183,0.00007402,0.00012
 009,-0.00017426,0.00017251,-0.00040521,-0.00011406,0.00017912,-0.00001
 837,-0.00018471,0.00013926,0.00024638,0.00003709,0.00029808,0.00005356
 ,-0.00009668,-0.00125208,-0.00048932,-0.00044287,-0.00035350,0.0002246
 3,0.00013351,0.00012954,0.00005066,0.00018725,-0.00076254,-0.00056321,
 -0.00279773,-0.00014545,0.00007418,-0.00000020,0.00016704,0.00004778,-
 0.00002655,-0.00028753,0.00003070,0.00011734,0.00002686,-0.00050517,0.
 00008679,-0.00976532,0.00246520,-0.00095491,0.00074404,-0.00000689,-0.
 00026017,0.00163852,-0.00075677,-0.00108222,0.00024519,-0.00089735,0.0
 0046639,0.00023726,-0.00006782,-0.00006532,0.00009909,0.00004162,-0.00
 006128,0.00082584,0.00069845,-0.00054305,0.00286117,-0.00042989,-0.005
 64291,0.00065565,-0.00146537,0.00026088,-0.00047116,0.00171827,0.00003
 086,0.00004918,0.00000921,-0.00007890,0.00000186,-0.00002067,-0.000035
 38,-0.00020068,0.00013087,0.00051449,0.00000591,0.00007589,-0.00002688
 ,-0.00001066,-0.00000672,0.00001891,0.00003033,0.00001909,0.00000115,-
 0.00001784,-0.00002309,-0.00000799,-0.00001928,-0.00002487,-0.00000815
 ,0.00002445,0.00000384,0.00002990,-0.00001318,-0.00002890,-0.00001670,
 0.00000786,0.00002776,-0.00001191,0.00004835,-0.00001553,0.00000996,-0
 .02349985,0.00137213,-0.04288758,-0.02032972,-0.00196208,-0.00344515,0
 .02740322,0.00069010,-0.00252422,-0.00158119,-0.00312834,-0.00265572,0
 .00019000,0.00050719,0.00061876,-0.00012579,0.00022464,0.00020598,0.01
 934374,-0.00022781,0.06491062,0.00000745,-0.00010638,0.00002765,-0.000
 44675,-0.00005111,-0.00003491,-0.00007562,0.00017739,-0.00009866,-0.00
 000365,0.00002256,0.00003409,0.00000868,-0.00001410,-0.00000771,-0.000
 02047,-0.00002154,-0.00000710,-0.00000403,0.00001103,-0.00000629,-0.00
 052068,0.00014315,0.00030390,0.00033521,0.00010295,-0.00000527,0.00002
 743,-0.00000427,0.00005314,0.00013399,-0.00015595,-0.00009363,0.000087
 18,0.00002301,-0.00005168,0.00010525,-0.00007214,0.00001862,0.00001060
 ,0.00004282,0.00001767,-0.00008781,-0.00003331,0.00010864,0.00003069,-
 0.00003574,0.00002661,-0.00001295,-0.00001216,0.00001750,-0.00013920,0
 .00018953,0.00005599,0.00003350,0.00011976,-0.00003808,0.00039415,0.00
 045844,-0.00084672,0.00035916,0.00011243,-0.00011203,-0.00021689,0.000
 07841,0.00011568,0.00001462,-0.00002768,0.00006325,0.00008860,-0.00000
 802,-0.00000043,-0.00002856,-0.00002236,-0.00003401,0.00007759,0.00000
 237,-0.00003205,-0.00011083,0.00000015,-0.00012324,-0.00004078,-0.0001
 5915,0.00006464,0.00061137,-0.00058714,0.00018794,0.00001123,0.0000066
 2,0.00000911,-0.00000953,-0.00003259,0.00000314,0.00000781,-0.00011935
 ,0.00001537,-0.00000767,-0.00006892,0.00000445,0.00000444,0.00005012,0
 .00001199,0.00001900,0.00000597,-0.00002709,-0.00001984,-0.00002436,0.
 00000580,-0.00000741,0.00001929,0.00002086,-0.00002472,0.00000446,-0.0
 0001414,-0.00001740,-0.00002678,0.00000117,-0.00000487,0.00000433,-0.0
 0000010,0.00001360,0.00000555,-0.00001016,-0.01869130,-0.00153312,0.00
 459884,0.00091133,-0.00006340,-0.00102404,-0.27985581,-0.00030121,-0.0
 1979590,0.00066300,0.00024574,0.00048772,-0.00020344,0.00005043,0.0000
 1225,0.00014029,-0.00001669,-0.00038633,-0.00072018,-0.00079162,0.0033
 0020,0.32515595,-0.00005293,-0.00000815,-0.00001175,-0.00004625,-0.000
 06412,0.00026676,-0.00008285,-0.00000888,-0.00002357,-0.00000351,0.000
 00951,-0.00000844,-0.00000930,0.00000306,0.00000383,0.00000099,0.00000
 166,0.00000034,0.00000456,0.00000578,-0.00000284,-0.00039463,0.0000420
 7,-0.00003313,-0.00000098,-0.00005939,-0.00016761,0.00001820,0.0000005
 3,0.00000431,0.00016964,0.00003018,0.00008475,-0.00002813,0.00007455,0
 .00000859,-0.00003969,-0.00005576,0.00002556,-0.00001001,-0.00000879,-
 0.00000168,0.00020052,-0.00021147,-0.00001093,-0.00001353,-0.00000980,
 -0.00000614,-0.00000342,-0.00000663,-0.00000354,-0.00001464,0.00005828
 ,0.00002389,0.00000761,0.00005825,0.00002753,-0.00123868,0.00070057,-0
 .00013813,0.00012456,0.00006725,-0.00008548,-0.00001440,0.00000636,0.0
 0004530,0.00000398,-0.00002426,0.00002301,0.00000140,0.00002347,-0.000
 00571,-0.00001361,-0.00000556,0.00000252,0.00000595,-0.00000185,-0.000
 00440,-0.00000234,0.00000637,-0.00000530,0.00001289,-0.00024790,0.0000
 2051,0.00021725,-0.00037106,0.00043260,0.00000563,-0.00000164,-0.00000
 016,0.00000619,0.00000284,0.00000231,-0.00005588,-0.00000405,0.0000480
 0,0.00003654,0.00001728,-0.00001746,-0.00000077,-0.00002122,-0.0000067
 7,-0.00000333,0.00000215,0.00001412,0.00000129,0.00000699,0.00000261,-
 0.00000193,0.00000505,-0.00000606,0.00000423,-0.00000007,0.00000685,0.
 00000552,0.00000569,-0.00000594,-0.00000356,0.00000218,-0.00000291,0.0
 0000482,-0.00000390,-0.00000189,-0.00694825,-0.00023848,0.00044553,0.0
 0077298,0.00022410,-0.00039444,-0.00097049,-0.04516889,-0.00061403,-0.
 00006154,0.00018057,-0.00036118,0.00015764,-0.00013999,0.00006789,-0.0
 0009838,-0.00010627,-0.00003695,-0.00067521,0.00039792,0.00109716,0.00
 120228,0.04876161,-0.00003424,-0.00006942,0.00001091,0.00033177,0.0000
 0940,-0.00002359,0.00005779,-0.00000458,-0.00013212,-0.00001024,-0.000
 00112,-0.00000249,0.00000167,-0.00000262,-0.00000218,0.00000084,0.0000
 0313,0.00000985,-0.00001396,-0.00001619,0.00002503,-0.00013071,0.00009
 691,0.00003710,-0.00015891,-0.00004143,0.00004194,0.00000554,-0.000000
 78,-0.00000090,-0.00004599,-0.00001547,0.00002359,0.00007550,0.0001207
 4,0.00004196,-0.00008897,-0.00007262,0.00004844,0.00000448,0.00003087,
 0.00002231,0.00026568,-0.00002630,-0.00001861,0.00001696,-0.00002210,0
 .00000638,-0.00000535,-0.00000818,0.00000140,0.00007342,-0.00000022,-0
 .00002169,-0.00007602,0.00004588,0.00004410,0.00058398,-0.00088290,0.0
 0074245,-0.00022601,-0.00009354,0.00009286,0.00021519,-0.00000954,-0.0
 0027519,0.00005895,0.00003040,-0.00007179,-0.00000446,0.00001388,-0.00
 001002,-0.00000011,0.00001991,0.00001673,0.00001749,-0.00004358,0.0000
 3440,0.00011841,-0.00000464,0.00009004,-0.00018621,-0.00014279,-0.0000
 8511,-0.00023712,0.00043601,0.00001452,-0.00000861,-0.00000400,0.00000
 157,-0.00000061,0.00000295,0.00000301,0.00001063,0.00002244,-0.0000578
 9,-0.00000837,0.00000254,0.00000641,-0.00000022,-0.00000484,-0.0000073
 4,-0.00000453,-0.00000510,0.00000187,-0.00000110,-0.00000186,0.0000001
 5,0.00000177,0.00000274,-0.00000615,0.00001207,-0.00000469,0.00000843,
 -0.00000142,0.00000206,0.00000565,0.00000289,-0.00000547,0.00000487,-0
 .00000813,-0.00000111,0.00000239,0.02793200,0.00060930,-0.00092353,0.0
 0112900,0.00060135,0.00102740,-0.01866819,-0.00040364,-0.04453537,-0.0
 0035540,-0.00025030,-0.00058847,-0.00011297,-0.00002527,-0.00007598,-0
 .00012460,0.00006115,0.00019514,0.00274184,0.00101645,-0.00451167,0.01
 996190,-0.00027257,0.05212691,0.00040273,0.00013227,-0.00018906,-0.000
 11671,0.00006644,-0.00002691,-0.00009655,-0.00013554,0.00022176,0.0000
 3987,0.00000912,-0.00000494,0.00002947,-0.00001521,-0.00001177,-0.0000
 0544,0.00001439,0.00000674,0.00001819,0.00000985,-0.00003119,0.0007731
 4,-0.00045211,-0.00037184,-0.00000972,-0.00000342,-0.00001409,0.000041
 67,0.00003073,-0.00000720,-0.00002331,0.00013717,0.00006951,-0.0007822
 6,-0.00040002,0.00004198,-0.00003684,0.00018651,-0.00000893,0.00006251
 ,-0.00001236,0.00001887,-0.00149503,0.00029850,-0.00014927,-0.00001216
 ,0.00003486,0.00001464,0.00005531,0.00002735,-0.00002090,-0.00006833,-
 0.00018944,-0.00000356,-0.00000524,-0.00014541,0.00002558,0.00028822,0
 .00009512,-0.00044536,-0.00001605,-0.00001313,0.00000420,-0.00008998,-
 0.00008662,0.00001725,-0.00008850,-0.00004597,-0.00003546,0.00004836,0
 .00000561,-0.00002613,0.00003175,0.00000380,-0.00000079,0.00005601,0.0
 0002212,-0.00003778,-0.00001887,0.00000553,-0.00004087,0.00008269,-0.0
 0001629,0.00050542,-0.00023647,-0.00006032,-0.00019783,0.00000969,0.00
 000266,-0.00001880,0.00000793,0.00001657,-0.00001343,0.00000872,0.0000
 0550,0.00003238,0.00000405,0.00003390,-0.00000305,0.00001032,0.0000072
 1,0.00000880,0.00000040,0.00000201,0.00000209,0.00000950,0.00000882,-0
 .00000667,0.00000285,-0.00001302,-0.00000113,-0.00000861,0.00000883,-0
 .00000873,0.00000559,0.00000570,-0.00000312,0.00000161,0.00000295,-0.0
 0000724,0.00000013,-0.00000112,0.00000439,0.00333014,0.00779102,0.0079
 2918,-0.00023469,-0.00048324,0.00210201,-0.06287957,-0.04404809,-0.045
 04977,0.00012567,0.00000319,0.00013603,-0.00008030,-0.00004737,-0.0000
 3235,0.00035913,0.00036261,0.00049369,0.00037017,0.00037884,0.00029981
 ,-0.01357087,-0.02398373,-0.02304211,0.07134391,-0.00023609,-0.0002185
 9,0.00006160,-0.00031528,-0.00018501,0.00008788,-0.00024643,0.00008875
 ,-0.00038714,-0.00004343,0.00002052,-0.00002197,0.00001612,0.00000906,
 0.00000232,-0.00001040,0.00001236,0.00003374,-0.00001472,0.00001462,0.
 00001277,-0.00031420,-0.00092436,-0.00052237,0.00003846,0.00011798,-0.
 00007362,0.00003799,-0.00011500,0.00008301,0.00035986,0.00012799,0.000
 24642,0.00010663,-0.00007551,-0.00007740,0.00002253,-0.00014177,0.0000
 3206,0.00000535,0.00001135,-0.00000202,0.00051266,0.00047951,-0.000018
 49,0.00004468,-0.00004135,0.00001326,-0.00003855,-0.00001899,-0.000000
 54,-0.00024538,0.00008584,0.00003276,-0.00019483,0.00021277,0.00010694
 ,-0.00020694,0.00007807,0.00018554,0.00025016,0.00010813,0.00013094,0.
 00008351,-0.00000252,-0.00003158,0.00006276,0.00006168,-0.00004422,0.0
 0003122,0.00006485,-0.00003570,-0.00007843,-0.00000797,0.00004734,0.00
 004583,-0.00006948,0.00005651,-0.00006301,-0.00001646,-0.00000261,-0.0
 0015476,-0.00000028,0.00162134,0.00000174,0.00006909,-0.00006087,-0.00
 000839,-0.00002407,0.00000936,-0.00000039,-0.00000603,0.00001201,-0.00
 003785,-0.00009532,-0.00004969,0.00002625,0.00001226,-0.00000162,-0.00
 000759,-0.00002876,-0.00000814,0.00000585,-0.00000120,0.00000814,-0.00
 000010,-0.00000474,-0.00000019,-0.00001557,-0.00000660,-0.00002461,0.0
 0002588,-0.00001730,0.00003385,0.00000601,0.00000864,-0.00000269,-0.00
 000204,-0.00000073,0.00000637,0.00000337,-0.00000480,-0.00000410,0.001
 75307,0.00348021,0.00159286,0.00011372,0.00042351,0.00031826,-0.044449
 55,-0.15306625,-0.10856351,0.00021264,-0.00000296,0.00015740,-0.000137
 49,0.00024470,0.00015332,-0.00000065,0.00020137,0.00009851,0.00023707,
 0.00002255,-0.00013986,-0.00175927,-0.00098158,-0.00132117,0.05230084,
 0.17755767,-0.00061151,-0.00001829,0.00001045,-0.00042959,-0.00048615,
 -0.00063907,0.00016790,0.00019394,-0.00078917,-0.00004740,-0.00001913,
 0.00000163,-0.00001898,0.00002297,0.00001289,-0.00001712,0.00001665,0.
 00002832,-0.00001910,-0.00001069,0.00004297,-0.00013396,0.00124883,-0.
 00011795,0.00028917,0.00037191,0.00054027,0.00013806,-0.00007167,-0.00
 001588,-0.00015044,0.00004164,0.00034463,0.00001351,-0.00015461,-0.000
 15832,0.00007164,-0.00014504,-0.00001111,-0.00008372,0.00000172,0.0000
 2398,0.00039662,-0.00020764,0.00060275,-0.00000988,0.00002407,-0.00001
 475,-0.00006590,0.00000344,-0.00000785,0.00056684,-0.00001259,-0.00005
 073,-0.00003591,0.00037162,0.00024090,-0.00036564,-0.00092478,0.000765
 39,0.00017840,0.00013854,0.00032563,0.00017428,0.00003652,0.00005536,0
 .00013898,0.00008074,-0.00000939,-0.00005989,0.00006229,-0.00000628,-0
 .00012774,0.00000015,0.00002687,0.00009519,-0.00005668,0.00011212,-0.0
 0013201,-0.00007135,0.00001641,0.00045388,-0.00014087,-0.00015797,-0.0
 0019293,0.00007156,-0.00019786,-0.00002862,-0.00001826,0.00001304,-0.0
 0000558,-0.00000951,0.00000482,0.00002122,-0.00003186,-0.00006793,-0.0
 0011126,-0.00000859,0.00003010,-0.00002057,-0.00006822,-0.00002427,-0.
 00001426,-0.00001184,-0.00000297,-0.00003787,-0.00001688,0.00001067,0.
 00002417,0.00001690,-0.00001817,0.00004122,-0.00000077,0.00001107,-0.0
 0001104,-0.00000606,0.00000931,0.00000417,-0.00000552,0.00000057,-0.00
 001173,-0.00000346,0.00000398,-0.00620896,-0.01799210,-0.02342459,0.00
 282418,0.00124807,-0.00626665,-0.04573556,-0.10906097,-0.14957756,0.00
 038747,0.00024828,0.00024468,-0.00000268,0.00029299,0.00008623,-0.0003
 0604,-0.00131312,-0.00129620,-0.00033858,-0.00028874,0.00059717,-0.003
 77901,-0.00419761,-0.00299571,0.05162052,0.12681994,0.17575293,0.00023
 363,0.00026514,-0.00018013,0.00026034,-0.00045236,-0.00021288,-0.00002
 270,-0.00004067,0.00010336,0.00001086,-0.00000491,-0.00000883,-0.00000
 160,-0.00001391,-0.00000295,0.00001078,0.00003614,-0.00000166,0.000027
 49,0.00001477,-0.00002449,-0.00001719,0.00002014,-0.00016881,0.0000171
 5,0.00009429,0.00006098,0.00008006,0.00005086,-0.00003031,0.00000589,0
 .00003358,0.00003132,-0.00012012,-0.00000882,0.00004711,-0.00008204,-0
 .00001141,0.00004378,0.00001706,0.00003224,0.00000617,-0.00002387,-0.0
 0032686,-0.00007254,-0.00006520,0.00001478,-0.00001303,0.00003203,0.00
 001818,-0.00001324,0.00004769,-0.00003455,0.00001029,0.00000561,0.0000
 1759,0.00004581,-0.00030585,-0.00110278,0.00218981,-0.00017351,0.00004
 986,0.00002116,0.00000598,-0.00007862,0.00006555,-0.00006196,-0.000131
 14,0.00004958,-0.00002028,0.00000171,-0.00004359,0.00004583,0.00002721
 ,-0.00002447,0.00004717,0.00004216,-0.00005067,0.00000388,-0.00001640,
 -0.00001262,0.00010628,0.00026748,0.00025764,0.00012557,-0.00006999,0.
 00002016,0.00000484,-0.00000743,-0.00001080,0.00001244,0.00001279,-0.0
 0000642,-0.00011027,0.00008678,0.00007585,0.00004157,0.00004797,-0.000
 01691,0.00000652,-0.00002279,-0.00000620,-0.00000888,0.00000194,0.0000
 1886,0.00000461,0.00001217,-0.00000058,0.00000455,0.00000263,-0.000003
 79,0.00000329,0.00000902,-0.00000024,0.00000770,0.00000809,-0.00000594
 ,0.00000188,0.00000303,-0.00000668,0.00000287,-0.00000641,0.00000560,0
 .00327308,-0.01014990,0.00435238,0.00013909,-0.00012982,-0.00027694,-0
 .06702724,0.06600181,-0.02254873,-0.00023246,0.00020995,-0.00006017,0.
 00027084,-0.00008314,-0.00003437,-0.00010130,-0.00009707,0.00001776,0.
 00049336,-0.00069190,0.00026849,-0.01487154,0.03161451,-0.01004560,0.0
 0316669,-0.00839036,0.00190408,0.07469493,0.00025521,0.00040561,-0.000
 22330,0.00054215,-0.00017428,-0.00123643,0.00049562,-0.00020105,0.0001
 3779,0.00007234,0.00003219,0.00001393,-0.00001237,-0.00000827,-0.00001
 091,0.00003252,-0.00000292,-0.00003272,0.00002334,0.00000987,-0.000043
 32,0.00030866,0.00062964,0.00033617,0.00007412,0.00017200,0.00048690,0
 .00013560,0.00004618,-0.00010201,-0.00041344,-0.00016377,-0.00021551,-
 0.00025758,-0.00011244,0.00010713,-0.00003074,0.00009495,-0.00001194,0
 .00002153,-0.00004698,0.00003884,-0.00040029,-0.00052022,-0.00012658,-
 0.00008996,0.00008389,-0.00001919,0.00002765,0.00003491,0.00002296,0.0
 0028393,-0.00011487,-0.00000187,0.00001472,-0.00001506,-0.00003010,-0.
 00117638,-0.00086624,0.00285355,-0.00072503,-0.00022645,0.00032645,-0.
 00003048,-0.00008658,0.00011164,-0.00003734,-0.00011092,0.00002371,-0.
 00010743,-0.00003447,-0.00000575,0.00006423,-0.00000019,-0.00000412,0.
 00000847,0.00004129,0.00002872,0.00003434,-0.00008050,0.00004221,0.000
 14732,0.00009191,0.00019890,-0.00039456,0.00027730,-0.00011308,-0.0000
 0631,0.00003866,0.00000527,-0.00000556,0.00000739,-0.00002288,-0.00007
 516,0.00019903,-0.00000163,-0.00010467,-0.00004144,0.00002881,0.000020
 61,0.00005376,0.00001359,0.00000880,-0.00000781,-0.00002411,-0.0000191
 7,-0.00000763,0.00000189,0.00002447,0.00001618,0.00002734,-0.00001512,
 0.00003577,-0.00003631,-0.00001673,-0.00001924,0.00000841,0.00000285,0
 .00000527,-0.00001854,-0.00001020,0.00001247,0.00000377,0.00119916,-0.
 00899502,0.00582390,0.00017973,0.00068594,-0.00093290,0.06659661,-0.23
 833354,0.06257132,0.00006629,-0.00012090,0.00011529,-0.00005379,0.0004
 7661,-0.00002784,0.00003603,-0.00002608,-0.00026976,-0.00004041,0.0000
 6684,-0.00022286,0.00305525,-0.00255706,0.00078225,0.00751389,-0.02676
 384,0.00423297,-0.07705973,0.27623865,-0.00021886,-0.00024446,0.000129
 37,-0.00066981,0.00101209,0.00126814,-0.00031470,0.00013220,-0.0001888
 7,-0.00004548,-0.00001775,-0.00001367,-0.00000540,0.00000725,0.0000153
 8,-0.00002935,-0.00000773,0.00001553,-0.00003117,-0.00001270,0.0000396
 8,-0.00014519,0.00003203,-0.00042253,-0.00012097,-0.00037259,-0.000492
 28,-0.00003861,-0.00000581,0.00002554,0.00044634,0.00016038,0.00032371
 ,0.00004714,0.00007542,-0.00008641,0.00008813,-0.00002253,-0.00002970,
 -0.00003895,-0.00001231,0.00000427,-0.00001838,-0.00008887,0.00019803,
 0.00001407,-0.00000654,0.00001710,-0.00001252,-0.00001168,-0.00001813,
 -0.00018863,0.00014214,0.00001669,0.00015150,0.00001261,0.00003456,0.0
 0216667,0.00245561,-0.00583357,0.00081506,0.00014152,-0.00037828,-0.00
 000530,0.00004713,-0.00006796,0.00004552,0.00008212,-0.00006597,0.0000
 6435,0.00001402,0.00003702,-0.00007949,-0.00002966,-0.00000433,0.00001
 531,-0.00002097,-0.00002218,-0.00002463,0.00010314,-0.00003844,-0.0000
 8579,-0.00058333,-0.00001770,0.00017816,-0.00032045,0.00000280,0.00000
 188,-0.00001225,-0.00000380,0.00000455,-0.00000242,0.00001004,0.000164
 68,-0.00009951,0.00008135,0.00004366,0.00002651,-0.00002305,-0.0000127
 5,-0.00004382,-0.00001274,-0.00001516,0.00000048,0.00002119,0.00000803
 ,0.00000505,0.00000107,-0.00000759,-0.00000971,-0.00001789,0.00000473,
 -0.00002550,0.00001624,0.00000908,0.00001193,-0.00000369,-0.00000607,-
 0.00000678,0.00001164,0.00000088,-0.00000724,0.00000009,-0.00633902,0.
 02530006,-0.01213976,-0.00017280,0.00086420,0.00058680,-0.02278993,0.0
 6337827,-0.06259661,-0.00011297,0.00001792,-0.00012140,0.00030067,-0.0
 0067810,-0.00059155,-0.00003867,-0.00007450,0.00031287,-0.00046685,0.0
 0007834,0.00066992,-0.00281475,0.00397603,-0.00040243,0.00611649,-0.02
 055163,0.00566845,0.02432457,-0.07472889,0.07398072,-0.00040030,0.0002
 8166,-0.00032850,-0.00063995,-0.00021806,-0.00053769,-0.00045096,0.000
 22374,-0.00091833,0.00007177,0.00003459,0.00001570,-0.00002512,0.00001
 632,-0.00000891,-0.00001656,-0.00000419,0.00002018,-0.00000012,0.00002
 014,-0.00003791,-0.17453212,0.02310536,0.02705936,0.00054315,0.0001379
 7,0.00054329,0.00034483,-0.00013151,-0.00005685,-0.04504637,-0.0010643
 5,-0.00306577,0.00016326,-0.00049599,0.00003749,0.00002659,-0.00008608
 ,0.00002174,0.00004496,-0.00005194,-0.00003182,-0.00005508,-0.00000075
 ,0.00006200,-0.00003456,0.00005383,0.00000278,-0.00006494,0.00002628,0
 .00000319,0.00223322,-0.00354035,-0.00184277,-0.00135967,0.00169364,0.
 00151450,0.00036915,-0.00070214,-0.00099477,0.00055686,0.00020941,0.00
 027163,0.00007131,-0.00002673,0.00013017,0.00003416,0.00002636,-0.0000
 1008,-0.00003436,0.00008278,0.00002335,-0.00003859,-0.00001327,0.00005
 827,0.00009516,0.00004038,0.00011541,-0.00005633,-0.00003577,-0.000058
 80,-0.01890920,0.01356227,0.01465557,0.00062088,0.00012492,0.00022710,
 -0.00001972,-0.00000459,0.00002728,-0.00001748,-0.00002037,-0.00002366
 ,-0.00000959,-0.00001711,0.00000722,-0.00015123,-0.00008804,-0.0000643
 9,-0.00001043,0.00008986,-0.00005217,0.00002048,-0.00000668,-0.0000902
 2,-0.00007491,-0.00006222,0.00004374,0.00006670,0.00012434,0.00003947,
 -0.00000943,0.00004967,0.00000033,-0.00007667,-0.00007817,0.00004184,-
 0.00000582,0.00001636,0.00000069,-0.00000593,0.00000883,0.00000703,0.0
 0017346,-0.00006381,0.00052768,-0.00007820,-0.00003659,-0.00013441,-0.
 00023122,-0.00013702,-0.00002980,0.00008801,0.00005075,0.00003100,-0.0
 0000567,0.00010178,0.00001668,0.00000492,-0.00000191,-0.00002821,0.000
 14925,-0.00012602,0.00001491,0.00008975,0.00005904,-0.00004967,-0.0000
 0667,0.00018081,0.00001223,0.00001951,0.00014474,-0.00000743,0.4598306
 5,-0.00019483,0.00001746,-0.00001204,-0.00014248,-0.00031274,0.0010008
 9,-0.00309862,0.00138004,-0.00165979,0.00004446,0.00012826,-0.00003900
 ,0.00001335,-0.00000004,0.00001744,0.00002489,0.00000503,-0.00000005,-
 0.00000498,0.00001798,0.00000186,0.02863344,-0.06934987,-0.00494139,0.
 00012405,0.00006706,-0.00017234,0.00002133,0.00001352,0.00004851,-0.01
 580090,0.00655294,-0.00141797,0.00012391,-0.00013832,0.00014403,0.0000
 4023,-0.00008559,0.00002344,0.00001446,0.00002128,-0.00002818,-0.00002
 437,0.00000003,-0.00000584,0.00001994,-0.00001962,-0.00000589,0.000003
 93,-0.00000027,-0.00000137,0.00180773,-0.00055781,-0.00348956,-0.00116
 065,0.00085859,0.00115084,-0.00024892,-0.00059429,0.00170668,0.0002114
 1,0.00015504,-0.00004927,0.00005622,-0.00004003,-0.00006143,-0.0000309
 8,-0.00002765,-0.00006688,0.00001652,0.00001435,-0.00000055,-0.0000267
 3,-0.00000376,-0.00004122,-0.00000180,-0.00009711,-0.00000482,0.000007
 19,0.00003325,0.00003823,0.02630098,-0.00369369,-0.01757899,0.00052073
 ,-0.00033988,-0.00050465,0.00002959,0.00001659,0.00001140,0.00005488,0
 .00001109,0.00003983,-0.00000639,-0.00001089,0.00000181,0.00072816,0.0
 0006107,0.00013952,0.00013437,-0.00007820,-0.00000796,0.00002240,0.000
 03828,0.00006546,0.00000133,0.00002060,-0.00000585,0.00008041,0.000002
 04,-0.00003675,-0.00000587,-0.00003420,-0.00004178,0.00004879,0.000041
 04,-0.00003641,-0.00001885,-0.00000912,-0.00000686,0.00000826,0.000001
 24,-0.00000910,0.00010459,0.00014060,0.00029216,0.00002392,0.00012438,
 0.00000364,-0.00001107,0.00027837,0.00022531,-0.00001095,-0.00000020,-
 0.00000521,0.00001197,-0.00000317,-0.00000806,-0.00000673,-0.00001978,
 0.00000569,-0.00003689,-0.00008370,-0.00002331,0.00003226,-0.00006354,
 -0.00002335,0.00016810,-0.00050063,-0.00014032,0.00000494,-0.00002939,
 -0.00006961,0.01465477,0.50637629,0.00002661,-0.00016187,-0.00042089,0
 .00046815,0.00022775,0.00017620,0.00083110,-0.00247856,0.00046799,-0.0
 0004992,-0.00006877,0.00000268,0.00001153,-0.00000470,-0.00000204,0.00
 000766,0.00000010,0.00000992,-0.00001251,-0.00000381,0.00002433,0.0324
 0090,-0.00392599,-0.06903051,-0.00030898,-0.00009702,-0.00013296,0.000
 04900,-0.00033115,0.00003489,-0.01960666,-0.00052525,0.00541727,0.0002
 9355,-0.00020004,0.00001648,-0.00010455,-0.00005245,-0.00000406,0.0000
 6284,0.00006489,-0.00005566,0.00006331,-0.00002900,-0.00003933,0.00002
 550,-0.00001278,-0.00000067,0.00001936,-0.00002241,-0.00000947,0.00030
 538,-0.00404375,0.00021264,-0.00086791,0.00147938,0.00122493,0.0002756
 9,0.00202448,-0.00025036,-0.00021343,0.00007214,-0.00005121,0.00006755
 ,-0.00011368,0.00005403,-0.00006536,0.00004921,-0.00006756,0.00002535,
 0.00001018,0.00006635,0.00001436,0.00003054,-0.00001458,0.00003788,-0.
 00004452,0.00011784,0.00002963,0.00004283,0.00007774,0.02702790,-0.016
 31067,-0.01007139,0.00056054,-0.00079881,-0.00047683,-0.00001249,-0.00
 000114,-0.00001831,0.00001172,0.00003318,-0.00001565,0.00001158,0.0000
 2339,-0.00001121,-0.00076871,-0.00008245,-0.00007350,-0.00004798,-0.00
 003332,-0.00003167,-0.00004051,-0.00000572,0.00000410,0.00001441,0.000
 03549,0.00001647,0.00001566,0.00000411,-0.00000718,0.00001849,-0.00001
 162,0.00001606,0.00001191,0.00001350,0.00001446,0.00000838,-0.00000985
 ,-0.00000941,-0.00000700,-0.00000600,0.00000695,0.00028796,0.00022307,
 -0.00031888,-0.00005276,0.00000189,0.00009514,-0.00010905,-0.00009408,
 -0.00020634,-0.00001655,-0.00002175,-0.00000393,-0.00001074,-0.0000512
 6,-0.00001755,0.00001238,0.00000499,0.00003985,-0.00015100,-0.00010605
 ,0.00002351,0.00002656,0.00005209,0.00002449,0.00001938,0.00001846,-0.
 00000478,0.00005013,-0.00002764,0.00005679,0.01860066,0.01890892,0.511
 63834,0.00010340,-0.00008145,-0.00009017,-0.00002765,0.00039432,-0.000
 05144,-0.00033468,-0.00025997,0.00010770,0.00001566,-0.00003455,0.0000
 2076,0.00000429,-0.00000654,-0.00000855,-0.00000310,-0.00000410,0.0000
 0049,-0.00000849,0.00000210,-0.00001059,-0.02068603,0.01276524,-0.0211
 6804,0.00014411,-0.00010236,0.00007688,0.00007653,-0.00008716,0.000011
 61,-0.00477936,0.00068231,0.00103579,0.00005559,-0.00003542,0.00000650
 ,-0.00002154,-0.00003514,0.00002299,0.00004959,0.00001059,-0.00000913,
 -0.00000961,-0.00005501,-0.00000017,0.00001216,-0.00001249,0.00000705,
 0.00001101,-0.00001115,0.00000018,-0.00086466,-0.00086344,0.00021856,0
 .00000316,0.00022404,0.00018025,0.00013087,0.00044664,0.00005837,0.000
 04050,-0.00023045,0.00003585,-0.00000858,-0.00003627,0.00002962,-0.000
 00229,0.00001599,-0.00001053,0.00001275,0.00001269,0.00002330,0.000007
 73,0.00000144,0.00000684,0.00002796,0.00002099,0.00003793,-0.00000409,
 0.00000956,0.00000305,0.00041363,-0.00269411,-0.00127868,0.00047023,0.
 00037009,0.00014095,0.00001053,-0.00000833,-0.00000401,0.00000132,0.00
 000123,-0.00001045,-0.00000116,0.00000407,-0.00000624,-0.00029075,-0.0
 0011057,-0.00002779,-0.00006845,0.00003644,-0.00002406,-0.00001140,-0.
 00001564,-0.00003587,0.00001685,-0.00001290,0.00000507,-0.00001749,0.0
 0004185,-0.00002453,-0.00003363,-0.00000564,0.00006805,-0.00001387,-0.
 00001484,0.00001053,-0.00000140,0.00000759,0.00000210,0.00001512,-0.00
 000876,-0.00000756,0.00006948,-0.00001193,-0.00006029,0.00000564,-0.00
 004361,0.00000072,0.00005582,-0.00005185,-0.00001704,0.00002506,0.0000
 0155,-0.00000358,-0.00000861,-0.00003429,-0.00000822,-0.00000986,0.000
 00511,0.00000935,0.00001932,-0.00008685,-0.00000420,0.00005289,0.00004
 163,0.00003578,-0.00011431,-0.00000495,-0.00001571,0.00000395,-0.00007
 108,0.00001075,-0.09464125,0.04020064,-0.09726989,0.11249753,-0.000055
 97,0.00000544,0.00003680,0.00050761,0.00009155,-0.00015483,0.00033492,
 0.00026966,-0.00019276,-0.00001188,0.00001319,-0.00002121,-0.00000446,
 0.00000242,0.00000500,-0.00000239,0.00000132,-0.00000068,0.00000491,0.
 00000402,0.00000637,0.00381486,-0.00145911,0.00599130,-0.00037029,-0.0
 0004462,-0.00001533,-0.00001279,0.00002118,-0.00001145,0.00014281,-0.0
 0059842,-0.00026383,0.00000290,-0.00002963,-0.00001001,0.00000801,0.00
 000269,-0.00000978,-0.00001471,-0.00000798,0.00000336,-0.00001429,0.00
 002605,0.00000973,-0.00000346,0.00000351,-0.00000402,-0.00000520,0.000
 00323,-0.00000050,-0.00018974,0.00020259,-0.00000299,0.00001342,-0.000
 04489,-0.00005058,0.00063143,-0.00012819,-0.00000228,-0.00026907,-0.00
 013510,0.00010975,0.00001347,0.00001688,0.00000754,-0.00000488,-0.0000
 0221,0.00001003,-0.00000957,0.00000207,-0.00000353,-0.00001361,-0.0000
 0290,-0.00001521,-0.00000345,-0.00001121,-0.00001633,0.00001464,-0.000
 00602,-0.00000953,0.00044665,0.00056919,-0.00046534,-0.00016475,-0.001
 23051,-0.00068059,0.00000265,0.00000031,0.00000502,-0.00000056,-0.0000
 0387,0.00000502,0.00000199,-0.00000484,0.00001138,0.00005690,-0.000011
 41,0.00003393,0.00000237,-0.00001722,0.00000301,-0.00000560,-0.0000051
 0,0.00001851,-0.00000581,-0.00000348,0.00000221,0.00000056,-0.00000052
 ,-0.00001591,-0.00001256,0.00000817,0.00000823,-0.00000045,0.00000338,
 -0.00000363,0.00000016,0.00000569,0.00000425,0.00000443,-0.00000264,-0
 .00000088,-0.00022927,-0.00005532,0.00000007,0.00000951,0.00001886,-0.
 00002931,0.00009736,-0.00002679,0.00008272,-0.00003414,-0.00004290,-0.
 00000625,-0.00001431,0.00004906,0.00000893,0.00000479,0.00000033,-0.00
 000862,-0.00009148,0.00013954,-0.00004007,-0.00001259,-0.00005039,0.00
 006854,-0.00007096,0.00003705,0.00000569,-0.00005147,0.00002466,-0.000
 06220,0.03955787,-0.06758582,0.06377966,-0.04514299,0.07487175,0.00009
 388,-0.00003924,-0.00000720,0.00058334,-0.00008179,0.00036060,-0.00012
 210,0.00010258,-0.00012733,0.00000607,0.00001919,-0.00001189,0.0000026
 8,-0.00000504,-0.00000421,-0.00000139,-0.00000756,-0.00000063,-0.00000
 123,0.00000229,0.00000261,-0.00167035,-0.00240241,0.00525145,-0.000247
 97,0.00004959,-0.00018650,0.00000756,-0.00001308,-0.00001040,0.0007127
 8,0.00049571,0.00071177,0.00002100,-0.00001967,-0.00001589,0.00001187,
 -0.00005181,0.00000488,0.00002713,0.00000825,-0.00001783,-0.00000035,0
 .00000019,-0.00001709,0.00000255,0.00000019,0.00000381,-0.00000316,0.0
 0000074,0.00000817,0.00082974,-0.00009955,-0.00029368,-0.00026267,0.00
 021949,0.00011979,0.00018163,-0.00001033,-0.00007997,-0.00011375,0.000
 06694,-0.00012345,0.00002813,0.00000098,0.00000483,-0.00003923,0.00001
 189,-0.00003292,0.00001282,0.00000371,0.00002341,-0.00001460,0.0000276
 2,-0.00002034,-0.00001126,-0.00002541,0.00003005,0.00000406,0.00000590
 ,0.00001224,0.00067797,0.00003182,-0.00014775,0.00019288,-0.00040348,0
 .00016001,-0.00000280,0.00000466,0.00000487,-0.00000068,-0.00000134,0.
 00000356,0.00000148,-0.00000079,0.00000009,0.00007053,0.00000944,0.000
 02616,0.00001433,-0.00000328,-0.00001231,0.00001038,-0.00000266,-0.000
 00778,0.00000092,-0.00000854,-0.00000584,-0.00002108,-0.00000532,-0.00
 002583,-0.00000915,-0.00000806,0.00002565,0.00000167,0.00000161,-0.000
 00415,0.00000436,-0.00000055,0.00000588,0.00000228,0.00000316,-0.00000
 221,-0.00014182,0.00000323,0.00013396,-0.00002700,0.00002089,0.0000074
 5,-0.00006882,-0.00005658,-0.00005597,0.00000196,0.00000259,0.00000255
 ,0.00000640,0.00000013,-0.00000665,0.00000161,-0.00000639,0.00000877,-
 0.00000145,0.00001576,-0.00003129,-0.00000425,0.00003475,-0.00002118,0
 .00005160,0.00003318,-0.00002689,0.00003326,-0.00002473,0.00001109,-0.
 09406257,0.06349291,-0.20168120,0.11002615,-0.07441005,0.23013594,-0.0
 0001463,0.00006111,0.00005474,-0.00012411,-0.00010265,0.00006822,0.000
 22821,0.00024095,0.00037614,0.00000364,-0.00000519,0.00001735,-0.00000
 092,0.00000133,-0.00000161,-0.00000084,-0.00000018,0.00000006,0.000009
 14,0.00000154,-0.00001709,-0.00286156,0.02144347,0.02142906,0.00004054
 ,0.00000960,-0.00006464,0.00001140,0.00004022,-0.00001308,0.00236789,0
 .00019255,0.00032708,-0.00007740,0.00003404,-0.00003125,-0.00000873,0.
 00001818,0.00000617,-0.00000406,-0.00000514,0.00000662,0.00000427,-0.0
 0001766,0.00002460,0.00000253,0.00000286,0.00000136,-0.00000223,0.0000
 0133,0.00000142,-0.00021081,0.00031051,0.00032421,0.00026602,-0.000306
 82,-0.00040168,-0.00039547,-0.00033421,-0.00041148,0.00017800,0.000063
 62,-0.00008716,-0.00000817,0.00001488,0.00000819,0.00001689,-0.0000037
 1,0.00000741,-0.00000792,-0.00000251,-0.00000468,0.00000491,0.00000022
 ,0.00000585,-0.00000423,0.00002011,-0.00000678,-0.00001127,-0.00002091
 ,-0.00002343,-0.00744028,0.00200149,0.00294327,0.00021316,-0.00013429,
 -0.00018227,0.00000971,-0.00000762,-0.00000560,-0.00001337,-0.00001200
 ,-0.00000289,0.00000153,-0.00000699,0.00000152,-0.00002361,-0.00004454
 ,-0.00002742,-0.00002979,0.00000409,0.00002640,0.00001041,-0.00000952,
 -0.00001234,-0.00000833,-0.00001208,-0.00000881,-0.00003535,0.00003660
 ,0.00001274,0.00000903,0.00002416,0.00001340,-0.00000841,-0.00000901,-
 0.00000258,0.00000207,0.00000739,-0.00000825,0.00001069,-0.00000502,-0
 .00000971,0.00001222,0.00001041,-0.00001433,0.00003734,-0.00000270,0.0
 0001463,0.00006804,-0.00000513,-0.00000915,0.00001094,0.00001424,0.000
 00836,0.00000012,-0.00002062,-0.00000849,-0.00000414,-0.00000764,-0.00
 001572,0.00008529,-0.00006320,0.00001291,0.00003552,0.00006399,0.00001
 469,-0.00009222,-0.00000940,0.00000005,0.00002144,-0.00003633,-0.00000
 293,-0.04166191,0.00008691,-0.00045730,0.00040983,-0.01011458,-0.01152
 762,0.04844100,-0.00010604,0.00006042,-0.00003967,-0.00011537,-0.00009
 044,0.00002998,-0.00030542,-0.00010918,-0.00019216,-0.00000255,0.00001
 448,-0.00002367,0.00000368,0.00000366,0.00000697,0.00000485,0.00000717
 ,0.00000438,-0.00000272,-0.00000009,0.00001647,0.00291702,-0.00664860,
 -0.00729018,0.00009082,0.00002314,0.00001175,0.00004101,-0.00001070,-0
 .00000055,-0.00084459,0.00021610,0.00115078,0.00005391,-0.00004674,0.0
 0004680,0.00001233,-0.00001471,-0.00000045,0.00000019,-0.00002175,0.00
 000898,-0.00002695,-0.00001294,-0.00002755,-0.00000243,-0.00000451,-0.
 00000401,-0.00000180,0.00000126,-0.00000549,-0.00009251,-0.00001352,-0
 .00023451,-0.00014337,0.00017567,0.00020633,0.00006335,0.00021903,0.00
 002549,0.00013276,0.00005176,0.00001191,0.00002113,-0.00001127,0.00001
 183,0.00001301,0.00001426,-0.00001703,-0.00002186,0.00001164,-0.000001
 51,-0.00001230,-0.00000461,-0.00000052,0.00000177,-0.00002165,0.000015
 10,-0.00000301,0.00001444,0.00002498,0.00176638,-0.00005328,-0.0013272
 8,0.00021617,-0.00010531,0.00015956,-0.00000190,-0.00000436,0.00000492
 ,0.00001026,0.00001021,0.00000748,-0.00000603,0.00000767,-0.00000227,0
 .00005481,0.00000597,-0.00001245,0.00000970,-0.00001211,-0.00001966,-0
 .00000552,0.00000222,0.00001297,-0.00000462,0.00000890,0.00001255,0.00
 001111,0.00001465,-0.00000105,0.00000107,-0.00000113,0.00000033,0.0000
 0634,0.00001016,0.00000045,-0.00000270,-0.00000122,0.00000511,-0.00000
 091,-0.00000373,0.00000175,0.00003722,0.00010072,0.00004111,-0.0000071
 6,0.00001793,0.00001259,0.00000675,-0.00012411,0.00001595,0.00002244,0
 .00002669,0.00002186,0.00000538,-0.00000020,0.00000668,-0.00000019,0.0
 0001042,0.00001398,-0.00003561,-0.00000928,0.00000220,0.00010835,0.000
 12827,0.00002964,-0.00008676,-0.00006654,-0.00015532,0.00003681,-0.000
 00927,-0.00003057,0.00136417,-0.16655739,-0.12377717,-0.00047996,0.006
 84086,0.00581242,-0.00254711,0.18886762,-0.00009500,0.00004639,-0.0000
 5416,-0.00019231,-0.00008108,0.00015812,-0.00017462,-0.00027360,0.0000
 0269,0.00000115,-0.00000732,0.00000365,-0.00000117,0.00000833,0.000002
 30,-0.00000217,0.00000386,0.00000306,-0.00000634,-0.00000991,0.0000183
 2,0.00357881,-0.00784301,-0.00766424,0.00011659,0.00003092,0.00003909,
 0.00002150,-0.00000655,0.00000703,-0.00090031,0.00102646,0.00032452,0.
 00002132,-0.00001175,0.00003017,-0.00000203,0.00001741,-0.00000084,-0.
 00001492,-0.00000958,0.00001163,-0.00000337,-0.00000751,-0.00000927,-0
 .00000128,-0.00000194,-0.00000556,0.00000306,-0.00000039,-0.00000964,-
 0.00018429,-0.00010293,-0.00008029,-0.00006508,0.00011210,0.00015150,0
 .00019163,0.00005223,0.00016769,0.00012841,0.00009753,-0.00002967,0.00
 000275,-0.00000560,0.00000446,0.00001420,0.00000349,-0.00000720,-0.000
 00991,0.00000801,0.00000168,-0.00000339,-0.00000460,0.00000633,0.00000
 176,-0.00000576,0.00000964,-0.00000015,0.00001805,0.00002090,0.0018063
 1,-0.00117311,-0.00059169,0.00021081,0.00019497,-0.00002972,-0.0000075
 6,0.00000020,-0.00000240,0.00001178,0.00001496,0.00000400,0.00000091,0
 .00001159,-0.00000787,0.00000715,0.00005035,-0.00002294,0.00001605,-0.
 00000606,-0.00001845,-0.00001063,0.00001020,0.00000390,0.00000386,0.00
 001748,0.00001179,0.00004817,-0.00001576,0.00001901,0.00000829,-0.0000
 1372,-0.00004089,0.00000940,0.00000960,0.00000433,-0.00000185,-0.00000
 637,0.00000269,-0.00001082,0.00000380,0.00000892,0.00009043,-0.0000175
 8,0.00001335,-0.00000962,0.00001421,0.00001169,-0.00005583,0.00005367,
 0.00000764,0.00001345,0.00002095,0.00000294,0.00000957,-0.00000621,0.0
 0001209,-0.00000713,0.00001163,0.00001595,-0.00002307,-0.00003787,0.00
 000795,0.00001626,-0.00000392,-0.00003644,0.00005211,-0.00007289,-0.00
 002978,0.00000277,0.00003020,0.00002232,0.00078466,-0.12394164,-0.1686
 1271,-0.00214105,-0.01861933,-0.02239131,-0.00278666,0.14451832,0.1914
 6977,0.00010560,0.00013288,-0.00003293,-0.00023781,-0.00019182,0.00017
 999,-0.00099013,0.00031294,-0.00010218,0.00005595,0.00002042,0.0000220
 4,-0.00000201,-0.00000269,-0.00000717,0.00001025,-0.00000494,-0.000009
 60,0.00000822,-0.00000093,-0.00003425,-0.02019797,-0.02221293,0.013285
 57,0.00016434,0.00009961,-0.00002716,0.00003982,0.00001169,0.00001154,
 -0.00358692,0.00138139,0.00022505,-0.00009211,-0.00005827,0.00005093,-
 0.00002192,0.00004038,0.00001737,0.00004018,-0.00001238,-0.00000110,-0
 .00007296,0.00008035,-0.00001297,-0.00000512,0.00001162,-0.00000209,0.
 00001868,0.00000431,0.00000255,-0.00047770,0.00007862,-0.00075543,-0.0
 0002192,-0.00007905,0.00005475,0.00006955,-0.00003783,0.00048702,0.000
 17282,0.00009402,-0.00004970,-0.00002822,-0.00004128,-0.00001235,-0.00
 001464,-0.00002360,-0.00000402,-0.00000775,-0.00001205,-0.00000998,0.0
 0003869,-0.00001307,0.00001231,-0.00001447,0.00002240,-0.00000952,-0.0
 0000544,-0.00001829,0.00001491,0.00069754,-0.00034156,-0.00292160,0.00
 039582,0.00008577,0.00032288,0.00001655,0.00001427,-0.00000022,0.00001
 384,0.00000278,-0.00000384,-0.00000854,0.00002754,-0.00000672,0.000134
 71,-0.00000936,0.00001371,0.00000149,0.00002118,0.00002401,0.00001491,
 0.00000817,-0.00001384,-0.00000668,0.00000422,-0.00000174,0.00004740,0
 .00002396,0.00002409,-0.00001455,0.00002893,-0.00004547,0.00000063,-0.
 00000715,-0.00000770,-0.00000129,0.00000232,-0.00001782,0.00000312,0.0
 0000634,-0.00000721,-0.00009905,-0.00002517,0.00030891,0.00002256,0.00
 002017,-0.00012078,0.00029057,0.00010871,0.00028186,0.00003186,-0.0000
 0511,0.00000357,-0.00001060,0.00001348,-0.00000476,-0.00000556,-0.0000
 4556,-0.00006188,-0.00003135,-0.00006392,0.00001773,0.00028252,0.00002
 812,-0.00002042,-0.00059776,0.00050102,-0.00039456,-0.00001043,-0.0002
 0035,-0.00016206,-0.08694768,-0.09354905,0.03848030,0.00719976,0.01126
 311,-0.00526769,0.00053796,-0.00215337,-0.00046260,0.10309522,0.000125
 94,-0.00000599,-0.00001178,0.00010839,0.00020112,-0.00017780,0.0001282
 6,-0.00016698,0.00008876,0.00001901,0.00000540,-0.00000237,0.00000508,
 -0.00000639,-0.00000597,0.00000497,-0.00000548,-0.00000253,-0.00000113
 ,0.00000410,-0.00001328,-0.00252535,0.00533880,-0.00155085,0.00005661,
 -0.00001330,0.00002458,0.00000945,-0.00002496,-0.00001290,0.00066422,0
 .00049470,0.00029431,-0.00001012,-0.00003274,-0.00002980,-0.00004147,-
 0.00000220,0.00000155,0.00002298,-0.00002377,-0.00001775,0.00003980,0.
 00005938,-0.00000442,0.00000379,0.00001287,0.00000519,-0.00000183,0.00
 000791,0.00000666,0.00049351,-0.00035037,0.00016383,-0.00016391,0.0000
 8753,0.00009270,-0.00006290,-0.00007879,0.00014186,-0.00023977,-0.0001
 1255,-0.00000220,-0.00000304,-0.00001934,0.00002066,-0.00003292,0.0000
 2461,-0.00002527,0.00000230,-0.00001078,0.00002830,0.00001288,0.000019
 18,-0.00000495,-0.00002443,0.00000587,0.00001853,-0.00000206,0.0000089
 9,0.00000529,0.00048724,-0.00079163,0.00008463,0.00023467,0.00018034,-
 0.00028832,-0.00000986,0.00000976,0.00000034,-0.00000443,-0.00000272,-
 0.00000549,0.00000697,-0.00000119,0.00000011,-0.00005129,0.00002153,0.
 00000385,0.00001555,0.00000259,-0.00000602,0.00001079,0.00000569,-0.00
 002024,0.00000337,0.00000553,-0.00000380,0.00001275,-0.00001557,0.0000
 0852,0.00001143,0.00000089,-0.00001550,0.00000008,-0.00000263,-0.00000
 004,0.00000255,-0.00000292,-0.00000410,-0.00000743,0.00000779,0.000003
 66,0.00019670,0.00020181,-0.00039175,-0.00000299,-0.00007798,0.0000506
 4,0.00005172,-0.00009705,0.00003611,-0.00000976,-0.00000249,-0.0000275
 6,-0.00000253,-0.00003348,-0.00000774,-0.00000928,0.00000089,0.0000281
 2,-0.00000146,-0.00004707,0.00009650,-0.00021367,-0.00040182,-0.000227
 18,0.00061810,-0.00016190,0.00009723,-0.00005610,-0.00010456,0.0000836
 8,-0.08902898,-0.20613973,0.06635301,-0.00464233,-0.01172360,0.0072058
 7,-0.01085906,-0.02290666,0.00589908,0.10465898,0.23665938,-0.00006007
 ,-0.00005307,0.00001280,0.00021136,0.00040888,-0.00035739,0.00056934,0
 .00004573,0.00001383,-0.00001876,-0.00001226,-0.00000364,-0.00000690,0
 .00000509,0.00000061,-0.00001262,-0.00000042,0.00000062,-0.00000025,-0
 .00000319,0.00001549,0.00475253,0.00664945,-0.00203557,-0.00017146,-0.
 00009994,0.00010315,-0.00002166,0.00000955,-0.00000881,0.00010545,-0.0
 0012789,-0.00072805,0.00001724,0.00000285,-0.00002829,0.00000016,0.000
 00909,-0.00000878,-0.00002656,0.00000648,0.00000705,0.00001309,-0.0000
 0718,0.00003132,0.00000115,-0.00000197,-0.00000236,-0.00000259,-0.0000
 0140,-0.00000560,-0.00025409,0.00006923,0.00014179,0.00006621,-0.00002
 695,-0.00004811,0.00048425,0.00002795,0.00016990,-0.00038481,-0.000272
 45,0.00017196,0.00000112,0.00001941,0.00001644,0.00000482,-0.00000334,
 0.00001483,-0.00000087,0.00000573,0.00000593,-0.00001353,-0.00000152,-
 0.00000750,0.00000949,0.00000365,-0.00001604,0.00001800,0.00000204,-0.
 00001647,0.00036193,-0.00097380,0.00071937,-0.00015657,-0.00042187,-0.
 00123894,-0.00000256,-0.00000209,-0.00000107,-0.00000244,-0.00000149,0
 .00000194,0.00000825,-0.00000945,0.00000870,-0.00004477,-0.00000050,0.
 00001274,-0.00000448,-0.00002101,-0.00000306,-0.00001111,-0.00000586,0
 .00001247,0.00000131,-0.00000338,0.00000174,-0.00000609,-0.00001158,-0
 .00001873,-0.00000625,-0.00000912,0.00001737,-0.00000160,0.00000210,0.
 00000151,0.00000221,0.00000251,0.00000723,-0.00000030,-0.00000100,0.00
 000309,0.00006805,-0.00019526,-0.00023646,0.00002334,-0.00001467,-0.00
 001578,0.00015954,0.00011785,-0.00005467,-0.00005578,-0.00005398,-0.00
 003091,-0.00002012,0.00002763,0.00000907,-0.00000488,0.00001673,0.0000
 1058,-0.00005825,0.00009102,-0.00000302,-0.00022337,-0.00028633,0.0000
 9355,0.00001584,0.00000254,0.00032826,-0.00012286,0.00014103,0.0000145
 5,0.03751755,0.06711891,-0.06819957,0.01009460,0.02490999,-0.01168989,
 -0.00956146,-0.01908857,0.00706398,-0.04324975,-0.07798393,0.07574689\
 \-0.00000935,-0.00000295,0.00000365,0.00000238,-0.00000160,0.00000447,
 0.00000600,0.00000076,-0.00000221,-0.00000302,0.00000485,0.00000524,0.
 00000106,-0.00000177,0.00000218,0.00000125,0.00000003,-0.00000006,0.00
 000059,-0.00000024,-0.00000006,0.00000252,0.00000410,0.00000205,-0.000
 00167,-0.00000011,-0.00000368,0.00000393,0.00000634,-0.00000159,-0.000
 00602,-0.00000033,0.00000009,-0.00000008,-0.00000496,0.00000065,0.0000
 0620,-0.00000004,-0.00000157,-0.00000251,-0.00000776,0.00000632,0.0000
 0061,-0.00000129,0.00000172,-0.00000063,0.00000153,-0.00000099,-0.0000
 0128,-0.00000039,0.00000044,0.00000633,-0.00000503,0.00000136,-0.00000
 479,0.00000974,-0.00000856,0.00000155,-0.00000359,-0.00000248,-0.00000
 119,0.00000124,0.00000242,-0.00000168,-0.00001169,0.00001008,-0.000001
 91,0.00000346,-0.00000638,0.00000015,0.00000290,-0.00000149,-0.0000008
 7,0.00000075,-0.00000116,0.00000300,0.00000565,-0.00000382,-0.00000013
 ,0.00000042,0.00000028,-0.00000011,0.00000192,-0.00000014,0.00000047,0
 .00000049,0.00000087,0.00000238,-0.00000296,-0.00000177,-0.00000019,-0
 .00000145,-0.00000137,-0.00000119,0.00000035,0.00000008,-0.00000210,-0
 .00000098,-0.00000340,0.00000219,0.00000433,0.00000173,0.00000331,-0.0
 0000310,-0.00000097,-0.00000356,-0.00000399,-0.00000022,0.00000027,0.0
 0000045,-0.00000004,0.00000010,-0.00000022,-0.00000036,0.00000014,-0.0
 0000005,0.00000013,-0.00000210,0.00000068,-0.00000139,-0.00000029,0.00
 000353,0.00000190,-0.00000504,0.00000239,-0.00000448,0.00000380,0.0000
 0073,0.00000206,-0.00000470,0.00000105,-0.00000519,-0.00000229,0.00000
 003,0.00000034,0.00000152,-0.00000062,-0.00000096,-0.00000171,0.000000
 35,0.00000033,0.00000396,-0.00000150,0.00000046,0.00000018,-0.00000042
 ,-0.00000040,0.00000215,0.00000299,0.00000371,0.00000135,-0.00000333,0
 .00000169,-0.00000094,-0.00000305,-0.00000606,0.00000216,-0.00000109,0
 .00000198,0.00000001,0.00000390,0.00000313,-0.00000023,-0.00000045,0.0
 0000146\\\@
 The archive entry for this job was punched.


 IT IS DOUBTED WHETHER A MAN EVER BRINGS HIS FACULTIES TO BEAR WITH THEIR FULL FORCE
 ON A SUBJECT UNTIL HE WRITES UPON IT.

                          -- CICERO
 Job cpu time:       0 days  0 hours  0 minutes  0.3 seconds.
 Elapsed time:       0 days  0 hours  0 minutes  5.3 seconds.
 File lengths (MBytes):  RWF=      6 Int=      0 D2E=      0 Chk=      2 Scr=      1
 Normal termination of Gaussian 16 at Mon Oct 14 18:09:27 2024.
