%chk=4-tsfreq.chk
#p freq external='./xtb.sh'

Generate automatically by rxnb

0 1
Fe          -1.518380        0.976570       -0.338420
C            2.379110       -0.127580        1.852680
Pd           0.150730       -0.822070        0.252260
C           -2.796420       -1.476060       -0.250460
H           -3.091120        3.078040       -0.469090
H           -3.795990        1.086210        1.097720
H           -1.558870        0.252110        2.405900
C            2.325480       -1.434370       -1.390000
O            3.176370        0.183490        2.718340
C           -2.159320       -0.600470       -1.262910
O            1.407560       -2.043280       -2.109730
C           -0.540560        0.783390       -2.010360
C           -1.774290        1.429410       -2.201060
C           -2.785050        0.575300       -1.728120
H            0.399320        1.242950       -2.231830
H           -1.906750        2.438830       -2.517240
H           -3.813950        0.831670       -1.610050
H            0.434940       -1.543750       -1.867480
C           -0.753840       -0.527950       -1.491240
C            2.752100        0.234780        0.346120
O            1.288530       -0.741100        2.026630
C           -0.556320        1.779890        1.206540
C           -1.048530        2.740320        0.301930
C           -2.441990        2.565570        0.202500
C           -2.806550        1.479460        1.021800
C           -1.644800        0.995190        1.645910
H            0.422200        1.724580        1.631830
N            1.959200       -0.609280       -0.485220
H            3.832070        0.075500        0.231410
H           -3.516860       -0.832060        0.253130
H           -3.324460       -2.346980       -0.664180
H           -0.470850        3.413550       -0.290960
N           -1.783720       -1.900810        0.728850
C           -1.184010       -3.184170        0.332280
C           -2.379880       -2.069930        2.046520
H           -1.904600       -4.007550        0.459340
H           -0.882800       -3.157760       -0.717730
H           -0.309200       -3.389600        0.962770
H           -3.040410       -2.947790        2.076700
H           -1.590470       -2.202220        2.786390
H           -2.970450       -1.194880        2.304820
C            2.387630        1.679810       -0.072750
C            2.839130        2.713830        0.952260
C            3.010940        1.998320       -1.434500
H            3.925240        2.753160        0.990090
H            2.463250        3.698820        0.683700
H            2.492920        2.465680        1.950870
H            1.288590        1.702200       -0.199520
H            4.097270        2.005840       -1.369630
H            2.714630        1.264780       -2.182710
H            2.684960        2.980500       -1.770740
C            3.752610       -1.743760       -1.742260
H            4.285170       -2.099960       -0.862460
H            3.769050       -2.507660       -2.513860
H            4.250680       -0.848160       -2.108790


