55
charge 0 multiplicity 1
Fe           1.39831  -0.99255  -0.33454
C           -2.23023   0.12871   1.84241
Pd          -0.09718   0.88988   0.27607
C            2.75461   1.41443  -0.34688
H            2.98719  -3.10947  -0.43418
H            3.68587  -1.09468   1.10481
H            1.44497  -0.26706   2.41774
C           -2.25299   1.51672  -1.33243
O           -2.89305  -0.27840   2.78067
C            2.11001   0.51404  -1.33347
O           -1.34400   2.13815  -1.99100
C            0.48199  -0.85341  -2.05798
C            1.69442  -1.55403  -2.16358
C            2.71504  -0.70632  -1.70551
H           -0.46556  -1.27920  -2.30567
H            1.79757  -2.58240  -2.42261
H            3.73120  -0.98332  -1.53501
H           -0.23149   1.43116  -1.89469
C            0.72865   0.49410  -1.67533
C           -2.69242  -0.22626   0.37290
O           -1.19470   0.86259   1.95493
C            0.44903  -1.79544   1.21491
C            0.94037  -2.75939   0.32071
C            2.33233  -2.57686   0.21524
C            2.69568  -1.48534   1.02868
C            1.53569  -1.00294   1.65026
H           -0.52904  -1.73739   1.63740
N           -1.91483   0.60524  -0.48366
H           -3.77344  -0.04138   0.31610
H            3.50877   0.79247   0.13495
H            3.24815   2.29238  -0.78583
H            0.36529  -3.44026  -0.26495
N            1.77711   1.83659   0.67664
C            1.20552   3.14791   0.32652
C            2.43409   1.96860   1.97152
H            1.97567   3.93317   0.37687
H            0.79938   3.13510  -0.68953
H            0.40669   3.40045   1.03642
H            3.13240   2.81651   1.97900
H            1.68240   2.13126   2.74425
H            2.99430   1.06615   2.20132
C           -2.37937  -1.67037  -0.09269
C           -2.83843  -2.72888   0.90442
C           -3.03733  -1.92497  -1.45152
H           -3.92226  -2.81692   0.88091
H           -2.40733  -3.69616   0.65586
H           -2.56278  -2.46867   1.92163
H           -1.28366  -1.70486  -0.24857
H           -4.12212  -1.90471  -1.36660
H           -2.73416  -1.17191  -2.17643
H           -2.74495  -2.90339  -1.82757
C           -3.69784   1.84058  -1.63108
H           -4.19174   2.19388  -0.72780
H           -3.73711   2.61303  -2.39353
H           -4.21483   0.95144  -1.98567