55
charge 0 multiplicity 1
Fe          -3.49697  -0.25702  -4.68238
C            1.73141  -3.55885  -1.85182
Pd          -0.40550  -2.55708  -3.42117
C           -2.43263  -3.24337  -5.36525
H           -6.00477   0.10940  -5.95964
H           -5.66890  -2.04679  -4.35439
H           -4.27624  -1.24660  -2.16591
C           -0.49864  -0.64348  -1.28362
O            2.76047  -4.13587  -1.56723
C           -2.34420  -1.75398  -5.40483
O           -1.52081  -0.18787  -1.89104
C           -1.50199   0.31285  -4.83364
C           -2.14359   0.43325  -6.09950
C           -2.63745  -0.85385  -6.47073
H           -1.06615   1.12953  -4.26152
H           -2.25856   1.35091  -6.67431
H           -3.16888  -1.10071  -7.38889
H           -1.64846  -0.86511  -3.01880
C           -1.61627  -1.04448  -4.36597
C            1.18837  -2.41185  -0.97229
O            0.96406  -3.91204  -2.86235
C           -4.33831   0.78465  -3.11673
C           -4.89920   1.22793  -4.35289
C           -5.50932   0.10456  -4.99032
C           -5.33141  -1.03332  -4.14301
C           -4.60829  -0.61259  -2.98571
H           -3.76571   1.38556  -2.41438
N            0.18016  -1.67565  -1.73531
H            2.03103  -1.75091  -0.71293
H           -3.09556  -3.58375  -4.55696
H           -2.79913  -3.67293  -6.31514
H           -4.84423   2.22070  -4.74821
N           -1.08964  -3.75411  -5.05480
C           -0.12663  -3.73969  -6.09424
C           -1.04652  -4.88854  -4.18503
H            0.36320  -4.73073  -6.28128
H           -0.57213  -3.32787  -7.03844
H            0.70742  -3.03335  -5.84578
H           -1.69591  -5.68755  -4.60431
H           -0.04069  -5.23896  -3.94732
H           -1.55791  -4.58483  -3.22477
C            0.62794  -2.99489   0.31472
C            0.80722  -4.43924   0.45217
C            1.11763  -2.06876   1.32992
H            1.58935  -4.37651  -0.24640
H            1.33899  -4.97234   1.23624
H            0.01616  -5.06341   0.01391
H           -0.40100  -2.81607   0.08924
H            2.15468  -1.98239   1.59851
H            0.65147  -1.07491   1.18134
H            0.71939  -2.50502   2.21863
C            0.00000   0.00000   0.00000
H            1.10593   0.00000  -0.00000
H           -0.35424   1.06420   0.00000
H           -0.40808  -0.54191   0.87279