55
charge 0 multiplicity 1
Fe          -1.51838   0.97657  -0.33842
C            2.37911  -0.12758   1.85268
Pd           0.15073  -0.82207   0.25226
C           -2.79642  -1.47606  -0.25046
H           -3.09112   3.07804  -0.46909
H           -3.79599   1.08621   1.09772
H           -1.55887   0.25211   2.40590
C            2.32548  -1.43437  -1.39000
O            3.17637   0.18349   2.71834
C           -2.15932  -0.60047  -1.26291
O            1.40756  -2.04328  -2.10973
C           -0.54056   0.78339  -2.01036
C           -1.77429   1.42941  -2.20106
C           -2.78505   0.57530  -1.72812
H            0.39932   1.24295  -2.23183
H           -1.90675   2.43883  -2.51724
H           -3.81395   0.83167  -1.61005
H            0.43494  -1.54375  -1.86748
C           -0.75384  -0.52795  -1.49124
C            2.75210   0.23478   0.34612
O            1.28853  -0.74110   2.02663
C           -0.55632   1.77989   1.20654
C           -1.04853   2.74032   0.30193
C           -2.44199   2.56557   0.20250
C           -2.80655   1.47946   1.02180
C           -1.64480   0.99519   1.64591
H            0.42220   1.72458   1.63183
N            1.95920  -0.60928  -0.48522
H            3.83207   0.07550   0.23141
H           -3.51686  -0.83206   0.25313
H           -3.32446  -2.34698  -0.66418
H           -0.47085   3.41355  -0.29096
N           -1.78372  -1.90081   0.72885
C           -1.18401  -3.18417   0.33228
C           -2.37988  -2.06993   2.04652
H           -1.90460  -4.00755   0.45934
H           -0.88280  -3.15776  -0.71773
H           -0.30920  -3.38960   0.96277
H           -3.04041  -2.94779   2.07670
H           -1.59047  -2.20222   2.78639
H           -2.97045  -1.19488   2.30482
C            2.38763   1.67981  -0.07275
C            2.83913   2.71383   0.95226
C            3.01094   1.99832  -1.43450
H            3.92524   2.75316   0.99009
H            2.46325   3.69882   0.68370
H            2.49292   2.46568   1.95087
H            1.28859   1.70220  -0.19952
H            4.09727   2.00584  -1.36963
H            2.71463   1.26478  -2.18271
H            2.68496   2.98050  -1.77074
C            3.75261  -1.74376  -1.74226
H            4.28517  -2.09996  -0.86246
H            3.76905  -2.50766  -2.51386
H            4.25068  -0.84816  -2.10879