55
charge 0 multiplicity 1
Fe          -2.00821  -0.39798  -0.06161
C            2.67407  -0.25569   1.52110
Pd           0.46685   0.48324  -0.09576
C           -1.85801   2.27689  -0.12434
H           -4.38964  -1.53124   0.20280
H           -3.93124   0.76508   1.39273
H           -1.46881   0.68993   2.43285
C            1.06778  -2.33751  -0.32872
O            3.48651  -0.55015   2.37919
C           -1.99727   1.19770  -1.12529
O           -0.16093  -2.53346  -0.44427
C           -1.48852  -0.83727  -1.90041
C           -2.87003  -0.78396  -1.75105
C           -3.20153   0.49399  -1.26292
H           -0.97584  -1.74375  -2.11842
H           -3.51836  -1.62103  -1.85105
H           -4.15962   0.81871  -0.93136
H           -0.58548  -0.61727   0.19626
C           -0.88954   0.40839  -1.55935
C            2.87093  -0.72340   0.03815
O            1.61243   0.42504   1.69024
C           -1.94923  -0.08037   1.87580
C           -3.25443  -0.05843   1.37880
C           -3.50881  -1.29056   0.74724
C           -2.36045  -2.07633   0.85117
C           -1.39277  -1.35022   1.57181
H           -0.45309  -1.73110   1.90758
N            1.55553  -1.12344  -0.39438
H            3.60313  -1.53546  -0.02349
H           -2.43291   1.92530   0.72778
H           -2.24291   3.25337  -0.45591
H           -2.16071  -2.96484   0.30315
N           -0.44359   2.38046   0.24946
C           -0.26834   2.90715   1.61016
C            0.24785   3.23073  -0.72054
H           -1.18877   3.36491   1.98070
H            0.04387   2.10799   2.28350
H            0.51528   3.66422   1.63224
H           -0.10884   4.26966  -0.66278
H            1.32364   3.22427  -0.52898
H            0.06328   2.85701  -1.72855
C            3.37417   0.48990  -0.77636
C            4.84592   0.74205  -0.46498
C            3.14675   0.28611  -2.27642
H            5.45797  -0.06876  -0.85621
H            5.18220   1.67429  -0.91642
H            5.00149   0.79563   0.61043
H            2.79060   1.38135  -0.45772
H            3.66743  -0.60623  -2.61913
H            2.07857   0.16737  -2.48581
H            3.52413   1.14142  -2.83507
C            2.00281  -3.51834  -0.12857
H            2.47697  -3.45233   0.84883
H            1.41624  -4.43085  -0.18421
H            2.77422  -3.53458  -0.89521