      -----------------------------------------------------------      
     |                   =====================                   |     
     |                           x T B                           |     
     |                   =====================                   |     
     |                         S. Grimme                         |     
     |          Mulliken Center for Theoretical Chemistry        |     
     |                    University of Bonn                     |     
      -----------------------------------------------------------      

   * xtb version 6.6.1 (8d0f1dd) compiled by 'stahn@M-Bot' on 2023-08-01

   xtb is free software: you can redistribute it and/or modify it under
   the terms of the GNU Lesser General Public License as published by
   the Free Software Foundation, either version 3 of the License, or
   (at your option) any later version.
   
   xtb is distributed in the hope that it will be useful,
   but WITHOUT ANY WARRANTY; without even the implied warranty of
   MERCHANTABILITY or FITNESS FOR A PARTICULAR PURPOSE.  See the
   GNU Lesser General Public License for more details.
   
   Cite this work as:
   * C. Bannwarth, E. Caldeweyher, S. Ehlert, A. Hansen, P. Pracht,
     J. Seibert, S. Spicher, S. Grimme, WIREs Comput. Mol. Sci., 2020, 11,
     e01493. DOI: 10.1002/wcms.1493
   
   for GFN2-xTB:
   * C. Bannwarth, S. Ehlert and S. Grimme., J. Chem. Theory Comput., 2019,
     15, 1652-1671. DOI: 10.1021/acs.jctc.8b01176
   for GFN1-xTB:
   * S. Grimme, C. Bannwarth, P. Shushkov, J. Chem. Theory Comput., 2017,
     13, 1989-2009. DOI: 10.1021/acs.jctc.7b00118
   for GFN0-xTB:
   * P. Pracht, E. Caldeweyher, S. Ehlert, S. Grimme, ChemRxiv, 2019, preprint.
     DOI: 10.26434/chemrxiv.8326202.v1
   for GFN-FF:
   * S. Spicher and S. Grimme, Angew. Chem. Int. Ed., 2020, 59, 15665-15673.
     DOI: 10.1002/anie.202004239
   
   for ALPB and GBSA implicit solvation:
   * S. Ehlert, M. Stahn, S. Spicher, S. Grimme, J. Chem. Theory Comput.,
     2021, 17, 4250-4261. DOI: 10.1021/acs.jctc.1c00471
   
   for DFT-D4:
   * E. Caldeweyher, C. Bannwarth and S. Grimme, J. Chem. Phys., 2017,
     147, 034112. DOI: 10.1063/1.4993215
   * E. Caldeweyher, S. Ehlert, A. Hansen, H. Neugebauer, S. Spicher,
     C. Bannwarth and S. Grimme, J. Chem. Phys., 2019, 150, 154122.
     DOI: 10.1063/1.5090222
   * E. Caldeweyher, J.-M. Mewes, S. Ehlert and S. Grimme, Phys. Chem. Chem. Phys.
     2020, 22, 8499-8512. DOI: 10.1039/D0CP00502A
   
   for sTDA-xTB:
   * S. Grimme and C. Bannwarth, J. Chem. Phys., 2016, 145, 054103.
     DOI: 10.1063/1.4959605
   
   in the mass-spec context:
   * V. Asgeirsson, C. Bauer and S. Grimme, Chem. Sci., 2017, 8, 4879.
     DOI: 10.1039/c7sc00601b
   * J. Koopman and S. Grimme, ACS Omega 2019, 4, 12, 15120-15133.
     DOI: 10.1021/acsomega.9b02011
   
   for metadynamics refer to:
   * S. Grimme, J. Chem. Theory Comput., 2019, 155, 2847-2862
     DOI: 10.1021/acs.jctc.9b00143
   
   for SPH calculations refer to:
   * S. Spicher and S. Grimme, J. Chem. Theory Comput., 2021, 17, 1701-1714
     DOI: 10.1021/acs.jctc.0c01306
   
   with help from (in alphabetical order)
   P. Atkinson, C. Bannwarth, F. Bohle, G. Brandenburg, E. Caldeweyher
   M. Checinski, S. Dohm, S. Ehlert, S. Ehrlich, I. Gerasimov, C. Hölzer
   A. Katbashev, J. Koopman, C. Lavigne, S. Lehtola, F. März, M. Müller,
   F. Musil, H. Neugebauer, J. Pisarek, C. Plett, P. Pracht, F. Pultar,
   J. Seibert, P. Shushkov, S. Spicher, M. Stahn, M. Steiner, T. Strunk,
   J. Stückrath, T. Rose, and J. Unsleber
   
 * started run on 2024/10/14 at 23:22:58.385     

           -------------------------------------------------
          |                Calculation Setup                |
           -------------------------------------------------

          program call               : xtb tsopted.xyz --gfn 2 --charge 0 --vfukui
          coordinate file            : tsopted.xyz
          omp threads                :                    12

   ID    Z sym.   atoms
    1   26 Fe     1
    2    6 C      2, 4, 8, 10, 12-14, 19, 20, 22-26, 34, 35, 42-44, 52
    3   46 Pd     3
    4    1 H      5-7, 15-18, 27, 29-32, 36-41, 45-51, 53-55
    5    8 O      9, 11, 21
    6    7 N      28, 33

molecular fragmentation (1/2 indicates fragments):
1111111111111111111111111111111111111111122222222221111
# atoms in fragment 1/2:    45    10
 fragment masses (1/2) :      463.62       43.09
CMA distance (Bohr)    :   8.394
constraining FC (au)   :  0.0500

           -------------------------------------------------
          |                 G F N 2 - x T B                 |
           -------------------------------------------------

        Reference                      10.1021/acs.jctc.8b01176
      * Hamiltonian:
        H0-scaling (s, p, d)           1.850000    2.230000    2.230000
        zeta-weighting                 0.500000
      * Dispersion:
        s8                             2.700000
        a1                             0.520000
        a2                             5.000000
        s9                             5.000000
      * Repulsion:
        kExp                           1.500000    1.000000
        rExp                           1.000000
      * Coulomb:
        alpha                          2.000000
        third order                    shell-resolved
        anisotropic                    true
        a3                             3.000000
        a5                             4.000000
        cn-shift                       1.200000
        cn-exp                         4.000000
        max-rad                        5.000000


          ...................................................
          :                      SETUP                      :
          :.................................................:
          :  # basis functions                 148          :
          :  # atomic orbitals                 146          :
          :  # shells                           84          :
          :  # electrons                       154          :
          :  max. iterations                   250          :
          :  Hamiltonian                  GFN2-xTB          :
          :  restarted?                      false          :
          :  GBSA solvation                  false          :
          :  PC potential                    false          :
          :  electronic temp.          300.0000000     K    :
          :  accuracy                    1.0000000          :
          :  -> integral cutoff          0.2500000E+02      :
          :  -> integral neglect         0.1000000E-07      :
          :  -> SCF convergence          0.1000000E-05 Eh   :
          :  -> wf. convergence          0.1000000E-03 e    :
          :  Broyden damping             0.4000000          :
          ...................................................

 iter      E             dE          RMSdq      gap      omega  full diag
   1    -83.7084825 -0.837085E+02  0.794E+00    1.68       0.0  T
   2    -84.0226929 -0.314210E+00  0.477E+00    1.59       1.0  T
   3    -84.0602292 -0.375363E-01  0.312E+00    1.71       1.0  T
   4    -84.0735542 -0.133250E-01  0.192E+00    1.63       1.0  T
   5    -84.0679594  0.559484E-02  0.131E+00    1.58       1.0  T
   6    -84.0808378 -0.128784E-01  0.731E-01    1.57       1.0  T
   7    -84.0822630 -0.142528E-02  0.395E-01    1.57       1.0  T
   8    -84.0855969 -0.333386E-02  0.194E-01    1.57       1.0  T
   9    -84.0862702 -0.673340E-03  0.123E-01    1.58       1.0  T
  10    -84.0863937 -0.123467E-03  0.500E-02    1.56       1.0  T
  11    -84.0864012 -0.751121E-05  0.277E-02    1.57       1.0  T
  12    -84.0864105 -0.927421E-05  0.131E-02    1.56       1.0  T
  13    -84.0864129 -0.238547E-05  0.475E-03    1.56       2.8  T
  14    -84.0864132 -0.288415E-06  0.229E-03    1.56       5.9  T
  15    -84.0864132 -0.462858E-07  0.934E-04    1.56      14.4  T
  16    -84.0864132 -0.518487E-08  0.465E-04    1.56      29.0  T

   *** convergence criteria satisfied after 16 iterations ***

         #    Occupation            Energy/Eh            Energy/eV
      -------------------------------------------------------------
         1        2.0000           -0.8637555             -23.5040
       ...           ...                  ...                  ...
        71        2.0000           -0.3691766             -10.0458
        72        2.0000           -0.3615632              -9.8386
        73        2.0000           -0.3569757              -9.7138
        74        2.0000           -0.3506308              -9.5412
        75        2.0000           -0.3479529              -9.4683
        76        2.0000           -0.3290515              -8.9539
        77        2.0000           -0.3216074              -8.7514 (HOMO)
        78                         -0.2641139              -7.1869 (LUMO)
        79                         -0.2524075              -6.8684
        80                         -0.2366174              -6.4387
        81                         -0.1855291              -5.0485
        82                         -0.1767779              -4.8104
       ...                                ...                  ...
       146                          7.0648164             192.2434
      -------------------------------------------------------------
                  HL-Gap            0.0574935 Eh            1.5645 eV
             Fermi-level           -0.2928606 Eh           -7.9691 eV

 SCC (total)                   0 d,  0 h,  0 min,  0.064 sec
 SCC setup                      ...        0 min,  0.003 sec (  5.155%)
 Dispersion                     ...        0 min,  0.001 sec (  1.243%)
 classical contributions        ...        0 min,  0.000 sec (  0.060%)
 integral evaluation            ...        0 min,  0.005 sec (  7.300%)
 iterations                     ...        0 min,  0.046 sec ( 71.332%)
 molecular gradient             ...        0 min,  0.006 sec (  9.615%)
 printout                       ...        0 min,  0.003 sec (  5.244%)

         :::::::::::::::::::::::::::::::::::::::::::::::::::::
         ::                     SUMMARY                     ::
         :::::::::::::::::::::::::::::::::::::::::::::::::::::
         :: total energy             -82.986802819427 Eh    ::
         :: gradient norm              0.000056437277 Eh/a0 ::
         :: HOMO-LUMO gap              1.564477716439 eV    ::
         ::.................................................::
         :: SCC energy               -84.086413207538 Eh    ::
         :: -> isotropic ES           -0.076117429275 Eh    ::
         :: -> anisotropic ES         -0.022422699718 Eh    ::
         :: -> anisotropic XC          0.020690292545 Eh    ::
         :: -> dispersion             -0.084286696695 Eh    ::
         :: repulsion energy           1.096917922922 Eh    ::
         :: add. restraining           0.000000000000 Eh    ::
         :: total charge               0.000000000000 e     ::
         :::::::::::::::::::::::::::::::::::::::::::::::::::::


Fukui index Calculation

 iter      E             dE          RMSdq      gap      omega  full diag
   1    -84.2132490 -0.842132E+02  0.861E-01    0.32       0.0  T
   2    -84.1603878  0.528612E-01  0.172E+00    0.60       1.0  T
   3    -84.2630759 -0.102688E+00  0.497E-01    0.33       1.0  T
   4    -84.2640540 -0.978040E-03  0.443E-01    0.33       1.0  T
   5    -84.2609810  0.307290E-02  0.400E-01    0.31       1.0  T
   6    -84.2652843 -0.430324E-02  0.178E-01    0.34       1.0  T
   7    -84.2653356 -0.512912E-04  0.116E-01    0.34       1.0  T
   8    -84.2655606 -0.225035E-03  0.462E-02    0.35       1.0  T
   9    -84.2656005 -0.398878E-04  0.186E-02    0.35       1.0  T
  10    -84.2656092 -0.870779E-05  0.831E-03    0.35       1.6  T
  11    -84.2656098 -0.610600E-06  0.477E-03    0.35       2.8  T
  12    -84.2656102 -0.426515E-06  0.253E-03    0.35       5.3  T
  13    -84.2656103 -0.456251E-07  0.157E-03    0.35       8.6  T
  14    -84.2656103 -0.140746E-07  0.113E-03    0.35      11.9  T
  15    -84.2656103 -0.215099E-07  0.513E-04    0.35      26.3  T
  16    -84.2656103  0.114781E-09  0.362E-04    0.35      37.3  T
     SCC iter.                  ...        0 min,  0.051 sec
     gradient                   ...        0 min,  0.009 sec

 iter      E             dE          RMSdq      gap      omega  full diag
   1    -83.6558100 -0.836558E+02  0.655E-01    1.56       0.0  T
   2    -83.6340556  0.217544E-01  0.101E+00    1.98       1.0  T
   3    -83.6843161 -0.502605E-01  0.497E-01    1.89       1.0  T
   4    -83.6819921  0.232403E-02  0.480E-01    1.91       1.0  T
   5    -83.6856535 -0.366148E-02  0.285E-01    1.89       1.0  T
   6    -83.6802219  0.543161E-02  0.390E-01    1.90       1.0  T
   7    -83.6865152 -0.629331E-02  0.123E-01    1.86       1.0  T
   8    -83.6870013 -0.486091E-03  0.625E-02    1.87       1.0  T
   9    -83.6870959 -0.945379E-04  0.276E-02    1.87       1.0  T
  10    -83.6871035 -0.760851E-05  0.173E-02    1.87       1.0  T
  11    -83.6871040 -0.526919E-06  0.124E-02    1.87       1.1  T
  12    -83.6871096 -0.556568E-05  0.652E-03    1.87       2.1  T
  13    -83.6871109 -0.135288E-05  0.410E-03    1.87       3.3  T
  14    -83.6871112 -0.308074E-06  0.295E-03    1.87       4.6  T
  15    -83.6871107  0.568272E-06  0.378E-03    1.87       3.6  T
  16    -83.6871114 -0.752195E-06  0.433E-04    1.87      31.1  T
  17    -83.6871114 -0.218509E-08  0.255E-04    1.87      52.8  T
     SCC iter.                  ...        0 min,  0.057 sec
     gradient                   ...        0 min,  0.006 sec

     #        f(+)     f(-)     f(0)
     1Fe     -0.121   -0.076   -0.098
     2C       0.001   -0.011   -0.005
     3Pd     -0.194   -0.209   -0.202
     4C       0.017    0.018    0.017
     5H      -0.044   -0.033   -0.039
     6H      -0.043   -0.032   -0.038
     7H      -0.039   -0.022   -0.031
     8C      -0.004   -0.012   -0.008
     9O      -0.047   -0.102   -0.075
    10C      -0.014   -0.007   -0.010
    11O       0.005   -0.050   -0.023
    12C      -0.005   -0.000   -0.003
    13C      -0.010   -0.006   -0.008
    14C      -0.008   -0.004   -0.006
    15H      -0.038   -0.018   -0.028
    16H      -0.044   -0.034   -0.039
    17H      -0.044   -0.035   -0.040
    18H       0.011    0.025    0.018
    19C      -0.019   -0.005   -0.012
    20C       0.012   -0.008    0.002
    21O       0.002   -0.022   -0.010
    22C      -0.004    0.003   -0.001
    23C      -0.006   -0.004   -0.005
    24C      -0.016   -0.006   -0.011
    25C      -0.008   -0.004   -0.006
    26C      -0.005    0.001   -0.002
    27H      -0.038   -0.013   -0.026
    28N      -0.009   -0.010   -0.010
    29H      -0.034   -0.040   -0.037
    30H      -0.011   -0.015   -0.013
    31H      -0.042   -0.037   -0.040
    32H      -0.039   -0.022   -0.030
    33N       0.010    0.005    0.007
    34C       0.018    0.018    0.018
    35C       0.016    0.016    0.016
    36H      -0.021   -0.026   -0.024
    37H      -0.004   -0.003   -0.004
    38H      -0.027   -0.022   -0.024
    39H      -0.029   -0.032   -0.030
    40H      -0.017   -0.008   -0.012
    41H      -0.004   -0.008   -0.006
    42C       0.001   -0.001   -0.000
    43C       0.010    0.011    0.011
    44C       0.008    0.008    0.008
    45H      -0.016   -0.019   -0.017
    46H      -0.018   -0.025   -0.021
    47H      -0.009   -0.008   -0.008
    48H       0.003   -0.000    0.001
    49H      -0.017   -0.019   -0.018
    50H       0.011    0.003    0.007
    51H      -0.020   -0.027   -0.023
    52C       0.011    0.014    0.012
    53H      -0.021   -0.023   -0.022
    54H      -0.023   -0.030   -0.026
    55H      -0.025   -0.028   -0.027
           -------------------------------------------------
          |                Property Printout                |
           -------------------------------------------------

    * Orbital Energies and Occupations

         #    Occupation            Energy/Eh            Energy/eV
      -------------------------------------------------------------
         1        2.0000           -0.8637555             -23.5040
       ...           ...                  ...                  ...
        65        2.0000           -0.4003138             -10.8931
        66        2.0000           -0.3899390             -10.6108
        67        2.0000           -0.3887221             -10.5777
        68        2.0000           -0.3777682             -10.2796
        69        2.0000           -0.3754959             -10.2178
        70        2.0000           -0.3714056             -10.1065
        71        2.0000           -0.3691766             -10.0458
        72        2.0000           -0.3615632              -9.8386
        73        2.0000           -0.3569757              -9.7138
        74        2.0000           -0.3506308              -9.5412
        75        2.0000           -0.3479529              -9.4683
        76        2.0000           -0.3290515              -8.9539
        77        2.0000           -0.3216074              -8.7514 (HOMO)
        78                         -0.2641139              -7.1869 (LUMO)
        79                         -0.2524075              -6.8684
        80                         -0.2366174              -6.4387
        81                         -0.1855291              -5.0485
        82                         -0.1767779              -4.8104
        83                         -0.1692814              -4.6064
        84                         -0.1666153              -4.5338
        85                         -0.1553235              -4.2266
        86                         -0.1469957              -4.0000
        87                         -0.0990902              -2.6964
        88                         -0.0168954              -0.4597
       ...                                ...                  ...
       146                          7.0648164             192.2434
      -------------------------------------------------------------
                  HL-Gap            0.0574935 Eh            1.5645 eV
             Fermi-level           -0.2928606 Eh           -7.9691 eV

     #   Z          covCN         q      C6AA      α(0)
     1  26 Fe      10.250     1.604   107.434    18.278
     2   6 C        2.732     0.369    20.739     7.456
     3  46 Pd       5.121    -0.255   378.931    35.551
     4   6 C        3.867    -0.046    21.345     6.570
     5   1 H        0.927     0.066     2.126     2.280
     6   1 H        0.927     0.044     2.390     2.417
     7   1 H        0.927     0.078     1.994     2.208
     8   6 C        2.772     0.255    22.710     7.805
     9   8 O        0.856    -0.500    23.776     6.538
    10   6 C        4.072    -0.111    22.532     6.742
    11   8 O        0.862    -0.548    24.870     6.686
    12   6 C        3.934    -0.139    23.096     6.830
    13   6 C        3.878    -0.147    23.273     6.859
    14   6 C        3.873    -0.159    23.535     6.898
    15   1 H        0.927     0.102     1.766     2.078
    16   1 H        0.927     0.062     2.172     2.305
    17   1 H        0.927     0.047     2.362     2.403
    18   1 H        1.861     0.097     1.798     2.094
    19   6 C        3.775    -0.171    23.850     6.958
    20   6 C        3.916     0.031    19.986     6.354
    21   8 O        1.478    -0.462    22.251     6.359
    22   6 C        3.878    -0.148    23.301     6.863
    23   6 C        3.893    -0.152    23.376     6.873
    24   6 C        3.894    -0.150    23.334     6.867
    25   6 C        3.887    -0.149    23.308     6.864
    26   6 C        3.885    -0.102    22.396     6.728
    27   1 H        0.927     0.105     1.742     2.064
    28   7 N        2.672    -0.214    25.661     7.523
    29   1 H        0.924     0.024     2.673     2.557
    30   1 H        0.925     0.047     2.358     2.401
    31   1 H        0.923     0.044     2.399     2.422
    32   1 H        0.927     0.101     1.776     2.084
    33   7 N        3.478    -0.058    22.352     7.022
    34   6 C        3.708    -0.053    21.675     6.654
    35   6 C        3.756    -0.034    21.235     6.570
    36   1 H        0.924     0.036     2.510     2.477
    37   1 H        0.924     0.092     1.859     2.132
    38   1 H        0.925     0.055     2.263     2.352
    39   1 H        0.923     0.026     2.638     2.540
    40   1 H        0.924     0.074     2.037     2.232
    41   1 H        0.924     0.076     2.019     2.222
    42   6 C        3.858     0.002    20.512     6.441
    43   6 C        3.755    -0.107    22.598     6.778
    44   6 C        3.752    -0.105    22.563     6.774
    45   1 H        0.925     0.035     2.512     2.478
    46   1 H        0.925     0.029     2.596     2.520
    47   1 H        0.925     0.050     2.323     2.384
    48   1 H        0.921     0.086     1.918     2.166
    49   1 H        0.925     0.036     2.506     2.476
    50   1 H        0.924     0.075     2.031     2.229
    51   1 H        0.925     0.034     2.536     2.490
    52   6 C        3.753    -0.129    23.034     6.844
    53   1 H        0.925     0.052     2.301     2.372
    54   1 H        0.925     0.057     2.240     2.341
    55   1 H        0.925     0.045     2.381     2.413

 Mol. C6AA /au·bohr⁶  :      36076.800468
 Mol. C8AA /au·bohr⁸  :    1098807.727163
 Mol. α(0) /au        :        289.824074


Wiberg/Mayer (AO) data.
largest (>0.10) Wiberg bond orders for each atom

 ---------------------------------------------------------------------------
     #   Z sym  total        # sym  WBO       # sym  WBO       # sym  WBO
 ---------------------------------------------------------------------------
     1  26 Fe   0.595 --    14 C    0.224    10 C    0.209    12 C    0.205
                            24 C    0.201    13 C    0.195    22 C    0.174
                            25 C    0.170    23 C    0.162    19 C    0.153
     2   6 C    3.936 --     9 O    1.637    21 O    1.347    20 C    0.869
     3  46 Pd   4.114 --    19 C    0.849    28 N    0.661    18 H    0.625
                            21 O    0.448    33 N    0.396    26 C    0.156
                            22 C    0.124    10 C    0.113    12 C    0.104
     4   6 C    3.972 --    10 C    1.008    33 N    0.975    30 H    0.969
                            31 H    0.958
     5   1 H    0.994 --    24 C    0.986
     6   1 H    0.996 --    23 C    0.984
     7   1 H    0.993 --    22 C    0.956
     8   6 C    3.958 --    11 O    1.465    28 N    1.404    52 C    0.966
     9   8 O    1.949 --     2 C    1.637    21 O    0.199
    10   6 C    3.957 --    14 C    1.286    19 C    1.196     4 C    1.008
                             1 Fe   0.209     3 Pd   0.113
    11   8 O    1.901 --     8 C    1.465    28 N    0.202
    12   6 C    3.968 --    13 C    1.344    19 C    1.205    15 H    0.961
                             1 Fe   0.205     3 Pd   0.104
    13   6 C    3.970 --    12 C    1.344    14 C    1.266    16 H    0.986
                             1 Fe   0.195
    14   6 C    3.973 --    10 C    1.286    13 C    1.266    17 H    0.988
                             1 Fe   0.224
    15   1 H    0.988 --    12 C    0.961
    16   1 H    0.994 --    13 C    0.986
    17   1 H    0.996 --    14 C    0.988
    18   1 H    0.990 --     3 Pd   0.625    26 C    0.148
    19   6 C    3.714 --    12 C    1.205    10 C    1.196     3 Pd   0.849
                             1 Fe   0.153
    20   6 C    3.971 --    28 N    0.980    29 H    0.953    42 C    0.951
                             2 C    0.869
    21   8 O    2.154 --     2 C    1.347     3 Pd   0.448     9 O    0.199
    22   6 C    3.975 --    23 C    1.346    26 C    1.211     7 H    0.956
                             1 Fe   0.174     3 Pd   0.124
    23   6 C    3.975 --    22 C    1.346    24 C    1.275     6 H    0.984
                             1 Fe   0.162
    24   6 C    3.974 --    25 C    1.333    23 C    1.275     5 H    0.986
                             1 Fe   0.201
    25   6 C    3.963 --    24 C    1.333    26 C    1.283    32 H    0.978
                             1 Fe   0.170
    26   6 C    3.973 --    25 C    1.283    22 C    1.211    27 H    0.951
                             3 Pd   0.156    18 H    0.148
    27   1 H    0.987 --    26 C    0.951
    28   7 N    3.440 --     8 C    1.404    20 C    0.980     3 Pd   0.661
                            11 O    0.202
    29   1 H    0.997 --    20 C    0.953
    30   1 H    0.997 --     4 C    0.969
    31   1 H    0.995 --     4 C    0.958
    32   1 H    0.989 --    25 C    0.978
    33   7 N    3.447 --    35 C    0.993    34 C    0.986     4 C    0.975
                             3 Pd   0.396
    34   6 C    3.971 --    33 N    0.986    36 H    0.981    38 H    0.979
                            37 H    0.953
    35   6 C    3.974 --    33 N    0.993    39 H    0.973    41 H    0.963
                            40 H    0.952
    36   1 H    0.997 --    34 C    0.981
    37   1 H    0.990 --    34 C    0.953
    38   1 H    0.996 --    34 C    0.979
    39   1 H    0.997 --    35 C    0.973
    40   1 H    0.993 --    35 C    0.952
    41   1 H    0.993 --    35 C    0.963
    42   6 C    3.987 --    43 C    1.011    44 C    0.999    20 C    0.951
                            48 H    0.878
    43   6 C    3.994 --    42 C    1.011    46 H    0.987    45 H    0.985
                            47 H    0.983
    44   6 C    3.993 --    42 C    0.999    49 H    0.987    51 H    0.985
                            50 H    0.942
    45   1 H    0.998 --    43 C    0.985
    46   1 H    0.999 --    43 C    0.987
    47   1 H    0.997 --    43 C    0.983
    48   1 H    0.992 --    42 C    0.878
    49   1 H    0.998 --    44 C    0.987
    50   1 H    0.993 --    44 C    0.942
    51   1 H    0.998 --    44 C    0.985
    52   6 C    3.991 --    54 H    0.986    55 H    0.974    53 H    0.971
                             8 C    0.966
    53   1 H    0.997 --    52 C    0.971
    54   1 H    0.997 --    52 C    0.986
    55   1 H    0.998 --    52 C    0.974
 ---------------------------------------------------------------------------

Topologies differ in total number of bonds
Writing topology from bond orders to xtbtopo.mol

molecular dipole:
                 x           y           z       tot (Debye)
 q only:       -4.289       1.537      -1.681
   full:       -2.991       2.433      -1.226      10.284
molecular quadrupole (traceless):
                xx          xy          yy          xz          yz          zz
 q only:        2.322       4.210      12.424     -22.449       3.821     -14.747
  q+dip:        3.993      -1.064      18.965     -24.463       7.365     -22.958
   full:       -0.849      -2.658      19.045     -23.218       5.384     -18.196


           -------------------------------------------------
          | TOTAL ENERGY              -82.986802819427 Eh   |
          | GRADIENT NORM               0.000056437277 Eh/α |
          | HOMO-LUMO GAP               1.564477716439 eV   |
           -------------------------------------------------

------------------------------------------------------------------------
 * finished run on 2024/10/14 at 23:22:58.758     
------------------------------------------------------------------------
 total:
 * wall-time:     0 d,  0 h,  0 min,  0.372 sec
 *  cpu-time:     0 d,  0 h,  0 min,  4.092 sec
 * ratio c/w:    10.992 speedup
 SCF:
 * wall-time:     0 d,  0 h,  0 min,  0.068 sec
 *  cpu-time:     0 d,  0 h,  0 min,  0.799 sec
 * ratio c/w:    11.687 speedup

