      -----------------------------------------------------------      
     |                   =====================                   |     
     |                           x T B                           |     
     |                   =====================                   |     
     |                         S. Grimme                         |     
     |          Mulliken Center for Theoretical Chemistry        |     
     |                    University of Bonn                     |     
      -----------------------------------------------------------      

   * xtb version 6.6.1 (8d0f1dd) compiled by 'stahn@M-Bot' on 2023-08-01

   xtb is free software: you can redistribute it and/or modify it under
   the terms of the GNU Lesser General Public License as published by
   the Free Software Foundation, either version 3 of the License, or
   (at your option) any later version.
   
   xtb is distributed in the hope that it will be useful,
   but WITHOUT ANY WARRANTY; without even the implied warranty of
   MERCHANTABILITY or FITNESS FOR A PARTICULAR PURPOSE.  See the
   GNU Lesser General Public License for more details.
   
   Cite this work as:
   * C. Bannwarth, E. Caldeweyher, S. Ehlert, A. Hansen, P. Pracht,
     J. Seibert, S. Spicher, S. Grimme, WIREs Comput. Mol. Sci., 2020, 11,
     e01493. DOI: 10.1002/wcms.1493
   
   for GFN2-xTB:
   * C. Bannwarth, S. Ehlert and S. Grimme., J. Chem. Theory Comput., 2019,
     15, 1652-1671. DOI: 10.1021/acs.jctc.8b01176
   for GFN1-xTB:
   * S. Grimme, C. Bannwarth, P. Shushkov, J. Chem. Theory Comput., 2017,
     13, 1989-2009. DOI: 10.1021/acs.jctc.7b00118
   for GFN0-xTB:
   * P. Pracht, E. Caldeweyher, S. Ehlert, S. Grimme, ChemRxiv, 2019, preprint.
     DOI: 10.26434/chemrxiv.8326202.v1
   for GFN-FF:
   * S. Spicher and S. Grimme, Angew. Chem. Int. Ed., 2020, 59, 15665-15673.
     DOI: 10.1002/anie.202004239
   
   for ALPB and GBSA implicit solvation:
   * S. Ehlert, M. Stahn, S. Spicher, S. Grimme, J. Chem. Theory Comput.,
     2021, 17, 4250-4261. DOI: 10.1021/acs.jctc.1c00471
   
   for DFT-D4:
   * E. Caldeweyher, C. Bannwarth and S. Grimme, J. Chem. Phys., 2017,
     147, 034112. DOI: 10.1063/1.4993215
   * E. Caldeweyher, S. Ehlert, A. Hansen, H. Neugebauer, S. Spicher,
     C. Bannwarth and S. Grimme, J. Chem. Phys., 2019, 150, 154122.
     DOI: 10.1063/1.5090222
   * E. Caldeweyher, J.-M. Mewes, S. Ehlert and S. Grimme, Phys. Chem. Chem. Phys.
     2020, 22, 8499-8512. DOI: 10.1039/D0CP00502A
   
   for sTDA-xTB:
   * S. Grimme and C. Bannwarth, J. Chem. Phys., 2016, 145, 054103.
     DOI: 10.1063/1.4959605
   
   in the mass-spec context:
   * V. Asgeirsson, C. Bauer and S. Grimme, Chem. Sci., 2017, 8, 4879.
     DOI: 10.1039/c7sc00601b
   * J. Koopman and S. Grimme, ACS Omega 2019, 4, 12, 15120-15133.
     DOI: 10.1021/acsomega.9b02011
   
   for metadynamics refer to:
   * S. Grimme, J. Chem. Theory Comput., 2019, 155, 2847-2862
     DOI: 10.1021/acs.jctc.9b00143
   
   for SPH calculations refer to:
   * S. Spicher and S. Grimme, J. Chem. Theory Comput., 2021, 17, 1701-1714
     DOI: 10.1021/acs.jctc.0c01306
   
   with help from (in alphabetical order)
   P. Atkinson, C. Bannwarth, F. Bohle, G. Brandenburg, E. Caldeweyher
   M. Checinski, S. Dohm, S. Ehlert, S. Ehrlich, I. Gerasimov, C. Hölzer
   A. Katbashev, J. Koopman, C. Lavigne, S. Lehtola, F. März, M. Müller,
   F. Musil, H. Neugebauer, J. Pisarek, C. Plett, P. Pracht, F. Pultar,
   J. Seibert, P. Shushkov, S. Spicher, M. Stahn, M. Steiner, T. Strunk,
   J. Stückrath, T. Rose, and J. Unsleber
   
 * started run on 2024/10/14 at 23:22:58.820     

           -------------------------------------------------
          |                Calculation Setup                |
           -------------------------------------------------

          program call               : xtb tsopted.xyz --gfn 2 --charge 0 --vipea
          coordinate file            : tsopted.xyz
          omp threads                :                    12

   ID    Z sym.   atoms
    1   26 Fe     1
    2    6 C      2, 4, 8, 10, 12-14, 19, 20, 22-26, 34, 35, 42-44, 52
    3   46 Pd     3
    4    1 H      5-7, 15-18, 27, 29-32, 36-41, 45-51, 53-55
    5    8 O      9, 11, 21
    6    7 N      28, 33

molecular fragmentation (1/2 indicates fragments):
1111111111111111111111111111111111111111122222222221111
# atoms in fragment 1/2:    45    10
 fragment masses (1/2) :      463.62       43.09
CMA distance (Bohr)    :   8.394
constraining FC (au)   :  0.0500

           -------------------------------------------------
          |                 G F N 2 - x T B                 |
           -------------------------------------------------

        Reference                      10.1021/acs.jctc.8b01176
      * Hamiltonian:
        H0-scaling (s, p, d)           1.850000    2.230000    2.230000
        zeta-weighting                 0.500000
      * Dispersion:
        s8                             2.700000
        a1                             0.520000
        a2                             5.000000
        s9                             5.000000
      * Repulsion:
        kExp                           1.500000    1.000000
        rExp                           1.000000
      * Coulomb:
        alpha                          2.000000
        third order                    shell-resolved
        anisotropic                    true
        a3                             3.000000
        a5                             4.000000
        cn-shift                       1.200000
        cn-exp                         4.000000
        max-rad                        5.000000

q/qsh data taken from xtbrestart
CAMM data taken from xtbrestart

          ...................................................
          :                      SETUP                      :
          :.................................................:
          :  # basis functions                 148          :
          :  # atomic orbitals                 146          :
          :  # shells                           84          :
          :  # electrons                       154          :
          :  max. iterations                   250          :
          :  Hamiltonian                  GFN2-xTB          :
          :  restarted?                       true          :
          :  GBSA solvation                  false          :
          :  PC potential                    false          :
          :  electronic temp.          300.0000000     K    :
          :  accuracy                    1.0000000          :
          :  -> integral cutoff          0.2500000E+02      :
          :  -> integral neglect         0.1000000E-07      :
          :  -> SCF convergence          0.1000000E-05 Eh   :
          :  -> wf. convergence          0.1000000E-03 e    :
          :  Broyden damping             0.4000000          :
          ...................................................

 iter      E             dE          RMSdq      gap      omega  full diag
   1    -84.0864132 -0.840864E+02  0.289E-04    1.56       0.0  T
   2    -84.0864132 -0.301156E-09  0.193E-04    1.56      69.8  T
   3    -84.0864132 -0.140119E-09  0.163E-04    1.56      82.6  T

   *** convergence criteria satisfied after 3 iterations ***

         #    Occupation            Energy/Eh            Energy/eV
      -------------------------------------------------------------
         1        2.0000           -0.8637606             -23.5041
       ...           ...                  ...                  ...
        71        2.0000           -0.3691736             -10.0457
        72        2.0000           -0.3615618              -9.8386
        73        2.0000           -0.3569748              -9.7138
        74        2.0000           -0.3506297              -9.5411
        75        2.0000           -0.3479523              -9.4683
        76        2.0000           -0.3290493              -8.9539
        77        2.0000           -0.3216066              -8.7514 (HOMO)
        78                         -0.2641113              -7.1868 (LUMO)
        79                         -0.2524047              -6.8683
        80                         -0.2366168              -6.4387
        81                         -0.1855277              -5.0485
        82                         -0.1767767              -4.8103
       ...                                ...                  ...
       146                          7.0648286             192.2438
      -------------------------------------------------------------
                  HL-Gap            0.0574953 Eh            1.5645 eV
             Fermi-level           -0.2928589 Eh           -7.9691 eV

 SCC (total)                   0 d,  0 h,  0 min,  0.029 sec
 SCC setup                      ...        0 min,  0.003 sec ( 10.881%)
 Dispersion                     ...        0 min,  0.001 sec (  1.997%)
 classical contributions        ...        0 min,  0.000 sec (  0.130%)
 integral evaluation            ...        0 min,  0.005 sec ( 16.393%)
 iterations                     ...        0 min,  0.011 sec ( 37.343%)
 molecular gradient             ...        0 min,  0.006 sec ( 21.268%)
 printout                       ...        0 min,  0.003 sec ( 11.875%)

         :::::::::::::::::::::::::::::::::::::::::::::::::::::
         ::                     SUMMARY                     ::
         :::::::::::::::::::::::::::::::::::::::::::::::::::::
         :: total energy             -82.986802820926 Eh    ::
         :: gradient norm              0.000056234130 Eh/a0 ::
         :: HOMO-LUMO gap              1.564527901448 eV    ::
         ::.................................................::
         :: SCC energy               -84.086413209037 Eh    ::
         :: -> isotropic ES           -0.076124705082 Eh    ::
         :: -> anisotropic ES         -0.022424268820 Eh    ::
         :: -> anisotropic XC          0.020690153763 Eh    ::
         :: -> dispersion             -0.084286889542 Eh    ::
         :: repulsion energy           1.096917922922 Eh    ::
         :: add. restraining           0.000000000000 Eh    ::
         :: total charge              -0.000000000000 e     ::
         :::::::::::::::::::::::::::::::::::::::::::::::::::::

           ------------------------------------------------- 
          |        vertical delta SCC IP calculation        |
           ------------------------------------------------- 

 iter      E             dE          RMSdq      gap      omega  full diag
   1    -83.6558095 -0.836558E+02  0.655E-01    1.56       0.0  T
   2    -83.6340524  0.217571E-01  0.101E+00    1.98       1.0  T
   3    -83.6843169 -0.502645E-01  0.497E-01    1.89       1.0  T
   4    -83.6819944  0.232249E-02  0.480E-01    1.91       1.0  T
   5    -83.6856540 -0.365958E-02  0.285E-01    1.89       1.0  T
   6    -83.6802224  0.543159E-02  0.390E-01    1.90       1.0  T
   7    -83.6865155 -0.629310E-02  0.123E-01    1.86       1.0  T
   8    -83.6870012 -0.485665E-03  0.626E-02    1.87       1.0  T
   9    -83.6870959 -0.947493E-04  0.276E-02    1.87       1.0  T
  10    -83.6871035 -0.753696E-05  0.174E-02    1.87       1.0  T
  11    -83.6871040 -0.527567E-06  0.124E-02    1.87       1.1  T
  12    -83.6871096 -0.558983E-05  0.651E-03    1.87       2.1  T
  13    -83.6871109 -0.134739E-05  0.410E-03    1.87       3.3  T
  14    -83.6871112 -0.307163E-06  0.295E-03    1.87       4.6  T
  15    -83.6871107  0.567898E-06  0.377E-03    1.87       3.6  T
  16    -83.6871114 -0.751513E-06  0.433E-04    1.87      31.1  T
  17    -83.6871114 -0.218681E-08  0.255E-04    1.87      52.9  T
     SCC iter.                  ...        0 min,  0.050 sec
     gradient                   ...        0 min,  0.006 sec
------------------------------------------------------------------------
empirical IP shift (eV):    4.8455
delta SCC IP (eV):    6.0201
------------------------------------------------------------------------
           ------------------------------------------------- 
          |        vertical delta SCC EA calculation        |
           ------------------------------------------------- 

 iter      E             dE          RMSdq      gap      omega  full diag
   1    -84.1682306 -0.841682E+02  0.118E+00    0.38       0.0  T
   2    -84.1711955 -0.296494E-02  0.186E+00    0.43       1.0  T
   3    -84.2514224 -0.802269E-01  0.837E-01    0.30       1.0  T
   4    -84.2496943  0.172808E-02  0.836E-01    0.33       1.0  T
   5    -84.2582593 -0.856504E-02  0.583E-01    0.31       1.0  T
   6    -84.2647635 -0.650413E-02  0.286E-01    0.34       1.0  T
   7    -84.2653944 -0.630896E-03  0.167E-01    0.34       1.0  T
   8    -84.2654661 -0.717246E-04  0.725E-02    0.35       1.0  T
   9    -84.2655981 -0.132044E-03  0.253E-02    0.35       1.0  T
  10    -84.2656011 -0.298500E-05  0.163E-02    0.35       1.0  T
  11    -84.2656091 -0.792679E-05  0.772E-03    0.35       1.7  T
  12    -84.2656099 -0.839468E-06  0.552E-03    0.35       2.4  T
  13    -84.2656101 -0.248477E-06  0.316E-03    0.35       4.3  T
  14    -84.2656102 -0.107276E-06  0.171E-03    0.35       7.9  T
  15    -84.2656103 -0.682150E-07  0.871E-04    0.35      15.5  T
  16    -84.2656103 -0.145530E-07  0.415E-04    0.35      32.5  T
     SCC iter.                  ...        0 min,  0.047 sec
     gradient                   ...        0 min,  0.007 sec
------------------------------------------------------------------------
empirical EA shift (eV):    4.8455
delta SCC EA (eV):    0.0307
------------------------------------------------------------------------
           -------------------------------------------------
          |                Property Printout                |
           -------------------------------------------------

    * Orbital Energies and Occupations

         #    Occupation            Energy/Eh            Energy/eV
      -------------------------------------------------------------
         1        2.0000           -0.7157461             -19.4764
       ...           ...                  ...                  ...
        66        2.0000           -0.2423961              -6.5959
        67        2.0000           -0.2385925              -6.4924
        68        2.0000           -0.2332370              -6.3467
        69        2.0000           -0.2243544              -6.1050
        70        2.0000           -0.2238544              -6.0914
        71        2.0000           -0.2135497              -5.8110
        72        2.0000           -0.2075829              -5.6486
        73        2.0000           -0.2037991              -5.5457
        74        2.0000           -0.1919824              -5.2241
        75        2.0000           -0.1895753              -5.1586
        76        2.0000           -0.1848450              -5.0299
        77        2.0000           -0.1668837              -4.5411
        78        0.9984           -0.0968108              -2.6344 (HOMO)
        79        0.0009           -0.0840172              -2.2862 (LUMO)
        80        0.0007           -0.0838492              -2.2817
        81                         -0.0395288              -1.0756
        82                         -0.0287690              -0.7828
        83                         -0.0256610              -0.6983
        84                         -0.0150118              -0.4085
        85                         -0.0074140              -0.2017
        86                          0.0106594               0.2901
        87                          0.0595623               1.6208
        88                          0.1141453               3.1061
        89                          0.1617677               4.4019
       ...                                ...                  ...
       146                          7.2057099             196.0773
      -------------------------------------------------------------
                  HL-Gap            0.0127936 Eh            0.3481 eV
             Fermi-level           -0.1112754 Eh           -3.0280 eV

     #   Z          covCN         q      C6AA      α(0)
     1  26 Fe      10.250     1.484   108.788    18.393
     2   6 C        2.732     0.370    20.725     7.453
     3  46 Pd       5.121    -0.449   390.903    36.108
     4   6 C        3.867    -0.029    21.048     6.524
     5   1 H        0.927     0.022     2.702     2.570
     6   1 H        0.927     0.002     3.029     2.721
     7   1 H        0.927     0.039     2.456     2.451
     8   6 C        2.772     0.251    22.790     7.819
     9   8 O        0.856    -0.547    24.847     6.683
    10   6 C        4.072    -0.125    22.802     6.783
    11   8 O        0.862    -0.543    24.754     6.671
    12   6 C        3.934    -0.144    23.203     6.845
    13   6 C        3.878    -0.157    23.480     6.889
    14   6 C        3.873    -0.168    23.708     6.923
    15   1 H        0.927     0.064     2.147     2.291
    16   1 H        0.927     0.018     2.759     2.597
    17   1 H        0.927     0.003     3.008     2.712
    18   1 H        1.861     0.108     1.700     2.035
    19   6 C        3.775    -0.189    24.238     7.015
    20   6 C        3.916     0.043    19.790     6.323
    21   8 O        1.478    -0.460    22.208     6.353
    22   6 C        3.878    -0.152    23.375     6.874
    23   6 C        3.893    -0.158    23.496     6.891
    24   6 C        3.894    -0.166    23.654     6.914
    25   6 C        3.887    -0.156    23.466     6.887
    26   6 C        3.885    -0.107    22.496     6.743
    27   1 H        0.927     0.067     2.123     2.279
    28   7 N        2.672    -0.223    25.869     7.554
    29   1 H        0.924    -0.010     3.234     2.812
    30   1 H        0.925     0.036     2.500     2.472
    31   1 H        0.923     0.002     3.031     2.723
    32   1 H        0.927     0.062     2.172     2.304
    33   7 N        3.478    -0.048    22.158     6.991
    34   6 C        3.708    -0.035    21.352     6.605
    35   6 C        3.756    -0.018    20.948     6.526
    36   1 H        0.924     0.014     2.820     2.626
    37   1 H        0.924     0.088     1.900     2.156
    38   1 H        0.925     0.028     2.613     2.528
    39   1 H        0.923    -0.003     3.107     2.757
    40   1 H        0.924     0.058     2.223     2.332
    41   1 H        0.924     0.072     2.060     2.245
    42   6 C        3.858     0.003    20.499     6.439
    43   6 C        3.755    -0.097    22.407     6.749
    44   6 C        3.752    -0.097    22.410     6.751
    45   1 H        0.925     0.020     2.736     2.587
    46   1 H        0.925     0.012     2.863     2.646
    47   1 H        0.925     0.041     2.437     2.441
    48   1 H        0.921     0.089     1.889     2.150
    49   1 H        0.925     0.019     2.747     2.592
    50   1 H        0.924     0.086     1.921     2.167
    51   1 H        0.925     0.014     2.825     2.628
    52   6 C        3.753    -0.118    22.821     6.812
    53   1 H        0.925     0.031     2.576     2.510
    54   1 H        0.925     0.033     2.539     2.492
    55   1 H        0.925     0.020     2.734     2.586

 Mol. C6AA /au·bohr⁶  :      37305.997023
 Mol. C8AA /au·bohr⁸  :    1127392.371341
 Mol. α(0) /au        :        294.928586


Wiberg/Mayer (AO) data.
largest (>0.10) Wiberg bond orders for each atom

 ---------------------------------------------------------------------------
     #   Z sym  total        # sym  WBO       # sym  WBO       # sym  WBO
 ---------------------------------------------------------------------------
     1  26 Fe   0.479 --    10 C    0.216    12 C    0.216    25 C    0.183
                            14 C    0.176    22 C    0.157    23 C    0.156
                            13 C    0.146    24 C    0.138
     2   6 C    3.936 --     9 O    1.593    21 O    1.387    20 C    0.868
     3  46 Pd   4.078 --    19 C    0.867    18 H    0.600    28 N    0.574
                            21 O    0.397    33 N    0.357    26 C    0.173
                            22 C    0.133    10 C    0.114    12 C    0.106
     4   6 C    3.969 --    10 C    1.002    33 N    0.972    30 H    0.971
                            31 H    0.961
     5   1 H    0.998 --    24 C    0.993
     6   1 H    0.998 --    23 C    0.987
     7   1 H    0.998 --    22 C    0.961
     8   6 C    3.963 --    11 O    1.469    28 N    1.417    52 C    0.958
     9   8 O    1.901 --     2 C    1.593    21 O    0.204
    10   6 C    3.946 --    14 C    1.281    19 C    1.197     4 C    1.002
                             1 Fe   0.216     3 Pd   0.114
    11   8 O    1.902 --     8 C    1.469    28 N    0.210
    12   6 C    3.973 --    13 C    1.343    19 C    1.202    15 H    0.967
                             1 Fe   0.216     3 Pd   0.106
    13   6 C    3.966 --    12 C    1.343    14 C    1.298    16 H    0.991
                             1 Fe   0.146
    14   6 C    3.966 --    13 C    1.298    10 C    1.281    17 H    0.992
                             1 Fe   0.176
    15   1 H    0.995 --    12 C    0.967
    16   1 H    0.998 --    13 C    0.991
    17   1 H    0.998 --    14 C    0.992
    18   1 H    0.988 --     3 Pd   0.600    26 C    0.150
    19   6 C    3.658 --    12 C    1.202    10 C    1.197     3 Pd   0.867
    20   6 C    3.975 --    28 N    0.989    29 H    0.955    42 C    0.952
                             2 C    0.868
    21   8 O    2.137 --     2 C    1.387     3 Pd   0.397     9 O    0.204
    22   6 C    3.971 --    23 C    1.322    26 C    1.231     7 H    0.961
                             1 Fe   0.157     3 Pd   0.133
    23   6 C    3.969 --    22 C    1.322    24 C    1.300     6 H    0.987
                             1 Fe   0.156
    24   6 C    3.964 --    25 C    1.340    23 C    1.300     5 H    0.993
                             1 Fe   0.138
    25   6 C    3.966 --    24 C    1.340    26 C    1.271    32 H    0.985
                             1 Fe   0.183
    26   6 C    3.975 --    25 C    1.271    22 C    1.231    27 H    0.958
                             3 Pd   0.173    18 H    0.150
    27   1 H    0.993 --    26 C    0.958
    28   7 N    3.402 --     8 C    1.417    20 C    0.989     3 Pd   0.574
                            11 O    0.210
    29   1 H    0.996 --    20 C    0.955
    30   1 H    0.998 --     4 C    0.971
    31   1 H    0.997 --     4 C    0.961
    32   1 H    0.995 --    25 C    0.985
    33   7 N    3.421 --    35 C    1.000    34 C    0.992     4 C    0.972
                             3 Pd   0.357
    34   6 C    3.980 --    33 N    0.992    36 H    0.982    38 H    0.981
                            37 H    0.955
    35   6 C    3.982 --    33 N    1.000    39 H    0.973    41 H    0.963
                            40 H    0.956
    36   1 H    0.998 --    34 C    0.982
    37   1 H    0.991 --    34 C    0.955
    38   1 H    0.998 --    34 C    0.981
    39   1 H    0.998 --    35 C    0.973
    40   1 H    0.995 --    35 C    0.956
    41   1 H    0.994 --    35 C    0.963
    42   6 C    3.984 --    43 C    1.009    44 C    0.999    20 C    0.952
                            48 H    0.882
    43   6 C    3.996 --    42 C    1.009    46 H    0.988    45 H    0.986
                            47 H    0.985
    44   6 C    3.993 --    42 C    0.999    49 H    0.988    51 H    0.987
                            50 H    0.942
    45   1 H    0.999 --    43 C    0.986
    46   1 H    0.999 --    43 C    0.988
    47   1 H    0.998 --    43 C    0.985
    48   1 H    0.991 --    42 C    0.882
    49   1 H    0.999 --    44 C    0.988
    50   1 H    0.991 --    44 C    0.942
    51   1 H    0.999 --    44 C    0.987
    52   6 C    3.991 --    54 H    0.988    55 H    0.978    53 H    0.977
                             8 C    0.958
    53   1 H    0.999 --    52 C    0.977
    54   1 H    0.999 --    52 C    0.988
    55   1 H    0.999 --    52 C    0.978
 ---------------------------------------------------------------------------

Topologies differ in total number of bonds
Writing topology from bond orders to xtbtopo.mol

molecular dipole:
                 x           y           z       tot (Debye)
 q only:       -2.989       1.873      -1.741
   full:       -1.491       2.718      -1.137       8.394
molecular quadrupole (traceless):
                xx          xy          yy          xz          yz          zz
 q only:      -13.564       4.528      15.536     -23.073       3.068      -1.972
  q+dip:      -10.643      -1.357      22.964     -25.344       7.571     -12.321
   full:      -15.239      -3.272      23.427     -24.186       5.859      -8.188


           -------------------------------------------------
          | TOTAL ENERGY              -83.165999940904 Eh   |
          | GRADIENT NORM               0.093865445861 Eh/α |
          | HOMO-LUMO GAP               0.348130528641 eV   |
           -------------------------------------------------

------------------------------------------------------------------------
 * finished run on 2024/10/14 at 23:22:59.182     
------------------------------------------------------------------------
 total:
 * wall-time:     0 d,  0 h,  0 min,  0.362 sec
 *  cpu-time:     0 d,  0 h,  0 min,  3.936 sec
 * ratio c/w:    10.866 speedup
 SCF:
 * wall-time:     0 d,  0 h,  0 min,  0.156 sec
 *  cpu-time:     0 d,  0 h,  0 min,  1.847 sec
 * ratio c/w:    11.810 speedup

