      -----------------------------------------------------------      
     |                   =====================                   |     
     |                           x T B                           |     
     |                   =====================                   |     
     |                         S. Grimme                         |     
     |          Mulliken Center for Theoretical Chemistry        |     
     |                    University of Bonn                     |     
      -----------------------------------------------------------      

   * xtb version 6.6.1 (8d0f1dd) compiled by 'stahn@M-Bot' on 2023-08-01

   xtb is free software: you can redistribute it and/or modify it under
   the terms of the GNU Lesser General Public License as published by
   the Free Software Foundation, either version 3 of the License, or
   (at your option) any later version.
   
   xtb is distributed in the hope that it will be useful,
   but WITHOUT ANY WARRANTY; without even the implied warranty of
   MERCHANTABILITY or FITNESS FOR A PARTICULAR PURPOSE.  See the
   GNU Lesser General Public License for more details.
   
   Cite this work as:
   * C. Bannwarth, E. Caldeweyher, S. Ehlert, A. Hansen, P. Pracht,
     J. Seibert, S. Spicher, S. Grimme, WIREs Comput. Mol. Sci., 2020, 11,
     e01493. DOI: 10.1002/wcms.1493
   
   for GFN2-xTB:
   * C. Bannwarth, S. Ehlert and S. Grimme., J. Chem. Theory Comput., 2019,
     15, 1652-1671. DOI: 10.1021/acs.jctc.8b01176
   for GFN1-xTB:
   * S. Grimme, C. Bannwarth, P. Shushkov, J. Chem. Theory Comput., 2017,
     13, 1989-2009. DOI: 10.1021/acs.jctc.7b00118
   for GFN0-xTB:
   * P. Pracht, E. Caldeweyher, S. Ehlert, S. Grimme, ChemRxiv, 2019, preprint.
     DOI: 10.26434/chemrxiv.8326202.v1
   for GFN-FF:
   * S. Spicher and S. Grimme, Angew. Chem. Int. Ed., 2020, 59, 15665-15673.
     DOI: 10.1002/anie.202004239
   
   for ALPB and GBSA implicit solvation:
   * S. Ehlert, M. Stahn, S. Spicher, S. Grimme, J. Chem. Theory Comput.,
     2021, 17, 4250-4261. DOI: 10.1021/acs.jctc.1c00471
   
   for DFT-D4:
   * E. Caldeweyher, C. Bannwarth and S. Grimme, J. Chem. Phys., 2017,
     147, 034112. DOI: 10.1063/1.4993215
   * E. Caldeweyher, S. Ehlert, A. Hansen, H. Neugebauer, S. Spicher,
     C. Bannwarth and S. Grimme, J. Chem. Phys., 2019, 150, 154122.
     DOI: 10.1063/1.5090222
   * E. Caldeweyher, J.-M. Mewes, S. Ehlert and S. Grimme, Phys. Chem. Chem. Phys.
     2020, 22, 8499-8512. DOI: 10.1039/D0CP00502A
   
   for sTDA-xTB:
   * S. Grimme and C. Bannwarth, J. Chem. Phys., 2016, 145, 054103.
     DOI: 10.1063/1.4959605
   
   in the mass-spec context:
   * V. Asgeirsson, C. Bauer and S. Grimme, Chem. Sci., 2017, 8, 4879.
     DOI: 10.1039/c7sc00601b
   * J. Koopman and S. Grimme, ACS Omega 2019, 4, 12, 15120-15133.
     DOI: 10.1021/acsomega.9b02011
   
   for metadynamics refer to:
   * S. Grimme, J. Chem. Theory Comput., 2019, 155, 2847-2862
     DOI: 10.1021/acs.jctc.9b00143
   
   for SPH calculations refer to:
   * S. Spicher and S. Grimme, J. Chem. Theory Comput., 2021, 17, 1701-1714
     DOI: 10.1021/acs.jctc.0c01306
   
   with help from (in alphabetical order)
   P. Atkinson, C. Bannwarth, F. Bohle, G. Brandenburg, E. Caldeweyher
   M. Checinski, S. Dohm, S. Ehlert, S. Ehrlich, I. Gerasimov, C. Hölzer
   A. Katbashev, J. Koopman, C. Lavigne, S. Lehtola, F. März, M. Müller,
   F. Musil, H. Neugebauer, J. Pisarek, C. Plett, P. Pracht, F. Pultar,
   J. Seibert, P. Shushkov, S. Spicher, M. Stahn, M. Steiner, T. Strunk,
   J. Stückrath, T. Rose, and J. Unsleber
   
 * started run on 2024/10/14 at 18:32:35.142     

           -------------------------------------------------
          |                Calculation Setup                |
           -------------------------------------------------

          program call               : xtb tsopted.xyz --gfn 2 --charge 0
          coordinate file            : tsopted.xyz
          omp threads                :                    12

   ID    Z sym.   atoms
    1   26 Fe     1
    2    6 C      2, 4, 8, 10, 12-14, 19, 20, 22-26, 34-45, 57, 58, 65-68,
                  79-82
    3   46 Pd     3
    4    1 H      5-7, 15-18, 27, 29-31, 46-55, 59-64, 69-77, 83-91
    5    8 O      9, 11, 21, 33, 78
    6    7 N      28, 56
    7   15 P      32

molecular fragmentation (1/2 indicates fragments):
111111111111111111111111111111111111111111111111111111111111211111111111
1111111111111111111
# atoms in fragment 1/2:    90     1
 fragment masses (1/2) :      777.98        1.01
CMA distance (Bohr)    :   8.766
constraining FC (au)   :  0.0500

           -------------------------------------------------
          |                 G F N 2 - x T B                 |
           -------------------------------------------------

        Reference                      10.1021/acs.jctc.8b01176
      * Hamiltonian:
        H0-scaling (s, p, d)           1.850000    2.230000    2.230000
        zeta-weighting                 0.500000
      * Dispersion:
        s8                             2.700000
        a1                             0.520000
        a2                             5.000000
        s9                             5.000000
      * Repulsion:
        kExp                           1.500000    1.000000
        rExp                           1.000000
      * Coulomb:
        alpha                          2.000000
        third order                    shell-resolved
        anisotropic                    true
        a3                             3.000000
        a5                             4.000000
        cn-shift                       1.200000
        cn-exp                         4.000000
        max-rad                        5.000000

q/qsh data taken from xtbrestart
CAMM data taken from xtbrestart

          ...................................................
          :                      SETUP                      :
          :.................................................:
          :  # basis functions                 247          :
          :  # atomic orbitals                 244          :
          :  # shells                          140          :
          :  # electrons                       252          :
          :  max. iterations                   250          :
          :  Hamiltonian                  GFN2-xTB          :
          :  restarted?                       true          :
          :  GBSA solvation                  false          :
          :  PC potential                    false          :
          :  electronic temp.          300.0000000     K    :
          :  accuracy                    1.0000000          :
          :  -> integral cutoff          0.2500000E+02      :
          :  -> integral neglect         0.1000000E-07      :
          :  -> SCF convergence          0.1000000E-05 Eh   :
          :  -> wf. convergence          0.1000000E-03 e    :
          :  Broyden damping             0.4000000          :
          ...................................................

 iter      E             dE          RMSdq      gap      omega  full diag
   1   -138.5888061 -0.138589E+03  0.418E-01    1.93       0.0  T
   2   -138.6003623 -0.115562E-01  0.386E-01    1.96       1.0  T
   3   -138.6033679 -0.300560E-02  0.229E-01    1.97       1.0  T
   4   -138.6034584 -0.905028E-04  0.171E-01    1.97       1.0  T
   5   -138.6038064 -0.348039E-03  0.978E-02    1.97       1.0  T
   6   -138.6038850 -0.786309E-04  0.463E-02    1.97       1.0  T
   7   -138.6039015 -0.164604E-04  0.246E-02    1.97       1.0  T
   8   -138.6039070 -0.553969E-05  0.169E-02    1.97       1.0  T
   9   -138.6039163 -0.930989E-05  0.780E-03    1.97       1.3  T
  10   -138.6039165 -0.146741E-06  0.601E-03    1.97       1.7  T
  11   -138.6039174 -0.936760E-06  0.373E-03    1.97       2.8  T
  12   -138.6039176 -0.181737E-06  0.189E-03    1.97       5.5  T
  13   -138.6039177 -0.415014E-07  0.911E-04    1.97      11.5  T
  14   -138.6039177 -0.635498E-08  0.335E-04    1.97      31.3  T

   *** convergence criteria satisfied after 14 iterations ***

         #    Occupation            Energy/Eh            Energy/eV
      -------------------------------------------------------------
         1        2.0000           -0.8405866             -22.8735
       ...           ...                  ...                  ...
       120        2.0000           -0.3609676              -9.8224
       121        2.0000           -0.3518459              -9.5742
       122        2.0000           -0.3498098              -9.5188
       123        2.0000           -0.3480996              -9.4723
       124        2.0000           -0.3443293              -9.3697
       125        2.0000           -0.3314374              -9.0189
       126        2.0000           -0.3248962              -8.8409 (HOMO)
       127                         -0.2524671              -6.8700 (LUMO)
       128                         -0.2524251              -6.8688
       129                         -0.2397662              -6.5244
       130                         -0.2349641              -6.3937
       131                         -0.2329566              -6.3391
       ...                                ...                  ...
       244                          6.5445527             178.0863
      -------------------------------------------------------------
                  HL-Gap            0.0724291 Eh            1.9709 eV
             Fermi-level           -0.2886816 Eh           -7.8554 eV

 SCC (total)                   0 d,  0 h,  0 min,  0.148 sec
 SCC setup                      ...        0 min,  0.003 sec (  2.209%)
 Dispersion                     ...        0 min,  0.002 sec (  1.682%)
 classical contributions        ...        0 min,  0.000 sec (  0.046%)
 integral evaluation            ...        0 min,  0.008 sec (  5.706%)
 iterations                     ...        0 min,  0.110 sec ( 74.676%)
 molecular gradient             ...        0 min,  0.019 sec ( 12.666%)
 printout                       ...        0 min,  0.004 sec (  2.984%)

         :::::::::::::::::::::::::::::::::::::::::::::::::::::
         ::                     SUMMARY                     ::
         :::::::::::::::::::::::::::::::::::::::::::::::::::::
         :: total energy            -136.662470925482 Eh    ::
         :: gradient norm              0.000047317658 Eh/a0 ::
         :: HOMO-LUMO gap              1.970895321128 eV    ::
         ::.................................................::
         :: SCC energy              -138.603917657009 Eh    ::
         :: -> isotropic ES           -0.029418293338 Eh    ::
         :: -> anisotropic ES         -0.010782149852 Eh    ::
         :: -> anisotropic XC          0.049805380323 Eh    ::
         :: -> dispersion             -0.143890470696 Eh    ::
         :: repulsion energy           1.936220963846 Eh    ::
         :: add. restraining           0.000000000000 Eh    ::
         :: total charge              -0.000021161635 e     ::
         :::::::::::::::::::::::::::::::::::::::::::::::::::::

           -------------------------------------------------
          |                Property Printout                |
           -------------------------------------------------

    * Orbital Energies and Occupations

         #    Occupation            Energy/Eh            Energy/eV
      -------------------------------------------------------------
         1        2.0000           -0.8405866             -22.8735
       ...           ...                  ...                  ...
       114        2.0000           -0.3920528             -10.6683
       115        2.0000           -0.3891969             -10.5906
       116        2.0000           -0.3882261             -10.5642
       117        2.0000           -0.3825580             -10.4099
       118        2.0000           -0.3687029             -10.0329
       119        2.0000           -0.3653196              -9.9409
       120        2.0000           -0.3609676              -9.8224
       121        2.0000           -0.3518459              -9.5742
       122        2.0000           -0.3498098              -9.5188
       123        2.0000           -0.3480996              -9.4723
       124        2.0000           -0.3443293              -9.3697
       125        2.0000           -0.3314374              -9.0189
       126        2.0000           -0.3248962              -8.8409 (HOMO)
       127                         -0.2524671              -6.8700 (LUMO)
       128                         -0.2524251              -6.8688
       129                         -0.2397662              -6.5244
       130                         -0.2349641              -6.3937
       131                         -0.2329566              -6.3391
       132                         -0.2322087              -6.3187
       133                         -0.2279838              -6.2038
       134                         -0.1969454              -5.3592
       135                         -0.1805443              -4.9129
       136                         -0.1694929              -4.6121
       137                         -0.1509762              -4.1083
       ...                                ...                  ...
       244                          6.5445527             178.0863
      -------------------------------------------------------------
                  HL-Gap            0.0724291 Eh            1.9709 eV
             Fermi-level           -0.2886816 Eh           -7.8554 eV

     #   Z          covCN         q      C6AA      α(0)
     1  26 Fe       9.462     1.524   108.337    18.355
     2   6 C        2.724     0.364    20.820     7.470
     3  46 Pd       4.335    -0.296   381.378    35.666
     4   6 C        3.822    -0.038    21.239     6.558
     5   1 H        0.927     0.030     2.585     2.514
     6   1 H        0.927     0.089     1.887     2.148
     7   1 H        0.927     0.118     1.629     1.996
     8   6 C        2.694     0.382    20.529     7.415
     9   8 O        0.856    -0.496    23.700     6.527
    10   6 C        4.083    -0.104    22.389     6.721
    11   8 O        1.602    -0.439    21.655     6.280
    12   6 C        3.926    -0.158    23.478     6.886
    13   6 C        3.893    -0.159    23.521     6.894
    14   6 C        3.878    -0.165    23.651     6.915
    15   1 H        0.927     0.060     2.204     2.321
    16   1 H        0.928     0.088     1.897     2.154
    17   1 H        0.927     0.035     2.510     2.477
    18   1 H        0.834     0.344     0.598     1.213
    19   6 C        3.881    -0.205    24.481     7.035
    20   6 C        3.820     0.016    20.285     6.410
    21   8 O        1.504    -0.433    21.615     6.270
    22   6 C        4.033    -0.158    23.463     6.881
    23   6 C        3.912    -0.135    23.027     6.821
    24   6 C        3.902    -0.160    23.536     6.896
    25   6 C        3.932    -0.137    23.058     6.824
    26   6 C        3.943    -0.124    22.795     6.785
    27   1 H        0.927     0.078     1.996     2.209
    28   7 N        2.666    -0.189    25.111     7.442
    29   1 H        0.924     0.034     2.531     2.488
    30   1 H        0.925     0.042     2.418     2.432
    31   1 H        0.923     0.042     2.417     2.431
    32  15 P        4.200     0.280   148.386    21.882
    33   8 O        0.808    -0.445    22.630     6.377
    34   6 C        2.920    -0.025    28.631     8.775
    35   6 C        3.018    -0.026    28.628     8.777
    36   6 C        2.919    -0.028    28.710     8.787
    37   6 C        2.921    -0.028    28.696     8.785
    38   6 C        2.920    -0.030    28.746     8.792
    39   6 C        2.975    -0.035    28.871     8.814
    40   6 C        2.921    -0.032    28.790     8.799
    41   6 C        2.997    -0.040    28.992     8.833
    42   6 C        2.919    -0.032    28.803     8.801
    43   6 C        2.921    -0.029    28.719     8.788
    44   6 C        2.919    -0.028    28.706     8.786
    45   6 C        3.007    -0.028    28.691     8.786
    46   1 H        0.926     0.047     2.357     2.401
    47   1 H        0.926     0.036     2.502     2.474
    48   1 H        0.926     0.035     2.513     2.479
    49   1 H        0.926     0.036     2.502     2.473
    50   1 H        0.926     0.050     2.321     2.382
    51   1 H        0.926     0.040     2.450     2.448
    52   1 H        0.926     0.034     2.526     2.485
    53   1 H        0.926     0.037     2.493     2.469
    54   1 H        0.926     0.041     2.440     2.443
    55   1 H        0.926     0.061     2.192     2.315
    56   7 N        3.456    -0.051    22.214     7.000
    57   6 C        3.836    -0.044    21.334     6.571
    58   6 C        3.717    -0.056    21.708     6.656
    59   1 H        0.923     0.030     2.581     2.513
    60   1 H        0.924     0.088     1.901     2.156
    61   1 H        0.924     0.105     1.740     2.063
    62   1 H        0.923     0.034     2.526     2.485
    63   1 H        0.924     0.085     1.929     2.172
    64   1 H        0.925     0.052     2.294     2.369
    65   6 C        3.849    -0.021    20.918     6.505
    66   6 C        3.752    -0.143    23.311     6.885
    67   6 C        3.803    -0.057    21.600     6.617
    68   6 C        3.752    -0.108    22.621     6.782
    69   1 H        0.925     0.030     2.588     2.516
    70   1 H        0.925     0.039     2.458     2.452
    71   1 H        0.924     0.064     2.147     2.292
    72   1 H        0.924     0.043     2.404     2.425
    73   1 H        0.924     0.030     2.588     2.516
    74   1 H        0.924     0.027     2.629     2.535
    75   1 H        0.925     0.027     2.636     2.539
    76   1 H        0.925     0.037     2.492     2.469
    77   1 H        0.925     0.054     2.272     2.357
    78   8 O        1.705    -0.276    18.583     5.820
    79   6 C        3.758    -0.119    22.835     6.813
    80   6 C        3.781     0.158    18.076     6.057
    81   6 C        3.756    -0.121    22.876     6.820
    82   6 C        3.756    -0.124    22.925     6.827
    83   1 H        0.925     0.055     2.256     2.349
    84   1 H        0.925     0.057     2.239     2.340
    85   1 H        0.925     0.049     2.339     2.391
    86   1 H        0.925     0.049     2.337     2.391
    87   1 H        0.925     0.044     2.398     2.422
    88   1 H        0.925     0.064     2.150     2.293
    89   1 H        0.925     0.047     2.354     2.399
    90   1 H        0.925     0.046     2.374     2.410
    91   1 H        0.925     0.064     2.151     2.293

 Mol. C6AA /au·bohr⁶  :     101984.266945
 Mol. C8AA /au·bohr⁸  :    2933094.295831
 Mol. α(0) /au        :        496.081728


Wiberg/Mayer (AO) data.
largest (>0.10) Wiberg bond orders for each atom

 ---------------------------------------------------------------------------
     #   Z sym  total        # sym  WBO       # sym  WBO       # sym  WBO
 ---------------------------------------------------------------------------
     1  26 Fe   0.412 --    14 C    0.209    10 C    0.194    13 C    0.192
                            12 C    0.188    23 C    0.186    24 C    0.177
                            22 C    0.169    19 C    0.146    25 C    0.129
                            26 C    0.123
     2   6 C    3.941 --     9 O    1.629    21 O    1.360    20 C    0.873
     3  46 Pd   3.531 --    19 C    0.773    28 N    0.594    21 O    0.471
                            56 N    0.402    26 C    0.205    25 C    0.171
                            10 C    0.118    12 C    0.114
     4   6 C    3.974 --    10 C    1.008    56 N    0.975    30 H    0.971
                            31 H    0.957
     5   1 H    0.996 --    24 C    0.980
     6   1 H    0.989 --    25 C    0.938
     7   1 H    0.984 --    26 C    0.918
     8   6 C    3.934 --    28 N    1.518    11 O    1.157    78 O    1.113
     9   8 O    1.954 --     2 C    1.629    21 O    0.201
    10   6 C    3.960 --    14 C    1.285    19 C    1.207     4 C    1.008
                             1 Fe   0.194     3 Pd   0.118
    11   8 O    2.118 --     8 C    1.157    18 H    0.588    28 N    0.133
    12   6 C    3.975 --    13 C    1.326    19 C    1.234    15 H    0.968
                             1 Fe   0.188     3 Pd   0.114
    13   6 C    3.968 --    12 C    1.326    14 C    1.295    16 H    0.960
                             1 Fe   0.192
    14   6 C    3.972 --    13 C    1.295    10 C    1.285    17 H    0.978
                             1 Fe   0.209
    15   1 H    0.994 --    12 C    0.968
    16   1 H    0.990 --    13 C    0.960
    17   1 H    0.997 --    14 C    0.978
    18   1 H    0.879 --    11 O    0.588    19 C    0.180
    19   6 C    3.823 --    12 C    1.234    10 C    1.207     3 Pd   0.773
                            18 H    0.180     1 Fe   0.146
    20   6 C    3.956 --    28 N    0.979    65 C    0.953    29 H    0.947
                             2 C    0.873
    21   8 O    2.180 --     2 C    1.360     3 Pd   0.471     9 O    0.201
    22   6 C    3.968 --    26 C    1.313    23 C    1.269    27 H    0.973
                             1 Fe   0.169
    23   6 C    3.965 --    22 C    1.269    24 C    1.259    32 P    0.981
                             1 Fe   0.186
    24   6 C    3.970 --    25 C    1.326    23 C    1.259     5 H    0.980
                             1 Fe   0.177
    25   6 C    3.977 --    24 C    1.326    26 C    1.266     6 H    0.938
                             3 Pd   0.171     1 Fe   0.129
    26   6 C    3.980 --    22 C    1.313    25 C    1.266     7 H    0.918
                             3 Pd   0.205     1 Fe   0.123
    27   1 H    0.992 --    22 C    0.973
    28   7 N    3.431 --     8 C    1.518    20 C    0.979     3 Pd   0.594
                            11 O    0.133
    29   1 H    0.998 --    20 C    0.947
    30   1 H    0.997 --     4 C    0.971
    31   1 H    0.995 --     4 C    0.957
    32  15 P    5.011 --    33 O    1.976    23 C    0.981    40 C    0.917
                            34 C    0.912
    33   8 O    2.170 --    32 P    1.976
    34   6 C    3.985 --    39 C    1.411    35 C    1.402    32 P    0.912
                            37 C    0.107
    35   6 C    3.990 --    36 C    1.448    34 C    1.402    46 H    0.960
                            38 C    0.111
    36   6 C    3.991 --    35 C    1.448    37 C    1.435    47 H    0.970
                            39 C    0.110
    37   6 C    3.988 --    38 C    1.440    36 C    1.435    48 H    0.971
                            34 C    0.107
    38   6 C    3.992 --    39 C    1.441    37 C    1.440    49 H    0.970
                            35 C    0.111
    39   6 C    3.990 --    38 C    1.441    34 C    1.411    50 H    0.962
                            36 C    0.110
    40   6 C    3.982 --    45 C    1.410    41 C    1.396    32 P    0.917
                            43 C    0.107
    41   6 C    3.990 --    42 C    1.454    40 C    1.396    51 H    0.964
                            44 C    0.111
    42   6 C    3.993 --    41 C    1.454    43 C    1.429    52 H    0.970
                            45 C    0.108
    43   6 C    3.987 --    44 C    1.443    42 C    1.429    53 H    0.971
                            40 C    0.107
    44   6 C    3.991 --    43 C    1.443    45 C    1.439    54 H    0.970
                            41 C    0.111
    45   6 C    3.987 --    44 C    1.439    40 C    1.410    55 H    0.960
                            42 C    0.108
    46   1 H    0.997 --    35 C    0.960
    47   1 H    0.998 --    36 C    0.970
    48   1 H    0.998 --    37 C    0.971
    49   1 H    0.998 --    38 C    0.970
    50   1 H    0.997 --    39 C    0.962
    51   1 H    0.997 --    41 C    0.964
    52   1 H    0.998 --    42 C    0.970
    53   1 H    0.998 --    43 C    0.971
    54   1 H    0.998 --    44 C    0.970
    55   1 H    0.996 --    45 C    0.960
    56   7 N    3.445 --    58 C    0.997    57 C    0.986     4 C    0.975
                             3 Pd   0.402
    57   6 C    3.973 --    56 N    0.986    59 H    0.970    60 H    0.950
                            61 H    0.932
    58   6 C    3.974 --    56 N    0.997    64 H    0.973    62 H    0.972
                            63 H    0.967
    59   1 H    0.998 --    57 C    0.970
    60   1 H    0.991 --    57 C    0.950
    61   1 H    0.988 --    57 C    0.932
    62   1 H    0.996 --    58 C    0.972
    63   1 H    0.991 --    58 C    0.967
    64   1 H    0.996 --    58 C    0.973
    65   6 C    3.992 --    66 C    1.006    67 C    0.996    72 H    0.961
                            20 C    0.953
    66   6 C    3.991 --    65 C    1.006    70 H    0.985    69 H    0.985
                            71 H    0.942
    67   6 C    3.997 --    68 C    1.020    65 C    0.996    74 H    0.977
                            73 H    0.976
    68   6 C    3.995 --    67 C    1.020    76 H    0.988    75 H    0.988
                            77 H    0.982
    69   1 H    0.998 --    66 C    0.985
    70   1 H    0.998 --    66 C    0.985
    71   1 H    0.994 --    66 C    0.942
    72   1 H    0.997 --    65 C    0.961
    73   1 H    0.999 --    67 C    0.976
    74   1 H    0.999 --    67 C    0.977
    75   1 H    0.999 --    68 C    0.988
    76   1 H    0.999 --    68 C    0.988
    77   1 H    0.997 --    68 C    0.982
    78   8 O    2.275 --     8 C    1.113    80 C    0.898
    79   6 C    3.991 --    80 C    0.994    85 H    0.984    84 H    0.984
                            83 H    0.984
    80   6 C    3.917 --    81 C    0.995    82 C    0.995    79 C    0.994
                            78 O    0.898
    81   6 C    3.991 --    80 C    0.995    86 H    0.985    87 H    0.984
                            88 H    0.979
    82   6 C    3.992 --    80 C    0.995    89 H    0.985    90 H    0.984
                            91 H    0.980
    83   1 H    0.997 --    79 C    0.984
    84   1 H    0.997 --    79 C    0.984
    85   1 H    0.997 --    79 C    0.984
    86   1 H    0.998 --    81 C    0.985
    87   1 H    0.998 --    81 C    0.984
    88   1 H    0.996 --    81 C    0.979
    89   1 H    0.998 --    82 C    0.985
    90   1 H    0.998 --    82 C    0.984
    91   1 H    0.996 --    82 C    0.980
 ---------------------------------------------------------------------------

Topologies differ in total number of bonds
Writing topology from bond orders to xtbtopo.mol

molecular dipole:
                 x           y           z       tot (Debye)
 q only:       -2.380      -3.226      -1.201
   full:       -1.683      -3.666      -0.410      10.305
molecular quadrupole (traceless):
                xx          xy          yy          xz          yz          zz
 q only:        9.476     -14.445       1.230     -39.606     -19.564     -10.706
  q+dip:       18.491     -15.009      -6.813     -38.872     -26.489     -11.679
   full:       17.643     -13.737      -3.375     -39.519     -24.006     -14.268


           -------------------------------------------------
          | TOTAL ENERGY             -136.662470925482 Eh   |
          | GRADIENT NORM               0.000047317658 Eh/α |
          | HOMO-LUMO GAP               1.970895321128 eV   |
           -------------------------------------------------
########################################################################
[WARNING] Runtime exception occurred
-1- restart_readRestart: Multiplicity missmatch in restart file.
########################################################################

------------------------------------------------------------------------
 * finished run on 2024/10/14 at 18:32:35.522     
------------------------------------------------------------------------
 total:
 * wall-time:     0 d,  0 h,  0 min,  0.380 sec
 *  cpu-time:     0 d,  0 h,  0 min,  4.134 sec
 * ratio c/w:    10.891 speedup
 SCF:
 * wall-time:     0 d,  0 h,  0 min,  0.152 sec
 *  cpu-time:     0 d,  0 h,  0 min,  1.799 sec
 * ratio c/w:    11.831 speedup

