      -----------------------------------------------------------      
     |                   =====================                   |     
     |                           x T B                           |     
     |                   =====================                   |     
     |                         S. Grimme                         |     
     |          Mulliken Center for Theoretical Chemistry        |     
     |                    University of Bonn                     |     
      -----------------------------------------------------------      

   * xtb version 6.6.1 (8d0f1dd) compiled by 'stahn@M-Bot' on 2023-08-01

   xtb is free software: you can redistribute it and/or modify it under
   the terms of the GNU Lesser General Public License as published by
   the Free Software Foundation, either version 3 of the License, or
   (at your option) any later version.
   
   xtb is distributed in the hope that it will be useful,
   but WITHOUT ANY WARRANTY; without even the implied warranty of
   MERCHANTABILITY or FITNESS FOR A PARTICULAR PURPOSE.  See the
   GNU Lesser General Public License for more details.
   
   Cite this work as:
   * C. Bannwarth, E. Caldeweyher, S. Ehlert, A. Hansen, P. Pracht,
     J. Seibert, S. Spicher, S. Grimme, WIREs Comput. Mol. Sci., 2020, 11,
     e01493. DOI: 10.1002/wcms.1493
   
   for GFN2-xTB:
   * C. Bannwarth, S. Ehlert and S. Grimme., J. Chem. Theory Comput., 2019,
     15, 1652-1671. DOI: 10.1021/acs.jctc.8b01176
   for GFN1-xTB:
   * S. Grimme, C. Bannwarth, P. Shushkov, J. Chem. Theory Comput., 2017,
     13, 1989-2009. DOI: 10.1021/acs.jctc.7b00118
   for GFN0-xTB:
   * P. Pracht, E. Caldeweyher, S. Ehlert, S. Grimme, ChemRxiv, 2019, preprint.
     DOI: 10.26434/chemrxiv.8326202.v1
   for GFN-FF:
   * S. Spicher and S. Grimme, Angew. Chem. Int. Ed., 2020, 59, 15665-15673.
     DOI: 10.1002/anie.202004239
   
   for ALPB and GBSA implicit solvation:
   * S. Ehlert, M. Stahn, S. Spicher, S. Grimme, J. Chem. Theory Comput.,
     2021, 17, 4250-4261. DOI: 10.1021/acs.jctc.1c00471
   
   for DFT-D4:
   * E. Caldeweyher, C. Bannwarth and S. Grimme, J. Chem. Phys., 2017,
     147, 034112. DOI: 10.1063/1.4993215
   * E. Caldeweyher, S. Ehlert, A. Hansen, H. Neugebauer, S. Spicher,
     C. Bannwarth and S. Grimme, J. Chem. Phys., 2019, 150, 154122.
     DOI: 10.1063/1.5090222
   * E. Caldeweyher, J.-M. Mewes, S. Ehlert and S. Grimme, Phys. Chem. Chem. Phys.
     2020, 22, 8499-8512. DOI: 10.1039/D0CP00502A
   
   for sTDA-xTB:
   * S. Grimme and C. Bannwarth, J. Chem. Phys., 2016, 145, 054103.
     DOI: 10.1063/1.4959605
   
   in the mass-spec context:
   * V. Asgeirsson, C. Bauer and S. Grimme, Chem. Sci., 2017, 8, 4879.
     DOI: 10.1039/c7sc00601b
   * J. Koopman and S. Grimme, ACS Omega 2019, 4, 12, 15120-15133.
     DOI: 10.1021/acsomega.9b02011
   
   for metadynamics refer to:
   * S. Grimme, J. Chem. Theory Comput., 2019, 155, 2847-2862
     DOI: 10.1021/acs.jctc.9b00143
   
   for SPH calculations refer to:
   * S. Spicher and S. Grimme, J. Chem. Theory Comput., 2021, 17, 1701-1714
     DOI: 10.1021/acs.jctc.0c01306
   
   with help from (in alphabetical order)
   P. Atkinson, C. Bannwarth, F. Bohle, G. Brandenburg, E. Caldeweyher
   M. Checinski, S. Dohm, S. Ehlert, S. Ehrlich, I. Gerasimov, C. Hölzer
   A. Katbashev, J. Koopman, C. Lavigne, S. Lehtola, F. März, M. Müller,
   F. Musil, H. Neugebauer, J. Pisarek, C. Plett, P. Pracht, F. Pultar,
   J. Seibert, P. Shushkov, S. Spicher, M. Stahn, M. Steiner, T. Strunk,
   J. Stückrath, T. Rose, and J. Unsleber
   
 * started run on 2024/10/14 at 18:32:32.886     

           -------------------------------------------------
          |                Calculation Setup                |
           -------------------------------------------------

          program call               : xtb tsopted.xyz --gfn 2 --charge 0 --vfukui
          coordinate file            : tsopted.xyz
          omp threads                :                    12

   ID    Z sym.   atoms
    1   26 Fe     1
    2    6 C      2, 4, 8, 10, 12-14, 19, 20, 22-26, 34-45, 57, 58, 65-68,
                  79-82
    3   46 Pd     3
    4    1 H      5-7, 15-18, 27, 29-31, 46-55, 59-64, 69-77, 83-91
    5    8 O      9, 11, 21, 33, 78
    6    7 N      28, 56
    7   15 P      32

molecular fragmentation (1/2 indicates fragments):
111111111111111111111111111111111111111111111111111111111111211111111111
1111111111111111111
# atoms in fragment 1/2:    90     1
 fragment masses (1/2) :      777.98        1.01
CMA distance (Bohr)    :   8.766
constraining FC (au)   :  0.0500

           -------------------------------------------------
          |                 G F N 2 - x T B                 |
           -------------------------------------------------

        Reference                      10.1021/acs.jctc.8b01176
      * Hamiltonian:
        H0-scaling (s, p, d)           1.850000    2.230000    2.230000
        zeta-weighting                 0.500000
      * Dispersion:
        s8                             2.700000
        a1                             0.520000
        a2                             5.000000
        s9                             5.000000
      * Repulsion:
        kExp                           1.500000    1.000000
        rExp                           1.000000
      * Coulomb:
        alpha                          2.000000
        third order                    shell-resolved
        anisotropic                    true
        a3                             3.000000
        a5                             4.000000
        cn-shift                       1.200000
        cn-exp                         4.000000
        max-rad                        5.000000


          ...................................................
          :                      SETUP                      :
          :.................................................:
          :  # basis functions                 247          :
          :  # atomic orbitals                 244          :
          :  # shells                          140          :
          :  # electrons                       252          :
          :  max. iterations                   250          :
          :  Hamiltonian                  GFN2-xTB          :
          :  restarted?                      false          :
          :  GBSA solvation                  false          :
          :  PC potential                    false          :
          :  electronic temp.          300.0000000     K    :
          :  accuracy                    1.0000000          :
          :  -> integral cutoff          0.2500000E+02      :
          :  -> integral neglect         0.1000000E-07      :
          :  -> SCF convergence          0.1000000E-05 Eh   :
          :  -> wf. convergence          0.1000000E-03 e    :
          :  Broyden damping             0.4000000          :
          ...................................................

 iter      E             dE          RMSdq      gap      omega  full diag
   1   -138.1813292 -0.138181E+03  0.668E+00    1.45       0.0  T
   2   -138.5319439 -0.350615E+00  0.404E+00    1.77       1.0  T
   3   -138.5775834 -0.456395E-01  0.249E+00    1.93       1.0  T
   4   -138.5945312 -0.169478E-01  0.136E+00    1.86       1.0  T
   5   -138.6001863 -0.565513E-02  0.866E-01    1.95       1.0  T
   6   -138.6026400 -0.245370E-02  0.542E-01    1.96       1.0  T
   7   -138.6032197 -0.579758E-03  0.238E-01    1.98       1.0  T
   8   -138.6033263 -0.106512E-03  0.143E-01    1.97       1.0  T
   9   -138.6037709 -0.444661E-03  0.783E-02    1.97       1.0  T
  10   -138.6039061 -0.135187E-03  0.412E-02    1.97       1.0  T
  11   -138.6039082 -0.211973E-05  0.225E-02    1.97       1.0  T
  12   -138.6039140 -0.580739E-05  0.113E-02    1.97       1.0  T
  13   -138.6039171 -0.311721E-05  0.531E-03    1.97       2.0  T
  14   -138.6039175 -0.366950E-06  0.214E-03    1.97       4.9  T
  15   -138.6039176 -0.125466E-06  0.952E-04    1.97      11.0  T
  16   -138.6039177 -0.133908E-07  0.531E-04    1.97      19.7  T

   *** convergence criteria satisfied after 16 iterations ***

         #    Occupation            Energy/Eh            Energy/eV
      -------------------------------------------------------------
         1        2.0000           -0.8405618             -22.8729
       ...           ...                  ...                  ...
       120        2.0000           -0.3609668              -9.8224
       121        2.0000           -0.3518459              -9.5742
       122        2.0000           -0.3498094              -9.5188
       123        2.0000           -0.3480986              -9.4722
       124        2.0000           -0.3443282              -9.3696
       125        2.0000           -0.3314365              -9.0188
       126        2.0000           -0.3248954              -8.8409 (HOMO)
       127                         -0.2524639              -6.8699 (LUMO)
       128                         -0.2524227              -6.8688
       129                         -0.2397626              -6.5243
       130                         -0.2349617              -6.3936
       131                         -0.2329542              -6.3390
       ...                                ...                  ...
       244                          6.5445451             178.0861
      -------------------------------------------------------------
                  HL-Gap            0.0724315 Eh            1.9710 eV
             Fermi-level           -0.2886797 Eh           -7.8554 eV

 SCC (total)                   0 d,  0 h,  0 min,  0.164 sec
 SCC setup                      ...        0 min,  0.004 sec (  2.162%)
 Dispersion                     ...        0 min,  0.002 sec (  1.062%)
 classical contributions        ...        0 min,  0.000 sec (  0.038%)
 integral evaluation            ...        0 min,  0.009 sec (  5.741%)
 iterations                     ...        0 min,  0.124 sec ( 75.652%)
 molecular gradient             ...        0 min,  0.020 sec ( 12.269%)
 printout                       ...        0 min,  0.005 sec (  3.047%)

         :::::::::::::::::::::::::::::::::::::::::::::::::::::
         ::                     SUMMARY                     ::
         :::::::::::::::::::::::::::::::::::::::::::::::::::::
         :: total energy            -136.662470923037 Eh    ::
         :: gradient norm              0.000043283099 Eh/a0 ::
         :: HOMO-LUMO gap              1.970961127573 eV    ::
         ::.................................................::
         :: SCC energy              -138.603917654564 Eh    ::
         :: -> isotropic ES           -0.029411863824 Eh    ::
         :: -> anisotropic ES         -0.010781326341 Eh    ::
         :: -> anisotropic XC          0.049805336014 Eh    ::
         :: -> dispersion             -0.143890255782 Eh    ::
         :: repulsion energy           1.936220963846 Eh    ::
         :: add. restraining           0.000000000000 Eh    ::
         :: total charge              -0.000000000000 e     ::
         :::::::::::::::::::::::::::::::::::::::::::::::::::::


Fukui index Calculation

 iter      E             dE          RMSdq      gap      omega  full diag
   1   -138.7767347 -0.138777E+03  0.440E-01    0.00       0.0  T
   2   -138.7533888  0.233459E-01  0.677E-01    0.05       1.0  T
   3   -138.7618437 -0.845494E-02  0.521E-01    0.25       1.0  T
   4   -138.7604353  0.140842E-02  0.544E-01    0.15       1.0  T
   5   -138.7944306 -0.339953E-01  0.248E-01    0.01       1.0  T
   6   -138.7949494 -0.518846E-03  0.203E-01    0.03       1.0  T
   7   -138.7931584  0.179107E-02  0.187E-01    0.03       1.0  T
   8   -138.7979666 -0.480819E-02  0.590E-02    0.02       1.0  T
   9   -138.7982147 -0.248168E-03  0.355E-02    0.01       1.0  T
  10   -138.7982619 -0.472142E-04  0.191E-02    0.01       1.0  T
  11   -138.7982894 -0.274537E-04  0.102E-02    0.01       1.0  T
  12   -138.7982827  0.669692E-05  0.960E-03    0.01       1.1  T
  13   -138.7982763  0.636418E-05  0.109E-02    0.01       1.0  T
  14   -138.7982920 -0.156907E-04  0.461E-03    0.01       2.3  T
  15   -138.7982937 -0.170512E-05  0.251E-03    0.01       4.2  T
  16   -138.7982943 -0.601823E-06  0.101E-03    0.01      10.4  T
  17   -138.7982944 -0.800023E-07  0.535E-04    0.01      19.6  T
  18   -138.7982945 -0.424789E-07  0.146E-04    0.01      71.9  T
     SCC iter.                  ...        0 min,  0.138 sec
     gradient                   ...        0 min,  0.018 sec

 iter      E             dE          RMSdq      gap      omega  full diag
   1   -138.1684050 -0.138168E+03  0.816E-01    1.97       0.0  T
   2   -138.0583360  0.110069E+00  0.120E+00    1.42       1.0  T
   3   -138.1906782 -0.132342E+00  0.581E-01    2.02       1.0  T
   4   -138.2012595 -0.105813E-01  0.460E-01    2.02       1.0  T
   5   -138.2021217 -0.862208E-03  0.313E-01    2.02       1.0  T
   6   -138.2015243  0.597414E-03  0.247E-01    2.00       1.0  T
   7   -138.2049964 -0.347208E-02  0.164E-01    2.01       1.0  T
   8   -138.2071427 -0.214633E-02  0.573E-02    2.01       1.0  T
   9   -138.2070574  0.853032E-04  0.463E-02    2.01       1.0  T
  10   -138.2067784  0.279086E-03  0.643E-02    2.01       1.0  T
  11   -138.2070999 -0.321535E-03  0.359E-02    2.01       1.0  T
  12   -138.2071642 -0.643167E-04  0.257E-02    2.01       1.0  T
  13   -138.2072228 -0.586043E-04  0.994E-03    2.01       1.1  T
  14   -138.2072278 -0.495058E-05  0.588E-03    2.01       1.8  T
  15   -138.2072287 -0.960085E-06  0.433E-03    2.01       2.4  T
  16   -138.2072304 -0.166383E-05  0.951E-04    2.01      11.0  T
  17   -138.2072304 -0.623061E-07  0.480E-04    2.01      21.9  T
  18   -138.2072304  0.128054E-08  0.356E-04    2.01      29.4  T
     SCC iter.                  ...        0 min,  0.130 sec
     gradient                   ...        0 min,  0.020 sec

     #        f(+)     f(-)     f(0)
     1Fe     -0.065   -0.087   -0.076
     2C       0.002   -0.005   -0.001
     3Pd     -0.167   -0.223   -0.195
     4C       0.010    0.017    0.014
     5H      -0.014   -0.030   -0.022
     6H      -0.017   -0.017   -0.017
     7H      -0.018   -0.011   -0.014
     8C      -0.003   -0.007   -0.005
     9O      -0.034   -0.084   -0.059
    10C      -0.004   -0.004   -0.004
    11O      -0.016   -0.029   -0.023
    12C      -0.001    0.002    0.001
    13C       0.003   -0.005   -0.001
    14C       0.002   -0.003   -0.000
    15H      -0.022   -0.025   -0.024
    16H      -0.014   -0.033   -0.023
    17H      -0.008   -0.035   -0.022
    18H      -0.006   -0.003   -0.004
    19C       0.001    0.003    0.002
    20C       0.007   -0.008   -0.000
    21O       0.003   -0.014   -0.005
    22C       0.001   -0.001   -0.000
    23C       0.013   -0.004    0.004
    24C       0.002   -0.002   -0.000
    25C       0.004    0.007    0.006
    26C       0.004    0.005    0.005
    27H      -0.018   -0.025   -0.021
    28N       0.006    0.019    0.013
    29H      -0.022   -0.032   -0.027
    30H      -0.006   -0.017   -0.012
    31H      -0.023   -0.036   -0.030
    32P      -0.093   -0.036   -0.064
    33O       0.003    0.003    0.003
    34C      -0.001    0.006    0.002
    35C      -0.005   -0.002   -0.004
    36C      -0.012   -0.005   -0.009
    37C      -0.021   -0.006   -0.014
    38C      -0.009   -0.003   -0.006
    39C      -0.008    0.002   -0.003
    40C      -0.005    0.014    0.004
    41C      -0.007    0.005   -0.001
    42C      -0.010   -0.002   -0.006
    43C      -0.027   -0.004   -0.016
    44C      -0.012   -0.003   -0.008
    45C      -0.009    0.003   -0.003
    46H      -0.017   -0.007   -0.012
    47H      -0.029   -0.015   -0.022
    48H      -0.033   -0.015   -0.024
    49H      -0.027   -0.010   -0.019
    50H      -0.015    0.008   -0.003
    51H      -0.020   -0.001   -0.010
    52H      -0.032   -0.012   -0.022
    53H      -0.038   -0.016   -0.027
    54H      -0.034   -0.014   -0.024
    55H      -0.024   -0.004   -0.014
    56N       0.007    0.004    0.006
    57C       0.013    0.016    0.014
    58C       0.011    0.016    0.013
    59H      -0.021   -0.032   -0.027
    60H      -0.003   -0.008   -0.005
    61H      -0.010   -0.008   -0.009
    62H      -0.020   -0.029   -0.025
    63H      -0.010   -0.010   -0.010
    64H      -0.006   -0.013   -0.009
    65C       0.003    0.001    0.002
    66C       0.008    0.011    0.009
    67C       0.004    0.005    0.004
    68C       0.005    0.008    0.006
    69H      -0.008   -0.014   -0.011
    70H      -0.011   -0.022   -0.016
    71H       0.015    0.013    0.014
    72H      -0.005   -0.012   -0.009
    73H      -0.009   -0.020   -0.015
    74H      -0.005   -0.009   -0.007
    75H      -0.012   -0.019   -0.016
    76H      -0.006   -0.010   -0.008
    77H      -0.000    0.002    0.001
    78O      -0.018   -0.022   -0.020
    79C       0.005    0.006    0.006
    80C       0.001    0.002    0.001
    81C       0.004    0.005    0.005
    82C       0.004    0.006    0.005
    83H      -0.004   -0.006   -0.005
    84H      -0.006   -0.006   -0.006
    85H      -0.012   -0.016   -0.014
    86H      -0.005   -0.005   -0.005
    87H      -0.013   -0.018   -0.015
    88H       0.002    0.002    0.002
    89H      -0.002   -0.005   -0.004
    90H      -0.013   -0.018   -0.015
    91H       0.004    0.002    0.003
           -------------------------------------------------
          |                Property Printout                |
           -------------------------------------------------

    * Orbital Energies and Occupations

         #    Occupation            Energy/Eh            Energy/eV
      -------------------------------------------------------------
         1        2.0000           -0.8405618             -22.8729
       ...           ...                  ...                  ...
       114        2.0000           -0.3920506             -10.6682
       115        2.0000           -0.3891946             -10.5905
       116        2.0000           -0.3882241             -10.5641
       117        2.0000           -0.3825574             -10.4099
       118        2.0000           -0.3687022             -10.0329
       119        2.0000           -0.3653189              -9.9408
       120        2.0000           -0.3609668              -9.8224
       121        2.0000           -0.3518459              -9.5742
       122        2.0000           -0.3498094              -9.5188
       123        2.0000           -0.3480986              -9.4722
       124        2.0000           -0.3443282              -9.3696
       125        2.0000           -0.3314365              -9.0188
       126        2.0000           -0.3248954              -8.8409 (HOMO)
       127                         -0.2524639              -6.8699 (LUMO)
       128                         -0.2524227              -6.8688
       129                         -0.2397626              -6.5243
       130                         -0.2349617              -6.3936
       131                         -0.2329542              -6.3390
       132                         -0.2322067              -6.3187
       133                         -0.2279808              -6.2037
       134                         -0.1969463              -5.3592
       135                         -0.1805412              -4.9128
       136                         -0.1694880              -4.6120
       137                         -0.1509754              -4.1083
       ...                                ...                  ...
       244                          6.5445451             178.0861
      -------------------------------------------------------------
                  HL-Gap            0.0724315 Eh            1.9710 eV
             Fermi-level           -0.2886797 Eh           -7.8554 eV

     #   Z          covCN         q      C6AA      α(0)
     1  26 Fe       9.462     1.524   108.337    18.355
     2   6 C        2.724     0.364    20.820     7.470
     3  46 Pd       4.335    -0.296   381.376    35.665
     4   6 C        3.822    -0.038    21.239     6.558
     5   1 H        0.927     0.030     2.585     2.514
     6   1 H        0.927     0.089     1.887     2.148
     7   1 H        0.927     0.118     1.629     1.996
     8   6 C        2.694     0.382    20.529     7.415
     9   8 O        0.856    -0.496    23.700     6.527
    10   6 C        4.083    -0.104    22.389     6.721
    11   8 O        1.602    -0.439    21.655     6.280
    12   6 C        3.926    -0.158    23.478     6.886
    13   6 C        3.893    -0.159    23.521     6.894
    14   6 C        3.878    -0.165    23.651     6.915
    15   1 H        0.927     0.060     2.204     2.321
    16   1 H        0.928     0.088     1.897     2.154
    17   1 H        0.927     0.035     2.510     2.477
    18   1 H        0.834     0.344     0.598     1.213
    19   6 C        3.881    -0.205    24.481     7.035
    20   6 C        3.820     0.016    20.285     6.410
    21   8 O        1.504    -0.433    21.615     6.270
    22   6 C        4.033    -0.158    23.463     6.881
    23   6 C        3.912    -0.135    23.028     6.821
    24   6 C        3.902    -0.160    23.536     6.896
    25   6 C        3.932    -0.137    23.058     6.824
    26   6 C        3.943    -0.124    22.795     6.785
    27   1 H        0.927     0.078     1.996     2.209
    28   7 N        2.666    -0.189    25.111     7.442
    29   1 H        0.924     0.034     2.531     2.488
    30   1 H        0.925     0.042     2.418     2.432
    31   1 H        0.923     0.042     2.417     2.431
    32  15 P        4.200     0.280   148.382    21.882
    33   8 O        0.808    -0.445    22.631     6.377
    34   6 C        2.920    -0.025    28.631     8.775
    35   6 C        3.018    -0.026    28.629     8.777
    36   6 C        2.919    -0.028    28.710     8.787
    37   6 C        2.921    -0.028    28.696     8.785
    38   6 C        2.920    -0.030    28.746     8.792
    39   6 C        2.975    -0.035    28.871     8.814
    40   6 C        2.921    -0.032    28.790     8.799
    41   6 C        2.997    -0.040    28.993     8.833
    42   6 C        2.919    -0.032    28.803     8.801
    43   6 C        2.921    -0.029    28.719     8.788
    44   6 C        2.919    -0.028    28.706     8.786
    45   6 C        3.007    -0.028    28.691     8.786
    46   1 H        0.926     0.047     2.357     2.401
    47   1 H        0.926     0.036     2.502     2.474
    48   1 H        0.926     0.035     2.513     2.479
    49   1 H        0.926     0.036     2.502     2.473
    50   1 H        0.926     0.050     2.321     2.382
    51   1 H        0.926     0.040     2.450     2.448
    52   1 H        0.926     0.034     2.526     2.485
    53   1 H        0.926     0.037     2.493     2.469
    54   1 H        0.926     0.041     2.440     2.443
    55   1 H        0.926     0.061     2.192     2.315
    56   7 N        3.456    -0.051    22.214     7.000
    57   6 C        3.836    -0.044    21.334     6.571
    58   6 C        3.717    -0.056    21.709     6.656
    59   1 H        0.923     0.030     2.581     2.513
    60   1 H        0.924     0.088     1.901     2.156
    61   1 H        0.924     0.105     1.740     2.063
    62   1 H        0.923     0.034     2.526     2.485
    63   1 H        0.924     0.085     1.929     2.172
    64   1 H        0.925     0.052     2.294     2.369
    65   6 C        3.849    -0.021    20.918     6.505
    66   6 C        3.752    -0.143    23.311     6.885
    67   6 C        3.803    -0.057    21.600     6.617
    68   6 C        3.752    -0.108    22.621     6.782
    69   1 H        0.925     0.030     2.588     2.516
    70   1 H        0.925     0.039     2.458     2.452
    71   1 H        0.924     0.064     2.147     2.292
    72   1 H        0.924     0.043     2.404     2.425
    73   1 H        0.924     0.030     2.588     2.516
    74   1 H        0.924     0.027     2.629     2.535
    75   1 H        0.925     0.027     2.636     2.539
    76   1 H        0.925     0.037     2.492     2.469
    77   1 H        0.925     0.054     2.272     2.357
    78   8 O        1.705    -0.276    18.583     5.820
    79   6 C        3.758    -0.119    22.835     6.813
    80   6 C        3.781     0.158    18.076     6.057
    81   6 C        3.756    -0.121    22.876     6.820
    82   6 C        3.756    -0.124    22.925     6.827
    83   1 H        0.925     0.055     2.256     2.349
    84   1 H        0.925     0.057     2.239     2.340
    85   1 H        0.925     0.049     2.339     2.391
    86   1 H        0.925     0.049     2.337     2.391
    87   1 H        0.925     0.044     2.398     2.422
    88   1 H        0.925     0.064     2.150     2.293
    89   1 H        0.925     0.047     2.354     2.399
    90   1 H        0.925     0.046     2.375     2.410
    91   1 H        0.925     0.064     2.151     2.293

 Mol. C6AA /au·bohr⁶  :     101984.248843
 Mol. C8AA /au·bohr⁸  :    2933092.283674
 Mol. α(0) /au        :        496.081624


Wiberg/Mayer (AO) data.
largest (>0.10) Wiberg bond orders for each atom

 ---------------------------------------------------------------------------
     #   Z sym  total        # sym  WBO       # sym  WBO       # sym  WBO
 ---------------------------------------------------------------------------
     1  26 Fe   0.412 --    14 C    0.209    10 C    0.194    13 C    0.192
                            12 C    0.188    23 C    0.186    24 C    0.177
                            22 C    0.169    19 C    0.146    25 C    0.129
                            26 C    0.124
     2   6 C    3.941 --     9 O    1.629    21 O    1.360    20 C    0.873
     3  46 Pd   3.531 --    19 C    0.773    28 N    0.594    21 O    0.471
                            56 N    0.402    26 C    0.205    25 C    0.171
                            10 C    0.118    12 C    0.114
     4   6 C    3.974 --    10 C    1.008    56 N    0.975    30 H    0.971
                            31 H    0.957
     5   1 H    0.996 --    24 C    0.980
     6   1 H    0.989 --    25 C    0.938
     7   1 H    0.984 --    26 C    0.918
     8   6 C    3.934 --    28 N    1.518    11 O    1.157    78 O    1.113
     9   8 O    1.954 --     2 C    1.629    21 O    0.201
    10   6 C    3.960 --    14 C    1.285    19 C    1.207     4 C    1.008
                             1 Fe   0.194     3 Pd   0.118
    11   8 O    2.118 --     8 C    1.157    18 H    0.588    28 N    0.133
    12   6 C    3.975 --    13 C    1.326    19 C    1.234    15 H    0.968
                             1 Fe   0.188     3 Pd   0.114
    13   6 C    3.968 --    12 C    1.326    14 C    1.295    16 H    0.960
                             1 Fe   0.192
    14   6 C    3.972 --    13 C    1.295    10 C    1.285    17 H    0.978
                             1 Fe   0.209
    15   1 H    0.994 --    12 C    0.968
    16   1 H    0.990 --    13 C    0.960
    17   1 H    0.997 --    14 C    0.978
    18   1 H    0.879 --    11 O    0.588    19 C    0.180
    19   6 C    3.823 --    12 C    1.234    10 C    1.207     3 Pd   0.773
                            18 H    0.180     1 Fe   0.146
    20   6 C    3.956 --    28 N    0.979    65 C    0.953    29 H    0.947
                             2 C    0.873
    21   8 O    2.180 --     2 C    1.360     3 Pd   0.471     9 O    0.201
    22   6 C    3.968 --    26 C    1.313    23 C    1.269    27 H    0.973
                             1 Fe   0.169
    23   6 C    3.965 --    22 C    1.269    24 C    1.259    32 P    0.981
                             1 Fe   0.186
    24   6 C    3.970 --    25 C    1.326    23 C    1.259     5 H    0.980
                             1 Fe   0.177
    25   6 C    3.977 --    24 C    1.326    26 C    1.266     6 H    0.938
                             3 Pd   0.171     1 Fe   0.129
    26   6 C    3.980 --    22 C    1.313    25 C    1.266     7 H    0.918
                             3 Pd   0.205     1 Fe   0.124
    27   1 H    0.992 --    22 C    0.973
    28   7 N    3.431 --     8 C    1.518    20 C    0.979     3 Pd   0.594
                            11 O    0.133
    29   1 H    0.998 --    20 C    0.947
    30   1 H    0.997 --     4 C    0.971
    31   1 H    0.995 --     4 C    0.957
    32  15 P    5.011 --    33 O    1.976    23 C    0.981    40 C    0.917
                            34 C    0.912
    33   8 O    2.170 --    32 P    1.976
    34   6 C    3.985 --    39 C    1.411    35 C    1.402    32 P    0.912
                            37 C    0.107
    35   6 C    3.990 --    36 C    1.448    34 C    1.402    46 H    0.960
                            38 C    0.111
    36   6 C    3.991 --    35 C    1.448    37 C    1.435    47 H    0.970
                            39 C    0.110
    37   6 C    3.988 --    38 C    1.440    36 C    1.435    48 H    0.971
                            34 C    0.107
    38   6 C    3.992 --    39 C    1.441    37 C    1.440    49 H    0.970
                            35 C    0.111
    39   6 C    3.990 --    38 C    1.441    34 C    1.411    50 H    0.962
                            36 C    0.110
    40   6 C    3.982 --    45 C    1.410    41 C    1.396    32 P    0.917
                            43 C    0.107
    41   6 C    3.990 --    42 C    1.454    40 C    1.396    51 H    0.964
                            44 C    0.111
    42   6 C    3.993 --    41 C    1.454    43 C    1.429    52 H    0.970
                            45 C    0.108
    43   6 C    3.987 --    44 C    1.443    42 C    1.429    53 H    0.971
                            40 C    0.107
    44   6 C    3.991 --    43 C    1.443    45 C    1.439    54 H    0.970
                            41 C    0.111
    45   6 C    3.987 --    44 C    1.439    40 C    1.410    55 H    0.960
                            42 C    0.108
    46   1 H    0.997 --    35 C    0.960
    47   1 H    0.998 --    36 C    0.970
    48   1 H    0.998 --    37 C    0.971
    49   1 H    0.998 --    38 C    0.970
    50   1 H    0.997 --    39 C    0.962
    51   1 H    0.997 --    41 C    0.964
    52   1 H    0.998 --    42 C    0.970
    53   1 H    0.998 --    43 C    0.971
    54   1 H    0.998 --    44 C    0.970
    55   1 H    0.996 --    45 C    0.960
    56   7 N    3.445 --    58 C    0.997    57 C    0.986     4 C    0.975
                             3 Pd   0.402
    57   6 C    3.973 --    56 N    0.986    59 H    0.970    60 H    0.950
                            61 H    0.932
    58   6 C    3.974 --    56 N    0.997    64 H    0.973    62 H    0.972
                            63 H    0.967
    59   1 H    0.998 --    57 C    0.970
    60   1 H    0.991 --    57 C    0.950
    61   1 H    0.988 --    57 C    0.932
    62   1 H    0.996 --    58 C    0.972
    63   1 H    0.991 --    58 C    0.967
    64   1 H    0.996 --    58 C    0.973
    65   6 C    3.992 --    66 C    1.006    67 C    0.996    72 H    0.961
                            20 C    0.953
    66   6 C    3.991 --    65 C    1.006    70 H    0.985    69 H    0.985
                            71 H    0.942
    67   6 C    3.997 --    68 C    1.020    65 C    0.996    74 H    0.977
                            73 H    0.976
    68   6 C    3.995 --    67 C    1.020    76 H    0.988    75 H    0.988
                            77 H    0.982
    69   1 H    0.998 --    66 C    0.985
    70   1 H    0.998 --    66 C    0.985
    71   1 H    0.994 --    66 C    0.942
    72   1 H    0.997 --    65 C    0.961
    73   1 H    0.999 --    67 C    0.976
    74   1 H    0.999 --    67 C    0.977
    75   1 H    0.999 --    68 C    0.988
    76   1 H    0.999 --    68 C    0.988
    77   1 H    0.997 --    68 C    0.982
    78   8 O    2.275 --     8 C    1.113    80 C    0.898
    79   6 C    3.991 --    80 C    0.994    85 H    0.984    84 H    0.984
                            83 H    0.984
    80   6 C    3.917 --    81 C    0.995    82 C    0.995    79 C    0.994
                            78 O    0.898
    81   6 C    3.991 --    80 C    0.995    86 H    0.985    87 H    0.984
                            88 H    0.979
    82   6 C    3.992 --    80 C    0.995    89 H    0.985    90 H    0.984
                            91 H    0.980
    83   1 H    0.997 --    79 C    0.984
    84   1 H    0.997 --    79 C    0.984
    85   1 H    0.997 --    79 C    0.984
    86   1 H    0.998 --    81 C    0.985
    87   1 H    0.998 --    81 C    0.984
    88   1 H    0.996 --    81 C    0.979
    89   1 H    0.998 --    82 C    0.985
    90   1 H    0.998 --    82 C    0.984
    91   1 H    0.996 --    82 C    0.980
 ---------------------------------------------------------------------------

Topologies differ in total number of bonds
Writing topology from bond orders to xtbtopo.mol

molecular dipole:
                 x           y           z       tot (Debye)
 q only:       -2.380      -3.226      -1.201
   full:       -1.683      -3.666      -0.410      10.305
molecular quadrupole (traceless):
                xx          xy          yy          xz          yz          zz
 q only:        9.476     -14.444       1.230     -39.607     -19.564     -10.706
  q+dip:       18.491     -15.008      -6.812     -38.872     -26.488     -11.679
   full:       17.643     -13.736      -3.375     -39.519     -24.005     -14.268


           -------------------------------------------------
          | TOTAL ENERGY             -136.662470923037 Eh   |
          | GRADIENT NORM               0.000043283099 Eh/α |
          | HOMO-LUMO GAP               1.970961127573 eV   |
           -------------------------------------------------

------------------------------------------------------------------------
 * finished run on 2024/10/14 at 18:32:33.598     
------------------------------------------------------------------------
 total:
 * wall-time:     0 d,  0 h,  0 min,  0.711 sec
 *  cpu-time:     0 d,  0 h,  0 min,  8.114 sec
 * ratio c/w:    11.409 speedup
 SCF:
 * wall-time:     0 d,  0 h,  0 min,  0.169 sec
 *  cpu-time:     0 d,  0 h,  0 min,  2.002 sec
 * ratio c/w:    11.833 speedup

