      -----------------------------------------------------------      
     |                   =====================                   |     
     |                           x T B                           |     
     |                   =====================                   |     
     |                         S. Grimme                         |     
     |          Mulliken Center for Theoretical Chemistry        |     
     |                    University of Bonn                     |     
      -----------------------------------------------------------      

   * xtb version 6.6.1 (8d0f1dd) compiled by 'stahn@M-Bot' on 2023-08-01

   xtb is free software: you can redistribute it and/or modify it under
   the terms of the GNU Lesser General Public License as published by
   the Free Software Foundation, either version 3 of the License, or
   (at your option) any later version.
   
   xtb is distributed in the hope that it will be useful,
   but WITHOUT ANY WARRANTY; without even the implied warranty of
   MERCHANTABILITY or FITNESS FOR A PARTICULAR PURPOSE.  See the
   GNU Lesser General Public License for more details.
   
   Cite this work as:
   * C. Bannwarth, E. Caldeweyher, S. Ehlert, A. Hansen, P. Pracht,
     J. Seibert, S. Spicher, S. Grimme, WIREs Comput. Mol. Sci., 2020, 11,
     e01493. DOI: 10.1002/wcms.1493
   
   for GFN2-xTB:
   * C. Bannwarth, S. Ehlert and S. Grimme., J. Chem. Theory Comput., 2019,
     15, 1652-1671. DOI: 10.1021/acs.jctc.8b01176
   for GFN1-xTB:
   * S. Grimme, C. Bannwarth, P. Shushkov, J. Chem. Theory Comput., 2017,
     13, 1989-2009. DOI: 10.1021/acs.jctc.7b00118
   for GFN0-xTB:
   * P. Pracht, E. Caldeweyher, S. Ehlert, S. Grimme, ChemRxiv, 2019, preprint.
     DOI: 10.26434/chemrxiv.8326202.v1
   for GFN-FF:
   * S. Spicher and S. Grimme, Angew. Chem. Int. Ed., 2020, 59, 15665-15673.
     DOI: 10.1002/anie.202004239
   
   for ALPB and GBSA implicit solvation:
   * S. Ehlert, M. Stahn, S. Spicher, S. Grimme, J. Chem. Theory Comput.,
     2021, 17, 4250-4261. DOI: 10.1021/acs.jctc.1c00471
   
   for DFT-D4:
   * E. Caldeweyher, C. Bannwarth and S. Grimme, J. Chem. Phys., 2017,
     147, 034112. DOI: 10.1063/1.4993215
   * E. Caldeweyher, S. Ehlert, A. Hansen, H. Neugebauer, S. Spicher,
     C. Bannwarth and S. Grimme, J. Chem. Phys., 2019, 150, 154122.
     DOI: 10.1063/1.5090222
   * E. Caldeweyher, J.-M. Mewes, S. Ehlert and S. Grimme, Phys. Chem. Chem. Phys.
     2020, 22, 8499-8512. DOI: 10.1039/D0CP00502A
   
   for sTDA-xTB:
   * S. Grimme and C. Bannwarth, J. Chem. Phys., 2016, 145, 054103.
     DOI: 10.1063/1.4959605
   
   in the mass-spec context:
   * V. Asgeirsson, C. Bauer and S. Grimme, Chem. Sci., 2017, 8, 4879.
     DOI: 10.1039/c7sc00601b
   * J. Koopman and S. Grimme, ACS Omega 2019, 4, 12, 15120-15133.
     DOI: 10.1021/acsomega.9b02011
   
   for metadynamics refer to:
   * S. Grimme, J. Chem. Theory Comput., 2019, 155, 2847-2862
     DOI: 10.1021/acs.jctc.9b00143
   
   for SPH calculations refer to:
   * S. Spicher and S. Grimme, J. Chem. Theory Comput., 2021, 17, 1701-1714
     DOI: 10.1021/acs.jctc.0c01306
   
   with help from (in alphabetical order)
   P. Atkinson, C. Bannwarth, F. Bohle, G. Brandenburg, E. Caldeweyher
   M. Checinski, S. Dohm, S. Ehlert, S. Ehrlich, I. Gerasimov, C. Hölzer
   A. Katbashev, J. Koopman, C. Lavigne, S. Lehtola, F. März, M. Müller,
   F. Musil, H. Neugebauer, J. Pisarek, C. Plett, P. Pracht, F. Pultar,
   J. Seibert, P. Shushkov, S. Spicher, M. Stahn, M. Steiner, T. Strunk,
   J. Stückrath, T. Rose, and J. Unsleber
   
 * started run on 2024/10/14 at 18:32:33.667     

           -------------------------------------------------
          |                Calculation Setup                |
           -------------------------------------------------

          program call               : xtb tsopted.xyz --gfn 2 --charge 0 --vipea
          coordinate file            : tsopted.xyz
          omp threads                :                    12

   ID    Z sym.   atoms
    1   26 Fe     1
    2    6 C      2, 4, 8, 10, 12-14, 19, 20, 22-26, 34-45, 57, 58, 65-68,
                  79-82
    3   46 Pd     3
    4    1 H      5-7, 15-18, 27, 29-31, 46-55, 59-64, 69-77, 83-91
    5    8 O      9, 11, 21, 33, 78
    6    7 N      28, 56
    7   15 P      32

molecular fragmentation (1/2 indicates fragments):
111111111111111111111111111111111111111111111111111111111111211111111111
1111111111111111111
# atoms in fragment 1/2:    90     1
 fragment masses (1/2) :      777.98        1.01
CMA distance (Bohr)    :   8.766
constraining FC (au)   :  0.0500

           -------------------------------------------------
          |                 G F N 2 - x T B                 |
           -------------------------------------------------

        Reference                      10.1021/acs.jctc.8b01176
      * Hamiltonian:
        H0-scaling (s, p, d)           1.850000    2.230000    2.230000
        zeta-weighting                 0.500000
      * Dispersion:
        s8                             2.700000
        a1                             0.520000
        a2                             5.000000
        s9                             5.000000
      * Repulsion:
        kExp                           1.500000    1.000000
        rExp                           1.000000
      * Coulomb:
        alpha                          2.000000
        third order                    shell-resolved
        anisotropic                    true
        a3                             3.000000
        a5                             4.000000
        cn-shift                       1.200000
        cn-exp                         4.000000
        max-rad                        5.000000

q/qsh data taken from xtbrestart
CAMM data taken from xtbrestart

          ...................................................
          :                      SETUP                      :
          :.................................................:
          :  # basis functions                 247          :
          :  # atomic orbitals                 244          :
          :  # shells                          140          :
          :  # electrons                       252          :
          :  max. iterations                   250          :
          :  Hamiltonian                  GFN2-xTB          :
          :  restarted?                       true          :
          :  GBSA solvation                  false          :
          :  PC potential                    false          :
          :  electronic temp.          300.0000000     K    :
          :  accuracy                    1.0000000          :
          :  -> integral cutoff          0.2500000E+02      :
          :  -> integral neglect         0.1000000E-07      :
          :  -> SCF convergence          0.1000000E-05 Eh   :
          :  -> wf. convergence          0.1000000E-03 e    :
          :  Broyden damping             0.4000000          :
          ...................................................

 iter      E             dE          RMSdq      gap      omega  full diag
   1   -138.6039177 -0.138604E+03  0.301E-04    1.97       0.0  T
   2   -138.6039177 -0.744535E-09  0.227E-04    1.97      46.1  T
   3   -138.6039177 -0.885080E-09  0.172E-04    1.97      61.0  T

   *** convergence criteria satisfied after 3 iterations ***

         #    Occupation            Energy/Eh            Energy/eV
      -------------------------------------------------------------
         1        2.0000           -0.8405802             -22.8734
       ...           ...                  ...                  ...
       120        2.0000           -0.3609651              -9.8224
       121        2.0000           -0.3518436              -9.5742
       122        2.0000           -0.3498080              -9.5188
       123        2.0000           -0.3480974              -9.4722
       124        2.0000           -0.3443271              -9.3696
       125        2.0000           -0.3314353              -9.0188
       126        2.0000           -0.3248943              -8.8408 (HOMO)
       127                         -0.2524630              -6.8699 (LUMO)
       128                         -0.2524218              -6.8687
       129                         -0.2397619              -6.5243
       130                         -0.2349606              -6.3936
       131                         -0.2329532              -6.3390
       ...                                ...                  ...
       244                          6.5445620             178.0866
      -------------------------------------------------------------
                  HL-Gap            0.0724313 Eh            1.9710 eV
             Fermi-level           -0.2886787 Eh           -7.8553 eV

 SCC (total)                   0 d,  0 h,  0 min,  0.063 sec
 SCC setup                      ...        0 min,  0.003 sec (  4.621%)
 Dispersion                     ...        0 min,  0.002 sec (  2.792%)
 classical contributions        ...        0 min,  0.000 sec (  0.105%)
 integral evaluation            ...        0 min,  0.010 sec ( 15.712%)
 iterations                     ...        0 min,  0.026 sec ( 41.771%)
 molecular gradient             ...        0 min,  0.018 sec ( 29.291%)
 printout                       ...        0 min,  0.004 sec (  5.649%)

         :::::::::::::::::::::::::::::::::::::::::::::::::::::
         ::                     SUMMARY                     ::
         :::::::::::::::::::::::::::::::::::::::::::::::::::::
         :: total energy            -136.662470926710 Eh    ::
         :: gradient norm              0.000047104749 Eh/a0 ::
         :: HOMO-LUMO gap              1.970955230460 eV    ::
         ::.................................................::
         :: SCC energy              -138.603917658238 Eh    ::
         :: -> isotropic ES           -0.029422178071 Eh    ::
         :: -> anisotropic ES         -0.010782945371 Eh    ::
         :: -> anisotropic XC          0.049804737119 Eh    ::
         :: -> dispersion             -0.143890468899 Eh    ::
         :: repulsion energy           1.936220963846 Eh    ::
         :: add. restraining           0.000000000000 Eh    ::
         :: total charge              -0.000000000000 e     ::
         :::::::::::::::::::::::::::::::::::::::::::::::::::::

           ------------------------------------------------- 
          |        vertical delta SCC IP calculation        |
           ------------------------------------------------- 

 iter      E             dE          RMSdq      gap      omega  full diag
   1   -138.1684092 -0.138168E+03  0.816E-01    1.97       0.0  T
   2   -138.0583464  0.110063E+00  0.120E+00    1.42       1.0  T
   3   -138.1906707 -0.132324E+00  0.581E-01    2.02       1.0  T
   4   -138.2012583 -0.105876E-01  0.460E-01    2.02       1.0  T
   5   -138.2021194 -0.861062E-03  0.313E-01    2.02       1.0  T
   6   -138.2015477  0.571670E-03  0.247E-01    2.00       1.0  T
   7   -138.2050080 -0.346031E-02  0.163E-01    2.01       1.0  T
   8   -138.2071424 -0.213435E-02  0.572E-02    2.01       1.0  T
   9   -138.2070615  0.808576E-04  0.459E-02    2.01       1.0  T
  10   -138.2067800  0.281536E-03  0.641E-02    2.01       1.0  T
  11   -138.2070979 -0.317910E-03  0.361E-02    2.01       1.0  T
  12   -138.2071647 -0.668635E-04  0.256E-02    2.01       1.0  T
  13   -138.2072228 -0.580569E-04  0.994E-03    2.01       1.1  T
  14   -138.2072278 -0.496224E-05  0.588E-03    2.01       1.8  T
  15   -138.2072287 -0.949189E-06  0.433E-03    2.01       2.4  T
  16   -138.2072304 -0.166599E-05  0.954E-04    2.01      11.0  T
  17   -138.2072304 -0.629872E-07  0.476E-04    2.01      22.0  T
  18   -138.2072304  0.152536E-08  0.357E-04    2.01      29.4  T
     SCC iter.                  ...        0 min,  0.140 sec
     gradient                   ...        0 min,  0.017 sec
------------------------------------------------------------------------
empirical IP shift (eV):    4.8455
delta SCC IP (eV):    5.9489
------------------------------------------------------------------------
           ------------------------------------------------- 
          |        vertical delta SCC EA calculation        |
           ------------------------------------------------- 

 iter      E             dE          RMSdq      gap      omega  full diag
   1   -138.6697922 -0.138670E+03  0.102E+00    0.56       0.0  T
   2   -138.6425274  0.272647E-01  0.142E+00    0.30       1.0  T
   3   -138.7867384 -0.144211E+00  0.645E-01    0.04       1.0  T
   4   -138.7261288  0.606096E-01  0.818E-01    0.32       1.0  T
   5   -138.7725247 -0.463959E-01  0.474E-01    0.16       1.0  T
   6   -138.7162127  0.563120E-01  0.738E-01    0.25       1.0  T
   7   -138.7958594 -0.796467E-01  0.223E-01    0.02       1.0  T
   8   -138.7961951 -0.335649E-03  0.149E-01    0.01       1.0  T
   9   -138.7927020  0.349301E-02  0.182E-01    0.05       1.0  T
  10   -138.7981397 -0.543768E-02  0.519E-02    0.01       1.0  T
  11   -138.7970005  0.113918E-02  0.896E-02    0.01       1.0  T
  12   -138.7982454 -0.124489E-02  0.212E-02    0.00       1.0  T
  13   -138.7981652  0.802635E-04  0.285E-02    0.01       1.0  T
  14   -138.7982791 -0.113945E-03  0.111E-02    0.01       1.0  T
  15   -138.7982899 -0.107963E-04  0.698E-03    0.01       1.5  T
  16   -138.7982911 -0.117063E-05  0.495E-03    0.01       2.1  T
  17   -138.7982892  0.192287E-05  0.566E-03    0.01       1.9  T
  18   -138.7982944 -0.523564E-05  0.801E-04    0.01      13.1  T
  19   -138.7982944 -0.549178E-07  0.332E-04    0.01      31.5  T
  20   -138.7982944  0.178852E-08  0.316E-04    0.01      33.1  T
     SCC iter.                  ...        0 min,  0.143 sec
     gradient                   ...        0 min,  0.019 sec
------------------------------------------------------------------------
empirical EA shift (eV):    4.8455
delta SCC EA (eV):    0.4438
------------------------------------------------------------------------
           -------------------------------------------------
          |                Property Printout                |
           -------------------------------------------------

    * Orbital Energies and Occupations

         #    Occupation            Energy/Eh            Energy/eV
      -------------------------------------------------------------
         1        2.0000           -0.7250507             -19.7296
       ...           ...                  ...                  ...
       115        2.0000           -0.2758371              -7.5059
       116        2.0000           -0.2743044              -7.4642
       117        2.0000           -0.2708767              -7.3709
       118        2.0000           -0.2577970              -7.0150
       119        2.0000           -0.2475452              -6.7360
       120        2.0000           -0.2450394              -6.6679
       121        2.0000           -0.2378346              -6.4718
       122        2.0000           -0.2327469              -6.3334
       123        2.0000           -0.2285092              -6.2181
       124        2.0000           -0.2265512              -6.1648
       125        2.0000           -0.2206864              -6.0052
       126        2.0000           -0.2058698              -5.6020
       127        0.5368           -0.1348669              -3.6699 (HOMO)
       128        0.4632           -0.1345866              -3.6623 (LUMO)
       129        0.0000           -0.1238278              -3.3695
       130        0.0000           -0.1210241              -3.2932
       131                         -0.1183241              -3.2198
       132                         -0.1152707              -3.1367
       133                         -0.1115419              -3.0352
       134                         -0.0955813              -2.6009
       135                         -0.0632152              -1.7202
       136                         -0.0525562              -1.4301
       137                         -0.0516235              -1.4047
       138                         -0.0295553              -0.8042
       ...                                ...                  ...
       244                          6.6457369             180.8397
      -------------------------------------------------------------
                  HL-Gap            0.0002804 Eh            0.0076 eV
             Fermi-level           -0.1525476 Eh           -4.1510 eV

     #   Z          covCN         q      C6AA      α(0)
     1  26 Fe       9.462     1.458   109.078    18.418
     2   6 C        2.724     0.366    20.792     7.465
     3  46 Pd       4.335    -0.463   391.748    36.147
     4   6 C        3.822    -0.028    21.057     6.530
     5   1 H        0.927     0.016     2.799     2.616
     6   1 H        0.927     0.072     2.065     2.247
     7   1 H        0.927     0.100     1.781     2.087
     8   6 C        2.694     0.379    20.585     7.425
     9   8 O        0.856    -0.530    24.469     6.632
    10   6 C        4.083    -0.108    22.467     6.732
    11   8 O        1.602    -0.455    21.985     6.328
    12   6 C        3.926    -0.159    23.506     6.890
    13   6 C        3.893    -0.156    23.464     6.886
    14   6 C        3.878    -0.163    23.600     6.907
    15   1 H        0.927     0.038     2.479     2.462
    16   1 H        0.928     0.075     2.035     2.231
    17   1 H        0.927     0.027     2.626     2.534
    18   1 H        0.834     0.338     0.612     1.227
    19   6 C        3.881    -0.204    24.465     7.032
    20   6 C        3.820     0.024    20.163     6.390
    21   8 O        1.504    -0.429    21.550     6.260
    22   6 C        4.033    -0.157    23.450     6.879
    23   6 C        3.912    -0.122    22.771     6.782
    24   6 C        3.902    -0.158    23.490     6.889
    25   6 C        3.932    -0.133    22.972     6.811
    26   6 C        3.943    -0.120    22.721     6.774
    27   1 H        0.927     0.060     2.193     2.316
    28   7 N        2.666    -0.183    24.970     7.421
    29   1 H        0.924     0.012     2.857     2.643
    30   1 H        0.925     0.036     2.504     2.475
    31   1 H        0.923     0.019     2.745     2.591
    32  15 P        4.200     0.188   152.162    22.159
    33   8 O        0.808    -0.442    22.566     6.368
    34   6 C        2.920    -0.027    28.667     8.780
    35   6 C        3.018    -0.031    28.758     8.797
    36   6 C        2.919    -0.041    29.008     8.832
    37   6 C        2.921    -0.049    29.221     8.865
    38   6 C        2.920    -0.038    28.954     8.824
    39   6 C        2.975    -0.043    29.058     8.842
    40   6 C        2.921    -0.037    28.919     8.819
    41   6 C        2.997    -0.048    29.168     8.859
    42   6 C        2.919    -0.042    29.051     8.839
    43   6 C        2.921    -0.056    29.379     8.889
    44   6 C        2.919    -0.041    29.011     8.833
    45   6 C        3.007    -0.037    28.900     8.818
    46   1 H        0.926     0.030     2.591     2.517
    47   1 H        0.926     0.007     2.946     2.684
    48   1 H        0.926     0.002     3.020     2.718
    49   1 H        0.926     0.009     2.907     2.666
    50   1 H        0.926     0.035     2.512     2.478
    51   1 H        0.926     0.020     2.733     2.585
    52   1 H        0.926     0.003     3.010     2.713
    53   1 H        0.926    -0.002     3.084     2.746
    54   1 H        0.926     0.007     2.940     2.681
    55   1 H        0.926     0.036     2.500     2.472
    56   7 N        3.456    -0.043    22.073     6.978
    57   6 C        3.836    -0.031    21.108     6.536
    58   6 C        3.717    -0.045    21.510     6.625
    59   1 H        0.923     0.009     2.907     2.667
    60   1 H        0.924     0.085     1.932     2.174
    61   1 H        0.924     0.095     1.830     2.116
    62   1 H        0.923     0.014     2.825     2.629
    63   1 H        0.924     0.075     2.029     2.228
    64   1 H        0.925     0.047     2.364     2.404
    65   6 C        3.849    -0.018    20.868     6.498
    66   6 C        3.752    -0.135    23.158     6.863
    67   6 C        3.803    -0.053    21.533     6.606
    68   6 C        3.752    -0.102    22.517     6.767
    69   1 H        0.925     0.021     2.712     2.576
    70   1 H        0.925     0.028     2.608     2.525
    71   1 H        0.924     0.079     1.984     2.203
    72   1 H        0.924     0.038     2.472     2.459
    73   1 H        0.924     0.021     2.722     2.580
    74   1 H        0.924     0.022     2.709     2.574
    75   1 H        0.925     0.014     2.824     2.628
    76   1 H        0.925     0.031     2.569     2.506
    77   1 H        0.925     0.053     2.277     2.360
    78   8 O        1.705    -0.294    18.889     5.868
    79   6 C        3.758    -0.114    22.734     6.798
    80   6 C        3.781     0.159    18.060     6.054
    81   6 C        3.756    -0.117    22.789     6.807
    82   6 C        3.756    -0.120    22.847     6.815
    83   1 H        0.925     0.051     2.308     2.376
    84   1 H        0.925     0.051     2.307     2.375
    85   1 H        0.925     0.037     2.491     2.468
    86   1 H        0.925     0.044     2.397     2.421
    87   1 H        0.925     0.031     2.567     2.506
    88   1 H        0.925     0.067     2.122     2.278
    89   1 H        0.925     0.045     2.385     2.415
    90   1 H        0.925     0.033     2.542     2.493
    91   1 H        0.925     0.068     2.110     2.271

 Mol. C6AA /au·bohr⁶  :     104048.642889
 Mol. C8AA /au·bohr⁸  :    2980836.418489
 Mol. α(0) /au        :        501.260603


Wiberg/Mayer (AO) data.
largest (>0.10) Wiberg bond orders for each atom

 ---------------------------------------------------------------------------
     #   Z sym  total        # sym  WBO       # sym  WBO       # sym  WBO
 ---------------------------------------------------------------------------
     1  26 Fe   0.409 --    14 C    0.210    10 C    0.206    12 C    0.201
                            13 C    0.186    24 C    0.180    22 C    0.175
                            23 C    0.166    25 C    0.123    26 C    0.114
                            19 C    0.105
     2   6 C    3.939 --     9 O    1.598    21 O    1.390    20 C    0.870
     3  46 Pd   3.369 --    19 C    0.745    28 N    0.522    21 O    0.433
                            56 N    0.359    26 C    0.210    25 C    0.175
                            10 C    0.115    12 C    0.111
     4   6 C    3.974 --    10 C    1.004    56 N    0.975    30 H    0.972
                            31 H    0.960
     5   1 H    0.997 --    24 C    0.980
     6   1 H    0.991 --    25 C    0.940
     7   1 H    0.987 --    26 C    0.922
     8   6 C    3.928 --    28 N    1.542    11 O    1.156    78 O    1.080
     9   8 O    1.915 --     2 C    1.598    21 O    0.206
    10   6 C    3.947 --    14 C    1.283    19 C    1.194     4 C    1.004
                             1 Fe   0.206     3 Pd   0.115
    11   8 O    2.092 --     8 C    1.156    18 H    0.564    28 N    0.134
    12   6 C    3.961 --    13 C    1.326    19 C    1.215    15 H    0.970
                             1 Fe   0.201     3 Pd   0.111
    13   6 C    3.967 --    12 C    1.326    14 C    1.296    16 H    0.962
                             1 Fe   0.186
    14   6 C    3.970 --    13 C    1.296    10 C    1.283    17 H    0.978
                             1 Fe   0.210
    15   1 H    0.996 --    12 C    0.970
    16   1 H    0.991 --    13 C    0.962
    17   1 H    0.997 --    14 C    0.978
    18   1 H    0.875 --    11 O    0.564    19 C    0.204
    19   6 C    3.735 --    12 C    1.215    10 C    1.194     3 Pd   0.745
                            18 H    0.204     1 Fe   0.105
    20   6 C    3.959 --    28 N    0.986    65 C    0.954    29 H    0.950
                             2 C    0.870
    21   8 O    2.164 --     2 C    1.390     3 Pd   0.433     9 O    0.206
    22   6 C    3.966 --    26 C    1.304    23 C    1.268    27 H    0.974
                             1 Fe   0.175
    23   6 C    3.953 --    22 C    1.268    24 C    1.261    32 P    0.989
                             1 Fe   0.166
    24   6 C    3.965 --    25 C    1.317    23 C    1.261     5 H    0.980
                             1 Fe   0.180
    25   6 C    3.971 --    24 C    1.317    26 C    1.270     6 H    0.940
                             3 Pd   0.175     1 Fe   0.123
    26   6 C    3.973 --    22 C    1.304    25 C    1.270     7 H    0.922
                             3 Pd   0.210     1 Fe   0.114
    27   1 H    0.994 --    22 C    0.974
    28   7 N    3.382 --     8 C    1.542    20 C    0.986     3 Pd   0.522
                            11 O    0.134
    29   1 H    0.998 --    20 C    0.950
    30   1 H    0.997 --     4 C    0.972
    31   1 H    0.997 --     4 C    0.960
    32  15 P    5.074 --    33 O    1.984    23 C    0.989    40 C    0.950
                            34 C    0.931
    33   8 O    2.175 --    32 P    1.984
    34   6 C    3.925 --    35 C    1.369    39 C    1.364    32 P    0.931
    35   6 C    3.975 --    36 C    1.470    34 C    1.369    46 H    0.961
                            38 C    0.104
    36   6 C    3.966 --    35 C    1.470    37 C    1.393    47 H    0.971
    37   6 C    3.909 --    38 C    1.415    36 C    1.393    48 H    0.973
    38   6 C    3.983 --    39 C    1.459    37 C    1.415    49 H    0.971
                            35 C    0.104
    39   6 C    3.955 --    38 C    1.459    34 C    1.364    50 H    0.963
    40   6 C    3.896 --    45 C    1.352    41 C    1.337    32 P    0.950
    41   6 C    3.955 --    42 C    1.483    40 C    1.337    51 H    0.965
    42   6 C    3.976 --    41 C    1.483    43 C    1.386    52 H    0.972
    43   6 C    3.873 --    44 C    1.393    42 C    1.386    53 H    0.973
    44   6 C    3.967 --    45 C    1.471    43 C    1.393    54 H    0.971
    45   6 C    3.956 --    44 C    1.471    40 C    1.352    55 H    0.962
    46   1 H    0.999 --    35 C    0.961
    47   1 H    0.999 --    36 C    0.971
    48   1 H    0.999 --    37 C    0.973
    49   1 H    0.999 --    38 C    0.971
    50   1 H    0.998 --    39 C    0.963
    51   1 H    0.998 --    41 C    0.965
    52   1 H    0.999 --    42 C    0.972
    53   1 H    0.999 --    43 C    0.973
    54   1 H    0.999 --    44 C    0.971
    55   1 H    0.998 --    45 C    0.962
    56   7 N    3.406 --    58 C    1.002    57 C    0.990     4 C    0.975
                             3 Pd   0.359
    57   6 C    3.979 --    56 N    0.990    59 H    0.970    60 H    0.951
                            61 H    0.934
    58   6 C    3.980 --    56 N    1.002    64 H    0.974    62 H    0.972
                            63 H    0.969
    59   1 H    0.998 --    57 C    0.970
    60   1 H    0.992 --    57 C    0.951
    61   1 H    0.990 --    57 C    0.934
    62   1 H    0.997 --    58 C    0.972
    63   1 H    0.993 --    58 C    0.969
    64   1 H    0.996 --    58 C    0.974
    65   6 C    3.992 --    66 C    1.006    67 C    0.996    72 H    0.962
                            20 C    0.954
    66   6 C    3.988 --    65 C    1.006    70 H    0.986    69 H    0.986
                            71 H    0.938
    67   6 C    3.998 --    68 C    1.020    65 C    0.996    74 H    0.977
                            73 H    0.977
    68   6 C    3.996 --    67 C    1.020    75 H    0.988    76 H    0.988
                            77 H    0.982
    69   1 H    0.999 --    66 C    0.986
    70   1 H    0.998 --    66 C    0.986
    71   1 H    0.992 --    66 C    0.938
    72   1 H    0.998 --    65 C    0.962
    73   1 H    0.999 --    67 C    0.977
    74   1 H    0.999 --    67 C    0.977
    75   1 H    0.999 --    68 C    0.988
    76   1 H    0.999 --    68 C    0.988
    77   1 H    0.997 --    68 C    0.982
    78   8 O    2.245 --     8 C    1.080    80 C    0.912
    79   6 C    3.994 --    80 C    0.994    85 H    0.986    84 H    0.985
                            83 H    0.985
    80   6 C    3.928 --    81 C    0.995    82 C    0.994    79 C    0.994
                            78 O    0.912
    81   6 C    3.992 --    80 C    0.995    86 H    0.985    87 H    0.985
                            88 H    0.979
    82   6 C    3.993 --    80 C    0.994    89 H    0.985    90 H    0.985
                            91 H    0.979
    83   1 H    0.997 --    79 C    0.985
    84   1 H    0.997 --    79 C    0.985
    85   1 H    0.998 --    79 C    0.986
    86   1 H    0.998 --    81 C    0.985
    87   1 H    0.999 --    81 C    0.985
    88   1 H    0.995 --    81 C    0.979
    89   1 H    0.998 --    82 C    0.985
    90   1 H    0.999 --    82 C    0.985
    91   1 H    0.995 --    82 C    0.979
 ---------------------------------------------------------------------------

Topologies differ in total number of bonds
Writing topology from bond orders to xtbtopo.mol

molecular dipole:
                 x           y           z       tot (Debye)
 q only:        0.855      -2.901      -1.130
   full:        1.570      -3.235      -0.345       9.181
molecular quadrupole (traceless):
                xx          xy          yy          xz          yz          zz
 q only:      -43.324     -14.510      21.218     -45.946     -21.768      22.105
  q+dip:      -33.181     -14.069      12.715     -46.152     -29.265      20.467
   full:      -34.184     -12.710      15.950     -46.863     -26.931      18.234


           -------------------------------------------------
          | TOTAL ENERGY             -136.856847712108 Eh   |
          | GRADIENT NORM               0.075825837799 Eh/α |
          | HOMO-LUMO GAP               0.007629073931 eV   |
           -------------------------------------------------

------------------------------------------------------------------------
 * finished run on 2024/10/14 at 18:32:34.309     
------------------------------------------------------------------------
 total:
 * wall-time:     0 d,  0 h,  0 min,  0.641 sec
 *  cpu-time:     0 d,  0 h,  0 min,  7.214 sec
 * ratio c/w:    11.254 speedup
 SCF:
 * wall-time:     0 d,  0 h,  0 min,  0.405 sec
 *  cpu-time:     0 d,  0 h,  0 min,  4.820 sec
 * ratio c/w:    11.911 speedup

