%chk=1-modopt.chk
#p opt=(modredundant,nomicro) external='./xtb.sh'

Generate automatically by rxnb

0 1
Fe          -3.781270        3.986200        1.731950
C           -3.261200       -1.313210       -2.498370
Pd          -3.982020        0.935080       -0.930460
C           -6.185030        2.356950        0.288040
H           -4.914540        5.689440        3.699030
H           -5.531940        3.052300        3.754590
H           -3.266040        1.655330        3.222170
C           -1.287400        0.599160        0.000060
O           -3.263210       -2.108140       -3.415430
C           -5.045730        3.321050        0.300020
O           -1.566080        1.553600        0.795520
C           -2.906640        4.045630       -0.154600
C           -3.727810        5.192700        0.041430
C           -5.060940        4.746560        0.290590
H           -1.830650        4.054270       -0.317200
H           -3.394000        6.229070        0.027120
H           -5.929640        5.378460        0.470680
H           -2.780280        1.980550        0.495180
C           -3.700300        2.854960        0.008300
C           -2.010890       -1.115710       -1.614190
O           -4.327890       -0.631750       -2.134340
C           -2.287380        3.671440        3.115200
C           -2.822820        4.986360        3.268480
C           -4.217820        4.866120        3.551370
C           -4.543350        3.474160        3.580130
C           -3.350500        2.736660        3.310950
H           -1.263770        3.417100        2.851030
N           -2.162670        0.130460       -0.862720
H           -1.130160       -1.060590       -2.274090
H           -6.145890        1.680120        1.153520
H           -7.168480        2.860870        0.289120
H           -2.281170        5.902570        3.158740
N           -6.038110        1.519660       -0.911240
C           -6.382970        2.095970       -2.159020
C           -6.383470        0.141490       -0.747930
H           -7.121290        1.497460       -2.753790
H           -6.740450        3.150760       -2.020540
H           -5.476200        2.190000       -2.811100
H           -7.412630        0.075820       -0.332690
H           -6.245850       -0.468870       -1.642080
H           -5.722360       -0.267080        0.071740
C           -1.849040       -2.323190       -0.705240
C           -2.901980       -2.315950        0.365600
C           -0.446400       -2.248240       -0.158830
C           -1.964070       -3.600220       -1.504410
H           -3.267870       -1.268200        0.468890
H           -2.489270       -2.718170        1.295790
H           -3.719600       -3.015610        0.055520
H           -0.128000       -3.210920        0.301980
H            0.223420       -2.104180       -1.056640
H           -0.306520       -1.447720        0.584850
H           -2.160270       -3.307640       -2.555540
H           -1.022840       -4.213300       -1.447760
H           -2.783330       -4.264480       -1.103800
O            0.000000        0.000000        0.000000
C            2.368720        0.000000       -0.000000
C            1.126420        0.841020        0.000000
C            1.004410        1.759090       -1.163780
C            1.122290        1.643780        1.293210
H            2.100510       -0.970940        0.502060
H            2.786720       -0.181780       -0.998560
H            3.150810        0.449130        0.668740
H            1.450060        1.401060       -2.097950
H            1.371780        2.797030       -0.929300
H           -0.092540        1.910070       -1.392230
H            0.273330        1.327120        1.939480
H            2.042180        1.476920        1.891450
H            1.103450        2.725340        1.054360

B 11 18 F
B 18 19 F
B 3 19 F
B 3 33 F
B 3 28 F
B 3 21 F

