%chk=3-tsopt.chk
#p opt(ts,calcfc,noeigen,nomicro) external='./xtb.sh'

Generate automatically by rxnb

0 1
Fe          -2.203550       -0.190200        0.870960
C            0.907570       -1.533700       -2.130040
Pd          -0.364640        0.482610       -0.680800
C           -2.614630        2.356110       -0.196750
H           -4.395830       -1.158130        1.989450
H           -4.622400        0.116240       -0.298830
H           -2.582780       -0.722950       -1.899910
C            2.203810        0.635320        0.245340
O            1.119000       -2.404800       -2.955330
C           -2.099510        1.738530        1.048390
O            1.774090        1.759650        0.673870
C           -0.929140        0.276800        2.289750
C           -2.251590        0.254230        2.754810
C           -2.987160        1.166780        1.984290
H           -0.151270       -0.318650        2.709960
H           -2.645240       -0.423150        3.476400
H           -4.046000        1.294720        2.003740
H            0.490860        1.646160        0.969180
C           -0.776220        1.267510        1.284170
C            1.730910       -1.514130       -0.792700
O            0.098570       -0.563730       -2.328380
C           -1.984850       -1.878350       -0.141870
C           -2.592170       -2.072920        1.109290
C           -3.755550       -1.285240        1.148340
C           -3.855400       -0.589680       -0.071760
C           -2.766680       -0.958940       -0.874940
H           -1.144890       -2.397680       -0.546560
N            1.377850       -0.296660       -0.116450
H            2.779070       -1.478190       -1.122990
H           -3.630820        1.974790       -0.294350
H           -2.653200        3.454080       -0.173410
H           -2.199370       -2.619190        1.935290
N           -1.825700        1.892450       -1.349580
C           -0.779680        2.870960       -1.684550
C           -2.673700        1.711930       -2.520060
H           -1.226180        3.805120       -2.059610
H           -0.181680        3.108770       -0.799340
H           -0.129340        2.458020       -2.467030
H           -3.037680        2.675820       -2.900810
H           -2.101950        1.218630       -3.306400
H           -3.533450        1.097670       -2.266220
C            1.580860       -2.723560        0.184160
C            1.109130       -3.985740       -0.539440
C            0.634130       -2.370380        1.353210
C            2.969290       -3.015700        0.771870
H            0.085370       -3.903450       -0.892190
H            1.173160       -4.840110        0.132330
H            1.733070       -4.173160       -1.408690
H            0.175710       -3.278450        1.737110
H            1.217530       -1.925550        2.156830
H           -0.151750       -1.660080        1.074710
H            3.642650       -3.380120       -0.000800
H            3.396670       -2.112060        1.201110
H            2.898670       -3.773240        1.550670
O            3.511100        0.341290        0.216690
C            5.833310        0.571250        0.338680
C            4.514600        1.309440        0.577100
C            4.421850        2.538240       -0.328060
C            4.379780        1.696070        2.050730
H            5.877880       -0.320580        0.958380
H            5.906700        0.268880       -0.702630
H            6.671590        1.217060        0.582560
H            4.460050        2.232880       -1.371860
H            5.253090        3.207730       -0.125070
H            3.489710        3.067340       -0.148350
H            4.412210        0.804430        2.673550
H            5.197530        2.353370        2.332660
H            3.437090        2.209090        2.220670


