%chk=4-tsfreq.chk
#p freq external='./xtb.sh'

Generate automatically by rxnb

0 1
Fe          -2.390440        0.047200       -0.904970
C            1.038260        1.762180        2.041090
Pd          -0.386280       -0.236540        0.600200
C           -2.705160       -2.329420        0.555430
H           -4.605930        0.813440       -2.092370
H           -4.761690       -0.106410        0.367820
H           -2.684910        0.953550        1.772590
C            2.375610       -0.663780       -0.160020
O            1.462150        2.558810        2.861020
C           -2.184750       -1.871040       -0.754430
O            1.906160       -1.824530       -0.617000
C           -1.040450       -0.545080       -2.186750
C           -2.343680       -0.697560       -2.693100
C           -3.058690       -1.518370       -1.805260
H           -0.302640        0.064390       -2.660980
H           -2.753790       -0.176050       -3.527980
H           -4.106090       -1.718970       -1.845670
H            0.885330       -1.727330       -0.672320
C           -0.901540       -1.288580       -0.980830
C            1.901160        1.524170        0.736860
O           -0.017260        1.078340        2.162290
C           -2.153870        1.871360       -0.147500
C           -2.796360        1.872210       -1.401080
C           -3.956390        1.083310       -1.291890
C           -4.013330        0.569850        0.018470
C           -2.903450        1.058420        0.732280
H           -1.329280        2.481570        0.154380
N            1.547360        0.227310        0.223070
H            2.948280        1.532930        1.066650
H           -3.726480       -1.951590        0.597370
H           -2.729890       -3.422550        0.672670
H           -2.420720        2.297760       -2.304530
N           -1.926690       -1.704360        1.628270
C           -0.832170       -2.577700        2.066770
C           -2.762230       -1.387600        2.773800
H           -1.218820       -3.443880        2.628090
H           -0.279750       -2.950290        1.199920
H           -0.157870       -2.012510        2.720840
H           -3.110180       -2.297120        3.284630
H           -2.189380       -0.787240        3.479930
H           -3.630210       -0.820500        2.448540
C            1.728910        2.615820       -0.368260
C            1.194440        3.915690        0.235780
C            0.803940        2.136080       -1.504320
C            3.110380        2.900730       -0.973480
H            0.183860        3.795880        0.617390
H            1.190700        4.703380       -0.515690
H            1.818700        4.226100        1.069510
H            0.475580        2.994340       -2.087200
H            1.361300        1.474550       -2.166900
H           -0.081000        1.596930       -1.144370
H            3.767520        3.346100       -0.230200
H            3.569100        1.980680       -1.330550
H            3.020530        3.591230       -1.810370
O            3.680590       -0.437270       -0.148160
C            5.992640       -0.725810       -0.270480
C            4.660340       -1.436040       -0.513950
C            4.537270       -2.662290        0.389050
C            4.516710       -1.809120       -1.989250
H            6.057110        0.166680       -0.887140
H            6.069580       -0.428270        0.771720
H            6.818540       -1.386940       -0.514180
H            4.557430       -2.356870        1.433080
H            5.370460       -3.334340        0.204530
H            3.609830       -3.193780        0.193960
H            4.547250       -0.912380       -2.604570
H            5.336310       -2.460130       -2.279420
H            3.578200       -2.326690       -2.167490


