68
charge 0 multiplicity 1
Fe          -2.20355  -0.19020   0.87096
C            0.90757  -1.53370  -2.13004
Pd          -0.36464   0.48261  -0.68080
C           -2.61463   2.35611  -0.19675
H           -4.39583  -1.15813   1.98945
H           -4.62240   0.11624  -0.29883
H           -2.58278  -0.72295  -1.89991
C            2.20381   0.63532   0.24534
O            1.11900  -2.40480  -2.95533
C           -2.09951   1.73853   1.04839
O            1.77409   1.75965   0.67387
C           -0.92914   0.27680   2.28975
C           -2.25159   0.25423   2.75481
C           -2.98716   1.16678   1.98429
H           -0.15127  -0.31865   2.70996
H           -2.64524  -0.42315   3.47640
H           -4.04600   1.29472   2.00374
H            0.49086   1.64616   0.96918
C           -0.77622   1.26751   1.28417
C            1.73091  -1.51413  -0.79270
O            0.09857  -0.56373  -2.32838
C           -1.98485  -1.87835  -0.14187
C           -2.59217  -2.07292   1.10929
C           -3.75555  -1.28524   1.14834
C           -3.85540  -0.58968  -0.07176
C           -2.76668  -0.95894  -0.87494
H           -1.14489  -2.39768  -0.54656
N            1.37785  -0.29666  -0.11645
H            2.77907  -1.47819  -1.12299
H           -3.63082   1.97479  -0.29435
H           -2.65320   3.45408  -0.17341
H           -2.19937  -2.61919   1.93529
N           -1.82570   1.89245  -1.34958
C           -0.77968   2.87096  -1.68455
C           -2.67370   1.71193  -2.52006
H           -1.22618   3.80512  -2.05961
H           -0.18168   3.10877  -0.79934
H           -0.12934   2.45802  -2.46703
H           -3.03768   2.67582  -2.90081
H           -2.10195   1.21863  -3.30640
H           -3.53345   1.09767  -2.26622
C            1.58086  -2.72356   0.18416
C            1.10913  -3.98574  -0.53944
C            0.63413  -2.37038   1.35321
C            2.96929  -3.01570   0.77187
H            0.08537  -3.90345  -0.89219
H            1.17316  -4.84011   0.13233
H            1.73307  -4.17316  -1.40869
H            0.17571  -3.27845   1.73711
H            1.21753  -1.92555   2.15683
H           -0.15175  -1.66008   1.07471
H            3.64265  -3.38012  -0.00080
H            3.39667  -2.11206   1.20111
H            2.89867  -3.77324   1.55067
O            3.51110   0.34129   0.21669
C            5.83331   0.57125   0.33868
C            4.51460   1.30944   0.57710
C            4.42185   2.53824  -0.32806
C            4.37978   1.69607   2.05073
H            5.87788  -0.32058   0.95838
H            5.90670   0.26888  -0.70263
H            6.67159   1.21706   0.58256
H            4.46005   2.23288  -1.37186
H            5.25309   3.20773  -0.12507
H            3.48971   3.06734  -0.14835
H            4.41221   0.80443   2.67355
H            5.19753   2.35337   2.33266
H            3.43709   2.20909   2.22067