68
charge 0 multiplicity 1
Fe          -2.39044   0.04720  -0.90497
C            1.03826   1.76218   2.04109
Pd          -0.38628  -0.23654   0.60020
C           -2.70516  -2.32942   0.55543
H           -4.60593   0.81344  -2.09237
H           -4.76169  -0.10641   0.36782
H           -2.68491   0.95355   1.77259
C            2.37561  -0.66378  -0.16002
O            1.46215   2.55881   2.86102
C           -2.18475  -1.87104  -0.75443
O            1.90616  -1.82453  -0.61700
C           -1.04045  -0.54508  -2.18675
C           -2.34368  -0.69756  -2.69310
C           -3.05869  -1.51837  -1.80526
H           -0.30264   0.06439  -2.66098
H           -2.75379  -0.17605  -3.52798
H           -4.10609  -1.71897  -1.84567
H            0.88533  -1.72733  -0.67232
C           -0.90154  -1.28858  -0.98083
C            1.90116   1.52417   0.73686
O           -0.01726   1.07834   2.16229
C           -2.15387   1.87136  -0.14750
C           -2.79636   1.87221  -1.40108
C           -3.95639   1.08331  -1.29189
C           -4.01333   0.56985   0.01847
C           -2.90345   1.05842   0.73228
H           -1.32928   2.48157   0.15438
N            1.54736   0.22731   0.22307
H            2.94828   1.53293   1.06665
H           -3.72648  -1.95159   0.59737
H           -2.72989  -3.42255   0.67267
H           -2.42072   2.29776  -2.30453
N           -1.92669  -1.70436   1.62827
C           -0.83217  -2.57770   2.06677
C           -2.76223  -1.38760   2.77380
H           -1.21882  -3.44388   2.62809
H           -0.27975  -2.95029   1.19992
H           -0.15787  -2.01251   2.72084
H           -3.11018  -2.29712   3.28463
H           -2.18938  -0.78724   3.47993
H           -3.63021  -0.82050   2.44854
C            1.72891   2.61582  -0.36826
C            1.19444   3.91569   0.23578
C            0.80394   2.13608  -1.50432
C            3.11038   2.90073  -0.97348
H            0.18386   3.79588   0.61739
H            1.19070   4.70338  -0.51569
H            1.81870   4.22610   1.06951
H            0.47558   2.99434  -2.08720
H            1.36130   1.47455  -2.16690
H           -0.08100   1.59693  -1.14437
H            3.76752   3.34610  -0.23020
H            3.56910   1.98068  -1.33055
H            3.02053   3.59123  -1.81037
O            3.68059  -0.43727  -0.14816
C            5.99264  -0.72581  -0.27048
C            4.66034  -1.43604  -0.51395
C            4.53727  -2.66229   0.38905
C            4.51671  -1.80912  -1.98925
H            6.05711   0.16668  -0.88714
H            6.06958  -0.42827   0.77172
H            6.81854  -1.38694  -0.51418
H            4.55743  -2.35687   1.43308
H            5.37046  -3.33434   0.20453
H            3.60983  -3.19378   0.19396
H            4.54725  -0.91238  -2.60457
H            5.33631  -2.46013  -2.27942
H            3.57820  -2.32669  -2.16749