      -----------------------------------------------------------      
     |                   =====================                   |     
     |                           x T B                           |     
     |                   =====================                   |     
     |                         S. Grimme                         |     
     |          Mulliken Center for Theoretical Chemistry        |     
     |                    University of Bonn                     |     
      -----------------------------------------------------------      

   * xtb version 6.6.1 (8d0f1dd) compiled by 'stahn@M-Bot' on 2023-08-01

   xtb is free software: you can redistribute it and/or modify it under
   the terms of the GNU Lesser General Public License as published by
   the Free Software Foundation, either version 3 of the License, or
   (at your option) any later version.
   
   xtb is distributed in the hope that it will be useful,
   but WITHOUT ANY WARRANTY; without even the implied warranty of
   MERCHANTABILITY or FITNESS FOR A PARTICULAR PURPOSE.  See the
   GNU Lesser General Public License for more details.
   
   Cite this work as:
   * C. Bannwarth, E. Caldeweyher, S. Ehlert, A. Hansen, P. Pracht,
     J. Seibert, S. Spicher, S. Grimme, WIREs Comput. Mol. Sci., 2020, 11,
     e01493. DOI: 10.1002/wcms.1493
   
   for GFN2-xTB:
   * C. Bannwarth, S. Ehlert and S. Grimme., J. Chem. Theory Comput., 2019,
     15, 1652-1671. DOI: 10.1021/acs.jctc.8b01176
   for GFN1-xTB:
   * S. Grimme, C. Bannwarth, P. Shushkov, J. Chem. Theory Comput., 2017,
     13, 1989-2009. DOI: 10.1021/acs.jctc.7b00118
   for GFN0-xTB:
   * P. Pracht, E. Caldeweyher, S. Ehlert, S. Grimme, ChemRxiv, 2019, preprint.
     DOI: 10.26434/chemrxiv.8326202.v1
   for GFN-FF:
   * S. Spicher and S. Grimme, Angew. Chem. Int. Ed., 2020, 59, 15665-15673.
     DOI: 10.1002/anie.202004239
   
   for ALPB and GBSA implicit solvation:
   * S. Ehlert, M. Stahn, S. Spicher, S. Grimme, J. Chem. Theory Comput.,
     2021, 17, 4250-4261. DOI: 10.1021/acs.jctc.1c00471
   
   for DFT-D4:
   * E. Caldeweyher, C. Bannwarth and S. Grimme, J. Chem. Phys., 2017,
     147, 034112. DOI: 10.1063/1.4993215
   * E. Caldeweyher, S. Ehlert, A. Hansen, H. Neugebauer, S. Spicher,
     C. Bannwarth and S. Grimme, J. Chem. Phys., 2019, 150, 154122.
     DOI: 10.1063/1.5090222
   * E. Caldeweyher, J.-M. Mewes, S. Ehlert and S. Grimme, Phys. Chem. Chem. Phys.
     2020, 22, 8499-8512. DOI: 10.1039/D0CP00502A
   
   for sTDA-xTB:
   * S. Grimme and C. Bannwarth, J. Chem. Phys., 2016, 145, 054103.
     DOI: 10.1063/1.4959605
   
   in the mass-spec context:
   * V. Asgeirsson, C. Bauer and S. Grimme, Chem. Sci., 2017, 8, 4879.
     DOI: 10.1039/c7sc00601b
   * J. Koopman and S. Grimme, ACS Omega 2019, 4, 12, 15120-15133.
     DOI: 10.1021/acsomega.9b02011
   
   for metadynamics refer to:
   * S. Grimme, J. Chem. Theory Comput., 2019, 155, 2847-2862
     DOI: 10.1021/acs.jctc.9b00143
   
   for SPH calculations refer to:
   * S. Spicher and S. Grimme, J. Chem. Theory Comput., 2021, 17, 1701-1714
     DOI: 10.1021/acs.jctc.0c01306
   
   with help from (in alphabetical order)
   P. Atkinson, C. Bannwarth, F. Bohle, G. Brandenburg, E. Caldeweyher
   M. Checinski, S. Dohm, S. Ehlert, S. Ehrlich, I. Gerasimov, C. Hölzer
   A. Katbashev, J. Koopman, C. Lavigne, S. Lehtola, F. März, M. Müller,
   F. Musil, H. Neugebauer, J. Pisarek, C. Plett, P. Pracht, F. Pultar,
   J. Seibert, P. Shushkov, S. Spicher, M. Stahn, M. Steiner, T. Strunk,
   J. Stückrath, T. Rose, and J. Unsleber
   
 * started run on 2024/10/15 at 00:16:38.308     

           -------------------------------------------------
          |                Calculation Setup                |
           -------------------------------------------------

          program call               : xtb tsopted.xyz --gfn 2 --charge 0
          coordinate file            : tsopted.xyz
          omp threads                :                    12

   ID    Z sym.   atoms
    1   26 Fe     1
    2    6 C      2, 4, 8, 10, 12-14, 19, 20, 22-26, 34, 35, 42-44, 53-56
    3   46 Pd     3
    4    1 H      5-7, 15-18, 27, 29-32, 36-41, 45-51, 57-65
    5    8 O      9, 11, 21, 52
    6    7 N      28, 33

           -------------------------------------------------
          |                 G F N 2 - x T B                 |
           -------------------------------------------------

        Reference                      10.1021/acs.jctc.8b01176
      * Hamiltonian:
        H0-scaling (s, p, d)           1.850000    2.230000    2.230000
        zeta-weighting                 0.500000
      * Dispersion:
        s8                             2.700000
        a1                             0.520000
        a2                             5.000000
        s9                             5.000000
      * Repulsion:
        kExp                           1.500000    1.000000
        rExp                           1.000000
      * Coulomb:
        alpha                          2.000000
        third order                    shell-resolved
        anisotropic                    true
        a3                             3.000000
        a5                             4.000000
        cn-shift                       1.200000
        cn-exp                         4.000000
        max-rad                        5.000000

q/qsh data taken from xtbrestart
CAMM data taken from xtbrestart

          ...................................................
          :                      SETUP                      :
          :.................................................:
          :  # basis functions                 170          :
          :  # atomic orbitals                 168          :
          :  # shells                           98          :
          :  # electrons                       178          :
          :  max. iterations                   250          :
          :  Hamiltonian                  GFN2-xTB          :
          :  restarted?                       true          :
          :  GBSA solvation                  false          :
          :  PC potential                    false          :
          :  electronic temp.          300.0000000     K    :
          :  accuracy                    1.0000000          :
          :  -> integral cutoff          0.2500000E+02      :
          :  -> integral neglect         0.1000000E-07      :
          :  -> SCF convergence          0.1000000E-05 Eh   :
          :  -> wf. convergence          0.1000000E-03 e    :
          :  Broyden damping             0.4000000          :
          ...................................................

 iter      E             dE          RMSdq      gap      omega  full diag
   1    -97.7715562 -0.977716E+02  0.736E-01    1.96       0.0  T
   2    -97.7985939 -0.270378E-01  0.821E-01    1.26       1.0  T
   3    -97.8126168 -0.140229E-01  0.433E-01    1.44       1.0  T
   4    -97.8129734 -0.356604E-03  0.357E-01    1.44       1.0  T
   5    -97.8136810 -0.707585E-03  0.195E-01    1.43       1.0  T
   6    -97.8137759 -0.948901E-04  0.129E-01    1.44       1.0  T
   7    -97.8139138 -0.137904E-03  0.602E-02    1.44       1.0  T
   8    -97.8139261 -0.122586E-04  0.300E-02    1.45       1.0  T
   9    -97.8139498 -0.237296E-04  0.115E-02    1.45       1.1  T
  10    -97.8139520 -0.220114E-05  0.528E-03    1.45       2.3  T
  11    -97.8139522 -0.228606E-06  0.286E-03    1.45       4.3  T
  12    -97.8139523 -0.657299E-07  0.180E-03    1.45       6.9  T
  13    -97.8139523 -0.141907E-07  0.986E-04    1.45      12.6  T
  14    -97.8139523 -0.110186E-07  0.420E-04    1.45      29.6  T

   *** convergence criteria satisfied after 14 iterations ***

         #    Occupation            Energy/Eh            Energy/eV
      -------------------------------------------------------------
         1        2.0000           -0.8666571             -23.5829
       ...           ...                  ...                  ...
        83        2.0000           -0.3711202             -10.0987
        84        2.0000           -0.3659823              -9.9589
        85        2.0000           -0.3520570              -9.5800
        86        2.0000           -0.3499527              -9.5227
        87        2.0000           -0.3418523              -9.3023
        88        2.0000           -0.3293515              -8.9621
        89        2.0000           -0.3187289              -8.6731 (HOMO)
        90                         -0.2653758              -7.2212 (LUMO)
        91                         -0.2557826              -6.9602
        92                         -0.2353534              -6.4043
        93                         -0.1867021              -5.0804
        94                         -0.1779099              -4.8412
       ...                                ...                  ...
       168                          6.8555140             186.5480
      -------------------------------------------------------------
                  HL-Gap            0.0533531 Eh            1.4518 eV
             Fermi-level           -0.2920524 Eh           -7.9471 eV

 SCC (total)                   0 d,  0 h,  0 min,  0.122 sec
 SCC setup                      ...        0 min,  0.004 sec (  3.354%)
 Dispersion                     ...        0 min,  0.001 sec (  0.719%)
 classical contributions        ...        0 min,  0.000 sec (  0.035%)
 integral evaluation            ...        0 min,  0.017 sec ( 13.596%)
 iterations                     ...        0 min,  0.077 sec ( 63.708%)
 molecular gradient             ...        0 min,  0.016 sec ( 13.143%)
 printout                       ...        0 min,  0.007 sec (  5.405%)

         :::::::::::::::::::::::::::::::::::::::::::::::::::::
         ::                     SUMMARY                     ::
         :::::::::::::::::::::::::::::::::::::::::::::::::::::
         :: total energy             -96.571210246230 Eh    ::
         :: gradient norm              0.000078986032 Eh/a0 ::
         :: HOMO-LUMO gap              1.451810878974 eV    ::
         ::.................................................::
         :: SCC energy               -97.813952319495 Eh    ::
         :: -> isotropic ES           -0.050251258034 Eh    ::
         :: -> anisotropic ES         -0.028265310472 Eh    ::
         :: -> anisotropic XC          0.019970155969 Eh    ::
         :: -> dispersion             -0.094354209904 Eh    ::
         :: repulsion energy           1.239800360530 Eh    ::
         :: add. restraining           0.000000000000 Eh    ::
         :: total charge              -0.000001393709 e     ::
         :::::::::::::::::::::::::::::::::::::::::::::::::::::

           -------------------------------------------------
          |                Property Printout                |
           -------------------------------------------------

    * Orbital Energies and Occupations

         #    Occupation            Energy/Eh            Energy/eV
      -------------------------------------------------------------
         1        2.0000           -0.8666571             -23.5829
       ...           ...                  ...                  ...
        77        2.0000           -0.3992870             -10.8652
        78        2.0000           -0.3900604             -10.6141
        79        2.0000           -0.3855356             -10.4910
        80        2.0000           -0.3816677             -10.3857
        81        2.0000           -0.3765291             -10.2459
        82        2.0000           -0.3756577             -10.2222
        83        2.0000           -0.3711202             -10.0987
        84        2.0000           -0.3659823              -9.9589
        85        2.0000           -0.3520570              -9.5800
        86        2.0000           -0.3499527              -9.5227
        87        2.0000           -0.3418523              -9.3023
        88        2.0000           -0.3293515              -8.9621
        89        2.0000           -0.3187289              -8.6731 (HOMO)
        90                         -0.2653758              -7.2212 (LUMO)
        91                         -0.2557826              -6.9602
        92                         -0.2353534              -6.4043
        93                         -0.1867021              -5.0804
        94                         -0.1779099              -4.8412
        95                         -0.1685383              -4.5862
        96                         -0.1640703              -4.4646
        97                         -0.1524235              -4.1477
        98                         -0.1447971              -3.9401
        99                         -0.1079293              -2.9369
       100                         -0.0066483              -0.1809
       ...                                ...                  ...
       168                          6.8555140             186.5480
      -------------------------------------------------------------
                  HL-Gap            0.0533531 Eh            1.4518 eV
             Fermi-level           -0.2920524 Eh           -7.9471 eV

     #   Z          covCN         q      C6AA      α(0)
     1  26 Fe      10.243     1.592   107.567    18.290
     2   6 C        2.736     0.372    20.697     7.448
     3  46 Pd       4.869    -0.304   381.901    35.690
     4   6 C        3.833    -0.041    21.282     6.564
     5   1 H        0.927     0.046     2.372     2.408
     6   1 H        0.927     0.095     1.831     2.116
     7   1 H        0.927     0.107     1.726     2.055
     8   6 C        2.670     0.385    20.483     7.406
     9   8 O        0.856    -0.500    23.775     6.537
    10   6 C        4.069    -0.104    22.394     6.722
    11   8 O        0.862    -0.561    25.183     6.728
    12   6 C        3.933    -0.136    23.050     6.823
    13   6 C        3.871    -0.147    23.292     6.863
    14   6 C        3.875    -0.158    23.514     6.895
    15   1 H        0.927     0.093     1.852     2.128
    16   1 H        0.927     0.059     2.213     2.326
    17   1 H        0.927     0.048     2.342     2.393
    18   1 H        1.522     0.155     1.349     1.813
    19   6 C        3.772    -0.179    24.038     6.987
    20   6 C        3.874     0.041    19.846     6.334
    21   8 O        1.518    -0.445    21.841     6.303
    22   6 C        3.885    -0.105    22.458     6.737
    23   6 C        3.877    -0.144    23.222     6.852
    24   6 C        3.900    -0.152    23.374     6.872
    25   6 C        3.891    -0.150    23.330     6.867
    26   6 C        3.889    -0.150    23.340     6.868
    27   1 H        0.927     0.082     1.958     2.188
    28   7 N        2.670    -0.243    26.341     7.623
    29   1 H        0.924     0.032     2.554     2.499
    30   1 H        0.925     0.046     2.370     2.407
    31   1 H        0.923     0.047     2.361     2.403
    32   1 H        0.927     0.063     2.160     2.298
    33   7 N        3.496    -0.049    22.187     6.996
    34   6 C        3.720    -0.053    21.636     6.643
    35   6 C        3.818    -0.037    21.217     6.555
    36   1 H        0.924     0.032     2.565     2.504
    37   1 H        0.925     0.049     2.330     2.387
    38   1 H        0.925     0.091     1.866     2.136
    39   1 H        0.923     0.025     2.655     2.548
    40   1 H        0.924     0.091     1.865     2.136
    41   1 H        0.924     0.083     1.947     2.182
    42   6 C        3.803    -0.050    21.462     6.595
    43   6 C        3.799    -0.047    21.421     6.590
    44   6 C        3.752    -0.105    22.562     6.774
    45   1 H        0.921     0.099     1.791     2.093
    46   1 H        0.924     0.033     2.547     2.496
    47   1 H        0.924     0.020     2.739     2.588
    48   1 H        0.924     0.039     2.468     2.457
    49   1 H        0.925     0.027     2.627     2.534
    50   1 H        0.925     0.028     2.617     2.530
    51   1 H        0.925     0.057     2.237     2.339
    52   8 O        1.705    -0.311    19.186     5.914
    53   6 C        3.758    -0.118    22.820     6.811
    54   6 C        3.785     0.160    18.035     6.049
    55   6 C        3.756    -0.125    22.952     6.831
    56   6 C        3.755    -0.124    22.927     6.827
    57   1 H        0.925     0.051     2.310     2.377
    58   1 H        0.925     0.055     2.262     2.352
    59   1 H        0.925     0.043     2.409     2.427
    60   1 H        0.925     0.044     2.394     2.420
    61   1 H        0.925     0.039     2.462     2.454
    62   1 H        0.925     0.064     2.151     2.294
    63   1 H        0.925     0.042     2.416     2.431
    64   1 H        0.925     0.038     2.470     2.458
    65   1 H        0.925     0.065     2.139     2.287

 Mol. C6AA /au·bohr⁶  :      47105.126442
 Mol. C8AA /au·bohr⁸  :    1375958.232723
 Mol. α(0) /au        :        329.456643


Wiberg/Mayer (AO) data.
largest (>0.10) Wiberg bond orders for each atom

 ---------------------------------------------------------------------------
     #   Z sym  total        # sym  WBO       # sym  WBO       # sym  WBO
 ---------------------------------------------------------------------------
     1  26 Fe   0.649 --    14 C    0.232    10 C    0.200    13 C    0.197
                            12 C    0.192    25 C    0.192    26 C    0.181
                            24 C    0.176    19 C    0.157    23 C    0.154
                            22 C    0.100
     2   6 C    3.935 --     9 O    1.634    21 O    1.340    20 C    0.876
     3  46 Pd   3.828 --    19 C    0.809    28 N    0.619    21 O    0.493
                            18 H    0.434    33 N    0.410    22 C    0.148
                            23 C    0.148    10 C    0.114
     4   6 C    3.974 --    10 C    1.010    33 N    0.975    30 H    0.966
                            31 H    0.956
     5   1 H    0.996 --    24 C    0.981
     6   1 H    0.989 --    23 C    0.943
     7   1 H    0.987 --    22 C    0.951
     8   6 C    3.938 --    28 N    1.412    11 O    1.344    52 O    1.059
     9   8 O    1.950 --     2 C    1.634    21 O    0.197
    10   6 C    3.959 --    14 C    1.276    19 C    1.215     4 C    1.010
                             1 Fe   0.200     3 Pd   0.114
    11   8 O    1.925 --     8 C    1.344    28 N    0.164    18 H    0.113
    12   6 C    3.967 --    13 C    1.342    19 C    1.176    15 H    0.967
                             1 Fe   0.192
    13   6 C    3.970 --    12 C    1.342    14 C    1.271    16 H    0.988
                             1 Fe   0.197
    14   6 C    3.973 --    10 C    1.276    13 C    1.271    17 H    0.988
                             1 Fe   0.232
    15   1 H    0.990 --    12 C    0.967
    16   1 H    0.993 --    13 C    0.988
    17   1 H    0.996 --    14 C    0.988
    18   1 H    0.975 --     3 Pd   0.434    22 C    0.124    11 O    0.113
    19   6 C    3.680 --    10 C    1.215    12 C    1.176     3 Pd   0.809
                             1 Fe   0.157
    20   6 C    3.968 --    28 N    0.975    42 C    0.967    29 H    0.956
                             2 C    0.876
    21   8 O    2.180 --     2 C    1.340     3 Pd   0.493     9 O    0.197
    22   6 C    3.973 --    26 C    1.266    23 C    1.249     7 H    0.951
                             3 Pd   0.148    18 H    0.124     1 Fe   0.100
    23   6 C    3.975 --    24 C    1.324    22 C    1.249     6 H    0.943
                             1 Fe   0.154     3 Pd   0.148
    24   6 C    3.975 --    23 C    1.324    25 C    1.283     5 H    0.981
                             1 Fe   0.176
    25   6 C    3.973 --    26 C    1.330    24 C    1.283    32 H    0.988
                             1 Fe   0.192
    26   6 C    3.965 --    25 C    1.330    22 C    1.266    27 H    0.983
                             1 Fe   0.181
    27   1 H    0.991 --    26 C    0.983
    28   7 N    3.393 --     8 C    1.412    20 C    0.975     3 Pd   0.619
                            11 O    0.164
    29   1 H    0.997 --    20 C    0.956
    30   1 H    0.997 --     4 C    0.966
    31   1 H    0.995 --     4 C    0.956
    32   1 H    0.995 --    25 C    0.988
    33   7 N    3.459 --    34 C    0.994    35 C    0.990     4 C    0.975
                             3 Pd   0.410
    34   6 C    3.972 --    33 N    0.994    36 H    0.973    37 H    0.972
                            38 H    0.963
    35   6 C    3.972 --    33 N    0.990    39 H    0.970    41 H    0.955
                            40 H    0.944
    36   1 H    0.997 --    34 C    0.973
    37   1 H    0.996 --    34 C    0.972
    38   1 H    0.990 --    34 C    0.963
    39   1 H    0.998 --    35 C    0.970
    40   1 H    0.990 --    35 C    0.944
    41   1 H    0.992 --    35 C    0.955
    42   6 C    3.989 --    43 C    1.008    46 H    0.974    20 C    0.967
                            45 H    0.874
    43   6 C    3.997 --    44 C    1.019    42 C    1.008    47 H    0.979
                            48 H    0.974
    44   6 C    3.994 --    43 C    1.019    49 H    0.988    50 H    0.988
                            51 H    0.984
    45   1 H    0.989 --    42 C    0.874
    46   1 H    0.998 --    42 C    0.974
    47   1 H    0.999 --    43 C    0.979
    48   1 H    0.998 --    43 C    0.974
    49   1 H    0.999 --    44 C    0.988
    50   1 H    0.999 --    44 C    0.988
    51   1 H    0.997 --    44 C    0.984
    52   8 O    2.230 --     8 C    1.059    54 C    0.916
    53   6 C    3.992 --    54 C    0.994    59 H    0.985    57 H    0.985
                            58 H    0.984
    54   6 C    3.926 --    53 C    0.994    55 C    0.994    56 C    0.993
                            52 O    0.916
    55   6 C    3.993 --    54 C    0.994    60 H    0.985    61 H    0.985
                            62 H    0.978
    56   6 C    3.993 --    54 C    0.993    63 H    0.986    64 H    0.985
                            65 H    0.978
    57   1 H    0.997 --    53 C    0.985
    58   1 H    0.997 --    53 C    0.984
    59   1 H    0.997 --    53 C    0.985
    60   1 H    0.998 --    55 C    0.985
    61   1 H    0.998 --    55 C    0.985
    62   1 H    0.995 --    55 C    0.978
    63   1 H    0.998 --    56 C    0.986
    64   1 H    0.998 --    56 C    0.985
    65   1 H    0.995 --    56 C    0.978
 ---------------------------------------------------------------------------

Topologies differ in total number of bonds
Writing topology from bond orders to xtbtopo.mol

molecular dipole:
                 x           y           z       tot (Debye)
 q only:        4.598       1.733      -1.230
   full:        3.978       0.606      -1.030      10.557
molecular quadrupole (traceless):
                xx          xy          yy          xz          yz          zz
 q only:        7.892     -12.622      10.507      15.790      11.695     -18.398
  q+dip:       10.959     -17.935      14.054      20.182      10.215     -25.014
   full:        9.914     -21.316      10.724      17.707      10.398     -20.638


           -------------------------------------------------
          | TOTAL ENERGY              -96.571210246230 Eh   |
          | GRADIENT NORM               0.000078986032 Eh/α |
          | HOMO-LUMO GAP               1.451810878974 eV   |
           -------------------------------------------------
########################################################################
[WARNING] Runtime exception occurred
-1- restart_readRestart: Multiplicity missmatch in restart file.
########################################################################

------------------------------------------------------------------------
 * finished run on 2024/10/15 at 00:16:38.670     
------------------------------------------------------------------------
 total:
 * wall-time:     0 d,  0 h,  0 min,  0.361 sec
 *  cpu-time:     0 d,  0 h,  0 min,  3.739 sec
 * ratio c/w:    10.368 speedup
 SCF:
 * wall-time:     0 d,  0 h,  0 min,  0.129 sec
 *  cpu-time:     0 d,  0 h,  0 min,  1.476 sec
 * ratio c/w:    11.484 speedup

