65
charge 0 multiplicity 1
Fe           2.00019   1.03643  -0.00136
C           -1.93688  -1.69289   1.27950
Pd           0.34414  -0.97254  -0.21429
C            3.25885  -1.37772  -0.27365
H            4.12607   0.72037   1.60761
H            1.79242  -0.41900   2.37127
H           -0.13157   1.29174   1.84370
C           -1.65397   1.09392  -0.38660
O           -2.76322  -1.98899   2.12521
C            2.84534  -0.26077  -1.14636
O           -0.68584   1.89974  -0.41949
C            1.42676   1.31638  -1.85370
C            2.63963   1.94408  -1.58609
C            3.53848   0.96048  -1.13617
H            0.54685   1.85924  -2.10743
H            2.78883   2.99763  -1.57529
H            4.51501   1.12683  -0.74533
H            0.56094   0.82286  -0.11450
C            1.50848  -0.09087  -1.60487
C           -2.39096  -1.20873  -0.13704
O           -0.67387  -1.71813   1.44573
C            0.89968   1.43186   1.60575
C            1.93824   0.52355   1.89727
C            3.14751   1.13762   1.54614
C            2.86425   2.41298   1.02352
C            1.47815   2.58467   1.03271
H            0.94665   3.34109   0.50680
N           -1.44138  -0.18233  -0.50290
H           -3.40907  -0.81100  -0.08745
H            3.64881  -0.89475   0.61943
H            4.03303  -2.02733  -0.70815
H            3.57437   3.07020   0.58240
N            2.06884  -2.15056   0.08685
C            2.23651  -2.82213   1.37106
C            1.79183  -3.16758  -0.92953
H            2.88657  -3.70184   1.27882
H            2.68935  -2.14766   2.09425
H            1.26235  -3.13466   1.74762
H            2.60017  -3.91463  -0.96650
H            0.85905  -3.68537  -0.68483
H            1.70813  -2.69925  -1.91171
C           -2.29558  -2.35738  -1.15701
C           -2.94571  -3.65897  -0.68854
C           -4.42991  -3.49517  -0.38399
H           -1.21675  -2.53740  -1.35778
H           -2.75485  -2.02859  -2.09445
H           -2.81177  -4.41469  -1.46954
H           -2.44281  -4.01495   0.21389
H           -4.94758  -3.03497  -1.22384
H           -4.88428  -4.46393  -0.18643
H           -4.55851  -2.87267   0.49710
O           -2.93255   1.49468  -0.24830
C           -4.75455   2.92170   0.10243
C           -3.23256   2.88739  -0.04560
C           -2.56227   3.39345   1.23393
C           -2.79250   3.71434  -1.25528
H           -5.22345   2.53260  -0.79738
H           -5.05695   2.30215   0.94234
H           -5.09146   3.94068   0.26912
H           -2.83284   2.75116   2.06931
H           -2.89215   4.40660   1.44609
H           -1.48216   3.38414   1.11496
H           -3.25774   3.32678  -2.15877
H           -3.08882   4.75071  -1.11936
H           -1.71244   3.65802  -1.36344