      -----------------------------------------------------------      
     |                   =====================                   |     
     |                           x T B                           |     
     |                   =====================                   |     
     |                         S. Grimme                         |     
     |          Mulliken Center for Theoretical Chemistry        |     
     |                    University of Bonn                     |     
      -----------------------------------------------------------      

   * xtb version 6.6.1 (8d0f1dd) compiled by 'stahn@M-Bot' on 2023-08-01

   xtb is free software: you can redistribute it and/or modify it under
   the terms of the GNU Lesser General Public License as published by
   the Free Software Foundation, either version 3 of the License, or
   (at your option) any later version.
   
   xtb is distributed in the hope that it will be useful,
   but WITHOUT ANY WARRANTY; without even the implied warranty of
   MERCHANTABILITY or FITNESS FOR A PARTICULAR PURPOSE.  See the
   GNU Lesser General Public License for more details.
   
   Cite this work as:
   * C. Bannwarth, E. Caldeweyher, S. Ehlert, A. Hansen, P. Pracht,
     J. Seibert, S. Spicher, S. Grimme, WIREs Comput. Mol. Sci., 2020, 11,
     e01493. DOI: 10.1002/wcms.1493
   
   for GFN2-xTB:
   * C. Bannwarth, S. Ehlert and S. Grimme., J. Chem. Theory Comput., 2019,
     15, 1652-1671. DOI: 10.1021/acs.jctc.8b01176
   for GFN1-xTB:
   * S. Grimme, C. Bannwarth, P. Shushkov, J. Chem. Theory Comput., 2017,
     13, 1989-2009. DOI: 10.1021/acs.jctc.7b00118
   for GFN0-xTB:
   * P. Pracht, E. Caldeweyher, S. Ehlert, S. Grimme, ChemRxiv, 2019, preprint.
     DOI: 10.26434/chemrxiv.8326202.v1
   for GFN-FF:
   * S. Spicher and S. Grimme, Angew. Chem. Int. Ed., 2020, 59, 15665-15673.
     DOI: 10.1002/anie.202004239
   
   for ALPB and GBSA implicit solvation:
   * S. Ehlert, M. Stahn, S. Spicher, S. Grimme, J. Chem. Theory Comput.,
     2021, 17, 4250-4261. DOI: 10.1021/acs.jctc.1c00471
   
   for DFT-D4:
   * E. Caldeweyher, C. Bannwarth and S. Grimme, J. Chem. Phys., 2017,
     147, 034112. DOI: 10.1063/1.4993215
   * E. Caldeweyher, S. Ehlert, A. Hansen, H. Neugebauer, S. Spicher,
     C. Bannwarth and S. Grimme, J. Chem. Phys., 2019, 150, 154122.
     DOI: 10.1063/1.5090222
   * E. Caldeweyher, J.-M. Mewes, S. Ehlert and S. Grimme, Phys. Chem. Chem. Phys.
     2020, 22, 8499-8512. DOI: 10.1039/D0CP00502A
   
   for sTDA-xTB:
   * S. Grimme and C. Bannwarth, J. Chem. Phys., 2016, 145, 054103.
     DOI: 10.1063/1.4959605
   
   in the mass-spec context:
   * V. Asgeirsson, C. Bauer and S. Grimme, Chem. Sci., 2017, 8, 4879.
     DOI: 10.1039/c7sc00601b
   * J. Koopman and S. Grimme, ACS Omega 2019, 4, 12, 15120-15133.
     DOI: 10.1021/acsomega.9b02011
   
   for metadynamics refer to:
   * S. Grimme, J. Chem. Theory Comput., 2019, 155, 2847-2862
     DOI: 10.1021/acs.jctc.9b00143
   
   for SPH calculations refer to:
   * S. Spicher and S. Grimme, J. Chem. Theory Comput., 2021, 17, 1701-1714
     DOI: 10.1021/acs.jctc.0c01306
   
   with help from (in alphabetical order)
   P. Atkinson, C. Bannwarth, F. Bohle, G. Brandenburg, E. Caldeweyher
   M. Checinski, S. Dohm, S. Ehlert, S. Ehrlich, I. Gerasimov, C. Hölzer
   A. Katbashev, J. Koopman, C. Lavigne, S. Lehtola, F. März, M. Müller,
   F. Musil, H. Neugebauer, J. Pisarek, C. Plett, P. Pracht, F. Pultar,
   J. Seibert, P. Shushkov, S. Spicher, M. Stahn, M. Steiner, T. Strunk,
   J. Stückrath, T. Rose, and J. Unsleber
   
 * started run on 2024/10/15 at 00:16:37.330     

           -------------------------------------------------
          |                Calculation Setup                |
           -------------------------------------------------

          program call               : xtb tsopted.xyz --gfn 2 --charge 0 --vipea
          coordinate file            : tsopted.xyz
          omp threads                :                    12

   ID    Z sym.   atoms
    1   26 Fe     1
    2    6 C      2, 4, 8, 10, 12-14, 19, 20, 22-26, 34, 35, 42-44, 53-56
    3   46 Pd     3
    4    1 H      5-7, 15-18, 27, 29-32, 36-41, 45-51, 57-65
    5    8 O      9, 11, 21, 52
    6    7 N      28, 33

           -------------------------------------------------
          |                 G F N 2 - x T B                 |
           -------------------------------------------------

        Reference                      10.1021/acs.jctc.8b01176
      * Hamiltonian:
        H0-scaling (s, p, d)           1.850000    2.230000    2.230000
        zeta-weighting                 0.500000
      * Dispersion:
        s8                             2.700000
        a1                             0.520000
        a2                             5.000000
        s9                             5.000000
      * Repulsion:
        kExp                           1.500000    1.000000
        rExp                           1.000000
      * Coulomb:
        alpha                          2.000000
        third order                    shell-resolved
        anisotropic                    true
        a3                             3.000000
        a5                             4.000000
        cn-shift                       1.200000
        cn-exp                         4.000000
        max-rad                        5.000000

q/qsh data taken from xtbrestart
CAMM data taken from xtbrestart

          ...................................................
          :                      SETUP                      :
          :.................................................:
          :  # basis functions                 170          :
          :  # atomic orbitals                 168          :
          :  # shells                           98          :
          :  # electrons                       178          :
          :  max. iterations                   250          :
          :  Hamiltonian                  GFN2-xTB          :
          :  restarted?                       true          :
          :  GBSA solvation                  false          :
          :  PC potential                    false          :
          :  electronic temp.          300.0000000     K    :
          :  accuracy                    1.0000000          :
          :  -> integral cutoff          0.2500000E+02      :
          :  -> integral neglect         0.1000000E-07      :
          :  -> SCF convergence          0.1000000E-05 Eh   :
          :  -> wf. convergence          0.1000000E-03 e    :
          :  Broyden damping             0.4000000          :
          ...................................................

 iter      E             dE          RMSdq      gap      omega  full diag
   1    -97.8139523 -0.978140E+02  0.245E-04    1.45       0.0  T
   2    -97.8139523 -0.195655E-09  0.159E-04    1.45      78.0  T
   3    -97.8139523 -0.260911E-10  0.147E-04    1.45      84.1  T

   *** convergence criteria satisfied after 3 iterations ***

         #    Occupation            Energy/Eh            Energy/eV
      -------------------------------------------------------------
         1        2.0000           -0.8666702             -23.5833
       ...           ...                  ...                  ...
        83        2.0000           -0.3711289             -10.0989
        84        2.0000           -0.3659913              -9.9591
        85        2.0000           -0.3520645              -9.5802
        86        2.0000           -0.3499594              -9.5229
        87        2.0000           -0.3418590              -9.3025
        88        2.0000           -0.3293586              -8.9623
        89        2.0000           -0.3187375              -8.6733 (HOMO)
        90                         -0.2653844              -7.2215 (LUMO)
        91                         -0.2557911              -6.9604
        92                         -0.2353599              -6.4045
        93                         -0.1867117              -5.0807
        94                         -0.1779195              -4.8414
       ...                                ...                  ...
       168                          6.8555349             186.5486
      -------------------------------------------------------------
                  HL-Gap            0.0533531 Eh            1.4518 eV
             Fermi-level           -0.2920609 Eh           -7.9474 eV

 SCC (total)                   0 d,  0 h,  0 min,  0.035 sec
 SCC setup                      ...        0 min,  0.003 sec (  9.068%)
 Dispersion                     ...        0 min,  0.001 sec (  2.478%)
 classical contributions        ...        0 min,  0.000 sec (  0.116%)
 integral evaluation            ...        0 min,  0.005 sec ( 14.790%)
 iterations                     ...        0 min,  0.014 sec ( 38.321%)
 molecular gradient             ...        0 min,  0.009 sec ( 25.482%)
 printout                       ...        0 min,  0.003 sec (  9.651%)

         :::::::::::::::::::::::::::::::::::::::::::::::::::::
         ::                     SUMMARY                     ::
         :::::::::::::::::::::::::::::::::::::::::::::::::::::
         :: total energy             -96.571210249341 Eh    ::
         :: gradient norm              0.000077584050 Eh/a0 ::
         :: HOMO-LUMO gap              1.451811261363 eV    ::
         ::.................................................::
         :: SCC energy               -97.813952322606 Eh    ::
         :: -> isotropic ES           -0.050270911007 Eh    ::
         :: -> anisotropic ES         -0.028268681245 Eh    ::
         :: -> anisotropic XC          0.019968796262 Eh    ::
         :: -> dispersion             -0.094354498563 Eh    ::
         :: repulsion energy           1.239800360530 Eh    ::
         :: add. restraining           0.000000000000 Eh    ::
         :: total charge               0.000000000000 e     ::
         :::::::::::::::::::::::::::::::::::::::::::::::::::::

           ------------------------------------------------- 
          |        vertical delta SCC IP calculation        |
           ------------------------------------------------- 

 iter      E             dE          RMSdq      gap      omega  full diag
   1    -97.3855093 -0.973855E+02  0.626E-01    1.45       0.0  T
   2    -97.3628911  0.226182E-01  0.914E-01    2.03       1.0  T
   3    -97.4109910 -0.480999E-01  0.499E-01    1.82       1.0  T
   4    -97.4165819 -0.559089E-02  0.320E-01    1.89       1.0  T
   5    -97.4159888  0.593075E-03  0.257E-01    1.94       1.0  T
   6    -97.4154669  0.521854E-03  0.198E-01    1.91       1.0  T
   7    -97.4158296 -0.362704E-03  0.153E-01    1.87       1.0  T
   8    -97.4173376 -0.150800E-02  0.475E-02    1.90       1.0  T
   9    -97.4173212  0.164456E-04  0.407E-02    1.88       1.0  T
  10    -97.4173830 -0.618343E-04  0.169E-02    1.89       1.0  T
  11    -97.4173850 -0.195641E-05  0.119E-02    1.89       1.0  T
  12    -97.4173909 -0.594204E-05  0.635E-03    1.89       2.0  T
  13    -97.4173922 -0.129754E-05  0.275E-03    1.89       4.5  T
  14    -97.4173921  0.111103E-06  0.250E-03    1.89       5.0  T
  15    -97.4173921 -0.896277E-08  0.193E-03    1.89       6.4  T
  16    -97.4173923 -0.217171E-06  0.371E-04    1.89      33.4  T
  17    -97.4173923 -0.905231E-09  0.199E-04    1.89      62.2  T
     SCC iter.                  ...        0 min,  0.064 sec
     gradient                   ...        0 min,  0.010 sec
------------------------------------------------------------------------
empirical IP shift (eV):    4.8455
delta SCC IP (eV):    5.9454
------------------------------------------------------------------------
           ------------------------------------------------- 
          |        vertical delta SCC EA calculation        |
           ------------------------------------------------- 

 iter      E             dE          RMSdq      gap      omega  full diag
   1    -97.8991336 -0.978991E+02  0.104E+00    0.32       0.0  T
   2    -97.8996557 -0.522133E-03  0.168E+00    0.34       1.0  T
   3    -97.9777332 -0.780775E-01  0.778E-01    0.24       1.0  T
   4    -97.9769873  0.745913E-03  0.770E-01    0.28       1.0  T
   5    -97.9867621 -0.977481E-02  0.544E-01    0.25       1.0  T
   6    -97.9926861 -0.592394E-02  0.267E-01    0.27       1.0  T
   7    -97.9931542 -0.468150E-03  0.150E-01    0.28       1.0  T
   8    -97.9932836 -0.129386E-03  0.689E-02    0.28       1.0  T
   9    -97.9934146 -0.131031E-03  0.262E-02    0.28       1.0  T
  10    -97.9934249 -0.102312E-04  0.147E-02    0.28       1.0  T
  11    -97.9934313 -0.643291E-05  0.809E-03    0.28       1.5  T
  12    -97.9934319 -0.641143E-06  0.605E-03    0.28       2.1  T
  13    -97.9934325 -0.577260E-06  0.286E-03    0.28       4.3  T
  14    -97.9934326 -0.111141E-06  0.135E-03    0.28       9.2  T
  15    -97.9934326 -0.109310E-07  0.775E-04    0.28      16.0  T
  16    -97.9934326 -0.118754E-07  0.338E-04    0.28      36.7  T
     SCC iter.                  ...        0 min,  0.059 sec
     gradient                   ...        0 min,  0.009 sec
------------------------------------------------------------------------
empirical EA shift (eV):    4.8455
delta SCC EA (eV):    0.0384
------------------------------------------------------------------------
           -------------------------------------------------
          |                Property Printout                |
           -------------------------------------------------

    * Orbital Energies and Occupations

         #    Occupation            Energy/Eh            Energy/eV
      -------------------------------------------------------------
         1        2.0000           -0.7192030             -19.5705
       ...           ...                  ...                  ...
        78        2.0000           -0.2469735              -6.7205
        79        2.0000           -0.2414201              -6.5694
        80        2.0000           -0.2385205              -6.4905
        81        2.0000           -0.2266732              -6.1681
        82        2.0000           -0.2220124              -6.0413
        83        2.0000           -0.2128670              -5.7924
        84        2.0000           -0.2089427              -5.6856
        85        2.0000           -0.2012653              -5.4767
        86        2.0000           -0.1962439              -5.3401
        87        2.0000           -0.1934808              -5.2649
        88        2.0000           -0.1833667              -4.9897
        89        2.0000           -0.1684926              -4.5849
        90        0.9952           -0.0964367              -2.6242 (HOMO)
        91        0.0037           -0.0860607              -2.3418 (LUMO)
        92        0.0011           -0.0849428              -2.3114
        93                         -0.0352043              -0.9580
        94                         -0.0273788              -0.7450
        95                         -0.0241340              -0.6567
        96                         -0.0172376              -0.4691
        97                         -0.0084234              -0.2292
        98                          0.0091756               0.2497
        99                          0.0508945               1.3849
       100                          0.1216600               3.3105
       101                          0.1247239               3.3939
       ...                                ...                  ...
       168                          6.9982575             190.4323
      -------------------------------------------------------------
                  HL-Gap            0.0103759 Eh            0.2823 eV
             Fermi-level           -0.1119209 Eh           -3.0455 eV

     #   Z          covCN         q      C6AA      α(0)
     1  26 Fe      10.243     1.471   108.933    18.406
     2   6 C        2.736     0.372    20.691     7.447
     3  46 Pd       4.869    -0.477   392.620    36.187
     4   6 C        3.833    -0.025    20.996     6.519
     5   1 H        0.927     0.002     3.015     2.715
     6   1 H        0.927     0.056     2.247     2.344
     7   1 H        0.927     0.067     2.119     2.276
     8   6 C        2.670     0.383    20.518     7.412
     9   8 O        0.856    -0.546    24.838     6.682
    10   6 C        4.069    -0.119    22.676     6.764
    11   8 O        0.862    -0.560    25.148     6.724
    12   6 C        3.933    -0.142    23.159     6.839
    13   6 C        3.871    -0.159    23.530     6.897
    14   6 C        3.875    -0.168    23.704     6.923
    15   1 H        0.927     0.053     2.285     2.364
    16   1 H        0.927     0.015     2.815     2.623
    17   1 H        0.927     0.004     2.984     2.701
    18   1 H        1.522     0.156     1.345     1.811
    19   6 C        3.772    -0.198    24.436     7.044
    20   6 C        3.874     0.050    19.690     6.309
    21   8 O        1.518    -0.443    21.808     6.298
    22   6 C        3.885    -0.110    22.551     6.751
    23   6 C        3.877    -0.148    23.301     6.863
    24   6 C        3.900    -0.157    23.481     6.888
    25   6 C        3.891    -0.167    23.676     6.917
    26   6 C        3.889    -0.159    23.512     6.893
    27   1 H        0.927     0.042     2.425     2.435
    28   7 N        2.670    -0.247    26.435     7.636
    29   1 H        0.924     0.001     3.041     2.727
    30   1 H        0.925     0.034     2.537     2.491
    31   1 H        0.923     0.004     2.986     2.702
    32   1 H        0.927     0.019     2.747     2.592
    33   7 N        3.496    -0.039    21.993     6.965
    34   6 C        3.720    -0.035    21.323     6.595
    35   6 C        3.818    -0.020    20.914     6.508
    36   1 H        0.924     0.001     3.033     2.723
    37   1 H        0.925     0.042     2.421     2.433
    38   1 H        0.925     0.077     2.015     2.220
    39   1 H        0.923    -0.004     3.125     2.764
    40   1 H        0.924     0.074     2.043     2.235
    41   1 H        0.924     0.079     1.991     2.206
    42   6 C        3.803    -0.047    21.410     6.588
    43   6 C        3.799    -0.043    21.338     6.577
    44   6 C        3.752    -0.097    22.418     6.752
    45   1 H        0.921     0.105     1.742     2.064
    46   1 H        0.924     0.015     2.809     2.621
    47   1 H        0.924     0.004     2.984     2.702
    48   1 H        0.924     0.036     2.507     2.476
    49   1 H        0.925     0.018     2.763     2.599
    50   1 H        0.925     0.012     2.866     2.647
    51   1 H        0.925     0.056     2.243     2.342
    52   8 O        1.705    -0.334    19.595     5.977
    53   6 C        3.758    -0.111    22.674     6.789
    54   6 C        3.785     0.162    18.008     6.045
    55   6 C        3.756    -0.119    22.843     6.815
    56   6 C        3.755    -0.118    22.819     6.811
    57   1 H        0.925     0.041     2.434     2.440
    58   1 H        0.925     0.047     2.352     2.398
    59   1 H        0.925     0.028     2.618     2.530
    60   1 H        0.925     0.039     2.461     2.453
    61   1 H        0.925     0.021     2.713     2.576
    62   1 H        0.925     0.076     2.017     2.221
    63   1 H        0.925     0.033     2.544     2.494
    64   1 H        0.925     0.022     2.699     2.569
    65   1 H        0.925     0.074     2.043     2.235

 Mol. C6AA /au·bohr⁶  :      48512.230751
 Mol. C8AA /au·bohr⁸  :    1407630.733199
 Mol. α(0) /au        :        334.555996


Wiberg/Mayer (AO) data.
largest (>0.10) Wiberg bond orders for each atom

 ---------------------------------------------------------------------------
     #   Z sym  total        # sym  WBO       # sym  WBO       # sym  WBO
 ---------------------------------------------------------------------------
     1  26 Fe   0.494 --    12 C    0.202    10 C    0.200    26 C    0.191
                            14 C    0.183    24 C    0.178    13 C    0.140
                            23 C    0.128    25 C    0.126    18 H    0.125
     2   6 C    3.936 --     9 O    1.591    21 O    1.383    20 C    0.874
     3  46 Pd   3.827 --    19 C    0.839    28 N    0.546    21 O    0.433
                            18 H    0.423    33 N    0.372    22 C    0.163
                            23 C    0.159    10 C    0.118
     4   6 C    3.971 --    10 C    1.004    33 N    0.972    30 H    0.968
                            31 H    0.960
     5   1 H    0.998 --    24 C    0.984
     6   1 H    0.995 --    23 C    0.949
     7   1 H    0.993 --    22 C    0.958
     8   6 C    3.932 --    28 N    1.427    11 O    1.362    52 O    1.018
     9   8 O    1.902 --     2 C    1.591    21 O    0.203
    10   6 C    3.948 --    14 C    1.267    19 C    1.227     4 C    1.004
                             1 Fe   0.200     3 Pd   0.118
    11   8 O    1.916 --     8 C    1.362    28 N    0.173
    12   6 C    3.972 --    13 C    1.339    19 C    1.175    15 H    0.973
                             1 Fe   0.202
    13   6 C    3.964 --    12 C    1.339    14 C    1.308    16 H    0.993
                             1 Fe   0.140
    14   6 C    3.965 --    13 C    1.308    10 C    1.267    17 H    0.991
                             1 Fe   0.183
    15   1 H    0.996 --    12 C    0.973
    16   1 H    0.996 --    13 C    0.993
    17   1 H    0.998 --    14 C    0.991
    18   1 H    0.975 --     3 Pd   0.423    22 C    0.128     1 Fe   0.125
    19   6 C    3.646 --    10 C    1.227    12 C    1.175     3 Pd   0.839
    20   6 C    3.973 --    28 N    0.983    42 C    0.969    29 H    0.959
                             2 C    0.874
    21   8 O    2.162 --     2 C    1.383     3 Pd   0.433     9 O    0.203
    22   6 C    3.975 --    23 C    1.273    26 C    1.250     7 H    0.958
                             3 Pd   0.163    18 H    0.128
    23   6 C    3.971 --    24 C    1.304    22 C    1.273     6 H    0.949
                             3 Pd   0.159     1 Fe   0.128
    24   6 C    3.970 --    23 C    1.304    25 C    1.302     5 H    0.984
                             1 Fe   0.178
    25   6 C    3.961 --    26 C    1.344    24 C    1.302    32 H    0.995
                             1 Fe   0.126
    26   6 C    3.965 --    25 C    1.344    22 C    1.250    27 H    0.989
                             1 Fe   0.191
    27   1 H    0.995 --    26 C    0.989
    28   7 N    3.358 --     8 C    1.427    20 C    0.983     3 Pd   0.546
                            11 O    0.173
    29   1 H    0.997 --    20 C    0.959
    30   1 H    0.998 --     4 C    0.968
    31   1 H    0.998 --     4 C    0.960
    32   1 H    0.998 --    25 C    0.995
    33   7 N    3.434 --    34 C    1.001    35 C    0.996     4 C    0.972
                             3 Pd   0.372
    34   6 C    3.981 --    33 N    1.001    36 H    0.974    37 H    0.973
                            38 H    0.966
    35   6 C    3.981 --    33 N    0.996    39 H    0.969    41 H    0.955
                            40 H    0.948
    36   1 H    0.998 --    34 C    0.974
    37   1 H    0.997 --    34 C    0.973
    38   1 H    0.993 --    34 C    0.966
    39   1 H    0.999 --    35 C    0.969
    40   1 H    0.993 --    35 C    0.948
    41   1 H    0.992 --    35 C    0.955
    42   6 C    3.987 --    43 C    1.008    46 H    0.975    20 C    0.969
                            45 H    0.877
    43   6 C    3.997 --    44 C    1.018    42 C    1.008    47 H    0.979
                            48 H    0.975
    44   6 C    3.995 --    43 C    1.018    50 H    0.989    49 H    0.988
                            51 H    0.984
    45   1 H    0.988 --    42 C    0.877
    46   1 H    0.999 --    42 C    0.975
    47   1 H    1.000 --    43 C    0.979
    48   1 H    0.998 --    43 C    0.975
    49   1 H    1.000 --    44 C    0.988
    50   1 H    1.000 --    44 C    0.989
    51   1 H    0.997 --    44 C    0.984
    52   8 O    2.195 --     8 C    1.018    54 C    0.931
    53   6 C    3.996 --    54 C    0.993    59 H    0.987    57 H    0.986
                            58 H    0.985
    54   6 C    3.939 --    53 C    0.993    55 C    0.993    56 C    0.992
                            52 O    0.931
    55   6 C    3.992 --    54 C    0.993    61 H    0.986    60 H    0.986
                            62 H    0.976
    56   6 C    3.993 --    54 C    0.992    64 H    0.987    63 H    0.986
                            65 H    0.976
    57   1 H    0.998 --    53 C    0.986
    58   1 H    0.998 --    53 C    0.985
    59   1 H    0.998 --    53 C    0.987
    60   1 H    0.999 --    55 C    0.986
    61   1 H    0.999 --    55 C    0.986
    62   1 H    0.994 --    55 C    0.976
    63   1 H    0.999 --    56 C    0.986
    64   1 H    0.999 --    56 C    0.987
    65   1 H    0.994 --    56 C    0.976
 ---------------------------------------------------------------------------

Topologies differ in total number of bonds
Writing topology from bond orders to xtbtopo.mol

molecular dipole:
                 x           y           z       tot (Debye)
 q only:        2.796       1.196      -1.335
   full:        1.945      -0.046      -0.977       5.533
molecular quadrupole (traceless):
                xx          xy          yy          xz          yz          zz
 q only:       -7.246     -17.935       9.511      15.753      12.349      -2.265
  q+dip:       -2.854     -23.795      14.099      21.090      10.201     -11.245
   full:       -3.416     -27.445      10.957      18.799      10.231      -7.541


           -------------------------------------------------
          | TOTAL ENERGY              -96.750690569415 Eh   |
          | GRADIENT NORM               0.103324852696 Eh/α |
          | HOMO-LUMO GAP               0.282343759193 eV   |
           -------------------------------------------------

------------------------------------------------------------------------
 * finished run on 2024/10/15 at 00:16:37.697     
------------------------------------------------------------------------
 total:
 * wall-time:     0 d,  0 h,  0 min,  0.367 sec
 *  cpu-time:     0 d,  0 h,  0 min,  4.018 sec
 * ratio c/w:    10.960 speedup
 SCF:
 * wall-time:     0 d,  0 h,  0 min,  0.193 sec
 *  cpu-time:     0 d,  0 h,  0 min,  2.285 sec
 * ratio c/w:    11.856 speedup

