      -----------------------------------------------------------      
     |                   =====================                   |     
     |                           x T B                           |     
     |                   =====================                   |     
     |                         S. Grimme                         |     
     |          Mulliken Center for Theoretical Chemistry        |     
     |                    University of Bonn                     |     
      -----------------------------------------------------------      

   * xtb version 6.6.1 (8d0f1dd) compiled by 'stahn@M-Bot' on 2023-08-01

   xtb is free software: you can redistribute it and/or modify it under
   the terms of the GNU Lesser General Public License as published by
   the Free Software Foundation, either version 3 of the License, or
   (at your option) any later version.
   
   xtb is distributed in the hope that it will be useful,
   but WITHOUT ANY WARRANTY; without even the implied warranty of
   MERCHANTABILITY or FITNESS FOR A PARTICULAR PURPOSE.  See the
   GNU Lesser General Public License for more details.
   
   Cite this work as:
   * C. Bannwarth, E. Caldeweyher, S. Ehlert, A. Hansen, P. Pracht,
     J. Seibert, S. Spicher, S. Grimme, WIREs Comput. Mol. Sci., 2020, 11,
     e01493. DOI: 10.1002/wcms.1493
   
   for GFN2-xTB:
   * C. Bannwarth, S. Ehlert and S. Grimme., J. Chem. Theory Comput., 2019,
     15, 1652-1671. DOI: 10.1021/acs.jctc.8b01176
   for GFN1-xTB:
   * S. Grimme, C. Bannwarth, P. Shushkov, J. Chem. Theory Comput., 2017,
     13, 1989-2009. DOI: 10.1021/acs.jctc.7b00118
   for GFN0-xTB:
   * P. Pracht, E. Caldeweyher, S. Ehlert, S. Grimme, ChemRxiv, 2019, preprint.
     DOI: 10.26434/chemrxiv.8326202.v1
   for GFN-FF:
   * S. Spicher and S. Grimme, Angew. Chem. Int. Ed., 2020, 59, 15665-15673.
     DOI: 10.1002/anie.202004239
   
   for ALPB and GBSA implicit solvation:
   * S. Ehlert, M. Stahn, S. Spicher, S. Grimme, J. Chem. Theory Comput.,
     2021, 17, 4250-4261. DOI: 10.1021/acs.jctc.1c00471
   
   for DFT-D4:
   * E. Caldeweyher, C. Bannwarth and S. Grimme, J. Chem. Phys., 2017,
     147, 034112. DOI: 10.1063/1.4993215
   * E. Caldeweyher, S. Ehlert, A. Hansen, H. Neugebauer, S. Spicher,
     C. Bannwarth and S. Grimme, J. Chem. Phys., 2019, 150, 154122.
     DOI: 10.1063/1.5090222
   * E. Caldeweyher, J.-M. Mewes, S. Ehlert and S. Grimme, Phys. Chem. Chem. Phys.
     2020, 22, 8499-8512. DOI: 10.1039/D0CP00502A
   
   for sTDA-xTB:
   * S. Grimme and C. Bannwarth, J. Chem. Phys., 2016, 145, 054103.
     DOI: 10.1063/1.4959605
   
   in the mass-spec context:
   * V. Asgeirsson, C. Bauer and S. Grimme, Chem. Sci., 2017, 8, 4879.
     DOI: 10.1039/c7sc00601b
   * J. Koopman and S. Grimme, ACS Omega 2019, 4, 12, 15120-15133.
     DOI: 10.1021/acsomega.9b02011
   
   for metadynamics refer to:
   * S. Grimme, J. Chem. Theory Comput., 2019, 155, 2847-2862
     DOI: 10.1021/acs.jctc.9b00143
   
   for SPH calculations refer to:
   * S. Spicher and S. Grimme, J. Chem. Theory Comput., 2021, 17, 1701-1714
     DOI: 10.1021/acs.jctc.0c01306
   
   with help from (in alphabetical order)
   P. Atkinson, C. Bannwarth, F. Bohle, G. Brandenburg, E. Caldeweyher
   M. Checinski, S. Dohm, S. Ehlert, S. Ehrlich, I. Gerasimov, C. Hölzer
   A. Katbashev, J. Koopman, C. Lavigne, S. Lehtola, F. März, M. Müller,
   F. Musil, H. Neugebauer, J. Pisarek, C. Plett, P. Pracht, F. Pultar,
   J. Seibert, P. Shushkov, S. Spicher, M. Stahn, M. Steiner, T. Strunk,
   J. Stückrath, T. Rose, and J. Unsleber
   
 * started run on 2024/10/14 at 20:22:30.928     

           -------------------------------------------------
          |                Calculation Setup                |
           -------------------------------------------------

          program call               : xtb tsopted.xyz --gfn 2 --charge 0
          coordinate file            : tsopted.xyz
          omp threads                :                    12

   ID    Z sym.   atoms
    1   26 Fe     1
    2    6 C      2, 4, 8, 10, 12-14, 19, 20, 22-26, 34, 35, 42-45, 56-59
    3   46 Pd     3
    4    1 H      5-7, 15-18, 27, 29-32, 36-41, 46-54, 60-68
    5    8 O      9, 11, 21, 55
    6    7 N      28, 33

           -------------------------------------------------
          |                 G F N 2 - x T B                 |
           -------------------------------------------------

        Reference                      10.1021/acs.jctc.8b01176
      * Hamiltonian:
        H0-scaling (s, p, d)           1.850000    2.230000    2.230000
        zeta-weighting                 0.500000
      * Dispersion:
        s8                             2.700000
        a1                             0.520000
        a2                             5.000000
        s9                             5.000000
      * Repulsion:
        kExp                           1.500000    1.000000
        rExp                           1.000000
      * Coulomb:
        alpha                          2.000000
        third order                    shell-resolved
        anisotropic                    true
        a3                             3.000000
        a5                             4.000000
        cn-shift                       1.200000
        cn-exp                         4.000000
        max-rad                        5.000000

q/qsh data taken from xtbrestart
CAMM data taken from xtbrestart

          ...................................................
          :                      SETUP                      :
          :.................................................:
          :  # basis functions                 176          :
          :  # atomic orbitals                 174          :
          :  # shells                          102          :
          :  # electrons                       184          :
          :  max. iterations                   250          :
          :  Hamiltonian                  GFN2-xTB          :
          :  restarted?                       true          :
          :  GBSA solvation                  false          :
          :  PC potential                    false          :
          :  electronic temp.          300.0000000     K    :
          :  accuracy                    1.0000000          :
          :  -> integral cutoff          0.2500000E+02      :
          :  -> integral neglect         0.1000000E-07      :
          :  -> SCF convergence          0.1000000E-05 Eh   :
          :  -> wf. convergence          0.1000000E-03 e    :
          :  Broyden damping             0.4000000          :
          ...................................................

 iter      E             dE          RMSdq      gap      omega  full diag
   1   -100.9640238 -0.100964E+03  0.840E-01    1.63       0.0  T
   2   -100.9837606 -0.197368E-01  0.774E-01    1.54       1.0  T
   3   -100.9962741 -0.125135E-01  0.400E-01    1.58       1.0  T
   4   -100.9960415  0.232599E-03  0.291E-01    1.54       1.0  T
   5   -100.9970173 -0.975879E-03  0.149E-01    1.56       1.0  T
   6   -100.9972877 -0.270351E-03  0.788E-02    1.55       1.0  T
   7   -100.9973543 -0.666083E-04  0.375E-02    1.57       1.0  T
   8   -100.9973633 -0.895384E-05  0.201E-02    1.56       1.0  T
   9   -100.9973698 -0.658140E-05  0.793E-03    1.56       1.5  T
  10   -100.9973701 -0.293871E-06  0.536E-03    1.56       2.3  T
  11   -100.9973702 -0.119001E-06  0.365E-03    1.56       3.3  T
  12   -100.9973704 -0.161308E-06  0.222E-03    1.56       5.5  T
  13   -100.9973704 -0.164958E-07  0.962E-04    1.56      12.6  T
  14   -100.9973704 -0.633810E-08  0.293E-04    1.56      41.4  T

   *** convergence criteria satisfied after 14 iterations ***

         #    Occupation            Energy/Eh            Energy/eV
      -------------------------------------------------------------
         1        2.0000           -0.7843968             -21.3445
       ...           ...                  ...                  ...
        86        2.0000           -0.3504836              -9.5371
        87        2.0000           -0.3443156              -9.3693
        88        2.0000           -0.3414288              -9.2907
        89        2.0000           -0.3403862              -9.2624
        90        2.0000           -0.3366037              -9.1595
        91        2.0000           -0.3282907              -8.9332
        92        2.0000           -0.3135751              -8.5328 (HOMO)
        93                         -0.2560642              -6.9679 (LUMO)
        94                         -0.2309161              -6.2835
        95                         -0.2260828              -6.1520
        96                         -0.2029673              -5.5230
        97                         -0.1640873              -4.4650
       ...                                ...                  ...
       174                          6.3893340             173.8626
      -------------------------------------------------------------
                  HL-Gap            0.0575109 Eh            1.5650 eV
             Fermi-level           -0.2848196 Eh           -7.7503 eV

 SCC (total)                   0 d,  0 h,  0 min,  0.077 sec
 SCC setup                      ...        0 min,  0.003 sec (  4.222%)
 Dispersion                     ...        0 min,  0.001 sec (  1.258%)
 classical contributions        ...        0 min,  0.000 sec (  0.066%)
 integral evaluation            ...        0 min,  0.005 sec (  6.358%)
 iterations                     ...        0 min,  0.056 sec ( 73.116%)
 molecular gradient             ...        0 min,  0.009 sec ( 11.211%)
 printout                       ...        0 min,  0.003 sec (  3.721%)

         :::::::::::::::::::::::::::::::::::::::::::::::::::::
         ::                     SUMMARY                     ::
         :::::::::::::::::::::::::::::::::::::::::::::::::::::
         :: total energy             -99.716397765345 Eh    ::
         :: gradient norm              0.000048649200 Eh/a0 ::
         :: HOMO-LUMO gap              1.564951306987 eV    ::
         ::.................................................::
         :: SCC energy              -100.997370430393 Eh    ::
         :: -> isotropic ES           -0.030450248507 Eh    ::
         :: -> anisotropic ES         -0.008657199477 Eh    ::
         :: -> anisotropic XC          0.034971974030 Eh    ::
         :: -> dispersion             -0.097892512529 Eh    ::
         :: repulsion energy           1.277344187333 Eh    ::
         :: add. restraining           0.000000000000 Eh    ::
         :: total charge              -0.000005908177 e     ::
         :::::::::::::::::::::::::::::::::::::::::::::::::::::

           -------------------------------------------------
          |                Property Printout                |
           -------------------------------------------------

    * Orbital Energies and Occupations

         #    Occupation            Energy/Eh            Energy/eV
      -------------------------------------------------------------
         1        2.0000           -0.7843968             -21.3445
       ...           ...                  ...                  ...
        80        2.0000           -0.3874108             -10.5420
        81        2.0000           -0.3850700             -10.4783
        82        2.0000           -0.3837748             -10.4430
        83        2.0000           -0.3788857             -10.3100
        84        2.0000           -0.3622451              -9.8572
        85        2.0000           -0.3557136              -9.6795
        86        2.0000           -0.3504836              -9.5371
        87        2.0000           -0.3443156              -9.3693
        88        2.0000           -0.3414288              -9.2907
        89        2.0000           -0.3403862              -9.2624
        90        2.0000           -0.3366037              -9.1595
        91        2.0000           -0.3282907              -8.9332
        92        2.0000           -0.3135751              -8.5328 (HOMO)
        93                         -0.2560642              -6.9679 (LUMO)
        94                         -0.2309161              -6.2835
        95                         -0.2260828              -6.1520
        96                         -0.2029673              -5.5230
        97                         -0.1640873              -4.4650
        98                         -0.1539478              -4.1891
        99                         -0.1474287              -4.0117
       100                         -0.1412955              -3.8448
       101                         -0.1318667              -3.5883
       102                         -0.0228912              -0.6229
       103                          0.0106419               0.2896
       ...                                ...                  ...
       174                          6.3893340             173.8626
      -------------------------------------------------------------
                  HL-Gap            0.0575109 Eh            1.5650 eV
             Fermi-level           -0.2848196 Eh           -7.7503 eV

     #   Z          covCN         q      C6AA      α(0)
     1  26 Fe       9.379     1.347   110.351    18.525
     2   6 C        2.719     0.372    20.693     7.447
     3  46 Pd       3.984    -0.328   383.332    35.757
     4   6 C        3.792    -0.030    21.116     6.544
     5   1 H        0.927     0.040     2.447     2.446
     6   1 H        0.927     0.027     2.627     2.535
     7   1 H        0.927     0.092     1.861     2.133
     8   6 C        2.665     0.374    20.669     7.439
     9   8 O        0.856    -0.499    23.774     6.537
    10   6 C        4.020    -0.096    22.246     6.700
    11   8 O        1.649    -0.416    21.174     6.212
    12   6 C        3.920    -0.143    23.185     6.843
    13   6 C        3.865    -0.140    23.154     6.843
    14   6 C        3.867    -0.150    23.356     6.872
    15   1 H        0.927     0.050     2.317     2.380
    16   1 H        0.927     0.038     2.470     2.458
    17   1 H        0.927     0.032     2.560     2.502
    18   1 H        0.796     0.355     0.578     1.195
    19   6 C        3.803    -0.189    24.204     7.004
    20   6 C        3.815     0.015    20.306     6.414
    21   8 O        1.528    -0.423    21.396     6.239
    22   6 C        3.907    -0.117    22.681     6.769
    23   6 C        3.878    -0.146    23.255     6.856
    24   6 C        3.886    -0.144    23.208     6.849
    25   6 C        3.884    -0.144    23.224     6.851
    26   6 C        3.901    -0.120    22.732     6.777
    27   1 H        0.927     0.100     1.786     2.090
    28   7 N        2.645    -0.170    24.683     7.379
    29   1 H        0.924     0.031     2.572     2.508
    30   1 H        0.925     0.041     2.434     2.440
    31   1 H        0.923     0.041     2.430     2.438
    32   1 H        0.927     0.045     2.379     2.412
    33   7 N        3.193    -0.072    22.634     7.066
    34   6 C        3.768    -0.041    21.342     6.584
    35   6 C        3.717    -0.058    21.747     6.662
    36   1 H        0.923     0.026     2.645     2.543
    37   1 H        0.924     0.087     1.911     2.162
    38   1 H        0.924     0.100     1.789     2.092
    39   1 H        0.923     0.028     2.616     2.529
    40   1 H        0.925     0.071     2.071     2.251
    41   1 H        0.925     0.053     2.278     2.360
    42   6 C        3.896     0.029    20.026     6.362
    43   6 C        3.759    -0.110    22.645     6.784
    44   6 C        3.755    -0.135    23.155     6.861
    45   6 C        3.762    -0.109    22.638     6.782
    46   1 H        0.925     0.039     2.458     2.452
    47   1 H        0.925     0.031     2.574     2.509
    48   1 H        0.925     0.057     2.239     2.340
    49   1 H        0.925     0.038     2.471     2.458
    50   1 H        0.925     0.032     2.556     2.500
    51   1 H        0.924     0.088     1.899     2.155
    52   1 H        0.925     0.038     2.479     2.462
    53   1 H        0.925     0.030     2.587     2.515
    54   1 H        0.925     0.034     2.535     2.490
    55   8 O        1.705    -0.273    18.521     5.811
    56   6 C        3.758    -0.120    22.848     6.815
    57   6 C        3.780     0.157    18.081     6.058
    58   6 C        3.756    -0.121    22.882     6.821
    59   6 C        3.756    -0.123    22.907     6.824
    60   1 H        0.925     0.056     2.246     2.344
    61   1 H        0.925     0.058     2.217     2.328
    62   1 H        0.925     0.049     2.327     2.386
    63   1 H        0.925     0.050     2.316     2.380
    64   1 H        0.925     0.045     2.377     2.411
    65   1 H        0.925     0.062     2.171     2.304
    66   1 H        0.925     0.047     2.359     2.402
    67   1 H        0.925     0.047     2.363     2.404
    68   1 H        0.925     0.063     2.167     2.302

 Mol. C6AA /au·bohr⁶  :      50454.049766
 Mol. C8AA /au·bohr⁸  :    1461255.060481
 Mol. α(0) /au        :        340.901116


Wiberg/Mayer (AO) data.
largest (>0.10) Wiberg bond orders for each atom

 ---------------------------------------------------------------------------
     #   Z sym  total        # sym  WBO       # sym  WBO       # sym  WBO
 ---------------------------------------------------------------------------
     1  26 Fe   1.148 --    14 C    0.240    10 C    0.228    13 C    0.227
                            24 C    0.224    12 C    0.222    25 C    0.211
                            23 C    0.208    19 C    0.176    22 C    0.167
                            26 C    0.160
     2   6 C    3.941 --     9 O    1.624    21 O    1.376    20 C    0.862
     3  46 Pd   3.581 --    19 C    0.851    28 N    0.564    21 O    0.476
                            33 N    0.319    22 C    0.185    26 C    0.180
                            12 C    0.124    10 C    0.112
     4   6 C    3.979 --    10 C    1.010    33 N    0.978    30 H    0.972
                            31 H    0.956
     5   1 H    0.997 --    24 C    0.990
     6   1 H    0.997 --    25 C    0.979
     7   1 H    0.990 --    26 C    0.939
     8   6 C    3.930 --    28 N    1.552    55 O    1.116    11 O    1.110
     9   8 O    1.951 --     2 C    1.624    21 O    0.203
    10   6 C    3.962 --    14 C    1.266    19 C    1.209     4 C    1.010
                             1 Fe   0.228     3 Pd   0.112
    11   8 O    2.130 --     8 C    1.110    18 H    0.704    28 N    0.124
    12   6 C    3.976 --    13 C    1.298    19 C    1.239    15 H    0.961
                             1 Fe   0.222     3 Pd   0.124
    13   6 C    3.972 --    14 C    1.300    12 C    1.298    16 H    0.987
                             1 Fe   0.227
    14   6 C    3.970 --    13 C    1.300    10 C    1.266    17 H    0.985
                             1 Fe   0.240
    15   1 H    0.995 --    12 C    0.961
    16   1 H    0.995 --    13 C    0.987
    17   1 H    0.997 --    14 C    0.985
    18   1 H    0.872 --    11 O    0.704
    19   6 C    3.808 --    12 C    1.239    10 C    1.209     3 Pd   0.851
                             1 Fe   0.176
    20   6 C    3.951 --    28 N    0.979    29 H    0.954    42 C    0.938
                             2 C    0.862
    21   8 O    2.197 --     2 C    1.376     3 Pd   0.476     9 O    0.203
    22   6 C    3.980 --    23 C    1.293    26 C    1.262    27 H    0.924
                             3 Pd   0.185     1 Fe   0.167
    23   6 C    3.972 --    24 C    1.303    22 C    1.293    32 H    0.982
                             1 Fe   0.208
    24   6 C    3.973 --    23 C    1.303    25 C    1.299     5 H    0.990
                             1 Fe   0.224
    25   6 C    3.973 --    26 C    1.303    24 C    1.299     6 H    0.979
                             1 Fe   0.211
    26   6 C    3.979 --    25 C    1.303    22 C    1.262     7 H    0.939
                             3 Pd   0.180     1 Fe   0.160
    27   1 H    0.988 --    22 C    0.924
    28   7 N    3.439 --     8 C    1.552    20 C    0.979     3 Pd   0.564
                            11 O    0.124    55 O    0.104
    29   1 H    0.998 --    20 C    0.954
    30   1 H    0.996 --     4 C    0.972
    31   1 H    0.996 --     4 C    0.956
    32   1 H    0.995 --    23 C    0.982
    33   7 N    3.377 --    35 C    1.006    34 C    0.990     4 C    0.978
                             3 Pd   0.319
    34   6 C    3.975 --    33 N    0.990    36 H    0.972    37 H    0.943
                            38 H    0.936
    35   6 C    3.977 --    33 N    1.006    41 H    0.978    39 H    0.972
                            40 H    0.972
    36   1 H    0.999 --    34 C    0.972
    37   1 H    0.991 --    34 C    0.943
    38   1 H    0.988 --    34 C    0.936
    39   1 H    0.998 --    35 C    0.972
    40   1 H    0.994 --    35 C    0.972
    41   1 H    0.996 --    35 C    0.978
    42   6 C    3.989 --    43 C    1.001    45 C    0.997    44 C    0.994
                            20 C    0.938
    43   6 C    3.994 --    42 C    1.001    47 H    0.984    48 H    0.982
                            46 H    0.975
    44   6 C    3.990 --    42 C    0.994    49 H    0.986    50 H    0.981
                            51 H    0.914
    45   6 C    3.996 --    42 C    0.997    53 H    0.985    52 H    0.985
                            54 H    0.985
    46   1 H    0.998 --    43 C    0.975
    47   1 H    0.998 --    43 C    0.984
    48   1 H    0.997 --    43 C    0.982
    49   1 H    0.998 --    44 C    0.986
    50   1 H    0.998 --    44 C    0.981
    51   1 H    0.990 --    44 C    0.914
    52   1 H    0.998 --    45 C    0.985
    53   1 H    0.999 --    45 C    0.985
    54   1 H    0.998 --    45 C    0.985
    55   8 O    2.279 --     8 C    1.116    57 C    0.896    28 N    0.104
    56   6 C    3.991 --    57 C    0.994    62 H    0.984    60 H    0.984
                            61 H    0.984
    57   6 C    3.913 --    58 C    0.995    59 C    0.995    56 C    0.994
                            55 O    0.896
    58   6 C    3.991 --    57 C    0.995    63 H    0.984    64 H    0.984
                            65 H    0.979
    59   6 C    3.992 --    57 C    0.995    66 H    0.985    67 H    0.984
                            68 H    0.980
    60   1 H    0.997 --    56 C    0.984
    61   1 H    0.997 --    56 C    0.984
    62   1 H    0.997 --    56 C    0.984
    63   1 H    0.997 --    58 C    0.984
    64   1 H    0.998 --    58 C    0.984
    65   1 H    0.996 --    58 C    0.979
    66   1 H    0.998 --    59 C    0.985
    67   1 H    0.998 --    59 C    0.984
    68   1 H    0.996 --    59 C    0.980
 ---------------------------------------------------------------------------

Topologies differ in total number of bonds
Writing topology from bond orders to xtbtopo.mol

molecular dipole:
                 x           y           z       tot (Debye)
 q only:       -1.431      -2.505      -2.587
   full:       -0.792      -2.810      -1.950       8.924
molecular quadrupole (traceless):
                xx          xy          yy          xz          yz          zz
 q only:       25.362      -7.778      -7.763     -11.077     -25.511     -17.599
  q+dip:       26.299      -3.036     -11.035     -11.924     -32.825     -15.264
   full:       25.407      -3.736      -9.276     -13.687     -28.980     -16.131


           -------------------------------------------------
          | TOTAL ENERGY              -99.716397765345 Eh   |
          | GRADIENT NORM               0.000048649200 Eh/α |
          | HOMO-LUMO GAP               1.564951306987 eV   |
           -------------------------------------------------
########################################################################
[WARNING] Runtime exception occurred
-1- restart_readRestart: Multiplicity missmatch in restart file.
########################################################################

------------------------------------------------------------------------
 * finished run on 2024/10/14 at 20:22:31.189     
------------------------------------------------------------------------
 total:
 * wall-time:     0 d,  0 h,  0 min,  0.260 sec
 *  cpu-time:     0 d,  0 h,  0 min,  2.743 sec
 * ratio c/w:    10.547 speedup
 SCF:
 * wall-time:     0 d,  0 h,  0 min,  0.081 sec
 *  cpu-time:     0 d,  0 h,  0 min,  0.945 sec
 * ratio c/w:    11.721 speedup

