      -----------------------------------------------------------      
     |                   =====================                   |     
     |                           x T B                           |     
     |                   =====================                   |     
     |                         S. Grimme                         |     
     |          Mulliken Center for Theoretical Chemistry        |     
     |                    University of Bonn                     |     
      -----------------------------------------------------------      

   * xtb version 6.6.1 (8d0f1dd) compiled by 'stahn@M-Bot' on 2023-08-01

   xtb is free software: you can redistribute it and/or modify it under
   the terms of the GNU Lesser General Public License as published by
   the Free Software Foundation, either version 3 of the License, or
   (at your option) any later version.
   
   xtb is distributed in the hope that it will be useful,
   but WITHOUT ANY WARRANTY; without even the implied warranty of
   MERCHANTABILITY or FITNESS FOR A PARTICULAR PURPOSE.  See the
   GNU Lesser General Public License for more details.
   
   Cite this work as:
   * C. Bannwarth, E. Caldeweyher, S. Ehlert, A. Hansen, P. Pracht,
     J. Seibert, S. Spicher, S. Grimme, WIREs Comput. Mol. Sci., 2020, 11,
     e01493. DOI: 10.1002/wcms.1493
   
   for GFN2-xTB:
   * C. Bannwarth, S. Ehlert and S. Grimme., J. Chem. Theory Comput., 2019,
     15, 1652-1671. DOI: 10.1021/acs.jctc.8b01176
   for GFN1-xTB:
   * S. Grimme, C. Bannwarth, P. Shushkov, J. Chem. Theory Comput., 2017,
     13, 1989-2009. DOI: 10.1021/acs.jctc.7b00118
   for GFN0-xTB:
   * P. Pracht, E. Caldeweyher, S. Ehlert, S. Grimme, ChemRxiv, 2019, preprint.
     DOI: 10.26434/chemrxiv.8326202.v1
   for GFN-FF:
   * S. Spicher and S. Grimme, Angew. Chem. Int. Ed., 2020, 59, 15665-15673.
     DOI: 10.1002/anie.202004239
   
   for ALPB and GBSA implicit solvation:
   * S. Ehlert, M. Stahn, S. Spicher, S. Grimme, J. Chem. Theory Comput.,
     2021, 17, 4250-4261. DOI: 10.1021/acs.jctc.1c00471
   
   for DFT-D4:
   * E. Caldeweyher, C. Bannwarth and S. Grimme, J. Chem. Phys., 2017,
     147, 034112. DOI: 10.1063/1.4993215
   * E. Caldeweyher, S. Ehlert, A. Hansen, H. Neugebauer, S. Spicher,
     C. Bannwarth and S. Grimme, J. Chem. Phys., 2019, 150, 154122.
     DOI: 10.1063/1.5090222
   * E. Caldeweyher, J.-M. Mewes, S. Ehlert and S. Grimme, Phys. Chem. Chem. Phys.
     2020, 22, 8499-8512. DOI: 10.1039/D0CP00502A
   
   for sTDA-xTB:
   * S. Grimme and C. Bannwarth, J. Chem. Phys., 2016, 145, 054103.
     DOI: 10.1063/1.4959605
   
   in the mass-spec context:
   * V. Asgeirsson, C. Bauer and S. Grimme, Chem. Sci., 2017, 8, 4879.
     DOI: 10.1039/c7sc00601b
   * J. Koopman and S. Grimme, ACS Omega 2019, 4, 12, 15120-15133.
     DOI: 10.1021/acsomega.9b02011
   
   for metadynamics refer to:
   * S. Grimme, J. Chem. Theory Comput., 2019, 155, 2847-2862
     DOI: 10.1021/acs.jctc.9b00143
   
   for SPH calculations refer to:
   * S. Spicher and S. Grimme, J. Chem. Theory Comput., 2021, 17, 1701-1714
     DOI: 10.1021/acs.jctc.0c01306
   
   with help from (in alphabetical order)
   P. Atkinson, C. Bannwarth, F. Bohle, G. Brandenburg, E. Caldeweyher
   M. Checinski, S. Dohm, S. Ehlert, S. Ehrlich, I. Gerasimov, C. Hölzer
   A. Katbashev, J. Koopman, C. Lavigne, S. Lehtola, F. März, M. Müller,
   F. Musil, H. Neugebauer, J. Pisarek, C. Plett, P. Pracht, F. Pultar,
   J. Seibert, P. Shushkov, S. Spicher, M. Stahn, M. Steiner, T. Strunk,
   J. Stückrath, T. Rose, and J. Unsleber
   
 * started run on 2024/10/14 at 20:22:29.783     

           -------------------------------------------------
          |                Calculation Setup                |
           -------------------------------------------------

          program call               : xtb tsopted.xyz --gfn 2 --charge 0 --vipea
          coordinate file            : tsopted.xyz
          omp threads                :                    12

   ID    Z sym.   atoms
    1   26 Fe     1
    2    6 C      2, 4, 8, 10, 12-14, 19, 20, 22-26, 34, 35, 42-45, 56-59
    3   46 Pd     3
    4    1 H      5-7, 15-18, 27, 29-32, 36-41, 46-54, 60-68
    5    8 O      9, 11, 21, 55
    6    7 N      28, 33

           -------------------------------------------------
          |                 G F N 2 - x T B                 |
           -------------------------------------------------

        Reference                      10.1021/acs.jctc.8b01176
      * Hamiltonian:
        H0-scaling (s, p, d)           1.850000    2.230000    2.230000
        zeta-weighting                 0.500000
      * Dispersion:
        s8                             2.700000
        a1                             0.520000
        a2                             5.000000
        s9                             5.000000
      * Repulsion:
        kExp                           1.500000    1.000000
        rExp                           1.000000
      * Coulomb:
        alpha                          2.000000
        third order                    shell-resolved
        anisotropic                    true
        a3                             3.000000
        a5                             4.000000
        cn-shift                       1.200000
        cn-exp                         4.000000
        max-rad                        5.000000

q/qsh data taken from xtbrestart
CAMM data taken from xtbrestart

          ...................................................
          :                      SETUP                      :
          :.................................................:
          :  # basis functions                 176          :
          :  # atomic orbitals                 174          :
          :  # shells                          102          :
          :  # electrons                       184          :
          :  max. iterations                   250          :
          :  Hamiltonian                  GFN2-xTB          :
          :  restarted?                       true          :
          :  GBSA solvation                  false          :
          :  PC potential                    false          :
          :  electronic temp.          300.0000000     K    :
          :  accuracy                    1.0000000          :
          :  -> integral cutoff          0.2500000E+02      :
          :  -> integral neglect         0.1000000E-07      :
          :  -> SCF convergence          0.1000000E-05 Eh   :
          :  -> wf. convergence          0.1000000E-03 e    :
          :  Broyden damping             0.4000000          :
          ...................................................

 iter      E             dE          RMSdq      gap      omega  full diag
   1   -100.9973704 -0.100997E+03  0.273E-04    1.56       0.0  T
   2   -100.9973704 -0.421920E-10  0.188E-04    1.56      64.6  T
   3   -100.9973704 -0.904009E-09  0.158E-04    1.56      76.6  T

   *** convergence criteria satisfied after 3 iterations ***

         #    Occupation            Energy/Eh            Energy/eV
      -------------------------------------------------------------
         1        2.0000           -0.7844104             -21.3449
       ...           ...                  ...                  ...
        86        2.0000           -0.3504979              -9.5375
        87        2.0000           -0.3443301              -9.3697
        88        2.0000           -0.3414434              -9.2911
        89        2.0000           -0.3404000              -9.2628
        90        2.0000           -0.3366174              -9.1598
        91        2.0000           -0.3283058              -8.9337
        92        2.0000           -0.3135890              -8.5332 (HOMO)
        93                         -0.2560785              -6.9682 (LUMO)
        94                         -0.2309296              -6.2839
        95                         -0.2260964              -6.1524
        96                         -0.2029830              -5.5234
        97                         -0.1641014              -4.4654
       ...                                ...                  ...
       174                          6.3893314             173.8626
      -------------------------------------------------------------
                  HL-Gap            0.0575105 Eh            1.5649 eV
             Fermi-level           -0.2848337 Eh           -7.7507 eV

 SCC (total)                   0 d,  0 h,  0 min,  0.037 sec
 SCC setup                      ...        0 min,  0.003 sec (  9.108%)
 Dispersion                     ...        0 min,  0.001 sec (  2.589%)
 classical contributions        ...        0 min,  0.000 sec (  0.126%)
 integral evaluation            ...        0 min,  0.005 sec ( 14.350%)
 iterations                     ...        0 min,  0.014 sec ( 38.540%)
 molecular gradient             ...        0 min,  0.010 sec ( 25.490%)
 printout                       ...        0 min,  0.004 sec (  9.693%)

         :::::::::::::::::::::::::::::::::::::::::::::::::::::
         ::                     SUMMARY                     ::
         :::::::::::::::::::::::::::::::::::::::::::::::::::::
         :: total energy             -99.716397765824 Eh    ::
         :: gradient norm              0.000046945292 Eh/a0 ::
         :: HOMO-LUMO gap              1.564940437148 eV    ::
         ::.................................................::
         :: SCC energy              -100.997370430872 Eh    ::
         :: -> isotropic ES           -0.030450837541 Eh    ::
         :: -> anisotropic ES         -0.008658605814 Eh    ::
         :: -> anisotropic XC          0.034971777295 Eh    ::
         :: -> dispersion             -0.097892536692 Eh    ::
         :: repulsion energy           1.277344187333 Eh    ::
         :: add. restraining           0.000000000000 Eh    ::
         :: total charge              -0.000000000000 e     ::
         :::::::::::::::::::::::::::::::::::::::::::::::::::::

           ------------------------------------------------- 
          |        vertical delta SCC IP calculation        |
           ------------------------------------------------- 

 iter      E             dE          RMSdq      gap      omega  full diag
   1   -100.5662275 -0.100566E+03  0.884E-01    1.56       0.0  T
   2   -100.4311389  0.135089E+00  0.153E+00    1.15       1.0  T
   3   -100.5960927 -0.164954E+00  0.515E-01    1.62       1.0  T
   4   -100.6039634 -0.787071E-02  0.379E-01    1.61       1.0  T
   5   -100.6062819 -0.231847E-02  0.222E-01    1.62       1.0  T
   6   -100.6062598  0.220839E-04  0.165E-01    1.57       1.0  T
   7   -100.6065058 -0.245981E-03  0.115E-01    1.59       1.0  T
   8   -100.6068425 -0.336701E-03  0.796E-02    1.59       1.0  T
   9   -100.6069652 -0.122678E-03  0.658E-02    1.59       1.0  T
  10   -100.6072604 -0.295212E-03  0.180E-02    1.59       1.0  T
  11   -100.6072566  0.380484E-05  0.147E-02    1.59       1.0  T
  12   -100.6072688 -0.122159E-04  0.660E-03    1.59       1.8  T
  13   -100.6072697 -0.927742E-06  0.490E-03    1.59       2.5  T
  14   -100.6072698 -0.649031E-07  0.433E-03    1.59       2.8  T
  15   -100.6072707 -0.928844E-06  0.208E-03    1.59       5.8  T
  16   -100.6072709 -0.150388E-06  0.146E-03    1.59       8.3  T
  17   -100.6072710 -0.173698E-06  0.583E-04    1.59      20.8  T
  18   -100.6072711 -0.244465E-07  0.227E-04    1.59      53.4  T
     SCC iter.                  ...        0 min,  0.068 sec
     gradient                   ...        0 min,  0.010 sec
------------------------------------------------------------------------
empirical IP shift (eV):    4.8455
delta SCC IP (eV):    5.7696
------------------------------------------------------------------------
           ------------------------------------------------- 
          |        vertical delta SCC EA calculation        |
           ------------------------------------------------- 

 iter      E             dE          RMSdq      gap      omega  full diag
   1   -101.0712821 -0.101071E+03  0.129E+00    0.72       0.0  T
   2   -101.1419010 -0.706189E-01  0.124E+00    0.33       1.0  T
   3   -101.1706125 -0.287115E-01  0.651E-01    0.34       1.0  T
   4   -101.1698173  0.795180E-03  0.562E-01    0.47       1.0  T
   5   -101.1703853 -0.568029E-03  0.334E-01    0.28       1.0  T
   6   -101.1734533 -0.306792E-02  0.207E-01    0.43       1.0  T
   7   -101.1741847 -0.731435E-03  0.950E-02    0.38       1.0  T
   8   -101.1742070 -0.222913E-04  0.493E-02    0.37       1.0  T
   9   -101.1742268 -0.197954E-04  0.226E-02    0.37       1.0  T
  10   -101.1742374 -0.105789E-04  0.126E-02    0.38       1.0  T
  11   -101.1742385 -0.113151E-05  0.921E-03    0.38       1.3  T
  12   -101.1742399 -0.141722E-05  0.529E-03    0.38       2.3  T
  13   -101.1742400 -0.127552E-06  0.282E-03    0.38       4.3  T
  14   -101.1742402 -0.114181E-06  0.100E-03    0.38      12.1  T
  15   -101.1742402 -0.138832E-07  0.457E-04    0.38      26.5  T
  16   -101.1742402 -0.146018E-08  0.195E-04    0.38      62.3  T
     SCC iter.                  ...        0 min,  0.079 sec
     gradient                   ...        0 min,  0.010 sec
------------------------------------------------------------------------
empirical EA shift (eV):    4.8455
delta SCC EA (eV):   -0.0326
------------------------------------------------------------------------
           -------------------------------------------------
          |                Property Printout                |
           -------------------------------------------------

    * Orbital Energies and Occupations

         #    Occupation            Energy/Eh            Energy/eV
      -------------------------------------------------------------
         1        2.0000           -0.6430272             -17.4977
       ...           ...                  ...                  ...
        81        2.0000           -0.2411785              -6.5628
        82        2.0000           -0.2394418              -6.5155
        83        2.0000           -0.2322731              -6.3205
        84        2.0000           -0.2157470              -5.8708
        85        2.0000           -0.2051370              -5.5821
        86        2.0000           -0.1985002              -5.4015
        87        2.0000           -0.1946054              -5.2955
        88        2.0000           -0.1898131              -5.1651
        89        2.0000           -0.1810969              -4.9279
        90        2.0000           -0.1772787              -4.8240
        91        2.0000           -0.1717669              -4.6740
        92        2.0000           -0.1579123              -4.2970
        93        0.9993           -0.0979725              -2.6660 (HOMO)
        94        0.0007           -0.0840695              -2.2876 (LUMO)
        95        0.0000           -0.0804045              -2.1879
        96                         -0.0637272              -1.7341
        97                         -0.0233542              -0.6355
        98                         -0.0162689              -0.4427
        99                         -0.0145546              -0.3961
       100                         -0.0015948              -0.0434
       101                          0.0187549               0.5103
       102                          0.0834718               2.2714
       103                          0.1427580               3.8846
       104                          0.1599907               4.3536
       ...                                ...                  ...
       174                          6.5131342             177.2314
      -------------------------------------------------------------
                  HL-Gap            0.0139030 Eh            0.3783 eV
             Fermi-level           -0.1094867 Eh           -2.9793 eV

     #   Z          covCN         q      C6AA      α(0)
     1  26 Fe       9.379     1.282   111.107    18.588
     2   6 C        2.719     0.374    20.670     7.443
     3  46 Pd       3.984    -0.693   406.707    36.831
     4   6 C        3.792    -0.013    20.818     6.498
     5   1 H        0.927     0.005     2.979     2.699
     6   1 H        0.927    -0.004     3.132     2.767
     7   1 H        0.927     0.076     2.024     2.225
     8   6 C        2.665     0.364    20.828     7.467
     9   8 O        0.856    -0.556    25.062     6.712
    10   6 C        4.020    -0.102    22.361     6.718
    11   8 O        1.649    -0.443    21.700     6.288
    12   6 C        3.920    -0.143    23.185     6.843
    13   6 C        3.865    -0.145    23.250     6.857
    14   6 C        3.867    -0.154    23.423     6.882
    15   1 H        0.927     0.019     2.745     2.591
    16   1 H        0.927    -0.002     3.093     2.750
    17   1 H        0.927    -0.007     3.190     2.793
    18   1 H        0.796     0.353     0.582     1.199
    19   6 C        3.803    -0.190    24.228     7.008
    20   6 C        3.815     0.026    20.121     6.384
    21   8 O        1.528    -0.410    21.136     6.201
    22   6 C        3.907    -0.107    22.478     6.739
    23   6 C        3.878    -0.151    23.363     6.872
    24   6 C        3.886    -0.150    23.330     6.867
    25   6 C        3.884    -0.148    23.299     6.862
    26   6 C        3.901    -0.110    22.538     6.748
    27   1 H        0.927     0.079     1.989     2.205
    28   7 N        2.645    -0.157    24.397     7.336
    29   1 H        0.924    -0.003     3.110     2.758
    30   1 H        0.925     0.019     2.756     2.596
    31   1 H        0.923     0.006     2.959     2.690
    32   1 H        0.927     0.014     2.825     2.628
    33   7 N        3.193    -0.055    22.307     7.015
    34   6 C        3.768    -0.022    21.010     6.532
    35   6 C        3.717    -0.043    21.468     6.619
    36   1 H        0.923    -0.009     3.215     2.804
    37   1 H        0.924     0.084     1.935     2.175
    38   1 H        0.924     0.090     1.877     2.143
    39   1 H        0.923    -0.003     3.106     2.756
    40   1 H        0.925     0.060     2.199     2.319
    41   1 H        0.925     0.043     2.414     2.430
    42   6 C        3.896     0.030    20.010     6.359
    43   6 C        3.759    -0.098    22.421     6.751
    44   6 C        3.755    -0.122    22.899     6.823
    45   6 C        3.762    -0.098    22.424     6.750
    46   1 H        0.925     0.040     2.449     2.447
    47   1 H        0.925     0.010     2.896     2.661
    48   1 H        0.925     0.043     2.407     2.426
    49   1 H        0.925     0.014     2.825     2.628
    50   1 H        0.925     0.023     2.683     2.562
    51   1 H        0.924     0.109     1.704     2.041
    52   1 H        0.925     0.022     2.706     2.572
    53   1 H        0.925     0.025     2.661     2.551
    54   1 H        0.925     0.015     2.817     2.625
    55   8 O        1.705    -0.302    19.033     5.890
    56   6 C        3.758    -0.112    22.697     6.792
    57   6 C        3.780     0.159    18.063     6.055
    58   6 C        3.756    -0.115    22.748     6.800
    59   6 C        3.756    -0.116    22.777     6.805
    60   1 H        0.925     0.048     2.343     2.394
    61   1 H        0.925     0.051     2.307     2.375
    62   1 H        0.925     0.032     2.563     2.503
    63   1 H        0.925     0.045     2.384     2.415
    64   1 H        0.925     0.026     2.644     2.543
    65   1 H        0.925     0.066     2.135     2.285
    66   1 H        0.925     0.040     2.443     2.444
    67   1 H        0.925     0.028     2.622     2.532
    68   1 H        0.925     0.066     2.131     2.283

 Mol. C6AA /au·bohr⁶  :      51924.464827
 Mol. C8AA /au·bohr⁸  :    1497347.504854
 Mol. α(0) /au        :        346.154768


Wiberg/Mayer (AO) data.
largest (>0.10) Wiberg bond orders for each atom

 ---------------------------------------------------------------------------
     #   Z sym  total        # sym  WBO       # sym  WBO       # sym  WBO
 ---------------------------------------------------------------------------
     1  26 Fe   1.273 --    10 C    0.253    12 C    0.251    14 C    0.248
                            13 C    0.233    24 C    0.212    25 C    0.212
                            23 C    0.210    22 C    0.163    26 C    0.152
                            19 C    0.132
     2   6 C    3.942 --     9 O    1.574    21 O    1.430    20 C    0.855
     3  46 Pd   3.383 --    19 C    0.785    28 N    0.450    21 O    0.424
                            33 N    0.261    22 C    0.184    26 C    0.184
                            12 C    0.125    10 C    0.108
     4   6 C    3.981 --    10 C    1.004    33 N    0.980    30 H    0.975
                            31 H    0.959
     5   1 H    0.999 --    24 C    0.994
     6   1 H    0.998 --    25 C    0.981
     7   1 H    0.993 --    26 C    0.943
     8   6 C    3.921 --    28 N    1.591    11 O    1.103    55 O    1.061
     9   8 O    1.893 --     2 C    1.574    21 O    0.211
    10   6 C    3.950 --    14 C    1.259    19 C    1.192     4 C    1.004
                             1 Fe   0.253     3 Pd   0.108
    11   8 O    2.103 --     8 C    1.103    18 H    0.676    28 N    0.124
    12   6 C    3.969 --    13 C    1.293    19 C    1.213    15 H    0.963
                             1 Fe   0.251     3 Pd   0.125
    13   6 C    3.970 --    14 C    1.295    12 C    1.293    16 H    0.989
                             1 Fe   0.233
    14   6 C    3.967 --    13 C    1.295    10 C    1.259    17 H    0.986
                             1 Fe   0.248
    15   1 H    0.997 --    12 C    0.963
    16   1 H    0.996 --    13 C    0.989
    17   1 H    0.998 --    14 C    0.986
    18   1 H    0.874 --    11 O    0.676    19 C    0.106
    19   6 C    3.681 --    12 C    1.213    10 C    1.192     3 Pd   0.785
                             1 Fe   0.132    18 H    0.106
    20   6 C    3.958 --    28 N    0.991    29 H    0.958    42 C    0.942
                             2 C    0.855
    21   8 O    2.194 --     2 C    1.430     3 Pd   0.424     9 O    0.211
    22   6 C    3.980 --    23 C    1.285    26 C    1.268    27 H    0.930
                             3 Pd   0.184     1 Fe   0.163
    23   6 C    3.968 --    24 C    1.303    22 C    1.285    32 H    0.985
                             1 Fe   0.210
    24   6 C    3.968 --    23 C    1.303    25 C    1.298     5 H    0.994
                             1 Fe   0.212
    25   6 C    3.966 --    24 C    1.298    26 C    1.296     6 H    0.981
                             1 Fe   0.212
    26   6 C    3.979 --    25 C    1.296    22 C    1.268     7 H    0.943
                             3 Pd   0.184     1 Fe   0.152
    27   1 H    0.992 --    22 C    0.930
    28   7 N    3.379 --     8 C    1.591    20 C    0.991     3 Pd   0.450
                            11 O    0.124    55 O    0.102
    29   1 H    0.999 --    20 C    0.958
    30   1 H    0.997 --     4 C    0.975
    31   1 H    0.998 --     4 C    0.959
    32   1 H    0.996 --    23 C    0.985
    33   7 N    3.333 --    35 C    1.012    34 C    0.995     4 C    0.980
                             3 Pd   0.261
    34   6 C    3.981 --    33 N    0.995    36 H    0.971    37 H    0.946
                            38 H    0.941
    35   6 C    3.986 --    33 N    1.012    41 H    0.979    40 H    0.974
                            39 H    0.972
    36   1 H    0.999 --    34 C    0.971
    37   1 H    0.992 --    34 C    0.946
    38   1 H    0.990 --    34 C    0.941
    39   1 H    0.999 --    35 C    0.972
    40   1 H    0.995 --    35 C    0.974
    41   1 H    0.997 --    35 C    0.979
    42   6 C    3.988 --    43 C    1.001    45 C    0.996    44 C    0.994
                            20 C    0.942
    43   6 C    3.996 --    42 C    1.001    47 H    0.985    48 H    0.983
                            46 H    0.976
    44   6 C    3.987 --    42 C    0.994    49 H    0.988    50 H    0.982
                            51 H    0.912
    45   6 C    3.997 --    42 C    0.996    52 H    0.987    54 H    0.986
                            53 H    0.986
    46   1 H    0.998 --    43 C    0.976
    47   1 H    0.999 --    43 C    0.985
    48   1 H    0.998 --    43 C    0.983
    49   1 H    0.999 --    44 C    0.988
    50   1 H    0.999 --    44 C    0.982
    51   1 H    0.986 --    44 C    0.912
    52   1 H    0.999 --    45 C    0.987
    53   1 H    0.999 --    45 C    0.986
    54   1 H    0.999 --    45 C    0.986
    55   8 O    2.235 --     8 C    1.061    57 C    0.916    28 N    0.102
    56   6 C    3.995 --    57 C    0.994    62 H    0.986    60 H    0.985
                            61 H    0.985
    57   6 C    3.933 --    58 C    0.994    56 C    0.994    59 C    0.994
                            55 O    0.916
    58   6 C    3.993 --    57 C    0.994    64 H    0.986    63 H    0.985
                            65 H    0.979
    59   6 C    3.993 --    57 C    0.994    66 H    0.986    67 H    0.986
                            68 H    0.979
    60   1 H    0.998 --    56 C    0.985
    61   1 H    0.997 --    56 C    0.985
    62   1 H    0.998 --    56 C    0.986
    63   1 H    0.998 --    58 C    0.985
    64   1 H    0.999 --    58 C    0.986
    65   1 H    0.996 --    58 C    0.979
    66   1 H    0.998 --    59 C    0.986
    67   1 H    0.999 --    59 C    0.986
    68   1 H    0.996 --    59 C    0.979
 ---------------------------------------------------------------------------

Topologies differ in total number of bonds
Writing topology from bond orders to xtbtopo.mol

molecular dipole:
                 x           y           z       tot (Debye)
 q only:       -0.462      -2.374      -2.501
   full:        0.151      -2.509      -1.970       8.117
molecular quadrupole (traceless):
                xx          xy          yy          xz          yz          zz
 q only:        8.997     -11.685      -0.309     -14.705     -23.681      -8.688
  q+dip:       12.704      -6.224      -4.868     -15.078     -32.135      -7.835
   full:       11.672      -6.794      -3.026     -16.628     -28.787      -8.647


           -------------------------------------------------
          | TOTAL ENERGY              -99.893267502196 Eh   |
          | GRADIENT NORM               0.105273125350 Eh/α |
          | HOMO-LUMO GAP               0.378319116932 eV   |
           -------------------------------------------------

------------------------------------------------------------------------
 * finished run on 2024/10/14 at 20:22:30.212     
------------------------------------------------------------------------
 total:
 * wall-time:     0 d,  0 h,  0 min,  0.429 sec
 *  cpu-time:     0 d,  0 h,  0 min,  4.733 sec
 * ratio c/w:    11.040 speedup
 SCF:
 * wall-time:     0 d,  0 h,  0 min,  0.221 sec
 *  cpu-time:     0 d,  0 h,  0 min,  2.621 sec
 * ratio c/w:    11.847 speedup

