      -----------------------------------------------------------      
     |                   =====================                   |     
     |                           x T B                           |     
     |                   =====================                   |     
     |                         S. Grimme                         |     
     |          Mulliken Center for Theoretical Chemistry        |     
     |                    University of Bonn                     |     
      -----------------------------------------------------------      

   * xtb version 6.6.1 (8d0f1dd) compiled by 'stahn@M-Bot' on 2023-08-01

   xtb is free software: you can redistribute it and/or modify it under
   the terms of the GNU Lesser General Public License as published by
   the Free Software Foundation, either version 3 of the License, or
   (at your option) any later version.
   
   xtb is distributed in the hope that it will be useful,
   but WITHOUT ANY WARRANTY; without even the implied warranty of
   MERCHANTABILITY or FITNESS FOR A PARTICULAR PURPOSE.  See the
   GNU Lesser General Public License for more details.
   
   Cite this work as:
   * C. Bannwarth, E. Caldeweyher, S. Ehlert, A. Hansen, P. Pracht,
     J. Seibert, S. Spicher, S. Grimme, WIREs Comput. Mol. Sci., 2020, 11,
     e01493. DOI: 10.1002/wcms.1493
   
   for GFN2-xTB:
   * C. Bannwarth, S. Ehlert and S. Grimme., J. Chem. Theory Comput., 2019,
     15, 1652-1671. DOI: 10.1021/acs.jctc.8b01176
   for GFN1-xTB:
   * S. Grimme, C. Bannwarth, P. Shushkov, J. Chem. Theory Comput., 2017,
     13, 1989-2009. DOI: 10.1021/acs.jctc.7b00118
   for GFN0-xTB:
   * P. Pracht, E. Caldeweyher, S. Ehlert, S. Grimme, ChemRxiv, 2019, preprint.
     DOI: 10.26434/chemrxiv.8326202.v1
   for GFN-FF:
   * S. Spicher and S. Grimme, Angew. Chem. Int. Ed., 2020, 59, 15665-15673.
     DOI: 10.1002/anie.202004239
   
   for ALPB and GBSA implicit solvation:
   * S. Ehlert, M. Stahn, S. Spicher, S. Grimme, J. Chem. Theory Comput.,
     2021, 17, 4250-4261. DOI: 10.1021/acs.jctc.1c00471
   
   for DFT-D4:
   * E. Caldeweyher, C. Bannwarth and S. Grimme, J. Chem. Phys., 2017,
     147, 034112. DOI: 10.1063/1.4993215
   * E. Caldeweyher, S. Ehlert, A. Hansen, H. Neugebauer, S. Spicher,
     C. Bannwarth and S. Grimme, J. Chem. Phys., 2019, 150, 154122.
     DOI: 10.1063/1.5090222
   * E. Caldeweyher, J.-M. Mewes, S. Ehlert and S. Grimme, Phys. Chem. Chem. Phys.
     2020, 22, 8499-8512. DOI: 10.1039/D0CP00502A
   
   for sTDA-xTB:
   * S. Grimme and C. Bannwarth, J. Chem. Phys., 2016, 145, 054103.
     DOI: 10.1063/1.4959605
   
   in the mass-spec context:
   * V. Asgeirsson, C. Bauer and S. Grimme, Chem. Sci., 2017, 8, 4879.
     DOI: 10.1039/c7sc00601b
   * J. Koopman and S. Grimme, ACS Omega 2019, 4, 12, 15120-15133.
     DOI: 10.1021/acsomega.9b02011
   
   for metadynamics refer to:
   * S. Grimme, J. Chem. Theory Comput., 2019, 155, 2847-2862
     DOI: 10.1021/acs.jctc.9b00143
   
   for SPH calculations refer to:
   * S. Spicher and S. Grimme, J. Chem. Theory Comput., 2021, 17, 1701-1714
     DOI: 10.1021/acs.jctc.0c01306
   
   with help from (in alphabetical order)
   P. Atkinson, C. Bannwarth, F. Bohle, G. Brandenburg, E. Caldeweyher
   M. Checinski, S. Dohm, S. Ehlert, S. Ehrlich, I. Gerasimov, C. Hölzer
   A. Katbashev, J. Koopman, C. Lavigne, S. Lehtola, F. März, M. Müller,
   F. Musil, H. Neugebauer, J. Pisarek, C. Plett, P. Pracht, F. Pultar,
   J. Seibert, P. Shushkov, S. Spicher, M. Stahn, M. Steiner, T. Strunk,
   J. Stückrath, T. Rose, and J. Unsleber
   
 * started run on 2024/10/14 at 21:28:53.819     

           -------------------------------------------------
          |                Calculation Setup                |
           -------------------------------------------------

          program call               : xtb tsopted.xyz --gfn 2 --charge 0
          coordinate file            : tsopted.xyz
          omp threads                :                    12

   ID    Z sym.   atoms
    1   26 Fe     1
    2    6 C      2, 4, 8, 10, 12-14, 19, 20, 22-26, 33-36, 47-60
    3   46 Pd     3
    4    1 H      5-7, 15-18, 27, 29-31, 37-45, 61-71
    5    8 O      9, 11, 21, 32, 46
    6    7 N      28

molecular fragmentation (1/2 indicates fragments):
11111111111111111111111111111112111111111111111111111111111111111111111
# atoms in fragment 1/2:    70     1
 fragment masses (1/2) :      655.85       16.00
CMA distance (Bohr)    :   6.844
constraining FC (au)   :  0.0500

           -------------------------------------------------
          |                 G F N 2 - x T B                 |
           -------------------------------------------------

        Reference                      10.1021/acs.jctc.8b01176
      * Hamiltonian:
        H0-scaling (s, p, d)           1.850000    2.230000    2.230000
        zeta-weighting                 0.500000
      * Dispersion:
        s8                             2.700000
        a1                             0.520000
        a2                             5.000000
        s9                             5.000000
      * Repulsion:
        kExp                           1.500000    1.000000
        rExp                           1.000000
      * Coulomb:
        alpha                          2.000000
        third order                    shell-resolved
        anisotropic                    true
        a3                             3.000000
        a5                             4.000000
        cn-shift                       1.200000
        cn-exp                         4.000000
        max-rad                        5.000000

q/qsh data taken from xtbrestart
CAMM data taken from xtbrestart

          ...................................................
          :                      SETUP                      :
          :.................................................:
          :  # basis functions                 203          :
          :  # atomic orbitals                 201          :
          :  # shells                          113          :
          :  # electrons                       212          :
          :  max. iterations                   250          :
          :  Hamiltonian                  GFN2-xTB          :
          :  restarted?                       true          :
          :  GBSA solvation                  false          :
          :  PC potential                    false          :
          :  electronic temp.          300.0000000     K    :
          :  accuracy                    1.0000000          :
          :  -> integral cutoff          0.2500000E+02      :
          :  -> integral neglect         0.1000000E-07      :
          :  -> SCF convergence          0.1000000E-05 Eh   :
          :  -> wf. convergence          0.1000000E-03 e    :
          :  Broyden damping             0.4000000          :
          ...................................................

 iter      E             dE          RMSdq      gap      omega  full diag
   1   -117.0857236 -0.117086E+03  0.622E-01    1.63       0.0  T
   2   -117.0987896 -0.130659E-01  0.713E-01    0.62       1.0  T
   3   -117.1141094 -0.153198E-01  0.312E-01    0.87       1.0  T
   4   -117.1143592 -0.249847E-03  0.248E-01    0.85       1.0  T
   5   -117.1144214 -0.621254E-04  0.162E-01    0.83       1.0  T
   6   -117.1148146 -0.393212E-03  0.744E-02    0.84       1.0  T
   7   -117.1148718 -0.572263E-04  0.577E-02    0.85       1.0  T
   8   -117.1149338 -0.619772E-04  0.226E-02    0.85       1.0  T
   9   -117.1149431 -0.928861E-05  0.724E-03    0.86       1.6  T
  10   -117.1149435 -0.402575E-06  0.388E-03    0.86       3.1  T
  11   -117.1149437 -0.199369E-06  0.238E-03    0.86       5.0  T
  12   -117.1149437 -0.750190E-07  0.142E-03    0.86       8.4  T
  13   -117.1149438 -0.406062E-07  0.702E-04    0.86      16.9  T
  14   -117.1149438 -0.621276E-08  0.397E-04    0.86      29.9  T

   *** convergence criteria satisfied after 14 iterations ***

         #    Occupation            Energy/Eh            Energy/eV
      -------------------------------------------------------------
         1        2.0000           -0.9128969             -24.8412
       ...           ...                  ...                  ...
       100        2.0000           -0.3847821             -10.4705
       101        2.0000           -0.3748490             -10.2002
       102        2.0000           -0.3602310              -9.8024
       103        2.0000           -0.3581413              -9.7455
       104        2.0000           -0.3441689              -9.3653
       105        2.0000           -0.3433202              -9.3422
       106        2.0000           -0.3249466              -8.8422 (HOMO)
       107        0.0000           -0.2934383              -7.9849 (LUMO)
       108                         -0.2852392              -7.7618
       109                         -0.2582864              -7.0283
       110                         -0.2549195              -6.9367
       111                         -0.2395548              -6.5186
       ...                                ...                  ...
       201                          7.0720179             192.4394
      -------------------------------------------------------------
                  HL-Gap            0.0315083 Eh            0.8574 eV
             Fermi-level           -0.3091925 Eh           -8.4136 eV

 SCC (total)                   0 d,  0 h,  0 min,  0.116 sec
 SCC setup                      ...        0 min,  0.004 sec (  3.093%)
 Dispersion                     ...        0 min,  0.001 sec (  1.048%)
 classical contributions        ...        0 min,  0.000 sec (  0.042%)
 integral evaluation            ...        0 min,  0.006 sec (  5.023%)
 iterations                     ...        0 min,  0.086 sec ( 74.319%)
 molecular gradient             ...        0 min,  0.014 sec ( 12.320%)
 printout                       ...        0 min,  0.005 sec (  4.119%)

         :::::::::::::::::::::::::::::::::::::::::::::::::::::
         ::                     SUMMARY                     ::
         :::::::::::::::::::::::::::::::::::::::::::::::::::::
         :: total energy            -115.452409693180 Eh    ::
         :: gradient norm              0.000060231085 Eh/a0 ::
         :: HOMO-LUMO gap              0.857383240078 eV    ::
         ::.................................................::
         :: SCC energy              -117.114943786261 Eh    ::
         :: -> isotropic ES           -0.060240491060 Eh    ::
         :: -> anisotropic ES         -0.043945714784 Eh    ::
         :: -> anisotropic XC          0.013465565891 Eh    ::
         :: -> dispersion             -0.122193813968 Eh    ::
         :: repulsion energy           1.656125960618 Eh    ::
         :: add. restraining           0.000000000000 Eh    ::
         :: total charge               0.000020367387 e     ::
         :::::::::::::::::::::::::::::::::::::::::::::::::::::

           -------------------------------------------------
          |                Property Printout                |
           -------------------------------------------------

    * Orbital Energies and Occupations

         #    Occupation            Energy/Eh            Energy/eV
      -------------------------------------------------------------
         1        2.0000           -0.9128969             -24.8412
       ...           ...                  ...                  ...
        94        2.0000           -0.4033921             -10.9769
        95        2.0000           -0.4011956             -10.9171
        96        2.0000           -0.3961236             -10.7791
        97        2.0000           -0.3950449             -10.7497
        98        2.0000           -0.3934290             -10.7057
        99        2.0000           -0.3863623             -10.5135
       100        2.0000           -0.3847821             -10.4705
       101        2.0000           -0.3748490             -10.2002
       102        2.0000           -0.3602310              -9.8024
       103        2.0000           -0.3581413              -9.7455
       104        2.0000           -0.3441689              -9.3653
       105        2.0000           -0.3433202              -9.3422
       106        2.0000           -0.3249466              -8.8422 (HOMO)
       107        0.0000           -0.2934383              -7.9849 (LUMO)
       108                         -0.2852392              -7.7618
       109                         -0.2582864              -7.0283
       110                         -0.2549195              -6.9367
       111                         -0.2395548              -6.5186
       112                         -0.2336513              -6.3580
       113                         -0.2242326              -6.1017
       114                         -0.2054048              -5.5893
       115                         -0.1961058              -5.3363
       116                         -0.1952902              -5.3141
       117                         -0.1898450              -5.1659
       ...                                ...                  ...
       201                          7.0720179             192.4394
      -------------------------------------------------------------
                  HL-Gap            0.0315083 Eh            0.8574 eV
             Fermi-level           -0.3091925 Eh           -8.4136 eV

     #   Z          covCN         q      C6AA      α(0)
     1  26 Fe      10.828     1.709   106.280    18.180
     2   6 C        2.740     0.374    20.666     7.443
     3  46 Pd       4.745    -0.143   372.284    35.238
     4   6 C        3.656     0.107    19.093     6.272
     5   1 H        0.927     0.064     2.157     2.297
     6   1 H        0.927     0.109     1.707     2.043
     7   1 H        0.927     0.121     1.609     1.983
     8   6 C        2.754     0.384    20.497     7.414
     9   8 O        0.856    -0.488    23.528     6.503
    10   6 C        4.050    -0.123    22.763     6.777
    11   8 O        0.871    -0.547    24.847     6.683
    12   6 C        3.940    -0.142    23.157     6.838
    13   6 C        3.872    -0.148    23.310     6.865
    14   6 C        3.889    -0.157    23.469     6.887
    15   1 H        0.927     0.103     1.753     2.071
    16   1 H        0.927     0.074     2.037     2.232
    17   1 H        0.927     0.061     2.183     2.310
    18   1 H        1.424     0.169     1.259     1.752
    19   6 C        3.783    -0.169    23.802     6.950
    20   6 C        3.902     0.035    19.926     6.345
    21   8 O        1.515    -0.445    21.855     6.305
    22   6 C        3.875    -0.112    22.594     6.759
    23   6 C        3.886    -0.134    23.008     6.819
    24   6 C        3.905    -0.157    23.465     6.886
    25   6 C        3.889    -0.153    23.398     6.877
    26   6 C        3.909    -0.159    23.520     6.893
    27   1 H        0.927     0.103     1.760     2.075
    28   7 N        2.678    -0.258    26.692     7.673
    29   1 H        0.924     0.029     2.605     2.524
    30   1 H        0.925     0.020     2.735     2.586
    31   1 H        0.927     0.073     2.057     2.243
    32   8 O        1.532    -0.350    19.991     6.031
    33   6 C        3.897     0.038    19.877     6.338
    34   6 C        3.758    -0.108    22.624     6.781
    35   6 C        3.758    -0.109    22.628     6.782
    36   6 C        3.761    -0.112    22.696     6.791
    37   1 H        0.932     0.140     1.457     1.888
    38   1 H        0.925     0.041     2.439     2.442
    39   1 H        0.924     0.068     2.105     2.269
    40   1 H        0.925     0.039     2.460     2.453
    41   1 H        0.925     0.033     2.540     2.492
    42   1 H        0.924     0.068     2.106     2.270
    43   1 H        0.925     0.057     2.240     2.341
    44   1 H        0.925     0.032     2.559     2.502
    45   1 H        0.925     0.035     2.514     2.479
    46   8 O        1.705    -0.294    18.882     5.867
    47   6 C        3.704     0.093    19.188     6.263
    48   6 C        3.888    -0.029    21.035     6.520
    49   6 C        3.052     0.012    27.707     8.633
    50   6 C        2.915    -0.040    28.989     8.829
    51   6 C        2.922    -0.039    28.975     8.827
    52   6 C        2.921    -0.047    29.157     8.855
    53   6 C        2.915    -0.048    29.191     8.860
    54   6 C        3.038     0.006    27.846     8.655
    55   6 C        3.039    -0.001    28.006     8.680
    56   6 C        2.914    -0.039    28.959     8.824
    57   6 C        2.921    -0.033    28.822     8.804
    58   6 C        2.923    -0.030    28.759     8.794
    59   6 C        2.914    -0.032    28.810     8.802
    60   6 C        3.053     0.009    27.763     8.641
    61   1 H        0.924     0.051     2.308     2.376
    62   1 H        0.924     0.056     2.243     2.342
    63   1 H        0.924     0.052     2.297     2.370
    64   1 H        0.926     0.032     2.561     2.502
    65   1 H        0.926     0.036     2.498     2.472
    66   1 H        0.926     0.029     2.605     2.524
    67   1 H        0.926     0.039     2.456     2.451
    68   1 H        0.926     0.036     2.501     2.473
    69   1 H        0.926     0.035     2.512     2.478
    70   1 H        0.926     0.035     2.517     2.481
    71   1 H        0.926     0.037     2.488     2.466

 Mol. C6AA /au·bohr⁶  :      68382.694368
 Mol. C8AA /au·bohr⁸  :    2014067.115862
 Mol. α(0) /au        :        405.370813


Wiberg/Mayer (AO) data.
largest (>0.10) Wiberg bond orders for each atom

 ---------------------------------------------------------------------------
     #   Z sym  total        # sym  WBO       # sym  WBO       # sym  WBO
 ---------------------------------------------------------------------------
     1  26 Fe   0.461 --    14 C    0.248    26 C    0.205    24 C    0.179
                            13 C    0.169    25 C    0.169    12 C    0.157
                            23 C    0.135    19 C    0.131
     2   6 C    3.936 --     9 O    1.639    21 O    1.347    20 C    0.863
     3  46 Pd   3.927 --    19 C    0.834    28 N    0.605    21 O    0.489
                            32 O    0.442    18 H    0.435    22 C    0.159
                            34 C    0.130     4 C    0.129    37 H    0.119
                            23 C    0.112    12 C    0.109    10 C    0.103
     4   6 C    3.952 --    32 O    1.511    10 C    1.177    30 H    0.953
                             3 Pd   0.129
     5   1 H    0.994 --    24 C    0.984
     6   1 H    0.987 --    23 C    0.961
     7   1 H    0.983 --    22 C    0.946
     8   6 C    3.936 --    28 N    1.449    11 O    1.302    46 O    1.048
     9   8 O    1.959 --     2 C    1.639    21 O    0.197
    10   6 C    3.924 --    14 C    1.182     4 C    1.177    19 C    1.151
                             3 Pd   0.103
    11   8 O    1.965 --     8 C    1.302    18 H    0.180    28 N    0.154
    12   6 C    3.960 --    13 C    1.305    19 C    1.231    15 H    0.952
                             1 Fe   0.157     3 Pd   0.109
    13   6 C    3.967 --    14 C    1.324    12 C    1.305    16 H    0.978
                             1 Fe   0.169
    14   6 C    3.971 --    13 C    1.324    10 C    1.182    17 H    0.988
                             1 Fe   0.248
    15   1 H    0.989 --    12 C    0.952
    16   1 H    0.994 --    13 C    0.978
    17   1 H    0.994 --    14 C    0.988
    18   1 H    0.971 --     3 Pd   0.435    11 O    0.180    22 C    0.111
    19   6 C    3.665 --    12 C    1.231    10 C    1.151     3 Pd   0.834
                             1 Fe   0.131
    20   6 C    3.960 --    28 N    0.972    29 H    0.953    33 C    0.942
                             2 C    0.863
    21   8 O    2.183 --     2 C    1.347     3 Pd   0.489     9 O    0.197
    22   6 C    3.971 --    23 C    1.306    26 C    1.241     7 H    0.946
                             3 Pd   0.159    18 H    0.111
    23   6 C    3.972 --    22 C    1.306    24 C    1.300     6 H    0.961
                             1 Fe   0.135     3 Pd   0.112
    24   6 C    3.972 --    23 C    1.300    25 C    1.297     5 H    0.984
                             1 Fe   0.179
    25   6 C    3.970 --    26 C    1.323    24 C    1.297    31 H    0.987
                             1 Fe   0.169
    26   6 C    3.961 --    25 C    1.323    22 C    1.241    27 H    0.970
                             1 Fe   0.205
    27   1 H    0.989 --    26 C    0.970
    28   7 N    3.374 --     8 C    1.449    20 C    0.972     3 Pd   0.605
                            11 O    0.154
    29   1 H    0.998 --    20 C    0.953
    30   1 H    0.996 --     4 C    0.953
    31   1 H    0.994 --    25 C    0.987
    32   8 O    2.238 --     4 C    1.511     3 Pd   0.442
    33   6 C    3.989 --    36 C    0.999    35 C    0.991    34 C    0.987
                            20 C    0.942
    34   6 C    3.981 --    33 C    0.987    38 H    0.985    39 H    0.968
                            37 H    0.838     3 Pd   0.130
    35   6 C    3.994 --    33 C    0.991    41 H    0.985    40 H    0.985
                            42 H    0.947
    36   6 C    3.994 --    33 C    0.999    44 H    0.986    45 H    0.985
                            43 H    0.983
    37   1 H    0.978 --    34 C    0.838     3 Pd   0.119
    38   1 H    0.997 --    34 C    0.985
    39   1 H    0.993 --    34 C    0.968
    40   1 H    0.998 --    35 C    0.985
    41   1 H    0.999 --    35 C    0.985
    42   1 H    0.994 --    35 C    0.947
    43   1 H    0.997 --    36 C    0.983
    44   1 H    0.999 --    36 C    0.986
    45   1 H    0.998 --    36 C    0.985
    46   8 O    2.238 --     8 C    1.048    47 C    0.962
    47   6 C    3.934 --    62 H    0.973    61 H    0.967    46 O    0.962
                            48 C    0.954
    48   6 C    3.994 --    49 C    1.003    60 C    1.002    47 C    0.954
                            63 H    0.941
    49   6 C    3.985 --    50 C    1.445    54 C    1.325    48 C    1.003
                            52 C    0.102
    50   6 C    3.991 --    49 C    1.445    51 C    1.415    64 H    0.969
                            53 C    0.100
    51   6 C    3.970 --    52 C    1.437    50 C    1.415    65 H    0.971
    52   6 C    3.989 --    53 C    1.438    51 C    1.437    66 H    0.971
                            49 C    0.102
    53   6 C    3.978 --    52 C    1.438    54 C    1.396    67 H    0.968
                            50 C    0.100
    54   6 C    3.987 --    53 C    1.396    49 C    1.325    55 C    1.078
    55   6 C    3.988 --    56 C    1.393    60 C    1.330    54 C    1.078
    56   6 C    3.981 --    57 C    1.442    55 C    1.393    68 H    0.968
                            59 C    0.104
    57   6 C    3.991 --    56 C    1.442    58 C    1.439    69 H    0.971
                            60 C    0.103
    58   6 C    3.971 --    57 C    1.439    59 C    1.423    70 H    0.971
    59   6 C    3.992 --    60 C    1.444    58 C    1.423    71 H    0.969
                            56 C    0.104
    60   6 C    3.987 --    59 C    1.444    55 C    1.330    48 C    1.002
                            57 C    0.103
    61   1 H    0.997 --    47 C    0.967
    62   1 H    0.995 --    47 C    0.973
    63   1 H    0.997 --    48 C    0.941
    64   1 H    0.999 --    50 C    0.969
    65   1 H    0.998 --    51 C    0.971
    66   1 H    0.998 --    52 C    0.971
    67   1 H    0.997 --    53 C    0.968
    68   1 H    0.999 --    56 C    0.968
    69   1 H    0.998 --    57 C    0.971
    70   1 H    0.998 --    58 C    0.971
    71   1 H    0.998 --    59 C    0.969
 ---------------------------------------------------------------------------

Topologies differ in total number of bonds
Writing topology from bond orders to xtbtopo.mol

molecular dipole:
                 x           y           z       tot (Debye)
 q only:        4.763      -1.540      -2.172
   full:        3.841      -1.138      -1.768      11.131
molecular quadrupole (traceless):
                xx          xy          yy          xz          yz          zz
 q only:      -12.374     -17.614      24.286      26.188       3.061     -11.912
  q+dip:      -12.413     -19.628      27.059      26.789       6.358     -14.646
   full:      -17.483     -12.665      28.746      25.786       6.742     -11.263


           -------------------------------------------------
          | TOTAL ENERGY             -115.452409693180 Eh   |
          | GRADIENT NORM               0.000060231085 Eh/α |
          | HOMO-LUMO GAP               0.857383240078 eV   |
           -------------------------------------------------
########################################################################
[WARNING] Runtime exception occurred
-1- restart_readRestart: Multiplicity missmatch in restart file.
########################################################################

------------------------------------------------------------------------
 * finished run on 2024/10/14 at 21:28:54.153     
------------------------------------------------------------------------
 total:
 * wall-time:     0 d,  0 h,  0 min,  0.333 sec
 *  cpu-time:     0 d,  0 h,  0 min,  3.588 sec
 * ratio c/w:    10.785 speedup
 SCF:
 * wall-time:     0 d,  0 h,  0 min,  0.125 sec
 *  cpu-time:     0 d,  0 h,  0 min,  1.468 sec
 * ratio c/w:    11.767 speedup

