71
charge 0 multiplicity 1
Fe           0.90273  -2.15130  -0.22340
C           -3.09203   0.12665   1.76855
Pd          -1.51530  -1.06899  -0.22565
C           -0.66651  -3.46584  -1.03755
H            1.42175  -4.74337   0.20825
H           -0.65525  -3.65114   1.48740
H            0.07468  -1.26833   2.34148
C           -0.33833   1.15420   0.88139
O           -3.84499   0.42005   2.67888
C            0.08895  -2.64962  -1.89867
O            0.73515   0.48816   0.77037
C            1.14029  -0.71610  -1.54562
C            2.12241  -1.70484  -1.65797
C            1.48329  -2.92487  -1.87021
H            1.37189   0.28253  -1.26409
H            3.15259  -1.55390  -1.44786
H            1.92861  -3.89057  -1.87545
H            0.26881  -0.89076   0.25183
C           -0.16303  -1.25051  -1.70151
C           -2.71301   1.20549   0.68948
O           -2.51333  -0.99538   1.60722
C            0.67100  -1.92637   1.74876
C            0.30452  -3.21005   1.33814
C            1.39860  -3.78917   0.67732
C            2.44996  -2.86082   0.67288
C            1.99145  -1.69709   1.29252
H            2.48235  -0.75621   1.27363
N           -1.40170   0.80083   0.24300
H           -2.65677   2.18802   1.17287
H           -0.31415  -4.49008  -0.91420
H            3.37445  -2.97530   0.16258
O           -1.73201  -3.11117  -0.51147
C           -3.75709   1.26616  -0.45658
C           -4.36188  -0.11287  -0.77279
C           -3.08793   1.81498  -1.72270
C           -4.88365   2.19588   0.00234
H           -3.58759  -0.82291  -1.13149
H           -5.11181  -0.00884  -1.55678
H           -4.84637  -0.52772   0.11214
H           -3.83268   1.98454  -2.49816
H           -2.58205   2.75521  -1.51190
H           -2.34286   1.10481  -2.09446
H           -5.26632   1.86228   0.96435
H           -4.51986   3.21542   0.11337
H           -5.69818   2.19740  -0.71965
O           -0.37767   2.25202   1.66654
C            0.82798   2.61897   2.30711
C            1.93110   3.11583   1.33904
C            2.95854   2.06194   1.01944
C            3.77650   1.36160   1.87944
C            4.62220   0.38994   1.35584
C            4.64870   0.13360  -0.00637
C            3.84752   0.85335  -0.87900
C            3.00100   1.81814  -0.36032
C            2.02002   2.67487  -1.00896
C            1.63658   2.77286  -2.33671
C            0.61684   3.64970  -2.66798
C           -0.00504   4.41603  -1.69430
C            0.37621   4.32276  -0.36243
C            1.38840   3.44993  -0.02630
H            1.20981   1.76743   2.88152
H            0.52614   3.41576   2.98916
H            2.41136   3.98748   1.79581
H            3.75854   1.55167   2.94241
H            5.25827  -0.17643   2.01878
H            5.31130  -0.62894  -0.38940
H            3.88169   0.66898  -1.94152
H            2.11291   2.17198  -3.09675
H            0.29681   3.73276  -3.69589
H           -0.80069   5.09061  -1.97440
H           -0.12142   4.91157   0.39346