      -----------------------------------------------------------      
     |                   =====================                   |     
     |                           x T B                           |     
     |                   =====================                   |     
     |                         S. Grimme                         |     
     |          Mulliken Center for Theoretical Chemistry        |     
     |                    University of Bonn                     |     
      -----------------------------------------------------------      

   * xtb version 6.6.1 (8d0f1dd) compiled by 'stahn@M-Bot' on 2023-08-01

   xtb is free software: you can redistribute it and/or modify it under
   the terms of the GNU Lesser General Public License as published by
   the Free Software Foundation, either version 3 of the License, or
   (at your option) any later version.
   
   xtb is distributed in the hope that it will be useful,
   but WITHOUT ANY WARRANTY; without even the implied warranty of
   MERCHANTABILITY or FITNESS FOR A PARTICULAR PURPOSE.  See the
   GNU Lesser General Public License for more details.
   
   Cite this work as:
   * C. Bannwarth, E. Caldeweyher, S. Ehlert, A. Hansen, P. Pracht,
     J. Seibert, S. Spicher, S. Grimme, WIREs Comput. Mol. Sci., 2020, 11,
     e01493. DOI: 10.1002/wcms.1493
   
   for GFN2-xTB:
   * C. Bannwarth, S. Ehlert and S. Grimme., J. Chem. Theory Comput., 2019,
     15, 1652-1671. DOI: 10.1021/acs.jctc.8b01176
   for GFN1-xTB:
   * S. Grimme, C. Bannwarth, P. Shushkov, J. Chem. Theory Comput., 2017,
     13, 1989-2009. DOI: 10.1021/acs.jctc.7b00118
   for GFN0-xTB:
   * P. Pracht, E. Caldeweyher, S. Ehlert, S. Grimme, ChemRxiv, 2019, preprint.
     DOI: 10.26434/chemrxiv.8326202.v1
   for GFN-FF:
   * S. Spicher and S. Grimme, Angew. Chem. Int. Ed., 2020, 59, 15665-15673.
     DOI: 10.1002/anie.202004239
   
   for ALPB and GBSA implicit solvation:
   * S. Ehlert, M. Stahn, S. Spicher, S. Grimme, J. Chem. Theory Comput.,
     2021, 17, 4250-4261. DOI: 10.1021/acs.jctc.1c00471
   
   for DFT-D4:
   * E. Caldeweyher, C. Bannwarth and S. Grimme, J. Chem. Phys., 2017,
     147, 034112. DOI: 10.1063/1.4993215
   * E. Caldeweyher, S. Ehlert, A. Hansen, H. Neugebauer, S. Spicher,
     C. Bannwarth and S. Grimme, J. Chem. Phys., 2019, 150, 154122.
     DOI: 10.1063/1.5090222
   * E. Caldeweyher, J.-M. Mewes, S. Ehlert and S. Grimme, Phys. Chem. Chem. Phys.
     2020, 22, 8499-8512. DOI: 10.1039/D0CP00502A
   
   for sTDA-xTB:
   * S. Grimme and C. Bannwarth, J. Chem. Phys., 2016, 145, 054103.
     DOI: 10.1063/1.4959605
   
   in the mass-spec context:
   * V. Asgeirsson, C. Bauer and S. Grimme, Chem. Sci., 2017, 8, 4879.
     DOI: 10.1039/c7sc00601b
   * J. Koopman and S. Grimme, ACS Omega 2019, 4, 12, 15120-15133.
     DOI: 10.1021/acsomega.9b02011
   
   for metadynamics refer to:
   * S. Grimme, J. Chem. Theory Comput., 2019, 155, 2847-2862
     DOI: 10.1021/acs.jctc.9b00143
   
   for SPH calculations refer to:
   * S. Spicher and S. Grimme, J. Chem. Theory Comput., 2021, 17, 1701-1714
     DOI: 10.1021/acs.jctc.0c01306
   
   with help from (in alphabetical order)
   P. Atkinson, C. Bannwarth, F. Bohle, G. Brandenburg, E. Caldeweyher
   M. Checinski, S. Dohm, S. Ehlert, S. Ehrlich, I. Gerasimov, C. Hölzer
   A. Katbashev, J. Koopman, C. Lavigne, S. Lehtola, F. März, M. Müller,
   F. Musil, H. Neugebauer, J. Pisarek, C. Plett, P. Pracht, F. Pultar,
   J. Seibert, P. Shushkov, S. Spicher, M. Stahn, M. Steiner, T. Strunk,
   J. Stückrath, T. Rose, and J. Unsleber
   
 * started run on 2024/10/14 at 21:28:52.653     

           -------------------------------------------------
          |                Calculation Setup                |
           -------------------------------------------------

          program call               : xtb tsopted.xyz --gfn 2 --charge 0 --vipea
          coordinate file            : tsopted.xyz
          omp threads                :                    12

   ID    Z sym.   atoms
    1   26 Fe     1
    2    6 C      2, 4, 8, 10, 12-14, 19, 20, 22-26, 33-36, 47-60
    3   46 Pd     3
    4    1 H      5-7, 15-18, 27, 29-31, 37-45, 61-71
    5    8 O      9, 11, 21, 32, 46
    6    7 N      28

molecular fragmentation (1/2 indicates fragments):
11111111111111111111111111111112111111111111111111111111111111111111111
# atoms in fragment 1/2:    70     1
 fragment masses (1/2) :      655.85       16.00
CMA distance (Bohr)    :   6.844
constraining FC (au)   :  0.0500

           -------------------------------------------------
          |                 G F N 2 - x T B                 |
           -------------------------------------------------

        Reference                      10.1021/acs.jctc.8b01176
      * Hamiltonian:
        H0-scaling (s, p, d)           1.850000    2.230000    2.230000
        zeta-weighting                 0.500000
      * Dispersion:
        s8                             2.700000
        a1                             0.520000
        a2                             5.000000
        s9                             5.000000
      * Repulsion:
        kExp                           1.500000    1.000000
        rExp                           1.000000
      * Coulomb:
        alpha                          2.000000
        third order                    shell-resolved
        anisotropic                    true
        a3                             3.000000
        a5                             4.000000
        cn-shift                       1.200000
        cn-exp                         4.000000
        max-rad                        5.000000

q/qsh data taken from xtbrestart
CAMM data taken from xtbrestart

          ...................................................
          :                      SETUP                      :
          :.................................................:
          :  # basis functions                 203          :
          :  # atomic orbitals                 201          :
          :  # shells                          113          :
          :  # electrons                       212          :
          :  max. iterations                   250          :
          :  Hamiltonian                  GFN2-xTB          :
          :  restarted?                       true          :
          :  GBSA solvation                  false          :
          :  PC potential                    false          :
          :  electronic temp.          300.0000000     K    :
          :  accuracy                    1.0000000          :
          :  -> integral cutoff          0.2500000E+02      :
          :  -> integral neglect         0.1000000E-07      :
          :  -> SCF convergence          0.1000000E-05 Eh   :
          :  -> wf. convergence          0.1000000E-03 e    :
          :  Broyden damping             0.4000000          :
          ...................................................

 iter      E             dE          RMSdq      gap      omega  full diag
   1   -117.1149438 -0.117115E+03  0.157E-04    0.86       0.0  T
   2   -117.1149438 -0.169138E-09  0.117E-04    0.86     101.5  T
   3   -117.1149438 -0.764544E-10  0.914E-05    0.86     129.9  T

   *** convergence criteria satisfied after 3 iterations ***

         #    Occupation            Energy/Eh            Energy/eV
      -------------------------------------------------------------
         1        2.0000           -0.9129126             -24.8416
       ...           ...                  ...                  ...
       100        2.0000           -0.3847941             -10.4708
       101        2.0000           -0.3748609             -10.2005
       102        2.0000           -0.3602424              -9.8027
       103        2.0000           -0.3581523              -9.7458
       104        2.0000           -0.3441800              -9.3656
       105        2.0000           -0.3433310              -9.3425
       106        2.0000           -0.3249579              -8.8426 (HOMO)
       107        0.0000           -0.2934477              -7.9851 (LUMO)
       108                         -0.2852489              -7.7620
       109                         -0.2582984              -7.0287
       110                         -0.2549300              -6.9370
       111                         -0.2395656              -6.5189
       ...                                ...                  ...
       201                          7.0720362             192.4399
      -------------------------------------------------------------
                  HL-Gap            0.0315102 Eh            0.8574 eV
             Fermi-level           -0.3092029 Eh           -8.4138 eV

 SCC (total)                   0 d,  0 h,  0 min,  0.043 sec
 SCC setup                      ...        0 min,  0.003 sec (  6.824%)
 Dispersion                     ...        0 min,  0.001 sec (  2.933%)
 classical contributions        ...        0 min,  0.000 sec (  0.112%)
 integral evaluation            ...        0 min,  0.006 sec ( 14.885%)
 iterations                     ...        0 min,  0.018 sec ( 41.338%)
 molecular gradient             ...        0 min,  0.011 sec ( 25.445%)
 printout                       ...        0 min,  0.004 sec (  8.372%)

         :::::::::::::::::::::::::::::::::::::::::::::::::::::
         ::                     SUMMARY                     ::
         :::::::::::::::::::::::::::::::::::::::::::::::::::::
         :: total energy            -115.452409696354 Eh    ::
         :: gradient norm              0.000060140690 Eh/a0 ::
         :: HOMO-LUMO gap              0.857436309124 eV    ::
         ::.................................................::
         :: SCC energy              -117.114943789435 Eh    ::
         :: -> isotropic ES           -0.060256027447 Eh    ::
         :: -> anisotropic ES         -0.043950446929 Eh    ::
         :: -> anisotropic XC          0.013464516914 Eh    ::
         :: -> dispersion             -0.122194093945 Eh    ::
         :: repulsion energy           1.656125960618 Eh    ::
         :: add. restraining           0.000000000000 Eh    ::
         :: total charge              -0.000000000022 e     ::
         :::::::::::::::::::::::::::::::::::::::::::::::::::::

           ------------------------------------------------- 
          |        vertical delta SCC IP calculation        |
           ------------------------------------------------- 

 iter      E             dE          RMSdq      gap      omega  full diag
   1   -116.6830851 -0.116683E+03  0.680E-01    0.86       0.0  T
   2   -116.6990747 -0.159896E-01  0.594E-01    1.74       1.0  T
   3   -116.7039663 -0.489154E-02  0.370E-01    1.46       1.0  T
   4   -116.7015913  0.237498E-02  0.356E-01    1.66       1.0  T
   5   -116.7082319 -0.664060E-02  0.340E-01    1.57       1.0  T
   6   -116.7102114 -0.197949E-02  0.207E-01    1.62       1.0  T
   7   -116.7006697  0.954166E-02  0.239E-01    1.58       1.0  T
   8   -116.7097622 -0.909249E-02  0.142E-01    1.54       1.0  T
   9   -116.7110337 -0.127147E-02  0.576E-02    1.57       1.0  T
  10   -116.7109753  0.583618E-04  0.320E-02    1.58       1.0  T
  11   -116.7110404 -0.651119E-04  0.217E-02    1.58       1.0  T
  12   -116.7110993 -0.588617E-04  0.104E-02    1.58       1.1  T
  13   -116.7111052 -0.588647E-05  0.502E-03    1.58       2.4  T
  14   -116.7111049  0.251594E-06  0.272E-03    1.57       4.4  T
  15   -116.7111054 -0.464695E-06  0.142E-03    1.57       8.3  T
  16   -116.7111055 -0.133541E-06  0.629E-04    1.57      18.9  T
  17   -116.7111055  0.315859E-07  0.511E-04    1.57      23.2  T
     SCC iter.                  ...        0 min,  0.086 sec
     gradient                   ...        0 min,  0.011 sec
------------------------------------------------------------------------
empirical IP shift (eV):    4.8455
delta SCC IP (eV):    6.1435
------------------------------------------------------------------------
           ------------------------------------------------- 
          |        vertical delta SCC EA calculation        |
           ------------------------------------------------- 

 iter      E             dE          RMSdq      gap      omega  full diag
   1   -117.2451231 -0.117245E+03  0.101E+00    0.19       0.0  T
   2   -117.1452828  0.998404E-01  0.178E+00    0.51       1.0  T
   3   -117.3058650 -0.160582E+00  0.687E-01    0.18       1.0  T
   4   -117.2943599  0.115051E-01  0.728E-01    0.05       1.0  T
   5   -117.3067294 -0.123695E-01  0.517E-01    0.18       1.0  T
   6   -117.3170817 -0.103522E-01  0.358E-01    0.13       1.0  T
   7   -117.2845403  0.325413E-01  0.584E-01    0.08       1.0  T
   8   -117.3116878 -0.271475E-01  0.366E-01    0.17       1.0  T
   9   -117.3242528 -0.125649E-01  0.206E-01    0.09       1.0  T
  10   -117.3284054 -0.415265E-02  0.804E-02    0.06       1.0  T
  11   -117.3291449 -0.739448E-03  0.210E-02    0.04       1.0  T
  12   -117.3290335  0.111391E-03  0.346E-02    0.03       1.0  T
  13   -117.3290879 -0.544055E-04  0.278E-02    0.05       1.0  T
  14   -117.3291825 -0.945862E-04  0.432E-03    0.04       2.7  T
  15   -117.3291482  0.342432E-04  0.161E-02    0.04       1.0  T
  16   -117.3291707 -0.224429E-04  0.965E-03    0.04       1.2  T
  17   -117.3291832 -0.124935E-04  0.727E-04    0.04      16.3  T
  18   -117.3291826  0.583047E-06  0.215E-03    0.04       5.5  T
  19   -117.3291832 -0.621972E-06  0.130E-04    0.04      91.2  T
  20   -117.3291832  0.605816E-08  0.226E-04    0.04      52.5  T
     SCC iter.                  ...        0 min,  0.093 sec
     gradient                   ...        0 min,  0.011 sec
------------------------------------------------------------------------
empirical EA shift (eV):    4.8455
delta SCC EA (eV):    0.9842
------------------------------------------------------------------------
           -------------------------------------------------
          |                Property Printout                |
           -------------------------------------------------

    * Orbital Energies and Occupations

         #    Occupation            Energy/Eh            Energy/eV
      -------------------------------------------------------------
         1        2.0000           -0.7793928             -21.2084
       ...           ...                  ...                  ...
        95        2.0000           -0.2784989              -7.5783
        96        2.0000           -0.2736518              -7.4464
        97        2.0000           -0.2704794              -7.3601
        98        2.0000           -0.2637497              -7.1770
        99        2.0000           -0.2571618              -6.9977
       100        2.0000           -0.2501068              -6.8058
       101        2.0000           -0.2473528              -6.7308
       102        2.0000           -0.2350182              -6.3952
       103        2.0000           -0.2296791              -6.2499
       104        2.0000           -0.2282901              -6.2121
       105        2.0000           -0.2085175              -5.6741
       106        2.0000           -0.2041180              -5.5543
       107        0.6825           -0.1440635              -3.9202 (HOMO)
       108        0.3144           -0.1425962              -3.8802 (LUMO)
       109        0.0031           -0.1378493              -3.7511
       110                         -0.1181040              -3.2138
       111                         -0.1148124              -3.1242
       112                         -0.1123895              -3.0583
       113                         -0.1075782              -2.9274
       114                         -0.0813733              -2.2143
       115                         -0.0651801              -1.7736
       116                         -0.0629608              -1.7133
       117                         -0.0511739              -1.3925
       118                         -0.0485868              -1.3221
       ...                                ...                  ...
       201                          7.2005382             195.9366
      -------------------------------------------------------------
                  HL-Gap            0.0014674 Eh            0.0399 eV
             Fermi-level           -0.1587137 Eh           -4.3188 eV

     #   Z          covCN         q      C6AA      α(0)
     1  26 Fe      10.828     1.623   107.223    18.260
     2   6 C        2.740     0.373    20.674     7.445
     3  46 Pd       4.745    -0.231   377.491    35.483
     4   6 C        3.656     0.107    19.093     6.272
     5   1 H        0.927     0.030     2.591     2.517
     6   1 H        0.927     0.075     2.029     2.227
     7   1 H        0.927     0.089     1.888     2.149
     8   6 C        2.754     0.388    20.432     7.402
     9   8 O        0.856    -0.526    24.365     6.618
    10   6 C        4.050    -0.142    23.150     6.834
    11   8 O        0.871    -0.538    24.632     6.655
    12   6 C        3.940    -0.144    23.188     6.843
    13   6 C        3.872    -0.157    23.494     6.892
    14   6 C        3.889    -0.169    23.732     6.926
    15   1 H        0.927     0.083     1.953     2.185
    16   1 H        0.927     0.047     2.361     2.403
    17   1 H        0.927     0.027     2.630     2.536
    18   1 H        1.424     0.171     1.250     1.745
    19   6 C        3.783    -0.171    23.845     6.956
    20   6 C        3.902     0.043    19.794     6.324
    21   8 O        1.515    -0.445    21.844     6.303
    22   6 C        3.875    -0.115    22.652     6.767
    23   6 C        3.886    -0.146    23.247     6.855
    24   6 C        3.905    -0.160    23.525     6.894
    25   6 C        3.889    -0.170    23.751     6.928
    26   6 C        3.909    -0.166    23.654     6.913
    27   1 H        0.927     0.080     1.982     2.201
    28   7 N        2.678    -0.266    26.898     7.703
    29   1 H        0.924     0.009     2.915     2.670
    30   1 H        0.925    -0.011     3.263     2.825
    31   1 H        0.927     0.039     2.464     2.454
    32   8 O        1.532    -0.382    20.586     6.120
    33   6 C        3.897     0.038    19.880     6.338
    34   6 C        3.758    -0.102    22.501     6.763
    35   6 C        3.758    -0.103    22.519     6.766
    36   6 C        3.761    -0.104    22.532     6.767
    37   1 H        0.932     0.145     1.422     1.865
    38   1 H        0.925     0.022     2.699     2.569
    39   1 H        0.924     0.058     2.224     2.332
    40   1 H        0.925     0.023     2.693     2.566
    41   1 H        0.925     0.031     2.579     2.511
    42   1 H        0.924     0.075     2.035     2.231
    43   1 H        0.925     0.048     2.339     2.392
    44   1 H        0.925     0.023     2.682     2.561
    45   1 H        0.925     0.020     2.726     2.582
    46   8 O        1.705    -0.311    19.179     5.913
    47   6 C        3.704     0.101    19.062     6.242
    48   6 C        3.888    -0.025    20.964     6.509
    49   6 C        3.052     0.003    27.912     8.665
    50   6 C        2.915    -0.045    29.119     8.849
    51   6 C        2.922    -0.053    29.306     8.878
    52   6 C        2.921    -0.047    29.169     8.857
    53   6 C        2.915    -0.051    29.256     8.870
    54   6 C        3.038    -0.005    28.107     8.696
    55   6 C        3.039    -0.009    28.208     8.711
    56   6 C        2.914    -0.046    29.142     8.852
    57   6 C        2.921    -0.040    28.994     8.830
    58   6 C        2.923    -0.048    29.193     8.860
    59   6 C        2.914    -0.039    28.964     8.825
    60   6 C        3.053    -0.000    27.978     8.675
    61   1 H        0.924     0.043     2.409     2.427
    62   1 H        0.924     0.034     2.534     2.489
    63   1 H        0.924     0.025     2.659     2.550
    64   1 H        0.926     0.006     2.948     2.685
    65   1 H        0.926     0.009     2.901     2.663
    66   1 H        0.926     0.008     2.921     2.673
    67   1 H        0.926     0.023     2.694     2.567
    68   1 H        0.926     0.019     2.749     2.593
    69   1 H        0.926     0.009     2.899     2.662
    70   1 H        0.926     0.005     2.969     2.695
    71   1 H        0.926     0.013     2.846     2.638

 Mol. C6AA /au·bohr⁶  :      70075.256264
 Mol. C8AA /au·bohr⁸  :    2051339.048421
 Mol. α(0) /au        :        410.422489


Wiberg/Mayer (AO) data.
largest (>0.10) Wiberg bond orders for each atom

 ---------------------------------------------------------------------------
     #   Z sym  total        # sym  WBO       # sym  WBO       # sym  WBO
 ---------------------------------------------------------------------------
     1  26 Fe   0.182 --    14 C    0.216    24 C    0.199    26 C    0.191
                            12 C    0.163    13 C    0.116    25 C    0.108
                            19 C    0.105
     2   6 C    3.936 --     9 O    1.606    21 O    1.376    20 C    0.866
     3  46 Pd   3.850 --    19 C    0.869    28 N    0.573    32 O    0.467
                            21 O    0.456    18 H    0.421    22 C    0.163
                            34 C    0.124     4 C    0.117    37 H    0.116
                            12 C    0.112    23 C    0.112    10 C    0.108
     4   6 C    3.943 --    32 O    1.451    10 C    1.207    30 H    0.954
                             3 Pd   0.117
     5   1 H    0.997 --    24 C    0.987
     6   1 H    0.993 --    23 C    0.968
     7   1 H    0.990 --    22 C    0.952
     8   6 C    3.932 --    28 N    1.446    11 O    1.324    46 O    1.029
     9   8 O    1.922 --     2 C    1.606    21 O    0.201
    10   6 C    3.903 --     4 C    1.207    19 C    1.167    14 C    1.151
                             3 Pd   0.108    32 O    0.108
    11   8 O    1.970 --     8 C    1.324    18 H    0.164    28 N    0.161
    12   6 C    3.964 --    13 C    1.298    19 C    1.235    15 H    0.956
                             1 Fe   0.163     3 Pd   0.112
    13   6 C    3.949 --    14 C    1.371    12 C    1.298    16 H    0.983
                             1 Fe   0.116
    14   6 C    3.944 --    13 C    1.371    10 C    1.151    17 H    0.992
                             1 Fe   0.216
    15   1 H    0.993 --    12 C    0.956
    16   1 H    0.997 --    13 C    0.983
    17   1 H    0.997 --    14 C    0.992
    18   1 H    0.970 --     3 Pd   0.421    11 O    0.164    22 C    0.114
    19   6 C    3.695 --    12 C    1.235    10 C    1.167     3 Pd   0.869
                             1 Fe   0.105
    20   6 C    3.967 --    28 N    0.979    29 H    0.956    33 C    0.945
                             2 C    0.866
    21   8 O    2.174 --     2 C    1.376     3 Pd   0.456     9 O    0.201
    22   6 C    3.966 --    23 C    1.333    26 C    1.223     7 H    0.952
                             3 Pd   0.163    18 H    0.114
    23   6 C    3.943 --    22 C    1.333    24 C    1.294     6 H    0.968
                             3 Pd   0.112
    24   6 C    3.969 --    25 C    1.294    23 C    1.294     5 H    0.987
                             1 Fe   0.199
    25   6 C    3.922 --    26 C    1.356    24 C    1.294    31 H    0.993
                             1 Fe   0.108
    26   6 C    3.955 --    25 C    1.356    22 C    1.223    27 H    0.977
                             1 Fe   0.191
    27   1 H    0.993 --    26 C    0.977
    28   7 N    3.344 --     8 C    1.446    20 C    0.979     3 Pd   0.573
                            11 O    0.161
    29   1 H    0.999 --    20 C    0.956
    30   1 H    0.996 --     4 C    0.954
    31   1 H    0.998 --    25 C    0.993
    32   8 O    2.205 --     4 C    1.451     3 Pd   0.467    10 C    0.108
    33   6 C    3.990 --    36 C    0.998    35 C    0.992    34 C    0.988
                            20 C    0.945
    34   6 C    3.982 --    33 C    0.988    38 H    0.986    39 H    0.970
                            37 H    0.841     3 Pd   0.124
    35   6 C    3.994 --    33 C    0.992    40 H    0.986    41 H    0.985
                            42 H    0.948
    36   6 C    3.995 --    33 C    0.998    44 H    0.986    45 H    0.986
                            43 H    0.984
    37   1 H    0.977 --    34 C    0.841     3 Pd   0.116
    38   1 H    0.998 --    34 C    0.986
    39   1 H    0.995 --    34 C    0.970
    40   1 H    0.999 --    35 C    0.986
    41   1 H    0.999 --    35 C    0.985
    42   1 H    0.994 --    35 C    0.948
    43   1 H    0.998 --    36 C    0.984
    44   1 H    0.999 --    36 C    0.986
    45   1 H    0.999 --    36 C    0.986
    46   8 O    2.218 --     8 C    1.029    47 C    0.965
    47   6 C    3.936 --    62 H    0.975    61 H    0.968    46 O    0.965
                            48 C    0.954
    48   6 C    3.993 --    49 C    1.000    60 C    0.999    47 C    0.954
                            63 H    0.947
    49   6 C    3.957 --    50 C    1.467    54 C    1.293    48 C    1.000
    50   6 C    3.975 --    49 C    1.467    51 C    1.383    64 H    0.970
    51   6 C    3.902 --    52 C    1.416    50 C    1.383    65 H    0.973
    52   6 C    3.980 --    53 C    1.454    51 C    1.416    66 H    0.972
    53   6 C    3.944 --    52 C    1.454    54 C    1.355    67 H    0.969
    54   6 C    3.927 --    53 C    1.355    49 C    1.293    55 C    1.107
    55   6 C    3.934 --    56 C    1.355    60 C    1.298    54 C    1.107
    56   6 C    3.947 --    57 C    1.457    55 C    1.355    68 H    0.970
    57   6 C    3.983 --    56 C    1.457    58 C    1.418    69 H    0.972
    58   6 C    3.908 --    57 C    1.418    59 C    1.395    70 H    0.973
    59   6 C    3.979 --    60 C    1.465    58 C    1.395    71 H    0.970
    60   6 C    3.956 --    59 C    1.465    55 C    1.298    48 C    0.999
    61   1 H    0.997 --    47 C    0.968
    62   1 H    0.997 --    47 C    0.975
    63   1 H    0.996 --    48 C    0.947
    64   1 H    1.000 --    50 C    0.970
    65   1 H    0.999 --    51 C    0.973
    66   1 H    0.998 --    52 C    0.972
    67   1 H    0.998 --    53 C    0.969
    68   1 H    1.000 --    56 C    0.970
    69   1 H    0.999 --    57 C    0.972
    70   1 H    1.000 --    58 C    0.973
    71   1 H    0.999 --    59 C    0.970
 ---------------------------------------------------------------------------

Topologies differ in total number of bonds
Writing topology from bond orders to xtbtopo.mol

molecular dipole:
                 x           y           z       tot (Debye)
 q only:        3.612      -0.926      -2.111
   full:        2.453      -0.330      -1.548       7.420
molecular quadrupole (traceless):
                xx          xy          yy          xz          yz          zz
 q only:      -16.592     -12.831      12.398      25.575       3.764       4.194
  q+dip:      -15.714     -16.129      14.746      26.112       7.024       0.968
   full:      -20.751      -9.557      16.633      25.028       7.615       4.118


           -------------------------------------------------
          | TOTAL ENERGY             -115.666649094766 Eh   |
          | GRADIENT NORM               0.091342081365 Eh/α |
          | HOMO-LUMO GAP               0.039928911930 eV   |
           -------------------------------------------------

------------------------------------------------------------------------
 * finished run on 2024/10/14 at 21:28:53.120     
------------------------------------------------------------------------
 total:
 * wall-time:     0 d,  0 h,  0 min,  0.467 sec
 *  cpu-time:     0 d,  0 h,  0 min,  5.183 sec
 * ratio c/w:    11.098 speedup
 SCF:
 * wall-time:     0 d,  0 h,  0 min,  0.262 sec
 *  cpu-time:     0 d,  0 h,  0 min,  3.110 sec
 * ratio c/w:    11.870 speedup

