%chk=1-modopt.chk
#p opt=(modredundant,nomicro) external='./xtb.sh'

Generate automatically by rxnb

0 1
Fe          -3.734650       -0.581040       -4.445750
C            2.136410       -3.010770       -2.059870
Pd          -0.233310       -2.389270       -3.501100
C           -1.433950       -2.101820       -6.125750
H           -5.668530        0.481710       -6.228050
H           -3.054740        1.041950       -6.665970
H           -1.896850        1.541840       -4.260260
C           -0.498640       -0.643480       -1.283620
O            3.220650       -3.455250       -1.745670
C           -2.566390       -2.076430       -5.151270
O           -1.413560       -0.095850       -1.983710
C           -3.541460       -2.123310       -3.062890
C           -4.540550       -2.448650       -4.024010
C           -3.930620       -2.451830       -5.316420
H           -3.704750       -2.002560       -1.993220
H           -5.592440       -2.638700       -3.816140
H           -4.426820       -2.668800       -6.261500
H           -1.685590       -0.908660       -2.990480
C           -2.292560       -1.880150       -3.736760
C            1.203910       -2.402080       -0.983280
O            1.658410       -3.051820       -3.285030
C           -2.947920        1.323590       -4.438100
C           -3.556900        1.048940       -5.699750
C           -4.936830        0.753480       -5.469220
C           -5.179170        0.850830       -4.064980
C           -3.950080        1.198120       -3.426920
H           -3.784380        1.307760       -2.358100
N            0.059490       -1.780670       -1.637020
H            1.784040       -1.640400       -0.439620
H           -1.002460       -1.098850       -6.253510
H           -1.736190       -2.475100       -7.120850
H           -6.111420        0.663210       -3.574480
N           -0.374870       -2.949160       -5.559000
C            0.947900       -2.743520       -6.023800
C           -0.740020       -4.309090       -5.308920
H            1.452180       -3.670980       -6.401420
H            0.971870       -1.930650       -6.797250
H            1.599420       -2.362240       -5.195290
H           -1.152170       -4.748040       -6.243470
H            0.051450       -4.916530       -4.866690
H           -1.616920       -4.287360       -4.597280
C            0.812970       -3.490780        0.002770
C            1.691790       -4.659010       -0.007120
C            0.559270       -2.741570        1.228520
H            2.435270       -4.056330       -0.440330
H            2.275250       -5.060040        0.817790
H            1.434510       -5.445150       -0.730470
H           -0.099320       -3.767460       -0.479650
H            1.332370       -2.248720        1.789300
H           -0.322040       -2.085570        1.086770
H            0.297480       -3.527030        1.901760
C            0.000000        0.000000        0.000000
H            1.105930        0.000000       -0.000000
H           -0.354240        1.064200       -0.000000
H           -0.408080       -0.541910        0.872790

B 11 18 F
B 18 19 F
B 3 19 F
B 3 33 F
B 3 28 F
B 3 21 F

