 Entering Gaussian System, Link 0=g16
 Input=2-modfreq.gjf
 Output=2-modfreq.log
 Initial command:
 /home/echo/g16/l1.exe "/home/echo/scratch/Gau-7700.inp" -scrdir="/home/echo/scratch/"
 Entering Link 1 = /home/echo/g16/l1.exe PID=      7702.
  
 Copyright (c) 1988-2019, Gaussian, Inc.  All Rights Reserved.
  
 This is part of the Gaussian(R) 16 program.  It is based on
 the Gaussian(R) 09 system (copyright 2009, Gaussian, Inc.),
 the Gaussian(R) 03 system (copyright 2003, Gaussian, Inc.),
 the Gaussian(R) 98 system (copyright 1998, Gaussian, Inc.),
 the Gaussian(R) 94 system (copyright 1995, Gaussian, Inc.),
 the Gaussian 92(TM) system (copyright 1992, Gaussian, Inc.),
 the Gaussian 90(TM) system (copyright 1990, Gaussian, Inc.),
 the Gaussian 88(TM) system (copyright 1988, Gaussian, Inc.),
 the Gaussian 86(TM) system (copyright 1986, Carnegie Mellon
 University), and the Gaussian 82(TM) system (copyright 1983,
 Carnegie Mellon University). Gaussian is a federally registered
 trademark of Gaussian, Inc.
  
 This software contains proprietary and confidential information,
 including trade secrets, belonging to Gaussian, Inc.
  
 This software is provided under written license and may be
 used, copied, transmitted, or stored only in accord with that
 written license.
  
 The following legend is applicable only to US Government
 contracts under FAR:
  
                    RESTRICTED RIGHTS LEGEND
  
 Use, reproduction and disclosure by the US Government is
 subject to restrictions as set forth in subparagraphs (a)
 and (c) of the Commercial Computer Software - Restricted
 Rights clause in FAR 52.227-19.
  
 Gaussian, Inc.
 340 Quinnipiac St., Bldg. 40, Wallingford CT 06492
  
  
 ---------------------------------------------------------------
 Warning -- This program may not be used in any manner that
 competes with the business of Gaussian, Inc. or will provide
 assistance to any competitor of Gaussian, Inc.  The licensee
 of this program is prohibited from giving any competitor of
 Gaussian, Inc. access to this program.  By using this program,
 the user acknowledges that Gaussian, Inc. is engaged in the
 business of creating and licensing software in the field of
 computational chemistry and represents and warrants to the
 licensee that it is not a competitor of Gaussian, Inc. and that
 it will not use this program in any manner prohibited above.
 ---------------------------------------------------------------
  

 Cite this work as:
 Gaussian 16, Revision C.01,
 M. J. Frisch, G. W. Trucks, H. B. Schlegel, G. E. Scuseria, 
 M. A. Robb, J. R. Cheeseman, G. Scalmani, V. Barone, 
 G. A. Petersson, H. Nakatsuji, X. Li, M. Caricato, A. V. Marenich, 
 J. Bloino, B. G. Janesko, R. Gomperts, B. Mennucci, H. P. Hratchian, 
 J. V. Ortiz, A. F. Izmaylov, J. L. Sonnenberg, D. Williams-Young, 
 F. Ding, F. Lipparini, F. Egidi, J. Goings, B. Peng, A. Petrone, 
 T. Henderson, D. Ranasinghe, V. G. Zakrzewski, J. Gao, N. Rega, 
 G. Zheng, W. Liang, M. Hada, M. Ehara, K. Toyota, R. Fukuda, 
 J. Hasegawa, M. Ishida, T. Nakajima, Y. Honda, O. Kitao, H. Nakai, 
 T. Vreven, K. Throssell, J. A. Montgomery, Jr., J. E. Peralta, 
 F. Ogliaro, M. J. Bearpark, J. J. Heyd, E. N. Brothers, K. N. Kudin, 
 V. N. Staroverov, T. A. Keith, R. Kobayashi, J. Normand, 
 K. Raghavachari, A. P. Rendell, J. C. Burant, S. S. Iyengar, 
 J. Tomasi, M. Cossi, J. M. Millam, M. Klene, C. Adamo, R. Cammi, 
 J. W. Ochterski, R. L. Martin, K. Morokuma, O. Farkas, 
 J. B. Foresman, and D. J. Fox, Gaussian, Inc., Wallingford CT, 2019.
 
 ******************************************
 Gaussian 16:  ES64L-G16RevC.01  3-Jul-2019
                14-Oct-2024 
 ******************************************
 %chk=2-modfreq.chk
 ---------------------------
 #p freq external='./xtb.sh'
 ---------------------------
 1/10=4,18=10,30=1,38=1/1,3;
 2/12=2,17=6,18=5,40=1/2;
 3/11=9,25=1,30=1,41=9900000,43=2,71=2,140=1/1;
 4/20=17,22=2,24=3,113=1,114=1/2;
 6/7=2,8=2,9=2,10=2/1;
 7/8=1,25=1,44=-1/16;
 1/10=4,18=10,30=1/3;
 99//99;
 Leave Link    1 at Mon Oct 14 23:22:06 2024, MaxMem=           0 cpu:               0.0 elap:               0.0
 (Enter /home/echo/g16/l101.exe)
 ------------------------------
 Generate automatically by rxnb
 ------------------------------
 Symbolic Z-matrix:
 Charge =  0 Multiplicity = 1
 Fe                    2.03717  -0.43529   0.00063 
 C                    -2.60098  -0.13058  -1.54946 
 Pd                   -0.46554   0.5082    0.12274 
 C                     1.73278   2.32529   0.20366 
 H                     4.34546  -1.4593   -0.71089 
 H                     3.62007   0.87519  -1.67966 
 H                     1.00729   0.74129  -2.30908 
 C                    -0.9108   -2.25005   0.38701 
 O                    -3.31494  -0.36201  -2.50768 
 C                     1.99876   1.13961   1.05283 
 O                     0.34033  -2.18188   0.67768 
 C                     1.94418  -0.9236    1.94926 
 C                     3.24066  -0.68661   1.52286 
 C                     3.29697   0.61483   1.00569 
 H                     1.63852  -1.8808    2.30826 
 H                     4.02062  -1.41088   1.52406 
 H                     4.13955   1.06693   0.53651 
 H                     0.7632   -0.93527   0.80175 
 C                     1.06112   0.15449   1.57169 
 C                    -2.8612   -0.84695  -0.17515 
 O                    -1.61615   0.67044  -1.52469 
 C                     1.60514  -0.0286   -1.8696 
 C                     2.9873    0.02074  -1.60494 
 C                     3.38626  -1.23178  -1.10928 
 C                     2.25211  -2.0513   -1.05319 
 C                     1.16478  -1.32761  -1.56886 
 H                     0.17734  -1.70009  -1.72915 
 N                    -1.54894  -1.14194   0.30765 
 H                    -3.49464  -1.7332   -0.29846 
 H                     2.21407   2.08451  -0.74559 
 H                     2.18241   3.24532   0.612 
 H                     2.19556  -2.98044  -0.53906 
 N                     0.306     2.49617  -0.0228 
 C                     0.03836   3.26018  -1.23029 
 C                    -0.32691   3.14397   1.12256 
 H                     0.37473   4.301    -1.1252 
 H                     0.55468   2.81269  -2.07743 
 H                    -1.02958   3.2498   -1.44428 
 H                     0.0259    4.18106   1.23192 
 H                    -1.41158   3.16182   0.98825 
 H                    -0.08379   2.59591   2.0341 
 C                    -3.53056   0.1824    0.76081 
 C                    -4.96227   0.45071   0.31145 
 C                    -3.48051  -0.28709   2.21569 
 H                    -5.57628  -0.43565   0.46137 
 H                    -5.39658   1.26967   0.88209 
 H                    -4.98934   0.70526  -0.74559 
 H                    -2.94146   1.12218   0.68896 
 H                    -3.994    -1.24072   2.32697 
 H                    -2.44399  -0.4074    2.53785 
 H                    -3.96486   0.44161   2.86292 
 C                    -1.53542  -3.60089   0.14599 
 H                    -1.91149  -3.65797  -0.87385 
 H                    -0.78047  -4.36533   0.29936 
 H                    -2.36512  -3.76169   0.83076 
 
 ITRead=  0  0  0  0  0  0  0  0  0  0  0  0  0  0  0  0  0  0  0  0
 ITRead=  0  0  0  0  0  0  0  0  0  0  0  0  0  0  0  0  0  0  0  0
 ITRead=  0  0  0  0  0  0  0  0  0  0  0  0  0  0  0
 MicOpt= -1 -1 -1 -1 -1 -1 -1 -1 -1 -1 -1 -1 -1 -1 -1 -1 -1 -1 -1 -1
 MicOpt= -1 -1 -1 -1 -1 -1 -1 -1 -1 -1 -1 -1 -1 -1 -1 -1 -1 -1 -1 -1
 MicOpt= -1 -1 -1 -1 -1 -1 -1 -1 -1 -1 -1 -1 -1 -1 -1
 NAtoms=     55 NQM=       55 NQMF=       0 NMMI=      0 NMMIF=      0
                NMic=       0 NMicF=      0.
                    Isotopes and Nuclear Properties:
 (Nuclear quadrupole moments (NQMom) in fm**2, nuclear magnetic moments (NMagM)
  in nuclear magnetons)

  Atom         1           2           3           4           5           6           7           8           9          10
 IAtWgt=          56          12         106          12           1           1           1          12          16          12
 AtmWgt=  55.9349393  12.0000000 105.9032000  12.0000000   1.0078250   1.0078250   1.0078250  12.0000000  15.9949146  12.0000000
 NucSpn=           0           0           0           0           1           1           1           0           0           0
 AtZEff=  -0.0000000  -0.0000000  -0.0000000  -0.0000000  -0.0000000  -0.0000000  -0.0000000  -0.0000000  -0.0000000  -0.0000000
 NQMom=    0.0000000   0.0000000   0.0000000   0.0000000   0.0000000   0.0000000   0.0000000   0.0000000   0.0000000   0.0000000
 NMagM=    0.0000000   0.0000000   0.0000000   0.0000000   2.7928460   2.7928460   2.7928460   0.0000000   0.0000000   0.0000000
 AtZNuc=  26.0000000   6.0000000  46.0000000   6.0000000   1.0000000   1.0000000   1.0000000   6.0000000   8.0000000   6.0000000

  Atom        11          12          13          14          15          16          17          18          19          20
 IAtWgt=          16          12          12          12           1           1           1           1          12          12
 AtmWgt=  15.9949146  12.0000000  12.0000000  12.0000000   1.0078250   1.0078250   1.0078250   1.0078250  12.0000000  12.0000000
 NucSpn=           0           0           0           0           1           1           1           1           0           0
 AtZEff=  -0.0000000  -0.0000000  -0.0000000  -0.0000000  -0.0000000  -0.0000000  -0.0000000  -0.0000000  -0.0000000  -0.0000000
 NQMom=    0.0000000   0.0000000   0.0000000   0.0000000   0.0000000   0.0000000   0.0000000   0.0000000   0.0000000   0.0000000
 NMagM=    0.0000000   0.0000000   0.0000000   0.0000000   2.7928460   2.7928460   2.7928460   2.7928460   0.0000000   0.0000000
 AtZNuc=   8.0000000   6.0000000   6.0000000   6.0000000   1.0000000   1.0000000   1.0000000   1.0000000   6.0000000   6.0000000

  Atom        21          22          23          24          25          26          27          28          29          30
 IAtWgt=          16          12          12          12          12          12           1          14           1           1
 AtmWgt=  15.9949146  12.0000000  12.0000000  12.0000000  12.0000000  12.0000000   1.0078250  14.0030740   1.0078250   1.0078250
 NucSpn=           0           0           0           0           0           0           1           2           1           1
 AtZEff=  -0.0000000  -0.0000000  -0.0000000  -0.0000000  -0.0000000  -0.0000000  -0.0000000  -0.0000000  -0.0000000  -0.0000000
 NQMom=    0.0000000   0.0000000   0.0000000   0.0000000   0.0000000   0.0000000   0.0000000   2.0440000   0.0000000   0.0000000
 NMagM=    0.0000000   0.0000000   0.0000000   0.0000000   0.0000000   0.0000000   2.7928460   0.4037610   2.7928460   2.7928460
 AtZNuc=   8.0000000   6.0000000   6.0000000   6.0000000   6.0000000   6.0000000   1.0000000   7.0000000   1.0000000   1.0000000

  Atom        31          32          33          34          35          36          37          38          39          40
 IAtWgt=           1           1          14          12          12           1           1           1           1           1
 AtmWgt=   1.0078250   1.0078250  14.0030740  12.0000000  12.0000000   1.0078250   1.0078250   1.0078250   1.0078250   1.0078250
 NucSpn=           1           1           2           0           0           1           1           1           1           1
 AtZEff=  -0.0000000  -0.0000000  -0.0000000  -0.0000000  -0.0000000  -0.0000000  -0.0000000  -0.0000000  -0.0000000  -0.0000000
 NQMom=    0.0000000   0.0000000   2.0440000   0.0000000   0.0000000   0.0000000   0.0000000   0.0000000   0.0000000   0.0000000
 NMagM=    2.7928460   2.7928460   0.4037610   0.0000000   0.0000000   2.7928460   2.7928460   2.7928460   2.7928460   2.7928460
 AtZNuc=   1.0000000   1.0000000   7.0000000   6.0000000   6.0000000   1.0000000   1.0000000   1.0000000   1.0000000   1.0000000

  Atom        41          42          43          44          45          46          47          48          49          50
 IAtWgt=           1          12          12          12           1           1           1           1           1           1
 AtmWgt=   1.0078250  12.0000000  12.0000000  12.0000000   1.0078250   1.0078250   1.0078250   1.0078250   1.0078250   1.0078250
 NucSpn=           1           0           0           0           1           1           1           1           1           1
 AtZEff=  -0.0000000  -0.0000000  -0.0000000  -0.0000000  -0.0000000  -0.0000000  -0.0000000  -0.0000000  -0.0000000  -0.0000000
 NQMom=    0.0000000   0.0000000   0.0000000   0.0000000   0.0000000   0.0000000   0.0000000   0.0000000   0.0000000   0.0000000
 NMagM=    2.7928460   0.0000000   0.0000000   0.0000000   2.7928460   2.7928460   2.7928460   2.7928460   2.7928460   2.7928460
 AtZNuc=   1.0000000   6.0000000   6.0000000   6.0000000   1.0000000   1.0000000   1.0000000   1.0000000   1.0000000   1.0000000

  Atom        51          52          53          54          55
 IAtWgt=           1          12           1           1           1
 AtmWgt=   1.0078250  12.0000000   1.0078250   1.0078250   1.0078250
 NucSpn=           1           0           1           1           1
 AtZEff=  -0.0000000  -0.0000000  -0.0000000  -0.0000000  -0.0000000
 NQMom=    0.0000000   0.0000000   0.0000000   0.0000000   0.0000000
 NMagM=    2.7928460   0.0000000   2.7928460   2.7928460   2.7928460
 AtZNuc=   1.0000000   6.0000000   1.0000000   1.0000000   1.0000000
 Leave Link  101 at Mon Oct 14 23:22:06 2024, MaxMem=   104857600 cpu:               0.1 elap:               0.1
 (Enter /home/echo/g16/l103.exe)

 GradGradGradGradGradGradGradGradGradGradGradGradGradGradGradGradGradGrad
 Berny optimization.
 Initialization pass.
 Trust Radius=3.00D-01 FncErr=1.00D-07 GrdErr=1.00D-07 EigMax=2.50D+02 EigMin=1.00D-04
 Number of steps in this run=      2 maximum allowed number of steps=      2.
 GradGradGradGradGradGradGradGradGradGradGradGradGradGradGradGradGradGrad

 Leave Link  103 at Mon Oct 14 23:22:06 2024, MaxMem=   104857600 cpu:               0.0 elap:               0.0
 (Enter /home/echo/g16/l202.exe)
 Stoichiometry    C20H28FeN2O3Pd
 Framework group  C1[X(C20H28FeN2O3Pd)]
 Deg. of freedom   159
 Full point group                 C1      NOp   1
 Largest Abelian subgroup         C1      NOp   1
 Largest concise Abelian subgroup C1      NOp   1
                         Standard orientation:                         
 ---------------------------------------------------------------------
 Center     Atomic      Atomic             Coordinates (Angstroms)
 Number     Number       Type             X           Y           Z
 ---------------------------------------------------------------------
      1         26           0       -2.037171   -0.435290   -0.000630
      2          6           0        2.600979   -0.130581    1.549460
      3         46           0        0.465539    0.508199   -0.122740
      4          6           0       -1.732780    2.325290   -0.203660
      5          1           0       -4.345461   -1.459299    0.710890
      6          1           0       -3.620071    0.875191    1.679660
      7          1           0       -1.007291    0.741290    2.309080
      8          6           0        0.910798   -2.250051   -0.387010
      9          8           0        3.314939   -0.362012    2.507680
     10          6           0       -1.998761    1.139610   -1.052830
     11          8           0       -0.340332   -2.181880   -0.677680
     12          6           0       -1.944181   -0.923600   -1.949260
     13          6           0       -3.240661   -0.686610   -1.522860
     14          6           0       -3.296971    0.614830   -1.005690
     15          1           0       -1.638522   -1.880800   -2.308260
     16          1           0       -4.020621   -1.410879   -1.524060
     17          1           0       -4.139551    1.066931   -0.536510
     18          1           0       -0.763201   -0.935270   -0.801750
     19          6           0       -1.061121    0.154490   -1.571690
     20          6           0        2.861199   -0.846951    0.175150
     21          8           0        1.616149    0.670439    1.524690
     22          6           0       -1.605141   -0.028600    1.869600
     23          6           0       -2.987301    0.020740    1.604940
     24          6           0       -3.386261   -1.231779    1.109280
     25          6           0       -2.252112   -2.051300    1.053190
     26          6           0       -1.164781   -1.327610    1.568860
     27          1           0       -0.177341   -1.700090    1.729150
     28          7           0        1.548939   -1.141941   -0.307650
     29          1           0        3.494639   -1.733202    0.298460
     30          1           0       -2.214070    2.084510    0.745590
     31          1           0       -2.182410    3.245320   -0.612000
     32          1           0       -2.195562   -2.980440    0.539060
     33          7           0       -0.306000    2.496170    0.022800
     34          6           0       -0.038360    3.260180    1.230290
     35          6           0        0.326910    3.143969   -1.122560
     36          1           0       -0.374730    4.301000    1.125200
     37          1           0       -0.554680    2.812690    2.077430
     38          1           0        1.029580    3.249799    1.444280
     39          1           0       -0.025900    4.181060   -1.231920
     40          1           0        1.411580    3.161819   -0.988250
     41          1           0        0.083790    2.595909   -2.034100
     42          6           0        3.530559    0.182398   -0.760810
     43          6           0        4.962269    0.450708   -0.311450
     44          6           0        3.480509   -0.287092   -2.215690
     45          1           0        5.576279   -0.435652   -0.461370
     46          1           0        5.396579    1.269668   -0.882090
     47          1           0        4.989339    0.705258    0.745590
     48          1           0        2.941459    1.122179   -0.688960
     49          1           0        3.993999   -1.240722   -2.326970
     50          1           0        2.443989   -0.407401   -2.537850
     51          1           0        3.964859    0.441608   -2.862920
     52          6           0        1.535418   -3.600891   -0.145990
     53          1           0        1.911488   -3.657971    0.873850
     54          1           0        0.780468   -4.365331   -0.299360
     55          1           0        2.365118   -3.761691   -0.830760
 ---------------------------------------------------------------------
 Rotational constants (GHZ):           0.3047596           0.1735283           0.1497664
 Leave Link  202 at Mon Oct 14 23:22:06 2024, MaxMem=   104857600 cpu:               0.0 elap:               0.0
 (Enter /home/echo/g16/l301.exe)
 Standard basis: STO-3G (5D, 7F)
 Ernie: Thresh=  0.10000D-02 Tol=  0.10000D-05 Strict=F.
 There are   201 symmetry adapted cartesian basis functions of A   symmetry.
 There are   198 symmetry adapted basis functions of A   symmetry.
   198 basis functions,   603 primitive gaussians,   201 cartesian basis functions
   129 alpha electrons      129 beta electrons
       nuclear repulsion energy      4983.4039868683 Hartrees.
 IExCor=    0 DFT=F Ex=HF Corr=None ExCW=0 ScaHFX=  1.000000
 ScaDFX=  1.000000  1.000000  1.000000  1.000000 ScalE2=  1.000000  1.000000
 IRadAn=      5 IRanWt=     -1 IRanGd=            0 ICorTp=0 IEmpDi=  4
 NAtoms=   55 NActive=   55 NUniq=   55 SFac= 1.00D+00 NAtFMM=   60 NAOKFM=F Big=F
 Integral buffers will be    131072 words long.
 Raffenetti 1 integral format.
 Two-electron integral symmetry is turned on.
 Leave Link  301 at Mon Oct 14 23:22:06 2024, MaxMem=   104857600 cpu:               0.0 elap:               0.0
 (Enter /home/echo/g16/l402.exe)
 External calculation of energy, first and second derivatives.
 Running external command "./xtb.sh R"
         input file       "/home/echo/scratch/Gau-7702.EIn"
         output file      "/home/echo/scratch/Gau-7702.EOu"
         message file     "/home/echo/scratch/Gau-7702.EMs"
         fchk file        "/home/echo/scratch/Gau-7702.EFC"
         mat. el file     "/home/echo/scratch/Gau-7702.EUF"
Generating mol.tmp
Generating mol.xyz via genxyz
Running: xtb mol.xyz --chrg 0 --uhf 0 --gfn2 --hess --grad > xtbout
xtb running finished!
Extracting data from xtb outputs via extderi
 Recovered energy= -82.9646500953     dipole=      0.000000000000      0.000000000000      0.000000000000
 Energy=    -82.9646501     NIter=   0.
 Dipole moment=       0.000000       0.000000       0.000000
 Leave Link  402 at Mon Oct 14 23:22:11 2024, MaxMem=   104857600 cpu:               0.0 elap:               4.5
 (Enter /home/echo/g16/l601.exe)
 Leave Link  601 at Mon Oct 14 23:22:11 2024, MaxMem=   104857600 cpu:               0.0 elap:               0.0
 (Enter /home/echo/g16/l716.exe)
 Dipole        = 0.00000000D+00 0.00000000D+00 0.00000000D+00
 Full mass-weighted force constant matrix:
 Low frequencies --- -903.7336   -0.0179   -0.0128   -0.0102    0.0122    0.0146
 Low frequencies ---    0.0185   25.8901   34.7169
 ******    1 imaginary frequencies (negative Signs) ****** 
 Diagonal vibrational polarizability:
        0.0000000       0.0000000       0.0000000
 Harmonic frequencies (cm**-1), IR intensities (KM/Mole), Raman scattering
 activities (A**4/AMU), depolarization ratios for plane and unpolarized
 incident light, reduced masses (AMU), force constants (mDyne/A),
 and normal coordinates:
                      1                      2                      3
                      A                      A                      A
 Frequencies --   -903.7336                25.8901                34.7169
 Red. masses --      1.0713                 2.9841                 5.0644
 Frc consts  --      0.5155                 0.0012                 0.0036
 IR Inten    --      0.0000                 0.0000                 0.0000
  Atom  AN      X      Y      Z        X      Y      Z        X      Y      Z
     1  26     0.00  -0.00   0.00     0.00   0.00  -0.01    -0.02   0.01  -0.02
     2   6     0.01  -0.01  -0.01     0.01  -0.03   0.01     0.09   0.07  -0.04
     3  46     0.00  -0.00   0.00     0.01  -0.02   0.01    -0.00  -0.01   0.05
     4   6     0.00   0.00   0.00     0.01  -0.01  -0.04    -0.01   0.00  -0.03
     5   1    -0.00   0.00  -0.00    -0.02   0.04  -0.03    -0.05   0.04  -0.10
     6   1     0.00   0.00  -0.01    -0.01   0.04  -0.05    -0.07   0.03  -0.08
     7   1     0.00  -0.00  -0.00    -0.02   0.03  -0.01    -0.09   0.01   0.01
     8   6    -0.04  -0.01  -0.01     0.01  -0.01   0.04     0.01  -0.01   0.04
     9   8    -0.00   0.00   0.00     0.02  -0.04  -0.00     0.19   0.17  -0.09
    10   6    -0.00  -0.00   0.01     0.03  -0.01  -0.03     0.03   0.00  -0.04
    11   8     0.02  -0.00   0.01     0.00  -0.02   0.06     0.00  -0.01   0.07
    12   6    -0.02  -0.02  -0.01     0.04  -0.03   0.00     0.06  -0.01  -0.02
    13   6    -0.01  -0.00  -0.01     0.03  -0.02  -0.02     0.05  -0.00  -0.07
    14   6     0.00   0.00  -0.00     0.02  -0.01  -0.05     0.03   0.00  -0.09
    15   1     0.03  -0.03   0.09     0.04  -0.04   0.02     0.08  -0.01   0.00
    16   1    -0.01   0.00   0.00     0.03  -0.02  -0.02     0.04  -0.00  -0.10
    17   1     0.00   0.01  -0.01     0.02  -0.00  -0.06     0.01   0.01  -0.12
    18   1     0.09   0.98  -0.09     0.00  -0.02   0.03    -0.00  -0.01   0.04
    19   6    -0.00  -0.01  -0.03     0.03  -0.02  -0.00     0.05  -0.00   0.01
    20   6     0.00   0.00   0.01     0.01   0.01  -0.01     0.02   0.01  -0.02
    21   8    -0.01   0.00  -0.00    -0.00  -0.04   0.03     0.05   0.02   0.01
    22   6    -0.00  -0.00   0.00    -0.02   0.03  -0.01    -0.08   0.01  -0.01
    23   6     0.00   0.00  -0.00    -0.02   0.04  -0.03    -0.07   0.03  -0.06
    24   6     0.00  -0.00  -0.00    -0.02   0.03  -0.02    -0.07   0.03  -0.07
    25   6     0.00  -0.00   0.00    -0.03   0.02   0.01    -0.07   0.02  -0.02
    26   6    -0.00  -0.00  -0.00    -0.03   0.02   0.02    -0.08   0.01   0.01
    27   1     0.00   0.00  -0.04    -0.03   0.02   0.03    -0.09   0.00   0.03
    28   7     0.00  -0.00  -0.00     0.01  -0.01   0.01    -0.00  -0.00   0.05
    29   1     0.00   0.00  -0.00     0.03   0.03  -0.05     0.02   0.01  -0.00
    30   1    -0.00  -0.00   0.00    -0.01   0.01  -0.05    -0.09   0.02  -0.06
    31   1    -0.01  -0.00   0.00     0.03  -0.01  -0.06     0.04   0.01  -0.07
    32   1     0.03   0.01  -0.02    -0.03   0.02   0.02    -0.06   0.01  -0.02
    33   7    -0.00   0.01   0.00     0.01  -0.01  -0.00    -0.03  -0.02   0.08
    34   6    -0.00   0.00   0.00    -0.02  -0.01   0.00    -0.11  -0.05   0.12
    35   6     0.00   0.00   0.00     0.04  -0.02   0.01     0.07   0.00   0.15
    36   1     0.00   0.00   0.01     0.01  -0.00  -0.02    -0.03  -0.03   0.10
    37   1     0.00   0.00   0.00    -0.05   0.01  -0.01    -0.23  -0.02   0.06
    38   1    -0.00  -0.00   0.00    -0.02  -0.03   0.04    -0.13  -0.12   0.24
    39   1     0.00   0.00  -0.00     0.05  -0.02  -0.00     0.07   0.00   0.14
    40   1    -0.00   0.00   0.00     0.04  -0.03   0.04     0.06   0.01   0.26
    41   1     0.00   0.00  -0.00     0.06  -0.03   0.01     0.16   0.01   0.12
    42   6     0.00  -0.00  -0.00    -0.03   0.07   0.02    -0.02  -0.05  -0.10
    43   6     0.00   0.00  -0.00     0.03  -0.08  -0.09    -0.02   0.03  -0.15
    44   6    -0.00   0.00  -0.00    -0.22   0.25  -0.03    -0.02  -0.17  -0.06
    45   1     0.00   0.00  -0.00    -0.03  -0.09  -0.28     0.00   0.03  -0.09
    46   1     0.00   0.00   0.00     0.02  -0.02  -0.02    -0.05  -0.01  -0.23
    47   1    -0.00  -0.00   0.00     0.15  -0.23  -0.06    -0.00   0.11  -0.17
    48   1     0.00   0.00  -0.00     0.05   0.11   0.19    -0.04  -0.06  -0.17
    49   1    -0.00   0.00   0.00    -0.33   0.21  -0.19     0.02  -0.16   0.01
    50   1    -0.00  -0.00   0.01    -0.27   0.40   0.06    -0.02  -0.24  -0.04
    51   1    -0.00   0.00  -0.00    -0.20   0.28   0.01    -0.06  -0.20  -0.13
    52   6     0.01  -0.00  -0.00     0.02  -0.00   0.06     0.03  -0.01  -0.02
    53   1     0.01   0.01   0.00     0.04   0.02   0.05     0.06  -0.03  -0.03
    54   1     0.01  -0.01   0.00     0.02  -0.01   0.09     0.04  -0.01  -0.02
    55   1     0.01   0.00  -0.00     0.01  -0.01   0.04     0.01   0.02  -0.05
                      4                      5                      6
                      A                      A                      A
 Frequencies --     49.0035                67.9532                73.7865
 Red. masses --      3.9317                 3.4229                 3.4045
 Frc consts  --      0.0056                 0.0093                 0.0109
 IR Inten    --      0.0000                 0.0000                 0.0000
  Atom  AN      X      Y      Z        X      Y      Z        X      Y      Z
     1  26    -0.01   0.02   0.01     0.01  -0.01  -0.01     0.00  -0.02  -0.01
     2   6     0.00  -0.09  -0.05     0.00   0.01  -0.03     0.01  -0.00   0.02
     3  46     0.01  -0.02  -0.02     0.00   0.02  -0.04     0.01  -0.00   0.02
     4   6    -0.00   0.00  -0.04    -0.03  -0.00   0.04     0.06  -0.01   0.09
     5   1    -0.02   0.06   0.02     0.04  -0.07  -0.02    -0.01  -0.04  -0.09
     6   1    -0.00   0.07  -0.02    -0.01  -0.07   0.01    -0.03  -0.06  -0.02
     7   1     0.00   0.05  -0.01    -0.01  -0.02  -0.00    -0.04  -0.07   0.02
     8   6     0.00  -0.01   0.04    -0.03   0.03   0.06    -0.03  -0.02   0.04
     9   8    -0.04  -0.19  -0.04     0.00   0.02  -0.03     0.06   0.03  -0.01
    10   6     0.01  -0.01  -0.03    -0.03   0.01   0.02     0.04   0.02   0.05
    11   8    -0.01  -0.01   0.08    -0.00   0.04  -0.03    -0.01  -0.01  -0.02
    12   6     0.01  -0.03   0.02    -0.00   0.03  -0.03     0.02   0.05  -0.03
    13   6     0.01  -0.02   0.01     0.00   0.00  -0.01     0.02   0.06  -0.04
    14   6     0.01  -0.00  -0.03    -0.02  -0.01   0.02     0.03   0.04   0.01
    15   1     0.01  -0.04   0.05     0.02   0.05  -0.06     0.02   0.06  -0.05
    16   1     0.01  -0.02   0.02     0.01  -0.01  -0.02     0.01   0.07  -0.08
    17   1     0.00   0.01  -0.04    -0.02  -0.04   0.03     0.03   0.03   0.01
    18   1    -0.01  -0.01   0.04     0.02   0.04  -0.05     0.00   0.03  -0.02
    19   6     0.01  -0.02  -0.00    -0.02   0.04  -0.01     0.03   0.03   0.02
    20   6     0.03   0.00  -0.09     0.01  -0.01  -0.02    -0.01   0.01   0.01
    21   8     0.02  -0.08  -0.01     0.00   0.01  -0.04    -0.03  -0.05   0.05
    22   6    -0.01   0.05   0.00     0.01  -0.03  -0.01    -0.03  -0.07   0.00
    23   6    -0.01   0.06  -0.00     0.00  -0.05  -0.01    -0.03  -0.06  -0.03
    24   6    -0.02   0.06   0.02     0.03  -0.05  -0.02    -0.02  -0.05  -0.06
    25   6    -0.03   0.04   0.04     0.05  -0.03  -0.03    -0.02  -0.05  -0.06
    26   6    -0.02   0.04   0.03     0.03  -0.02  -0.02    -0.03  -0.06  -0.02
    27   1    -0.03   0.03   0.04     0.04   0.00  -0.01    -0.03  -0.06  -0.01
    28   7     0.03  -0.01  -0.09     0.01   0.02  -0.05    -0.02  -0.02   0.04
    29   1     0.06   0.02  -0.14    -0.02  -0.02   0.00     0.02   0.03  -0.02
    30   1    -0.05   0.03  -0.06    -0.04  -0.02   0.04     0.14  -0.06   0.12
    31   1     0.03   0.01  -0.07    -0.04   0.00   0.06    -0.01  -0.01   0.16
    32   1    -0.04   0.03   0.06     0.06  -0.03  -0.03    -0.01  -0.03  -0.08
    33   7    -0.01  -0.02   0.02    -0.04  -0.00   0.05     0.07   0.03  -0.03
    34   6    -0.05  -0.03   0.04    -0.05  -0.04   0.08     0.17   0.04  -0.07
    35   6     0.05  -0.01   0.06    -0.03   0.05   0.08    -0.05   0.03  -0.10
    36   1     0.01  -0.01   0.02    -0.04  -0.04   0.11     0.04   0.01  -0.00
    37   1    -0.13  -0.00   0.01    -0.06  -0.07   0.06     0.34  -0.03   0.00
    38   1    -0.07  -0.09   0.12    -0.05  -0.05   0.10     0.20   0.15  -0.22
    39   1     0.04  -0.01   0.04    -0.03   0.05   0.13    -0.08   0.02  -0.07
    40   1     0.04   0.01   0.13    -0.03   0.04   0.09    -0.04   0.04  -0.22
    41   1     0.11  -0.01   0.05    -0.03   0.09   0.06    -0.14   0.02  -0.07
    42   6    -0.02   0.07  -0.05     0.05  -0.03  -0.01    -0.09   0.03  -0.03
    43   6    -0.08   0.25   0.04     0.07  -0.13  -0.02    -0.10   0.15  -0.06
    44   6     0.13   0.05  -0.05     0.02  -0.02  -0.02    -0.08  -0.02  -0.01
    45   1     0.03   0.31   0.12     0.02  -0.16  -0.05    -0.04   0.19  -0.03
    46   1    -0.14   0.27   0.03     0.12  -0.14  -0.00    -0.17   0.15  -0.10
    47   1    -0.18   0.29   0.03     0.10  -0.15  -0.01    -0.10   0.19  -0.07
    48   1    -0.14   0.00  -0.10     0.11  -0.00  -0.00    -0.15  -0.01  -0.04
    49   1     0.28   0.12  -0.01    -0.05  -0.05  -0.03    -0.01   0.02   0.01
    50   1     0.17  -0.11  -0.10     0.01   0.06  -0.02    -0.08  -0.10   0.01
    51   1     0.05   0.11  -0.03     0.07  -0.05  -0.01    -0.15  -0.00  -0.04
    52   6    -0.01   0.00   0.13    -0.11   0.04   0.31    -0.05  -0.02   0.13
    53   1     0.04   0.10   0.12    -0.09   0.22   0.31     0.03   0.08   0.11
    54   1    -0.04   0.00   0.24    -0.16   0.06   0.47    -0.09  -0.01   0.27
    55   1    -0.05  -0.08   0.11    -0.13  -0.16   0.32    -0.12  -0.12   0.08
                      7                      8                      9
                      A                      A                      A
 Frequencies --     93.3734                97.1085               104.3614
 Red. masses --      6.0341                 3.7852                 1.0910
 Frc consts  --      0.0310                 0.0210                 0.0070
 IR Inten    --      0.0000                 0.0000                 0.0000
  Atom  AN      X      Y      Z        X      Y      Z        X      Y      Z
     1  26    -0.05   0.02   0.01     0.03  -0.00  -0.01    -0.00  -0.00   0.00
     2   6     0.05   0.03  -0.03    -0.05   0.06   0.03     0.01  -0.00  -0.00
     3  46    -0.02  -0.06  -0.03    -0.00  -0.01  -0.03    -0.00   0.00   0.01
     4   6     0.02   0.00   0.02     0.03  -0.00  -0.04    -0.01  -0.00   0.00
     5   1    -0.08   0.07   0.03    -0.04   0.25   0.08    -0.01   0.01  -0.00
     6   1    -0.00   0.03   0.05     0.26   0.13   0.12    -0.00   0.01  -0.00
     7   1     0.00  -0.04   0.01     0.27  -0.18   0.01    -0.00  -0.00   0.00
     8   6     0.02   0.01  -0.02    -0.01  -0.02  -0.00     0.00   0.01   0.00
     9   8     0.22   0.26  -0.11    -0.05   0.10   0.04     0.01  -0.01  -0.00
    10   6    -0.02   0.02   0.01     0.02  -0.01  -0.03    -0.01  -0.00  -0.00
    11   8     0.01   0.02  -0.01    -0.00  -0.03  -0.06     0.00   0.01   0.01
    12   6    -0.08   0.00   0.03    -0.03  -0.02  -0.01     0.01  -0.00   0.00
    13   6    -0.07   0.05   0.03    -0.02  -0.01   0.04     0.00  -0.01  -0.01
    14   6    -0.03   0.05   0.02     0.02  -0.00   0.03    -0.00  -0.01  -0.01
    15   1    -0.10  -0.01   0.06    -0.05  -0.02  -0.01     0.01  -0.00   0.00
    16   1    -0.10   0.07   0.03    -0.02  -0.00   0.07     0.01  -0.01  -0.01
    17   1    -0.02   0.08   0.03     0.04   0.01   0.07    -0.01  -0.01  -0.01
    18   1    -0.02  -0.02   0.02     0.00  -0.03  -0.05     0.00   0.00   0.01
    19   6    -0.05  -0.01   0.01    -0.01  -0.02  -0.05     0.00   0.00   0.01
    20   6     0.03  -0.00  -0.02    -0.04   0.02   0.05     0.01  -0.00  -0.00
    21   8    -0.08  -0.12   0.02    -0.05   0.05  -0.01     0.01  -0.00   0.00
    22   6    -0.02  -0.02   0.01     0.17  -0.09  -0.01    -0.01  -0.00   0.00
    23   6    -0.02   0.02   0.03     0.17   0.07   0.06    -0.01   0.00  -0.00
    24   6    -0.06   0.04   0.01     0.00   0.13   0.04    -0.01   0.01  -0.00
    25   6    -0.08   0.01  -0.02    -0.09   0.00  -0.04    -0.01   0.00   0.00
    26   6    -0.06  -0.03  -0.02     0.01  -0.13  -0.06    -0.01  -0.00   0.00
    27   1    -0.07  -0.05  -0.03    -0.03  -0.25  -0.11    -0.01  -0.01   0.00
    28   7     0.05  -0.01  -0.07    -0.03  -0.02   0.04     0.00   0.01  -0.00
    29   1     0.04   0.00  -0.01    -0.02   0.04   0.07     0.00  -0.00  -0.01
    30   1     0.04   0.00   0.03     0.01   0.02  -0.05    -0.01  -0.00   0.00
    31   1     0.04   0.02   0.04     0.06   0.00  -0.07    -0.02  -0.00   0.00
    32   1    -0.11   0.02  -0.04    -0.20   0.02  -0.09    -0.02   0.00  -0.00
    33   7     0.03  -0.04  -0.01     0.03  -0.03   0.01    -0.01   0.00  -0.01
    34   6     0.10  -0.06  -0.02    -0.02  -0.09   0.06    -0.01   0.01  -0.01
    35   6     0.03  -0.07  -0.03     0.09   0.01   0.07    -0.02  -0.00  -0.02
    36   1     0.14  -0.04   0.00     0.04  -0.07   0.08    -0.02   0.01  -0.02
    37   1     0.11  -0.04  -0.00    -0.11  -0.10   0.00     0.00   0.01  -0.01
    38   1     0.11  -0.11  -0.05    -0.04  -0.15   0.14    -0.01   0.03  -0.02
    39   1     0.08  -0.05  -0.01     0.09   0.01   0.07    -0.02  -0.00  -0.02
    40   1     0.03  -0.13  -0.07     0.08   0.03   0.14    -0.02  -0.00  -0.03
    41   1    -0.03  -0.05  -0.02     0.16   0.04   0.04    -0.03  -0.01  -0.01
    42   6     0.09   0.05   0.07    -0.07   0.02   0.02     0.02  -0.00   0.00
    43   6     0.07  -0.00   0.17    -0.08   0.07   0.00     0.02  -0.02   0.01
    44   6     0.16   0.18   0.03    -0.08  -0.01   0.03     0.02   0.00   0.00
    45   1     0.08   0.02   0.08    -0.05   0.09   0.02     0.01  -0.03   0.01
    46   1     0.09   0.08   0.30    -0.11   0.07  -0.02     0.04  -0.03   0.02
    47   1     0.03  -0.15   0.21    -0.07   0.10  -0.00     0.02  -0.03   0.01
    48   1     0.10   0.05   0.12    -0.09   0.01   0.01     0.03   0.00   0.00
    49   1     0.17   0.19  -0.02    -0.08  -0.01   0.04     0.01  -0.00   0.00
    50   1     0.18   0.20  -0.03    -0.09  -0.02   0.05     0.02   0.02  -0.01
    51   1     0.19   0.23   0.12    -0.10  -0.02   0.01     0.04  -0.00   0.01
    52   6    -0.02  -0.00   0.03    -0.02  -0.02   0.02     0.01   0.00  -0.03
    53   1    -0.08   0.00   0.05     0.15   0.06  -0.04     0.53   0.16  -0.22
    54   1    -0.03   0.01   0.00    -0.07  -0.01   0.21    -0.13   0.04   0.49
    55   1     0.01  -0.03   0.08    -0.14  -0.11  -0.10    -0.36  -0.20  -0.44
                     10                     11                     12
                      A                      A                      A
 Frequencies --    112.6802               129.2681               138.8598
 Red. masses --      3.3563                 5.2324                 4.1118
 Frc consts  --      0.0251                 0.0515                 0.0467
 IR Inten    --      0.0000                 0.0000                 0.0000
  Atom  AN      X      Y      Z        X      Y      Z        X      Y      Z
     1  26     0.01   0.01  -0.01     0.05  -0.00  -0.02     0.03   0.02   0.01
     2   6    -0.03   0.02   0.02     0.04  -0.08   0.01    -0.04  -0.02   0.01
     3  46    -0.00  -0.02  -0.01    -0.01   0.01   0.05     0.03  -0.01  -0.06
     4   6     0.04   0.03  -0.04    -0.06   0.02  -0.06    -0.04  -0.03   0.05
     5   1     0.13  -0.26   0.00     0.06   0.06   0.05     0.04   0.01  -0.02
     6   1    -0.14  -0.13  -0.06     0.13   0.05   0.02    -0.04   0.03  -0.04
     7   1    -0.15   0.18  -0.04     0.15   0.01  -0.05    -0.03   0.08   0.02
     8   6    -0.02  -0.02  -0.02    -0.07  -0.00  -0.03    -0.03  -0.04   0.02
     9   8    -0.00   0.07   0.01     0.19   0.00  -0.08     0.02   0.08  -0.01
    10   6     0.02   0.01  -0.01    -0.02  -0.00  -0.03    -0.01   0.00  -0.01
    11   8    -0.01   0.00  -0.08    -0.05   0.03  -0.07    -0.04  -0.03   0.09
    12   6    -0.06   0.01  -0.00     0.03   0.02  -0.06     0.09   0.01  -0.01
    13   6    -0.05   0.04   0.03     0.04  -0.05  -0.01     0.08  -0.05  -0.01
    14   6     0.00   0.04   0.03    -0.00  -0.06   0.00     0.01  -0.05  -0.03
    15   1    -0.10  -0.00  -0.00     0.06   0.05  -0.11     0.13   0.03  -0.03
    16   1    -0.07   0.06   0.04     0.08  -0.09   0.02     0.12  -0.09  -0.01
    17   1     0.02   0.07   0.03    -0.01  -0.10   0.02    -0.01  -0.08  -0.04
    18   1    -0.00  -0.02  -0.06     0.02   0.03  -0.09    -0.01   0.02   0.06
    19   6    -0.02  -0.01  -0.04     0.01   0.04  -0.04     0.04   0.04   0.01
    20   6    -0.03  -0.01   0.03    -0.03  -0.06  -0.01    -0.03  -0.04   0.02
    21   8    -0.05  -0.01   0.01    -0.04  -0.18   0.12    -0.10  -0.10   0.02
    22   6    -0.05   0.10  -0.02     0.12   0.02  -0.03    -0.02   0.08   0.02
    23   6    -0.06  -0.07  -0.03     0.12   0.04   0.01    -0.01   0.05  -0.02
    24   6     0.10  -0.13   0.00     0.08   0.04   0.04     0.02   0.03   0.01
    25   6     0.19   0.00   0.04     0.06   0.02   0.02     0.03   0.05   0.06
    26   6     0.11   0.14   0.02     0.08  -0.00  -0.02     0.01   0.08   0.06
    27   1     0.15   0.25   0.04     0.07  -0.03  -0.02     0.02   0.11   0.07
    28   7    -0.02  -0.03   0.02    -0.04  -0.02  -0.01    -0.02  -0.05   0.01
    29   1    -0.01   0.01   0.03    -0.04  -0.07  -0.05    -0.02  -0.03   0.03
    30   1    -0.02   0.07  -0.05    -0.08   0.05  -0.06     0.01  -0.10   0.05
    31   1     0.09   0.03  -0.09    -0.06   0.00  -0.10    -0.08  -0.03   0.12
    32   1     0.28  -0.02   0.09     0.02   0.01   0.03     0.06   0.04   0.09
    33   7     0.03  -0.02   0.03    -0.07   0.06  -0.01    -0.03  -0.00  -0.01
    34   6     0.01  -0.02   0.03    -0.19   0.19  -0.07     0.02  -0.13   0.07
    35   6     0.13  -0.06   0.06    -0.04  -0.02  -0.03    -0.17   0.19   0.03
    36   1     0.15   0.01  -0.03    -0.24   0.16  -0.19    -0.09  -0.15   0.24
    37   1    -0.12   0.07  -0.00    -0.22   0.25  -0.06     0.15  -0.29   0.06
    38   1    -0.01  -0.14   0.13    -0.20   0.27  -0.00     0.04  -0.06  -0.04
    39   1     0.16  -0.06   0.01    -0.08  -0.05  -0.15    -0.23   0.18   0.20
    40   1     0.12  -0.08   0.14    -0.05   0.05   0.03    -0.15   0.22  -0.08
    41   1     0.19  -0.07   0.05     0.04  -0.12   0.00    -0.23   0.30  -0.02
    42   6    -0.05   0.01   0.02    -0.04  -0.03   0.02    -0.04  -0.02   0.03
    43   6    -0.06   0.06   0.01    -0.05  -0.01   0.06    -0.05  -0.00   0.04
    44   6    -0.06   0.00   0.02    -0.00   0.00   0.01    -0.03  -0.02   0.03
    45   1    -0.03   0.08   0.01    -0.03   0.01   0.02    -0.02   0.02   0.01
    46   1    -0.10   0.07   0.00    -0.06   0.03   0.10    -0.07   0.03   0.08
    47   1    -0.06   0.06   0.01    -0.07  -0.07   0.07    -0.06  -0.05   0.05
    48   1    -0.08  -0.01   0.02    -0.06  -0.04   0.04    -0.05  -0.03   0.03
    49   1    -0.05   0.01   0.02     0.03   0.02  -0.00    -0.04  -0.02   0.03
    50   1    -0.06  -0.01   0.03     0.01  -0.03  -0.00    -0.03  -0.01   0.03
    51   1    -0.08   0.01   0.02    -0.02   0.04   0.04    -0.03  -0.02   0.03
    52   6    -0.06  -0.04  -0.02    -0.13  -0.03   0.00    -0.02  -0.06  -0.09
    53   1     0.12   0.02  -0.08    -0.21  -0.05   0.03     0.04  -0.13  -0.11
    54   1    -0.13  -0.00   0.17    -0.16   0.01  -0.06    -0.03  -0.05  -0.10
    55   1    -0.19  -0.14  -0.16    -0.09  -0.06   0.06    -0.06  -0.02  -0.14
                     13                     14                     15
                      A                      A                      A
 Frequencies --    147.6941               158.7004               170.3166
 Red. masses --      3.7548                 5.1159                 4.7109
 Frc consts  --      0.0483                 0.0759                 0.0805
 IR Inten    --      0.0000                 0.0000                 0.0000
  Atom  AN      X      Y      Z        X      Y      Z        X      Y      Z
     1  26    -0.02  -0.02   0.02     0.01  -0.05   0.00     0.03  -0.05   0.00
     2   6    -0.06  -0.00  -0.02     0.04   0.06  -0.07    -0.05  -0.02  -0.05
     3  46     0.00  -0.02  -0.03     0.01   0.00   0.00    -0.03   0.08   0.01
     4   6     0.07   0.03  -0.00     0.05  -0.02   0.01     0.05   0.02  -0.05
     5   1    -0.02  -0.04   0.02    -0.00  -0.04  -0.02     0.02  -0.04  -0.01
     6   1    -0.02  -0.02   0.01    -0.01  -0.02  -0.05     0.01  -0.01  -0.06
     7   1    -0.02  -0.00  -0.03    -0.03  -0.01  -0.02    -0.01  -0.01   0.00
     8   6     0.03  -0.04  -0.01    -0.09  -0.04   0.02    -0.07   0.02   0.01
     9   8    -0.04   0.04  -0.02     0.01   0.03  -0.06     0.04  -0.02  -0.11
    10   6     0.08  -0.00   0.03     0.05  -0.03   0.02     0.02  -0.03   0.02
    11   8     0.03  -0.11   0.01    -0.10  -0.01   0.05    -0.07  -0.09   0.07
    12   6    -0.03  -0.02   0.04     0.03  -0.01  -0.03     0.04  -0.02  -0.03
    13   6    -0.02   0.06   0.01     0.03  -0.01  -0.03     0.05  -0.04  -0.01
    14   6     0.05   0.06   0.02     0.04  -0.01  -0.01     0.03  -0.05   0.01
    15   1    -0.07  -0.04   0.05     0.02  -0.01  -0.04     0.06  -0.00  -0.06
    16   1    -0.07   0.11   0.00     0.02   0.01  -0.05     0.06  -0.05  -0.02
    17   1     0.07   0.11   0.01     0.04  -0.01  -0.02     0.02  -0.06  -0.00
    18   1    -0.05  -0.07   0.02     0.02  -0.01   0.00    -0.05   0.02  -0.02
    19   6     0.02  -0.05   0.03     0.04  -0.04   0.02     0.03  -0.01  -0.01
    20   6    -0.02   0.01  -0.02    -0.05  -0.06  -0.03    -0.12   0.02  -0.07
    21   8    -0.11  -0.06  -0.00     0.19   0.24  -0.15    -0.08  -0.04   0.06
    22   6    -0.02  -0.02   0.01    -0.02  -0.02   0.00    -0.00  -0.02   0.01
    23   6    -0.02  -0.02   0.01    -0.02  -0.03  -0.02     0.00  -0.02  -0.03
    24   6    -0.02  -0.03   0.01    -0.01  -0.03  -0.00     0.01  -0.03  -0.00
    25   6    -0.02  -0.03   0.01    -0.01  -0.04   0.04     0.01  -0.04   0.05
    26   6    -0.02  -0.02   0.00    -0.02  -0.03   0.05    -0.00  -0.03   0.05
    27   1    -0.01  -0.01  -0.01    -0.02  -0.03   0.07    -0.00  -0.02   0.06
    28   7    -0.00  -0.02  -0.05    -0.06  -0.06   0.02    -0.13   0.06  -0.05
    29   1    -0.01   0.02   0.00    -0.05  -0.06  -0.03    -0.15   0.00  -0.09
    30   1     0.07   0.04   0.00     0.05  -0.01   0.01     0.03   0.09  -0.04
    31   1     0.03  -0.01  -0.04     0.02  -0.04  -0.01     0.07   0.01  -0.11
    32   1    -0.01  -0.03   0.03    -0.02  -0.06   0.08     0.01  -0.05   0.08
    33   7     0.06   0.14   0.03     0.04   0.04   0.01     0.05  -0.00  -0.04
    34   6    -0.09   0.22   0.02    -0.03   0.07   0.01     0.14  -0.10   0.00
    35   6     0.07   0.17   0.06     0.04   0.07   0.03     0.12  -0.01  -0.00
    36   1    -0.36   0.13   0.01    -0.16   0.03   0.01     0.37  -0.02   0.02
    37   1     0.05   0.10   0.04     0.05   0.01   0.02    -0.01  -0.01  -0.04
    38   1    -0.08   0.50  -0.02    -0.02   0.21  -0.01     0.12  -0.34   0.07
    39   1    -0.04   0.12  -0.01    -0.03   0.04   0.00     0.19   0.02   0.02
    40   1     0.05   0.29   0.14     0.03   0.15   0.07     0.12  -0.08   0.03
    41   1     0.20   0.11   0.06     0.11   0.04   0.02     0.11   0.04  -0.03
    42   6     0.00  -0.01  -0.02    -0.04  -0.00   0.03    -0.05  -0.00  -0.03
    43   6     0.01  -0.05  -0.00    -0.08  -0.01   0.15    -0.07  -0.10   0.09
    44   6     0.01  -0.02  -0.01     0.04   0.14  -0.02     0.04   0.00  -0.03
    45   1    -0.02  -0.06  -0.01    -0.04   0.02   0.09    -0.12  -0.15   0.15
    46   1     0.04  -0.05   0.01    -0.06   0.07   0.27     0.05  -0.13   0.13
    47   1     0.01  -0.06   0.00    -0.15  -0.13   0.18    -0.14  -0.10   0.10
    48   1     0.02   0.01  -0.03    -0.06  -0.02   0.07    -0.01   0.03  -0.07
    49   1    -0.02  -0.04   0.01     0.13   0.20  -0.11     0.04  -0.00   0.00
    50   1     0.02   0.01  -0.03     0.05   0.08  -0.05     0.06   0.01  -0.09
    51   1     0.06  -0.05  -0.01    -0.02   0.26   0.08     0.09  -0.00  -0.00
    52   6     0.13   0.00   0.02    -0.18  -0.10  -0.05     0.12   0.10   0.01
    53   1     0.16   0.07   0.01    -0.20  -0.19  -0.05     0.15   0.17   0.01
    54   1     0.19  -0.06   0.07    -0.24  -0.03  -0.12     0.22  -0.01   0.05
    55   1     0.12   0.04   0.00    -0.18  -0.11  -0.05     0.12   0.21  -0.00
                     16                     17                     18
                      A                      A                      A
 Frequencies --    185.4206               196.9568               202.9017
 Red. masses --      4.7315                 4.7764                 3.6669
 Frc consts  --      0.0958                 0.1092                 0.0889
 IR Inten    --      0.0000                 0.0000                 0.0000
  Atom  AN      X      Y      Z        X      Y      Z        X      Y      Z
     1  26    -0.04  -0.01  -0.01     0.02  -0.04   0.00    -0.00  -0.02   0.02
     2   6     0.10  -0.05   0.05    -0.04   0.02   0.01    -0.01  -0.01   0.03
     3  46     0.02   0.04   0.01    -0.07  -0.02   0.03     0.07   0.06  -0.05
     4   6     0.03  -0.01  -0.14     0.06   0.03  -0.09     0.03  -0.06   0.02
     5   1    -0.02  -0.06   0.06     0.02  -0.02  -0.00    -0.04  -0.02  -0.03
     6   1    -0.03  -0.03   0.01     0.04   0.00  -0.04    -0.04  -0.03  -0.01
     7   1    -0.02  -0.01  -0.02     0.01  -0.03   0.03    -0.06  -0.04   0.03
     8   6     0.01   0.02   0.01     0.01   0.08   0.01    -0.03   0.06   0.02
     9   8     0.14  -0.09   0.01    -0.08   0.02   0.04     0.02   0.01   0.01
    10   6     0.00  -0.05  -0.07     0.04  -0.03  -0.00     0.00  -0.04  -0.00
    11   8     0.02   0.01  -0.06    -0.02   0.18   0.08    -0.04   0.08   0.07
    12   6    -0.15  -0.10   0.05     0.04  -0.02  -0.03    -0.04  -0.04   0.02
    13   6    -0.14   0.01   0.05     0.04  -0.03  -0.01    -0.03  -0.02   0.03
    14   6    -0.03   0.03  -0.00     0.04  -0.03  -0.00    -0.01  -0.02   0.02
    15   1    -0.22  -0.15   0.12     0.04  -0.02  -0.02    -0.05  -0.05   0.05
    16   1    -0.19   0.07   0.09     0.04  -0.04  -0.01    -0.04  -0.01   0.04
    17   1     0.02   0.12   0.00     0.03  -0.04  -0.01     0.01   0.00   0.03
    18   1    -0.02  -0.06  -0.03     0.13   0.02  -0.01    -0.00   0.02   0.02
    19   6    -0.06  -0.12  -0.05     0.02  -0.03  -0.01    -0.02  -0.04  -0.01
    20   6     0.03  -0.03   0.03     0.07   0.06  -0.01    -0.00   0.02   0.01
    21   8     0.11  -0.03   0.07    -0.10  -0.06   0.02    -0.06  -0.06   0.06
    22   6    -0.02  -0.00  -0.03     0.02  -0.03   0.01    -0.05  -0.04   0.02
    23   6    -0.02  -0.03   0.00     0.02  -0.01  -0.01    -0.05  -0.03  -0.00
    24   6    -0.01  -0.04   0.02     0.01  -0.02   0.01    -0.04  -0.02  -0.02
    25   6     0.00  -0.02  -0.02     0.01  -0.03   0.05    -0.05  -0.03   0.00
    26   6     0.00   0.00  -0.04     0.00  -0.04   0.08    -0.06  -0.04   0.03
    27   1     0.01   0.02  -0.05    -0.01  -0.06   0.13    -0.06  -0.03   0.04
    28   7    -0.00   0.01   0.08     0.08   0.04  -0.03    -0.01   0.04  -0.00
    29   1     0.01  -0.05  -0.02     0.06   0.06   0.02    -0.02   0.01   0.00
    30   1     0.01   0.03  -0.13     0.05   0.10  -0.07     0.03  -0.08   0.01
    31   1     0.02  -0.03  -0.18     0.05   0.00  -0.15     0.04  -0.04   0.05
    32   1     0.00  -0.02  -0.00    -0.00  -0.05   0.09    -0.04  -0.02  -0.01
    33   7     0.02   0.03  -0.12     0.06   0.06  -0.07     0.02  -0.07   0.04
    34   6    -0.02  -0.13  -0.00     0.06  -0.04  -0.01    -0.08   0.02  -0.00
    35   6    -0.01   0.24  -0.02     0.09   0.14  -0.01     0.09  -0.16   0.03
    36   1    -0.10  -0.14   0.17     0.01  -0.04   0.10    -0.48  -0.11   0.04
    37   1     0.02  -0.30  -0.06     0.12  -0.14  -0.03     0.21  -0.18   0.07
    38   1    -0.02  -0.08  -0.01     0.07  -0.01  -0.05    -0.05   0.42  -0.15
    39   1    -0.14   0.20   0.07     0.09   0.15   0.05     0.16  -0.14  -0.03
    40   1    -0.02   0.36   0.03     0.08   0.14   0.04     0.09  -0.21   0.06
    41   1     0.10   0.30  -0.08     0.13   0.20  -0.05     0.08  -0.17   0.04
    42   6    -0.00  -0.01   0.04     0.08   0.04  -0.04     0.00   0.01   0.00
    43   6     0.00   0.01   0.02     0.11   0.03  -0.12     0.01   0.02  -0.02
    44   6    -0.02  -0.00   0.04     0.06  -0.00  -0.03    -0.01  -0.02   0.01
    45   1     0.01   0.02   0.02     0.09   0.02  -0.12    -0.02  -0.02   0.10
    46   1    -0.02   0.01   0.00     0.09   0.00  -0.17     0.04  -0.07  -0.13
    47   1     0.01   0.02   0.01     0.17   0.07  -0.13     0.01   0.16  -0.06
    48   1    -0.02  -0.02   0.05     0.09   0.04  -0.05     0.02   0.02  -0.01
    49   1     0.02   0.02   0.02    -0.01  -0.04   0.01    -0.03  -0.03   0.03
    50   1    -0.03  -0.05   0.07     0.06   0.07  -0.04    -0.02  -0.00   0.02
    51   1    -0.07   0.02   0.03     0.13  -0.06  -0.04     0.00  -0.05  -0.01
    52   6    -0.00   0.01   0.02    -0.20  -0.02  -0.07    -0.09   0.02  -0.06
    53   1    -0.01   0.02   0.02    -0.23  -0.17  -0.07    -0.09  -0.07  -0.06
    54   1    -0.00   0.02   0.02    -0.33   0.12  -0.15    -0.14   0.08  -0.11
    55   1     0.00   0.00   0.03    -0.21  -0.11  -0.06    -0.11   0.02  -0.07
                     19                     20                     21
                      A                      A                      A
 Frequencies --    206.8509               209.8485               231.0069
 Red. masses --      1.1425                 1.4445                 1.1704
 Frc consts  --      0.0288                 0.0375                 0.0368
 IR Inten    --      0.0000                 0.0000                 0.0000
  Atom  AN      X      Y      Z        X      Y      Z        X      Y      Z
     1  26     0.01   0.01  -0.00    -0.02  -0.02   0.01     0.00   0.00  -0.00
     2   6    -0.00   0.01  -0.01     0.01  -0.01   0.02     0.00   0.01  -0.01
     3  46    -0.01  -0.01   0.01     0.02   0.01  -0.03     0.01  -0.01   0.01
     4   6     0.00  -0.01   0.00    -0.01   0.02   0.00     0.01  -0.03   0.02
     5   1     0.01   0.01  -0.00    -0.03  -0.01   0.01     0.00   0.01  -0.00
     6   1     0.01   0.01  -0.00    -0.01  -0.01   0.00    -0.00   0.00  -0.00
     7   1     0.01   0.01   0.01    -0.00  -0.01  -0.04     0.00   0.01  -0.01
     8   6    -0.00  -0.00  -0.00     0.00  -0.00   0.01    -0.00   0.01  -0.01
     9   8    -0.00   0.00  -0.01     0.01   0.01   0.02     0.01  -0.01  -0.02
    10   6     0.01   0.00  -0.01    -0.01  -0.00   0.03     0.02  -0.01  -0.01
    11   8     0.00  -0.01  -0.01     0.00   0.01   0.02    -0.01   0.01   0.00
    12   6    -0.00  -0.00  -0.00     0.01   0.01   0.00    -0.01  -0.02   0.00
    13   6     0.00   0.00   0.00     0.00  -0.00  -0.01    -0.01   0.00   0.00
    14   6     0.00   0.01  -0.01    -0.01  -0.01   0.01     0.01   0.01  -0.01
    15   1    -0.01  -0.00  -0.00     0.02   0.02  -0.01    -0.03  -0.02   0.02
    16   1    -0.00   0.00   0.01     0.01  -0.00  -0.03    -0.02   0.02   0.01
    17   1     0.01   0.01  -0.00    -0.02  -0.02   0.00     0.02   0.02  -0.01
    18   1    -0.00  -0.01  -0.01    -0.00   0.01   0.02     0.01  -0.01  -0.01
    19   6     0.00  -0.00  -0.01    -0.00   0.01   0.03     0.01  -0.03  -0.01
    20   6    -0.01   0.01  -0.01     0.02  -0.01   0.02    -0.01   0.02  -0.01
    21   8    -0.00   0.01  -0.00    -0.00  -0.03   0.00     0.01   0.02   0.01
    22   6     0.01   0.01  -0.00    -0.02  -0.02  -0.00     0.00   0.01  -0.01
    23   6     0.01   0.01  -0.00    -0.02  -0.02   0.01     0.00   0.01  -0.00
    24   6     0.01   0.01  -0.00    -0.03  -0.02   0.01     0.00   0.01  -0.00
    25   6     0.02   0.01  -0.00    -0.03  -0.02   0.01     0.00   0.01   0.00
    26   6     0.01   0.02  -0.00    -0.03  -0.03   0.01     0.00   0.01  -0.00
    27   1     0.01   0.02  -0.00    -0.03  -0.03   0.00     0.00   0.01   0.00
    28   7    -0.01  -0.00  -0.00     0.02  -0.01   0.01    -0.00   0.01  -0.02
    29   1    -0.01   0.01  -0.01     0.02  -0.01   0.01    -0.00   0.03  -0.02
    30   1     0.01  -0.02  -0.00    -0.01   0.04   0.01     0.02  -0.06   0.01
    31   1     0.01  -0.00   0.01    -0.03   0.01  -0.02    -0.01  -0.03   0.05
    32   1     0.02   0.01  -0.00    -0.03  -0.03   0.02     0.00   0.01   0.00
    33   7     0.00  -0.01   0.00    -0.01   0.04   0.00     0.01  -0.01   0.01
    34   6    -0.00  -0.02   0.00     0.02   0.05  -0.01     0.01   0.01   0.00
    35   6    -0.01   0.00   0.00    -0.01   0.03  -0.00    -0.03   0.01  -0.00
    36   1    -0.14  -0.06   0.06     0.45   0.17  -0.17     0.07   0.02  -0.03
    37   1     0.12  -0.11   0.03    -0.36   0.33  -0.08    -0.05   0.05  -0.00
    38   1     0.01   0.11  -0.08    -0.03  -0.36   0.23    -0.00  -0.05   0.04
    39   1     0.00   0.01   0.03    -0.09  -0.01  -0.08    -0.13  -0.03  -0.04
    40   1    -0.01  -0.02  -0.02    -0.02   0.13   0.06    -0.04   0.11   0.02
    41   1    -0.04   0.02  -0.00     0.09  -0.04   0.01     0.03  -0.05   0.01
    42   6    -0.00   0.01  -0.00     0.01  -0.00   0.02    -0.01   0.03  -0.00
    43   6     0.00  -0.03   0.01     0.01   0.01  -0.01    -0.02   0.02   0.03
    44   6    -0.00   0.04  -0.01    -0.02   0.01   0.01    -0.01  -0.01   0.01
    45   1    -0.14  -0.21   0.48    -0.04  -0.07   0.21    -0.06  -0.04   0.22
    46   1     0.20  -0.37  -0.33     0.08  -0.15  -0.19     0.06  -0.10  -0.08
    47   1    -0.05   0.44  -0.10     0.01   0.24  -0.07    -0.06   0.19  -0.01
    48   1     0.02   0.02   0.00     0.01  -0.00   0.03     0.01   0.04  -0.02
    49   1     0.16   0.14  -0.08     0.07   0.06  -0.03    -0.46  -0.26   0.14
    50   1     0.00  -0.12   0.04    -0.02  -0.08   0.06    -0.03   0.47  -0.13
    51   1    -0.17   0.15  -0.02    -0.12   0.07  -0.00     0.43  -0.28   0.05
    52   6     0.01   0.00   0.01    -0.03  -0.02  -0.02    -0.01   0.01  -0.00
    53   1     0.01   0.02   0.01    -0.03  -0.06  -0.02    -0.02   0.01   0.00
    54   1     0.01  -0.01   0.02    -0.05   0.00  -0.04    -0.02   0.02  -0.01
    55   1     0.01   0.00   0.01    -0.04  -0.03  -0.03    -0.01   0.00   0.01
                     22                     23                     24
                      A                      A                      A
 Frequencies --    236.4604               255.7565               269.9389
 Red. masses --      2.0317                 5.4282                 1.5020
 Frc consts  --      0.0669                 0.2092                 0.0645
 IR Inten    --      0.0000                 0.0000                 0.0000
  Atom  AN      X      Y      Z        X      Y      Z        X      Y      Z
     1  26    -0.02  -0.02   0.01     0.08   0.11   0.07    -0.00  -0.00  -0.00
     2   6     0.04  -0.03   0.01     0.00  -0.01  -0.03     0.03  -0.02   0.01
     3  46    -0.01  -0.00  -0.02    -0.03   0.00  -0.01    -0.02  -0.01  -0.02
     4   6    -0.04   0.11  -0.05    -0.02   0.05  -0.09     0.01   0.01   0.02
     5   1    -0.02  -0.02   0.03     0.02  -0.03  -0.22     0.00   0.00  -0.00
     6   1     0.01   0.00   0.00    -0.06  -0.13   0.11     0.01   0.01  -0.01
     7   1    -0.00   0.00  -0.03    -0.15  -0.17   0.32    -0.00   0.00   0.01
     8   6     0.02  -0.02   0.00     0.02  -0.04   0.03    -0.00   0.03   0.01
     9   8     0.05  -0.02   0.01     0.01  -0.01  -0.03     0.03  -0.02   0.01
    10   6    -0.06   0.03   0.06    -0.00   0.05  -0.07    -0.03   0.01   0.02
    11   8     0.02  -0.01  -0.01     0.02  -0.01   0.04    -0.01   0.04   0.01
    12   6     0.05   0.06  -0.02     0.05  -0.00   0.12     0.02   0.04  -0.03
    13   6     0.03  -0.01  -0.03     0.05  -0.02   0.14     0.02  -0.01  -0.02
    14   6    -0.03  -0.03   0.02     0.02   0.01   0.05    -0.02  -0.02   0.01
    15   1     0.10   0.09  -0.07     0.05  -0.01   0.16     0.05   0.06  -0.07
    16   1     0.06  -0.05  -0.06     0.09  -0.05   0.16     0.04  -0.03  -0.03
    17   1    -0.07  -0.08   0.00     0.04   0.02   0.08    -0.04  -0.05   0.02
    18   1     0.00   0.05   0.02     0.04   0.01   0.10     0.01   0.03  -0.01
    19   6    -0.01   0.08   0.04     0.03   0.06  -0.02    -0.01   0.05  -0.00
    20   6     0.02  -0.03   0.02     0.00  -0.02  -0.01     0.01  -0.02   0.02
    21   8     0.06  -0.01  -0.02     0.00  -0.01  -0.03     0.04  -0.00  -0.02
    22   6    -0.00  -0.01  -0.00    -0.09  -0.13   0.19     0.00   0.00   0.00
    23   6    -0.01  -0.01   0.01    -0.06  -0.12   0.06     0.00   0.01  -0.00
    24   6    -0.01  -0.02   0.03     0.00  -0.05  -0.16     0.00   0.00   0.01
    25   6    -0.01  -0.02   0.03     0.03  -0.02  -0.20    -0.00   0.00   0.02
    26   6    -0.01  -0.02   0.01    -0.03  -0.07   0.01    -0.00  -0.00   0.02
    27   1    -0.01  -0.01   0.00    -0.03  -0.06   0.02    -0.00  -0.00   0.03
    28   7     0.02  -0.02   0.01     0.00  -0.03   0.01     0.00   0.02   0.01
    29   1     0.03  -0.04  -0.00     0.01  -0.02  -0.01    -0.00  -0.03  -0.01
    30   1    -0.07   0.23  -0.04    -0.00  -0.02  -0.09     0.02   0.02   0.03
    31   1     0.03   0.09  -0.16    -0.02   0.06  -0.06     0.02   0.02   0.02
    32   1    -0.02  -0.03   0.04     0.08   0.07  -0.36     0.00  -0.00   0.03
    33   7    -0.02   0.04  -0.03    -0.02   0.01  -0.09     0.01  -0.02  -0.01
    34   6    -0.01   0.00  -0.01    -0.10  -0.03  -0.06     0.02  -0.02  -0.01
    35   6     0.08   0.01   0.01     0.04   0.01  -0.07     0.03  -0.01   0.01
    36   1    -0.15  -0.03   0.07    -0.04  -0.02  -0.06    -0.11  -0.06   0.05
    37   1     0.12  -0.11   0.01    -0.21  -0.05  -0.14     0.15  -0.10   0.02
    38   1     0.01   0.12  -0.11    -0.12  -0.09   0.06     0.04   0.10  -0.09
    39   1     0.41   0.14   0.19    -0.03  -0.02  -0.14    -0.34  -0.17  -0.29
    40   1     0.10  -0.36  -0.08     0.02   0.09   0.05    -0.01   0.44   0.28
    41   1    -0.17   0.22  -0.05     0.16  -0.05  -0.07     0.48  -0.29   0.05
    42   6    -0.00  -0.01   0.04    -0.02  -0.01  -0.01     0.00  -0.01   0.03
    43   6    -0.01   0.04   0.02    -0.03  -0.02   0.04     0.00   0.01   0.02
    44   6    -0.05  -0.01   0.04    -0.01   0.00  -0.02    -0.04  -0.02   0.04
    45   1    -0.00   0.03   0.15    -0.04  -0.03   0.10     0.01   0.01   0.01
    46   1    -0.00  -0.03  -0.08     0.01  -0.04   0.03    -0.01   0.01   0.02
    47   1    -0.03   0.19  -0.01    -0.08   0.01   0.03     0.01   0.01   0.02
    48   1    -0.02  -0.02   0.06    -0.03  -0.02  -0.00    -0.01  -0.01   0.04
    49   1    -0.25  -0.12   0.07    -0.08  -0.03  -0.01    -0.02  -0.01   0.03
    50   1    -0.07   0.21   0.01    -0.01   0.09  -0.04    -0.05  -0.06   0.09
    51   1     0.13  -0.12   0.05     0.06  -0.02   0.01    -0.09  -0.02   0.01
    52   6     0.03  -0.02   0.01    -0.01  -0.06   0.00     0.04   0.05   0.00
    53   1     0.03  -0.01   0.01    -0.01  -0.09   0.00     0.05   0.07  -0.00
    54   1     0.04  -0.03   0.01    -0.03  -0.04  -0.01     0.07   0.02   0.01
    55   1     0.03  -0.01   0.01    -0.01  -0.07  -0.00     0.04   0.09  -0.01
                     25                     26                     27
                      A                      A                      A
 Frequencies --    275.6924               293.9761               308.6431
 Red. masses --      3.5738                 5.7127                 7.2670
 Frc consts  --      0.1600                 0.2909                 0.4079
 IR Inten    --      0.0000                 0.0000                 0.0000
  Atom  AN      X      Y      Z        X      Y      Z        X      Y      Z
     1  26    -0.04  -0.00   0.02    -0.02   0.01  -0.01    -0.12   0.05  -0.03
     2   6    -0.05   0.03  -0.02     0.02  -0.05  -0.02    -0.00   0.02   0.02
     3  46     0.06   0.02   0.05    -0.09   0.11  -0.01     0.01  -0.01  -0.01
     4   6    -0.03   0.07  -0.07     0.02  -0.07   0.09    -0.02   0.04  -0.03
     5   1    -0.04  -0.01   0.07     0.00   0.03   0.03     0.09  -0.10   0.15
     6   1    -0.02   0.01   0.03     0.00   0.01   0.02     0.10  -0.15   0.20
     7   1    -0.03   0.02  -0.01     0.04   0.01  -0.02     0.18  -0.09  -0.05
     8   6     0.01  -0.08  -0.07     0.08  -0.14   0.01    -0.03  -0.01   0.16
     9   8    -0.08   0.05   0.00     0.01   0.02   0.02    -0.01  -0.01   0.01
    10   6    -0.08   0.01   0.04     0.02  -0.02  -0.03     0.00   0.06  -0.04
    11   8     0.03  -0.08  -0.12     0.09  -0.13   0.01    -0.06   0.02   0.29
    12   6     0.04   0.05  -0.01     0.03  -0.08   0.06     0.04   0.04   0.00
    13   6     0.02  -0.03  -0.03     0.01  -0.03  -0.01    -0.01   0.12  -0.16
    14   6    -0.06  -0.04   0.01     0.02  -0.01  -0.07    -0.01   0.11  -0.16
    15   1     0.09   0.08  -0.07     0.03  -0.10   0.13     0.05   0.02   0.09
    16   1     0.06  -0.07  -0.06    -0.00  -0.01   0.02    -0.04   0.15  -0.19
    17   1    -0.09  -0.09  -0.01     0.01  -0.00  -0.08    -0.02   0.11  -0.16
    18   1    -0.06   0.05   0.02     0.02  -0.00   0.08    -0.02   0.02   0.10
    19   6    -0.01   0.06   0.07     0.01  -0.05   0.00     0.03   0.01   0.09
    20   6    -0.01   0.02  -0.02     0.06  -0.09   0.02    -0.00   0.03  -0.01
    21   8    -0.07   0.01   0.02     0.01  -0.06  -0.05    -0.03  -0.01   0.04
    22   6    -0.03   0.02   0.01     0.03   0.03  -0.03     0.15  -0.08  -0.03
    23   6    -0.03   0.01   0.03     0.02   0.02   0.00     0.12  -0.13   0.15
    24   6    -0.03  -0.00   0.05     0.01   0.02   0.02     0.11  -0.11   0.13
    25   6    -0.03   0.00   0.02     0.01   0.03  -0.03     0.13  -0.06  -0.07
    26   6    -0.01   0.02  -0.02     0.03   0.04  -0.08     0.15  -0.05  -0.14
    27   1    -0.00   0.03  -0.08     0.04   0.06  -0.13     0.16  -0.02  -0.16
    28   7     0.00  -0.06  -0.02     0.05  -0.10   0.01    -0.02  -0.01   0.08
    29   1     0.02   0.05   0.02     0.06  -0.08   0.03     0.01   0.04  -0.01
    30   1    -0.07   0.20  -0.05     0.06  -0.18   0.08    -0.05   0.02  -0.04
    31   1     0.05   0.07  -0.17    -0.05  -0.06   0.19     0.00   0.06  -0.01
    32   1    -0.02   0.01   0.02     0.01   0.04  -0.05     0.08  -0.06  -0.08
    33   7    -0.01  -0.02  -0.06     0.02   0.01   0.07    -0.02  -0.02  -0.03
    34   6    -0.01  -0.09  -0.03     0.09   0.04   0.04    -0.04  -0.05  -0.01
    35   6     0.03   0.00  -0.03     0.02  -0.06   0.05     0.00  -0.04  -0.03
    36   1    -0.11  -0.11   0.08     0.02   0.02   0.06    -0.08  -0.06   0.03
    37   1     0.08  -0.21  -0.03     0.21   0.02   0.11    -0.03  -0.10  -0.03
    38   1     0.00  -0.01  -0.09     0.11   0.10  -0.08    -0.04  -0.01  -0.01
    39   1    -0.23  -0.11  -0.22    -0.07  -0.11  -0.09    -0.04  -0.06  -0.10
    40   1    -0.00   0.31   0.19     0.01   0.06   0.12    -0.00   0.02   0.02
    41   1     0.36  -0.17  -0.01     0.14  -0.18   0.09     0.08  -0.09  -0.02
    42   6    -0.01   0.01  -0.05     0.05  -0.05   0.04    -0.03   0.01  -0.05
    43   6    -0.00  -0.02  -0.04     0.06   0.06  -0.05    -0.04  -0.04   0.01
    44   6     0.08   0.05  -0.08     0.02   0.04   0.02     0.04   0.02  -0.06
    45   1    -0.03  -0.04  -0.02     0.10   0.07   0.01    -0.06  -0.06   0.02
    46   1     0.03  -0.04  -0.04    -0.02   0.02  -0.17     0.02  -0.04   0.05
    47   1    -0.00  -0.01  -0.04     0.11   0.18  -0.08    -0.08  -0.07   0.02
    48   1     0.01   0.02  -0.07     0.00  -0.08   0.09    -0.01   0.02  -0.07
    49   1    -0.00   0.01  -0.06    -0.10  -0.03  -0.03     0.02   0.01  -0.05
    50   1     0.10   0.16  -0.18     0.02   0.20  -0.02     0.06   0.06  -0.13
    51   1     0.21   0.03   0.00     0.14   0.01   0.08     0.11   0.02  -0.02
    52   6    -0.04  -0.10   0.02    -0.03  -0.22   0.01     0.02  -0.02  -0.01
    53   1    -0.07  -0.05   0.04    -0.06  -0.28   0.01     0.07  -0.15  -0.04
    54   1    -0.07  -0.07   0.04    -0.13  -0.12  -0.02     0.04  -0.03  -0.08
    55   1    -0.02  -0.19   0.06    -0.04  -0.31   0.01    -0.02   0.11  -0.08
                     28                     29                     30
                      A                      A                      A
 Frequencies --    314.0980               336.7954               342.5025
 Red. masses --      4.2683                 4.3793                 3.4828
 Frc consts  --      0.2481                 0.2927                 0.2407
 IR Inten    --      0.0000                 0.0000                 0.0000
  Atom  AN      X      Y      Z        X      Y      Z        X      Y      Z
     1  26     0.06  -0.03  -0.04    -0.02   0.01   0.01     0.02  -0.02  -0.03
     2   6     0.04  -0.00   0.04     0.06   0.07   0.09    -0.01   0.05  -0.05
     3  46    -0.00  -0.00  -0.00    -0.02  -0.02  -0.05     0.01   0.00   0.01
     4   6    -0.02   0.05  -0.00     0.01  -0.06   0.07    -0.04   0.08  -0.02
     5   1     0.02  -0.00  -0.10    -0.03   0.02   0.03    -0.00  -0.00  -0.04
     6   1     0.03   0.03  -0.14    -0.03   0.00   0.04     0.03   0.03  -0.12
     7   1     0.00   0.01  -0.06    -0.01   0.02  -0.00     0.02   0.03  -0.14
     8   6    -0.05  -0.04   0.13     0.04   0.01   0.04     0.10  -0.03   0.06
     9   8    -0.01   0.02   0.08     0.05  -0.07   0.06    -0.00  -0.04  -0.07
    10   6    -0.04   0.03   0.04    -0.05  -0.01  -0.00    -0.04   0.02   0.04
    11   8    -0.06  -0.07   0.11     0.07   0.05  -0.09     0.08   0.02   0.11
    12   6    -0.11   0.07  -0.05     0.04  -0.04   0.02    -0.05   0.00   0.05
    13   6    -0.08   0.05   0.07     0.04  -0.10   0.01    -0.05   0.01   0.06
    14   6    -0.04   0.03   0.14    -0.03  -0.08  -0.02    -0.04   0.01   0.07
    15   1    -0.13   0.08  -0.10     0.10  -0.02   0.02    -0.05  -0.01   0.09
    16   1    -0.08   0.06   0.07     0.08  -0.15   0.04    -0.05   0.01   0.07
    17   1    -0.02   0.04   0.16    -0.06  -0.14  -0.01    -0.04   0.01   0.07
    18   1    -0.07  -0.07  -0.12     0.06   0.06   0.05     0.05  -0.03   0.00
    19   6    -0.07   0.06  -0.09    -0.02   0.01  -0.00    -0.05   0.03  -0.01
    20   6     0.01  -0.03   0.02    -0.00   0.11   0.01     0.04   0.10  -0.04
    21   8     0.02  -0.03   0.01     0.02   0.02   0.12    -0.03   0.02   0.02
    22   6     0.01   0.00  -0.06    -0.02   0.02   0.00     0.02   0.02  -0.10
    23   6     0.02   0.03  -0.12    -0.02   0.01   0.02     0.02   0.02  -0.10
    24   6     0.02   0.01  -0.09    -0.02   0.02   0.01     0.00   0.01  -0.06
    25   6    -0.00  -0.01   0.01    -0.01   0.03  -0.03    -0.01  -0.01  -0.02
    26   6    -0.02  -0.03   0.05    -0.01   0.04  -0.05    -0.00  -0.01  -0.02
    27   1    -0.04  -0.05   0.14    -0.00   0.05  -0.08    -0.02  -0.03   0.02
    28   7    -0.05  -0.04   0.15    -0.02   0.02   0.19     0.09  -0.02  -0.02
    29   1     0.00  -0.04   0.01     0.03   0.12  -0.01     0.11   0.15  -0.02
    30   1    -0.04   0.12   0.01     0.09  -0.15   0.08    -0.09   0.17  -0.01
    31   1     0.02   0.06  -0.04    -0.06  -0.04   0.18     0.02   0.06  -0.11
    32   1    -0.01  -0.05   0.07     0.00   0.06  -0.09    -0.01  -0.03   0.01
    33   7    -0.02   0.00   0.01     0.02   0.01   0.02    -0.04   0.03   0.02
    34   6    -0.02  -0.01   0.01     0.06   0.08  -0.03     0.04   0.00   0.02
    35   6    -0.03  -0.01  -0.00     0.08   0.05   0.07    -0.02  -0.02   0.01
    36   1    -0.04  -0.01   0.02     0.08   0.08  -0.10     0.02   0.00   0.08
    37   1    -0.01  -0.02   0.01     0.09   0.16   0.03     0.13  -0.03   0.06
    38   1    -0.02   0.00   0.00     0.07   0.08  -0.06     0.06   0.02  -0.07
    39   1    -0.07  -0.03  -0.05     0.15   0.08   0.14    -0.05  -0.03  -0.05
    40   1    -0.03   0.03   0.01     0.08  -0.02   0.13    -0.03   0.02   0.04
    41   1    -0.01  -0.06   0.01     0.10   0.13   0.02     0.02  -0.07   0.03
    42   6     0.00  -0.04  -0.03    -0.08   0.04  -0.12    -0.00   0.09  -0.06
    43   6     0.02   0.01  -0.11    -0.10  -0.10   0.02    -0.04  -0.05   0.13
    44   6     0.15   0.10  -0.08     0.08   0.03  -0.14    -0.11  -0.07  -0.01
    45   1     0.03   0.02  -0.10    -0.19  -0.16  -0.00    -0.10  -0.10   0.16
    46   1    -0.04  -0.01  -0.19     0.06  -0.10   0.15     0.15  -0.03   0.30
    47   1     0.10   0.08  -0.12    -0.18  -0.21   0.05    -0.20  -0.17   0.17
    48   1    -0.01  -0.05  -0.01    -0.06   0.06  -0.18     0.04   0.11  -0.10
    49   1     0.04   0.04  -0.10     0.10   0.03  -0.08    -0.06  -0.06   0.06
    50   1     0.20   0.28  -0.29     0.13   0.04  -0.29    -0.14  -0.19   0.16
    51   1     0.38   0.10   0.10     0.19   0.04  -0.05    -0.25  -0.13  -0.18
    52   6     0.05  -0.02  -0.01    -0.02  -0.02   0.00    -0.02  -0.11  -0.01
    53   1     0.11  -0.11  -0.03    -0.03  -0.07   0.00    -0.03  -0.24  -0.01
    54   1     0.12  -0.08  -0.06    -0.07   0.03  -0.03    -0.12  -0.00  -0.07
    55   1     0.03   0.13  -0.07    -0.03  -0.04  -0.00    -0.03  -0.17  -0.02
                     31                     32                     33
                      A                      A                      A
 Frequencies --    349.8599               353.4108               384.1914
 Red. masses --      4.6530                 4.1097                 3.0860
 Frc consts  --      0.3356                 0.3024                 0.2684
 IR Inten    --      0.0000                 0.0000                 0.0000
  Atom  AN      X      Y      Z        X      Y      Z        X      Y      Z
     1  26     0.01   0.01   0.01     0.02  -0.03   0.03     0.01   0.00   0.01
     2   6    -0.05   0.07   0.03     0.04   0.02   0.04    -0.00  -0.01   0.04
     3  46    -0.01  -0.02  -0.03    -0.03   0.01  -0.04     0.01  -0.01  -0.01
     4   6    -0.01   0.03   0.00     0.00   0.07  -0.05    -0.08   0.12  -0.09
     5   1     0.01  -0.00  -0.01     0.01   0.01  -0.01    -0.02  -0.01   0.01
     6   1    -0.00  -0.01   0.01     0.01   0.03  -0.03     0.00  -0.01  -0.03
     7   1     0.00  -0.00   0.01    -0.01  -0.01   0.05     0.01   0.04  -0.15
     8   6    -0.04  -0.06   0.00     0.05  -0.00  -0.02    -0.04   0.05  -0.03
     9   8     0.10  -0.14  -0.12     0.03  -0.03   0.03     0.01   0.02   0.04
    10   6     0.00   0.02   0.01     0.14   0.00   0.03     0.05  -0.01   0.01
    11   8    -0.03  -0.13   0.00     0.07   0.01  -0.12    -0.04   0.01   0.00
    12   6     0.01   0.02  -0.00     0.02   0.02  -0.00     0.03  -0.09   0.12
    13   6     0.01   0.01  -0.00     0.02   0.14  -0.08     0.03  -0.06   0.07
    14   6     0.01   0.01   0.01     0.11   0.11  -0.04     0.04  -0.02  -0.02
    15   1     0.02   0.02  -0.02    -0.04  -0.01   0.02     0.02  -0.12   0.18
    16   1     0.02   0.01  -0.01    -0.06   0.23  -0.15     0.03  -0.05   0.12
    17   1     0.00   0.01   0.00     0.13   0.20  -0.10     0.04   0.00  -0.05
    18   1    -0.05   0.03   0.01     0.11   0.06   0.03     0.02  -0.02   0.06
    19   6     0.01   0.02  -0.00     0.08  -0.05   0.03     0.04  -0.06   0.05
    20   6    -0.11   0.14   0.02     0.02   0.04   0.01    -0.04  -0.04   0.02
    21   8    -0.00   0.14   0.15     0.01  -0.01   0.04     0.02   0.01   0.01
    22   6    -0.00  -0.00   0.01    -0.01  -0.01   0.06     0.01   0.00  -0.08
    23   6     0.00  -0.01   0.01    -0.00   0.01   0.01    -0.01  -0.02  -0.02
    24   6     0.00  -0.00  -0.01    -0.01   0.00   0.03    -0.01  -0.01  -0.02
    25   6     0.00  -0.00  -0.01    -0.02  -0.02   0.12    -0.01  -0.01  -0.07
    26   6     0.00   0.00  -0.01    -0.03  -0.04   0.13     0.01  -0.00  -0.09
    27   1     0.01   0.01  -0.03    -0.03  -0.04   0.13     0.01   0.00  -0.12
    28   7    -0.08  -0.01  -0.02     0.01   0.01   0.08    -0.03   0.04  -0.04
    29   1    -0.06   0.17   0.05     0.04   0.05  -0.01    -0.07  -0.07   0.00
    30   1    -0.02   0.04   0.00    -0.12   0.19  -0.08    -0.24   0.28  -0.13
    31   1     0.00   0.02  -0.02     0.07   0.04  -0.21     0.03   0.07  -0.32
    32   1     0.01   0.01  -0.02    -0.02  -0.06   0.18    -0.01   0.01  -0.10
    33   7    -0.01   0.00  -0.00    -0.04   0.01   0.02    -0.09   0.08   0.08
    34   6    -0.00  -0.01   0.00    -0.07  -0.07   0.08     0.13   0.05   0.07
    35   6    -0.01  -0.01  -0.00    -0.12  -0.11  -0.08    -0.06  -0.04   0.04
    36   1    -0.01  -0.01   0.01    -0.11  -0.08   0.17     0.11   0.05   0.21
    37   1     0.00  -0.02   0.00    -0.08  -0.18   0.01     0.35  -0.02   0.17
    38   1    -0.00  -0.01  -0.00    -0.08  -0.06   0.11     0.19   0.03  -0.20
    39   1    -0.02  -0.01  -0.02    -0.18  -0.14  -0.21    -0.09  -0.06  -0.11
    40   1    -0.01   0.01   0.01    -0.11  -0.04  -0.17    -0.07   0.01   0.07
    41   1     0.01  -0.02   0.00    -0.16  -0.25   0.02    -0.02  -0.16   0.10
    42   6     0.02   0.15   0.10    -0.03   0.01  -0.05    -0.03  -0.04   0.02
    43   6     0.13   0.02  -0.12    -0.05  -0.04   0.02    -0.03  -0.01  -0.04
    44   6     0.08  -0.02   0.18     0.01   0.00  -0.06     0.03   0.02  -0.00
    45   1     0.01  -0.03  -0.28    -0.08  -0.07   0.03    -0.01   0.01  -0.06
    46   1     0.07  -0.02  -0.23     0.03  -0.04   0.09    -0.08  -0.01  -0.09
    47   1     0.41   0.02  -0.13    -0.11  -0.09   0.04     0.03   0.02  -0.05
    48   1     0.11   0.21   0.06    -0.03   0.02  -0.07    -0.05  -0.05   0.03
    49   1     0.19   0.02   0.37     0.02   0.00  -0.04     0.04   0.03  -0.03
    50   1     0.11  -0.19   0.16     0.03   0.01  -0.10     0.05   0.04  -0.08
    51   1     0.04  -0.09   0.07     0.04   0.01  -0.04     0.08   0.06   0.08
    52   6    -0.05  -0.08  -0.01    -0.02  -0.03   0.00    -0.03   0.07  -0.01
    53   1    -0.05  -0.11  -0.01    -0.04  -0.04   0.01    -0.03   0.09  -0.01
    54   1    -0.08  -0.05  -0.02    -0.06   0.02  -0.00    -0.02   0.06   0.01
    55   1    -0.05  -0.10  -0.01    -0.01  -0.09   0.02    -0.03   0.06  -0.01
                     34                     35                     36
                      A                      A                      A
 Frequencies --    416.3051               424.4549               448.3331
 Red. masses --      3.8954                 6.5453                 3.5360
 Frc consts  --      0.3978                 0.6948                 0.4188
 IR Inten    --      0.0000                 0.0000                 0.0000
  Atom  AN      X      Y      Z        X      Y      Z        X      Y      Z
     1  26     0.00   0.03  -0.01    -0.01  -0.00   0.02     0.00  -0.00   0.01
     2   6    -0.00   0.00  -0.02     0.01  -0.01  -0.17     0.03   0.06   0.08
     3  46     0.02   0.00   0.00     0.01  -0.01   0.01    -0.01  -0.01  -0.01
     4   6    -0.09   0.03  -0.06     0.01   0.02  -0.04     0.03   0.01  -0.02
     5   1     0.05   0.02  -0.07    -0.05  -0.01   0.09    -0.04  -0.01   0.07
     6   1     0.03  -0.02   0.10    -0.03  -0.02   0.09    -0.04  -0.03   0.14
     7   1    -0.04  -0.09   0.27    -0.02   0.04  -0.06    -0.03   0.01   0.04
     8   6     0.00  -0.02   0.02    -0.09   0.03   0.17    -0.03  -0.00  -0.03
     9   8    -0.01  -0.00  -0.01    -0.06  -0.04  -0.13     0.02  -0.01   0.08
    10   6    -0.04   0.01  -0.12     0.05  -0.03   0.02     0.03  -0.02   0.00
    11   8     0.01  -0.03  -0.02    -0.02  -0.04  -0.12    -0.05  -0.11   0.05
    12   6    -0.08  -0.03  -0.11     0.02  -0.01  -0.03    -0.01   0.02  -0.11
    13   6    -0.07  -0.02  -0.09     0.04  -0.03   0.03     0.02  -0.02   0.01
    14   6    -0.04  -0.01  -0.11     0.04  -0.03   0.02     0.03  -0.02   0.05
    15   1    -0.08  -0.02  -0.15     0.02   0.01  -0.07    -0.00   0.05  -0.19
    16   1    -0.12   0.03  -0.15     0.06  -0.05   0.07     0.03  -0.03   0.05
    17   1    -0.04   0.01  -0.13     0.06  -0.04   0.05     0.05  -0.05   0.12
    18   1    -0.05  -0.08  -0.09    -0.07  -0.01  -0.05    -0.12  -0.01  -0.08
    19   6    -0.06  -0.04  -0.11     0.04  -0.02  -0.00     0.00  -0.00  -0.08
    20   6     0.01   0.01  -0.01     0.04   0.06  -0.06     0.00   0.02   0.00
    21   8    -0.01  -0.00  -0.00    -0.08  -0.12  -0.18     0.02   0.06   0.14
    22   6    -0.01  -0.07   0.19    -0.02   0.02  -0.02    -0.03   0.01   0.04
    23   6     0.03  -0.02   0.07    -0.03  -0.01   0.05    -0.03  -0.01   0.06
    24   6     0.03   0.01  -0.01    -0.03  -0.00   0.04    -0.02  -0.00   0.03
    25   6     0.03  -0.00   0.04    -0.02   0.02  -0.04    -0.02   0.02  -0.03
    26   6    -0.01  -0.06   0.19     0.00   0.04  -0.10     0.00   0.04  -0.07
    27   1    -0.03  -0.09   0.26     0.01   0.06  -0.14     0.02   0.07  -0.13
    28   7     0.01  -0.02   0.01    -0.13   0.04   0.37    -0.01   0.01  -0.08
    29   1     0.03   0.02  -0.00     0.01   0.03  -0.12    -0.07  -0.02   0.09
    30   1    -0.16   0.02  -0.10    -0.07   0.10  -0.06    -0.02   0.04  -0.04
    31   1    -0.05   0.03  -0.11     0.06   0.00  -0.14     0.04  -0.01  -0.07
    32   1     0.03  -0.02   0.08    -0.02   0.05  -0.10    -0.01   0.04  -0.08
    33   7    -0.10   0.02   0.06    -0.00   0.01   0.03     0.02   0.02   0.02
    34   6     0.15   0.09  -0.02     0.02   0.01   0.04     0.00   0.01   0.03
    35   6    -0.02   0.01   0.12    -0.03  -0.02   0.00    -0.02  -0.01  -0.02
    36   1     0.18   0.10  -0.02     0.01   0.01   0.05     0.00   0.01   0.06
    37   1     0.34   0.16   0.14     0.04   0.00   0.04    -0.01  -0.02   0.01
    38   1     0.20   0.05  -0.29     0.03   0.01   0.00    -0.00  -0.00   0.05
    39   1     0.01   0.02   0.10    -0.05  -0.02  -0.03    -0.05  -0.02  -0.05
    40   1    -0.03   0.00   0.20    -0.03  -0.00  -0.04    -0.02   0.01  -0.06
    41   1     0.06   0.03   0.08    -0.06  -0.05   0.03    -0.05  -0.05   0.01
    42   6     0.02   0.01  -0.01     0.14   0.07  -0.02     0.16  -0.10  -0.08
    43   6     0.02   0.01   0.02     0.16   0.08   0.07     0.11   0.08   0.09
    44   6    -0.01  -0.01  -0.00    -0.04  -0.01   0.03    -0.07  -0.02  -0.14
    45   1     0.02   0.01   0.02     0.21   0.11   0.10     0.30   0.19   0.22
    46   1     0.03   0.01   0.03     0.16   0.10   0.10     0.06   0.16   0.17
    47   1    -0.01   0.00   0.02     0.07   0.08   0.07    -0.15   0.10   0.09
    48   1     0.03   0.02  -0.01     0.20   0.11  -0.02     0.17  -0.08  -0.11
    49   1    -0.02  -0.01   0.00    -0.12  -0.06   0.03    -0.17  -0.04  -0.38
    50   1    -0.02  -0.01   0.04    -0.11   0.01   0.24    -0.16   0.10   0.09
    51   1    -0.03  -0.02  -0.03    -0.12  -0.11  -0.14    -0.19   0.03  -0.17
    52   6     0.01  -0.03   0.00    -0.03   0.04  -0.01    -0.03  -0.00  -0.01
    53   1     0.02  -0.04  -0.00     0.03  -0.12  -0.04    -0.04   0.01  -0.00
    54   1     0.02  -0.03  -0.01    -0.01   0.03  -0.10    -0.04   0.01   0.00
    55   1     0.01  -0.01  -0.00    -0.07   0.20  -0.09    -0.03  -0.03  -0.00
                     37                     38                     39
                      A                      A                      A
 Frequencies --    450.4786               462.5515               467.2554
 Red. masses --      3.5697                 3.9346                 2.6232
 Frc consts  --      0.4268                 0.4960                 0.3374
 IR Inten    --      0.0000                 0.0000                 0.0000
  Atom  AN      X      Y      Z        X      Y      Z        X      Y      Z
     1  26    -0.01  -0.00   0.00    -0.01  -0.00  -0.00    -0.01  -0.00  -0.01
     2   6     0.09  -0.06   0.03    -0.09   0.03  -0.04    -0.02   0.01  -0.01
     3  46    -0.00   0.01   0.01    -0.00   0.01   0.00     0.01  -0.01   0.00
     4   6     0.05   0.01  -0.05     0.09   0.02  -0.09    -0.04  -0.01   0.07
     5   1    -0.05  -0.01   0.10    -0.07  -0.03   0.15     0.01   0.03  -0.02
     6   1    -0.04  -0.03   0.16    -0.04  -0.03   0.17    -0.02   0.00   0.06
     7   1    -0.04   0.00   0.05    -0.05   0.02   0.01    -0.02  -0.02   0.11
     8   6    -0.00   0.00  -0.01     0.05  -0.03   0.06    -0.00  -0.00   0.03
     9   8    -0.01   0.07   0.15     0.01  -0.05  -0.14     0.00  -0.01  -0.04
    10   6     0.03  -0.02  -0.01     0.03  -0.02  -0.02    -0.00  -0.02   0.01
    11   8    -0.02  -0.07   0.05     0.05   0.17   0.03     0.00   0.04   0.00
    12   6    -0.01   0.03  -0.13    -0.01   0.03  -0.13    -0.03  -0.02  -0.06
    13   6     0.02  -0.03   0.01     0.02  -0.04   0.02    -0.02  -0.04  -0.01
    14   6     0.03  -0.03   0.05     0.03  -0.04   0.07    -0.00  -0.04  -0.00
    15   1    -0.00   0.06  -0.22     0.01   0.06  -0.19    -0.03  -0.01  -0.10
    16   1     0.03  -0.05   0.06     0.05  -0.06   0.09    -0.03  -0.03  -0.02
    17   1     0.05  -0.07   0.13     0.06  -0.09   0.18     0.00  -0.06   0.03
    18   1    -0.12  -0.03  -0.10     0.08   0.00  -0.07    -0.01  -0.06  -0.04
    19   6    -0.01   0.00  -0.10    -0.02   0.00  -0.11    -0.03  -0.04  -0.02
    20   6     0.03   0.06  -0.06     0.00  -0.06   0.07     0.01  -0.01   0.01
    21   8     0.08  -0.09  -0.08    -0.06   0.07   0.03    -0.02   0.02  -0.00
    22   6    -0.03   0.00   0.05    -0.04   0.01   0.02    -0.01   0.01   0.04
    23   6    -0.03  -0.02   0.07    -0.04  -0.02   0.08    -0.00   0.02   0.02
    24   6    -0.03  -0.00   0.05    -0.04  -0.01   0.07     0.00   0.03  -0.01
    25   6    -0.02   0.02  -0.03    -0.03   0.02  -0.03     0.01   0.03  -0.03
    26   6    -0.00   0.04  -0.07    -0.01   0.03  -0.06     0.01   0.03  -0.00
    27   1     0.01   0.07  -0.12    -0.01   0.04  -0.07     0.01   0.03   0.02
    28   7     0.01   0.02  -0.07     0.08  -0.07   0.01     0.03  -0.03   0.01
    29   1     0.10   0.08  -0.29     0.03  -0.02   0.23     0.03   0.01   0.05
    30   1    -0.03   0.07  -0.07    -0.09   0.18  -0.13     0.13  -0.19   0.10
    31   1     0.10   0.00  -0.12     0.26   0.04  -0.25    -0.29  -0.08   0.20
    32   1    -0.01   0.05  -0.08    -0.03   0.04  -0.08     0.02   0.06  -0.06
    33   7     0.04   0.01   0.03     0.08  -0.06   0.07    -0.04   0.23  -0.03
    34   6     0.00   0.02   0.05     0.02   0.03   0.04    -0.01  -0.02   0.14
    35   6    -0.03  -0.02  -0.02    -0.08  -0.01   0.01     0.08  -0.02  -0.13
    36   1    -0.01   0.01   0.06    -0.00   0.01  -0.06     0.02   0.02   0.44
    37   1    -0.01  -0.01   0.03    -0.01   0.08   0.05    -0.02  -0.25   0.01
    38   1    -0.00   0.02   0.08     0.01   0.08   0.08    -0.01  -0.12   0.14
    39   1    -0.05  -0.02  -0.03    -0.18  -0.04   0.08     0.24  -0.00  -0.41
    40   1    -0.02  -0.00  -0.14    -0.06   0.07  -0.17     0.08  -0.16  -0.06
    41   1    -0.12  -0.05   0.02    -0.19  -0.02   0.04     0.06  -0.22  -0.00
    42   6    -0.09   0.19  -0.01    -0.06  -0.09   0.05    -0.02  -0.01   0.01
    43   6    -0.05  -0.06  -0.02    -0.06  -0.02  -0.04    -0.02  -0.01  -0.01
    44   6     0.02  -0.02   0.07     0.03   0.02   0.02     0.01   0.01   0.01
    45   1    -0.26  -0.19  -0.12    -0.04  -0.01  -0.05    -0.02  -0.01  -0.02
    46   1     0.12  -0.12   0.03    -0.14  -0.03  -0.11    -0.03  -0.02  -0.03
    47   1     0.05  -0.16  -0.00     0.01   0.03  -0.05     0.00  -0.00  -0.01
    48   1    -0.06   0.19  -0.02    -0.11  -0.12   0.08    -0.03  -0.02   0.02
    49   1     0.10  -0.02   0.34     0.04   0.04  -0.04     0.01   0.01   0.01
    50   1     0.07  -0.18  -0.01     0.06   0.06  -0.10     0.02   0.01  -0.02
    51   1     0.05  -0.14  -0.05     0.09   0.10   0.16     0.03   0.02   0.04
    52   6    -0.02  -0.01  -0.01     0.07  -0.04   0.02     0.02   0.00   0.00
    53   1    -0.04  -0.03  -0.00     0.11  -0.06   0.00     0.04  -0.01  -0.01
    54   1    -0.06   0.02  -0.01     0.12  -0.08   0.00     0.04  -0.02  -0.01
    55   1    -0.02  -0.05   0.00     0.07   0.05  -0.02     0.01   0.05  -0.02
                     40                     41                     42
                      A                      A                      A
 Frequencies --    492.7982               497.6576               531.0562
 Red. masses --      3.3873                 3.5724                 3.9423
 Frc consts  --      0.4847                 0.5213                 0.6551
 IR Inten    --      0.0000                 0.0000                 0.0000
  Atom  AN      X      Y      Z        X      Y      Z        X      Y      Z
     1  26    -0.01  -0.02   0.02    -0.04   0.04  -0.02     0.01  -0.01  -0.01
     2   6    -0.00  -0.01   0.00     0.01   0.00   0.00    -0.01  -0.02   0.01
     3  46    -0.00   0.00  -0.01     0.00  -0.00  -0.00     0.00  -0.00   0.01
     4   6     0.04   0.01  -0.02     0.15   0.05  -0.03     0.01   0.01   0.01
     5   1     0.12   0.17  -0.34     0.04  -0.04  -0.03    -0.03  -0.01   0.08
     6   1     0.07   0.08  -0.00     0.07   0.03  -0.19    -0.01   0.00  -0.01
     7   1    -0.01  -0.01   0.18     0.03  -0.05   0.03    -0.01  -0.01   0.04
     8   6    -0.00   0.02   0.04    -0.01  -0.01  -0.03    -0.05   0.07   0.38
     9   8     0.00   0.00   0.00    -0.00   0.00   0.02     0.01   0.01   0.01
    10   6    -0.02  -0.09   0.17    -0.10   0.06  -0.05    -0.02   0.03  -0.02
    11   8     0.01  -0.01   0.01    -0.01  -0.02  -0.03     0.09  -0.08  -0.13
    12   6    -0.04  -0.04  -0.01     0.02  -0.05   0.08     0.01  -0.00   0.03
    13   6    -0.06   0.01  -0.16     0.00  -0.12   0.04     0.00  -0.00   0.02
    14   6    -0.04  -0.08   0.08    -0.09  -0.04  -0.09    -0.01   0.02  -0.05
    15   1    -0.03  -0.04  -0.00     0.09  -0.04   0.09     0.03  -0.00   0.05
    16   1    -0.13   0.08  -0.41     0.05  -0.17   0.09     0.01  -0.01   0.06
    17   1    -0.07  -0.12   0.06    -0.16  -0.09  -0.17    -0.03   0.04  -0.10
    18   1     0.02  -0.02   0.04    -0.03   0.01   0.05    -0.02   0.03  -0.06
    19   6    -0.03  -0.10   0.14    -0.08   0.06   0.01    -0.01   0.03  -0.01
    20   6    -0.01  -0.00   0.00    -0.01   0.01  -0.01    -0.02  -0.01   0.01
    21   8     0.00  -0.00  -0.00     0.01  -0.00   0.00     0.01   0.01   0.01
    22   6     0.01   0.02   0.10     0.03  -0.04  -0.00    -0.01  -0.00   0.02
    23   6     0.04   0.06  -0.01     0.04  -0.00  -0.07    -0.00   0.00   0.01
    24   6     0.05   0.09  -0.14     0.03  -0.03  -0.03    -0.01  -0.01   0.04
    25   6     0.08   0.09  -0.15     0.04  -0.03   0.02    -0.01  -0.01   0.02
    26   6     0.04   0.06   0.01    -0.00  -0.07   0.12    -0.01   0.01  -0.01
    27   1     0.04   0.07   0.04    -0.02  -0.10   0.17    -0.02  -0.01   0.02
    28   7    -0.01   0.02  -0.02    -0.03   0.00   0.02     0.04   0.07  -0.19
    29   1    -0.03  -0.02  -0.00    -0.03  -0.00  -0.03    -0.08  -0.05   0.01
    30   1    -0.05   0.26   0.00     0.06   0.12  -0.06     0.02  -0.01   0.01
    31   1     0.17  -0.03  -0.24     0.29   0.12  -0.04     0.02   0.03   0.05
    32   1     0.12   0.19  -0.32     0.04  -0.08   0.11    -0.01  -0.02   0.04
    33   7     0.05  -0.04   0.01     0.18   0.02   0.08     0.02  -0.01  -0.00
    34   6    -0.01   0.01  -0.00    -0.00   0.05   0.16    -0.01  -0.00  -0.00
    35   6    -0.02   0.01   0.00    -0.04  -0.02  -0.08     0.00   0.00  -0.01
    36   1    -0.03  -0.01  -0.07    -0.06   0.02   0.12    -0.01  -0.01  -0.01
    37   1    -0.05   0.03  -0.01    -0.12  -0.02   0.05    -0.02  -0.00  -0.01
    38   1    -0.02   0.04   0.06    -0.04   0.10   0.32    -0.01   0.00   0.02
    39   1    -0.07  -0.01   0.06    -0.15  -0.06  -0.11    -0.01   0.00   0.01
    40   1    -0.01   0.05  -0.07    -0.01   0.07  -0.38     0.00   0.01  -0.02
    41   1    -0.06   0.03   0.00    -0.25  -0.14   0.04    -0.00   0.01  -0.01
    42   6    -0.00  -0.01   0.00     0.02   0.01  -0.01    -0.02  -0.04   0.01
    43   6    -0.01  -0.00  -0.00     0.03   0.01   0.01    -0.03  -0.01  -0.01
    44   6    -0.00   0.00  -0.00    -0.00  -0.00  -0.01    -0.00   0.00  -0.00
    45   1     0.00   0.01  -0.00     0.04   0.02   0.02    -0.01   0.00  -0.01
    46   1    -0.02   0.00  -0.01     0.02   0.02   0.02    -0.06  -0.00  -0.02
    47   1    -0.00   0.00  -0.00     0.00   0.01   0.01    -0.02   0.00  -0.01
    48   1    -0.01  -0.01   0.01     0.04   0.02  -0.02    -0.03  -0.04   0.01
    49   1     0.00   0.00  -0.01    -0.02  -0.01  -0.02     0.00   0.01  -0.03
    50   1     0.00   0.01  -0.01    -0.02   0.00   0.02     0.01   0.01  -0.03
    51   1     0.00   0.01   0.01    -0.02  -0.01  -0.03     0.01   0.03   0.04
    52   6    -0.01   0.01  -0.01    -0.00   0.00   0.00    -0.04   0.02  -0.01
    53   1     0.00  -0.05  -0.02    -0.02   0.05   0.01     0.17  -0.53  -0.13
    54   1    -0.04   0.04  -0.04     0.01  -0.01   0.02    -0.09   0.13  -0.30
    55   1    -0.03   0.03  -0.03     0.01  -0.02   0.02    -0.19   0.36  -0.28
                     43                     44                     45
                      A                      A                      A
 Frequencies --    542.6625               573.2779               580.8209
 Red. masses --      4.0555                 4.2460                 4.6053
 Frc consts  --      0.7036                 0.8222                 0.9154
 IR Inten    --      0.0000                 0.0000                 0.0000
  Atom  AN      X      Y      Z        X      Y      Z        X      Y      Z
     1  26     0.01  -0.02  -0.02    -0.04  -0.09  -0.05    -0.10   0.01  -0.03
     2   6    -0.02  -0.01  -0.03     0.00   0.00   0.00     0.00  -0.01  -0.00
     3  46     0.01  -0.02   0.00     0.00   0.00  -0.00     0.00   0.00  -0.00
     4   6     0.01   0.02   0.01    -0.01   0.04   0.02    -0.02  -0.00   0.01
     5   1    -0.01   0.00   0.05    -0.00   0.05   0.07    -0.01  -0.02   0.08
     6   1    -0.01  -0.00   0.05     0.08   0.09  -0.21    -0.00  -0.01   0.07
     7   1    -0.02  -0.02   0.10    -0.08  -0.12   0.46     0.05   0.05  -0.17
     8   6     0.18   0.12  -0.09    -0.02  -0.02  -0.03     0.03   0.02   0.01
     9   8     0.00  -0.02  -0.06     0.00  -0.00   0.00     0.00  -0.00  -0.00
    10   6    -0.03   0.02  -0.00     0.01   0.02   0.05     0.08   0.03  -0.05
    11   8     0.15  -0.15   0.11    -0.03   0.04   0.01     0.05  -0.06  -0.02
    12   6     0.00   0.01   0.00     0.02   0.04  -0.04     0.01   0.03  -0.12
    13   6    -0.01   0.02  -0.01     0.06  -0.02   0.24     0.08  -0.04   0.13
    14   6    -0.02   0.02  -0.01    -0.01   0.13  -0.14     0.11   0.01   0.13
    15   1     0.02   0.01   0.02     0.00   0.02  -0.00     0.04   0.05  -0.15
    16   1    -0.01   0.02   0.00     0.14  -0.10   0.48     0.12  -0.08   0.33
    17   1    -0.03   0.01  -0.02    -0.04   0.23  -0.27     0.19  -0.04   0.30
    18   1    -0.11   0.01  -0.04     0.00   0.02  -0.07    -0.06   0.09   0.05
    19   6    -0.02   0.06  -0.08     0.01  -0.01   0.06     0.05  -0.06   0.08
    20   6    -0.04  -0.01   0.05     0.01  -0.00  -0.00    -0.01   0.01   0.01
    21   8    -0.03  -0.01  -0.06    -0.00   0.00   0.01    -0.00  -0.00  -0.01
    22   6    -0.02  -0.00   0.07    -0.03  -0.04   0.26     0.06   0.02  -0.13
    23   6     0.00   0.01   0.02     0.07   0.08  -0.11     0.00  -0.00  -0.01
    24   6    -0.00   0.00   0.02     0.02   0.02   0.03     0.00   0.00   0.03
    25   6    -0.01  -0.00   0.02     0.02   0.04  -0.06     0.10   0.09  -0.17
    26   6     0.00   0.03  -0.03     0.04   0.09  -0.06    -0.03  -0.08   0.29
    27   1     0.01   0.04  -0.06     0.04   0.10  -0.05    -0.05  -0.11   0.37
    28   7    -0.05   0.22   0.07     0.01  -0.03   0.01    -0.01   0.05  -0.01
    29   1    -0.22  -0.13   0.05     0.04   0.02   0.01    -0.05  -0.02  -0.00
    30   1     0.02   0.00   0.02    -0.00   0.09   0.04    -0.00  -0.08  -0.00
    31   1     0.00   0.03   0.04     0.01   0.04  -0.01    -0.07   0.00   0.07
    32   1     0.00  -0.00   0.03     0.04   0.06  -0.10     0.15   0.18  -0.33
    33   7     0.01   0.01  -0.00    -0.01  -0.03  -0.01    -0.04  -0.01  -0.02
    34   6    -0.00   0.00   0.01    -0.01  -0.01  -0.03    -0.01  -0.02  -0.04
    35   6     0.00   0.00  -0.01    -0.01  -0.00   0.02    -0.00  -0.00   0.02
    36   1    -0.01   0.00   0.02    -0.01  -0.01  -0.07    -0.00  -0.02  -0.03
    37   1    -0.02  -0.01  -0.00    -0.02   0.01  -0.03     0.01  -0.01  -0.01
    38   1    -0.01   0.00   0.03    -0.01  -0.00  -0.02    -0.00  -0.03  -0.07
    39   1    -0.00  -0.00  -0.02    -0.02  -0.00   0.05     0.01   0.00   0.03
    40   1     0.00   0.00  -0.02    -0.01   0.01   0.04    -0.01  -0.02   0.07
    41   1    -0.00  -0.01  -0.00     0.02   0.03  -0.01     0.04   0.02  -0.01
    42   6    -0.03  -0.11   0.05     0.00   0.01  -0.00    -0.00  -0.02   0.01
    43   6    -0.06  -0.01  -0.02     0.00   0.00   0.00    -0.01  -0.00  -0.00
    44   6     0.01   0.01   0.02     0.00  -0.00  -0.00     0.00   0.00  -0.00
    45   1     0.01   0.04  -0.02    -0.01  -0.01   0.00     0.00   0.01  -0.00
    46   1    -0.17   0.00  -0.08     0.02  -0.00   0.01    -0.02   0.00  -0.01
    47   1    -0.02   0.03  -0.03     0.00  -0.01   0.00    -0.01   0.00  -0.00
    48   1    -0.06  -0.12   0.06     0.00   0.01  -0.00    -0.00  -0.01   0.00
    49   1     0.02   0.03  -0.09    -0.00  -0.00   0.01     0.00   0.00  -0.02
    50   1     0.03   0.06  -0.07    -0.00  -0.01   0.00     0.00   0.01  -0.01
    51   1     0.04   0.11   0.15    -0.00  -0.01  -0.01     0.00   0.02   0.02
    52   6    -0.08   0.05  -0.02     0.01  -0.00  -0.00    -0.01  -0.00  -0.00
    53   1    -0.23  -0.04   0.03     0.00   0.07   0.00    -0.03  -0.06   0.00
    54   1    -0.42   0.38  -0.03     0.05  -0.05   0.03    -0.08   0.07  -0.02
    55   1    -0.09  -0.38   0.07     0.02   0.02   0.02    -0.02  -0.07  -0.00
                     46                     47                     48
                      A                      A                      A
 Frequencies --    604.1219               617.2352               644.4016
 Red. masses --      5.2203                 4.1284                 5.1575
 Frc consts  --      1.1225                 0.9267                 1.2618
 IR Inten    --      0.0000                 0.0000                 0.0000
  Atom  AN      X      Y      Z        X      Y      Z        X      Y      Z
     1  26     0.04  -0.12  -0.10     0.11  -0.01   0.05     0.01   0.03  -0.04
     2   6    -0.01  -0.02   0.01    -0.01  -0.01   0.01    -0.04  -0.07   0.03
     3  46     0.00  -0.00   0.00    -0.00  -0.00  -0.00     0.00  -0.01  -0.00
     4   6     0.00   0.04  -0.01    -0.00   0.06   0.06    -0.01  -0.01  -0.03
     5   1    -0.03   0.11   0.08    -0.11  -0.09   0.31    -0.06  -0.21   0.36
     6   1    -0.11  -0.08   0.57    -0.07  -0.01  -0.16     0.02   0.07  -0.21
     7   1    -0.08   0.06   0.04    -0.00   0.07  -0.17    -0.07  -0.11   0.23
     8   6    -0.03  -0.04  -0.02     0.02  -0.01  -0.02     0.03  -0.03   0.02
     9   8    -0.01   0.02   0.02     0.00   0.01   0.00     0.00   0.04   0.03
    10   6    -0.04   0.08  -0.09    -0.06   0.02   0.07    -0.01   0.03  -0.09
    11   8    -0.02   0.06  -0.00    -0.00   0.01   0.03     0.03   0.09  -0.01
    12   6     0.06  -0.05   0.23    -0.08  -0.03  -0.09     0.04  -0.04   0.06
    13   6    -0.03   0.05  -0.06    -0.03  -0.02  -0.02    -0.00   0.08  -0.16
    14   6    -0.00   0.02   0.01    -0.03   0.04  -0.21     0.02  -0.07   0.21
    15   1     0.04  -0.09   0.35    -0.04   0.03  -0.21    -0.01  -0.11   0.20
    16   1    -0.02   0.04  -0.04    -0.14   0.09  -0.07     0.04   0.02   0.00
    17   1     0.05  -0.05   0.18    -0.14   0.09  -0.43     0.02  -0.16   0.29
    18   1     0.16   0.01   0.07     0.07  -0.06  -0.11     0.13   0.01   0.14
    19   6    -0.01   0.14  -0.04    -0.08  -0.05   0.05     0.02  -0.03   0.03
    20   6    -0.04  -0.00  -0.04    -0.01  -0.00  -0.01    -0.11  -0.00  -0.06
    21   8     0.02   0.00   0.01     0.00  -0.00   0.00     0.03   0.01   0.01
    22   6    -0.05   0.05   0.00    -0.00   0.03  -0.09    -0.05  -0.08   0.14
    23   6    -0.07  -0.03   0.27    -0.06  -0.02  -0.02     0.03   0.09  -0.26
    24   6    -0.01   0.10   0.04    -0.08  -0.06   0.23    -0.04  -0.10   0.27
    25   6     0.03   0.10  -0.09    -0.00   0.07  -0.18    -0.01   0.01  -0.04
    26   6    -0.02   0.04   0.10    -0.03  -0.03   0.07     0.01  -0.00  -0.04
    27   1    -0.02   0.07   0.16    -0.03  -0.04   0.08    -0.01  -0.00   0.03
    28   7    -0.05  -0.02  -0.00    -0.02   0.01   0.01    -0.10   0.04  -0.01
    29   1    -0.04  -0.01  -0.09    -0.02  -0.01  -0.03    -0.17  -0.07  -0.18
    30   1    -0.00  -0.06  -0.03     0.02   0.11   0.08     0.03  -0.09  -0.03
    31   1     0.02   0.08   0.09     0.05   0.08   0.06    -0.04   0.00   0.04
    32   1     0.01   0.16  -0.19    -0.00   0.21  -0.43    -0.07   0.01  -0.06
    33   7     0.02  -0.00   0.00     0.03  -0.02  -0.01    -0.02   0.02   0.01
    34   6    -0.00   0.00   0.01    -0.01  -0.01  -0.00     0.01   0.01   0.01
    35   6     0.00  -0.00  -0.01     0.01   0.01  -0.01    -0.01  -0.00   0.01
    36   1    -0.01  -0.00   0.01    -0.04  -0.02  -0.03     0.03   0.02   0.03
    37   1    -0.01   0.00   0.01    -0.05  -0.00  -0.02     0.03   0.00   0.01
    38   1    -0.00   0.01   0.03    -0.03   0.02   0.05     0.02  -0.01  -0.02
    39   1    -0.01  -0.01  -0.01    -0.01   0.00   0.01     0.01   0.00  -0.01
    40   1     0.00   0.01  -0.03     0.01   0.02  -0.03    -0.01  -0.01   0.01
    41   1    -0.01  -0.01  -0.00     0.00   0.01  -0.01    -0.01  -0.01   0.02
    42   6     0.02   0.02  -0.01     0.00   0.00  -0.00     0.02   0.01  -0.01
    43   6     0.03   0.01   0.00     0.00   0.00  -0.00     0.04   0.02   0.00
    44   6    -0.00  -0.00  -0.01     0.00   0.00  -0.00     0.00  -0.00  -0.01
    45   1     0.04   0.02   0.01     0.01   0.01   0.00     0.07   0.04   0.01
    46   1     0.03   0.02   0.01     0.00   0.00  -0.00     0.00   0.03  -0.01
    47   1     0.02   0.01   0.00     0.00   0.00  -0.00     0.03   0.03   0.00
    48   1     0.04   0.03  -0.01     0.01   0.00  -0.00     0.07   0.04  -0.02
    49   1    -0.01  -0.01   0.01    -0.00  -0.00  -0.00    -0.01  -0.01  -0.01
    50   1    -0.01  -0.01   0.03    -0.00  -0.00   0.00    -0.01  -0.00   0.02
    51   1    -0.02  -0.02  -0.04    -0.00  -0.00  -0.01    -0.02  -0.02  -0.04
    52   6     0.01  -0.02   0.00     0.01  -0.01  -0.00     0.04  -0.07   0.02
    53   1     0.02   0.05   0.01    -0.01   0.01   0.01     0.04  -0.11   0.01
    54   1     0.07  -0.08   0.03    -0.00  -0.00   0.01     0.02  -0.05   0.00
    55   1     0.03   0.02   0.01     0.02  -0.05   0.02     0.03  -0.08   0.01
                     49                     50                     51
                      A                      A                      A
 Frequencies --    650.3295               679.7185               681.5756
 Red. masses --      5.2349                 3.2980                 7.5810
 Frc consts  --      1.3045                 0.8977                 2.0749
 IR Inten    --      0.0000                 0.0000                 0.0000
  Atom  AN      X      Y      Z        X      Y      Z        X      Y      Z
     1  26     0.02  -0.01  -0.03     0.01   0.06  -0.08     0.07  -0.03  -0.02
     2   6     0.08   0.16  -0.05    -0.01  -0.01  -0.01    -0.01  -0.01   0.04
     3  46    -0.01   0.01   0.00    -0.00   0.00   0.00    -0.01  -0.00  -0.00
     4   6     0.02   0.01  -0.02    -0.03   0.18   0.15     0.02   0.07  -0.06
     5   1    -0.03  -0.08   0.18    -0.08  -0.10   0.20    -0.05  -0.01  -0.08
     6   1    -0.01   0.02  -0.03    -0.04  -0.07   0.25     0.01  -0.03   0.20
     7   1    -0.03  -0.04   0.06    -0.07  -0.08   0.23    -0.09   0.05  -0.03
     8   6    -0.10   0.06  -0.04    -0.00   0.00  -0.00     0.02   0.00   0.00
     9   8     0.00  -0.08  -0.04    -0.01   0.01  -0.00     0.03  -0.01   0.01
    10   6    -0.04   0.06  -0.09     0.06   0.07   0.16    -0.13   0.21  -0.31
    11   8    -0.09  -0.18  -0.00    -0.01  -0.01  -0.00     0.01  -0.00   0.02
    12   6     0.02  -0.03   0.07    -0.03  -0.16  -0.02    -0.09   0.04  -0.21
    13   6    -0.01   0.04  -0.09     0.01  -0.08  -0.02     0.01  -0.03   0.04
    14   6     0.01  -0.03   0.09     0.09  -0.04  -0.02     0.00   0.00   0.07
    15   1    -0.00  -0.05   0.09    -0.00  -0.16   0.02    -0.03  -0.01  -0.02
    16   1     0.01   0.02  -0.01    -0.06  -0.00   0.13    -0.02   0.01  -0.02
    17   1    -0.00  -0.08   0.12     0.10  -0.24   0.21    -0.01  -0.01   0.06
    18   1    -0.10   0.02   0.06     0.08  -0.05  -0.06     0.22   0.11   0.14
    19   6     0.01   0.01   0.05    -0.04  -0.09  -0.01    -0.04  -0.19   0.46
    20   6     0.22   0.00   0.11     0.01  -0.01  -0.01    -0.03   0.02   0.02
    21   8    -0.07  -0.01  -0.02     0.00   0.00   0.01    -0.01  -0.01  -0.04
    22   6    -0.03  -0.03   0.05    -0.01  -0.01   0.01    -0.01  -0.03  -0.00
    23   6     0.00   0.03  -0.09    -0.01  -0.04   0.04    -0.04  -0.06   0.07
    24   6    -0.02  -0.04   0.14    -0.01   0.00  -0.02    -0.05   0.05  -0.12
    25   6     0.01   0.03  -0.05    -0.02   0.00   0.04    -0.05   0.02   0.15
    26   6    -0.00  -0.00   0.01    -0.00   0.00  -0.02     0.07   0.04  -0.11
    27   1     0.02   0.03  -0.02    -0.04  -0.05   0.07     0.05  -0.02  -0.09
    28   7     0.20  -0.11   0.02     0.01  -0.01   0.01    -0.02   0.03   0.00
    29   1     0.37   0.16   0.36     0.02  -0.00  -0.01    -0.06   0.00  -0.00
    30   1     0.03  -0.07  -0.03    -0.01   0.24   0.18     0.07  -0.24  -0.10
    31   1     0.03   0.05   0.07     0.06   0.21   0.14     0.03   0.23   0.30
    32   1    -0.03   0.05  -0.10    -0.09  -0.22   0.43    -0.05   0.02   0.14
    33   7     0.01  -0.01   0.01     0.01  -0.04  -0.02     0.03  -0.02   0.02
    34   6     0.01   0.00   0.00    -0.03  -0.04  -0.06     0.01   0.02   0.03
    35   6    -0.01  -0.01   0.01     0.01   0.01  -0.00    -0.01  -0.01   0.01
    36   1     0.00   0.00  -0.02    -0.08  -0.05  -0.13    -0.01   0.01  -0.00
    37   1     0.00   0.02   0.01    -0.10  -0.03  -0.10     0.01   0.03   0.04
    38   1     0.00   0.01   0.01    -0.06   0.02   0.05     0.01   0.04   0.03
    39   1    -0.03  -0.01   0.02    -0.01   0.00   0.05    -0.05  -0.02   0.02
    40   1    -0.00   0.01  -0.02     0.00   0.03   0.04     0.00   0.03  -0.07
    41   1    -0.02  -0.00   0.01     0.04   0.05  -0.04    -0.05  -0.02   0.02
    42   6    -0.03  -0.00   0.01    -0.00   0.01  -0.00     0.00  -0.00  -0.00
    43   6    -0.07  -0.03  -0.01    -0.00  -0.00  -0.00     0.00   0.00  -0.00
    44   6    -0.00   0.01   0.02    -0.00   0.00   0.00    -0.00  -0.00  -0.01
    45   1    -0.13  -0.08  -0.01    -0.01  -0.01  -0.00     0.02   0.01   0.00
    46   1     0.01  -0.05   0.02     0.01  -0.00   0.00    -0.01   0.01   0.00
    47   1    -0.05  -0.06   0.00    -0.00  -0.00   0.00    -0.01   0.00  -0.00
    48   1    -0.12  -0.06   0.03    -0.01   0.00   0.01     0.02   0.01  -0.02
    49   1     0.02   0.01   0.04     0.00  -0.00   0.02     0.00   0.00  -0.03
    50   1     0.02   0.00  -0.04     0.00  -0.00   0.00    -0.00   0.00  -0.01
    51   1     0.03   0.02   0.06     0.00  -0.01  -0.01    -0.00   0.01  -0.00
    52   6    -0.10   0.18  -0.04    -0.01   0.01  -0.00     0.01  -0.01   0.00
    53   1    -0.08   0.28  -0.04    -0.00   0.02  -0.00    -0.00  -0.05   0.00
    54   1    -0.01   0.08   0.00    -0.00   0.01   0.00    -0.03   0.03  -0.01
    55   1    -0.07   0.26  -0.03    -0.00   0.02  -0.00     0.00  -0.05   0.00
                     52                     53                     54
                      A                      A                      A
 Frequencies --    708.9461               716.7367               722.4479
 Red. masses --      3.3561                 7.8234                 7.0545
 Frc consts  --      0.9938                 2.3679                 2.1693
 IR Inten    --      0.0000                 0.0000                 0.0000
  Atom  AN      X      Y      Z        X      Y      Z        X      Y      Z
     1  26    -0.04  -0.05   0.07     0.02   0.02  -0.03     0.02   0.01  -0.02
     2   6     0.03  -0.00  -0.08     0.40   0.37  -0.29    -0.15  -0.25  -0.14
     3  46     0.00  -0.00  -0.00    -0.00  -0.01  -0.01    -0.01  -0.01  -0.02
     4   6    -0.01   0.14   0.05    -0.00  -0.05  -0.02     0.01  -0.07  -0.04
     5   1     0.10   0.06  -0.28    -0.04  -0.03   0.10    -0.05  -0.01   0.10
     6   1     0.06   0.10  -0.21    -0.03  -0.03   0.09    -0.02  -0.05   0.05
     7   1     0.06   0.04  -0.23     0.00  -0.03   0.05     0.00  -0.01   0.07
     8   6     0.00   0.00   0.01     0.01  -0.03   0.01     0.02   0.05   0.01
     9   8    -0.06   0.04  -0.01    -0.19  -0.02   0.04    -0.15   0.16  -0.09
    10   6     0.03   0.15  -0.11    -0.02  -0.05   0.03    -0.04  -0.05   0.00
    11   8     0.01   0.02   0.00     0.01   0.05  -0.01     0.05  -0.08   0.00
    12   6    -0.01  -0.10   0.02    -0.00   0.04  -0.03     0.01   0.06  -0.04
    13   6     0.02  -0.04  -0.02    -0.00   0.02   0.01     0.01   0.04   0.01
    14   6     0.15  -0.03   0.01    -0.05   0.01  -0.00    -0.08   0.03   0.02
    15   1     0.06   0.03  -0.27    -0.03  -0.02   0.11    -0.02  -0.02   0.14
    16   1    -0.20   0.19  -0.27     0.08  -0.07   0.11     0.13  -0.09   0.15
    17   1     0.10  -0.05  -0.03    -0.04   0.02   0.01    -0.09   0.06  -0.03
    18   1    -0.14  -0.03  -0.02     0.10   0.01   0.05     0.07   0.05   0.09
    19   6    -0.09   0.05  -0.10     0.03  -0.04   0.07     0.03  -0.04   0.07
    20   6     0.02  -0.05  -0.06    -0.03  -0.02  -0.15     0.14  -0.20  -0.16
    21   8     0.03   0.01   0.10     0.02  -0.12   0.18     0.14   0.11   0.31
    22   6    -0.01  -0.04   0.02    -0.00   0.00  -0.00     0.01   0.03  -0.01
    23   6    -0.00   0.04  -0.06    -0.00  -0.01   0.02     0.01  -0.03   0.03
    24   6    -0.00   0.02  -0.02    -0.00  -0.00   0.00    -0.00  -0.01  -0.00
    25   6     0.02   0.01   0.03    -0.01  -0.00  -0.00    -0.01  -0.01  -0.01
    26   6     0.06  -0.00  -0.03    -0.02  -0.00   0.01    -0.03   0.01   0.01
    27   1     0.09   0.06  -0.11    -0.02   0.01   0.06    -0.05  -0.02   0.04
    28   7    -0.00  -0.00   0.02    -0.09   0.05  -0.06     0.07  -0.03   0.13
    29   1     0.01  -0.05  -0.08    -0.21  -0.13  -0.06     0.20  -0.16  -0.32
    30   1     0.07  -0.10   0.03    -0.02   0.02  -0.02    -0.01  -0.00  -0.03
    31   1    -0.02   0.24   0.32    -0.00  -0.08  -0.11     0.01  -0.10  -0.11
    32   1     0.05   0.19  -0.31    -0.03  -0.07   0.13     0.00  -0.08   0.11
    33   7     0.00  -0.02  -0.01    -0.00   0.01   0.00     0.00   0.01   0.01
    34   6    -0.02  -0.02  -0.03     0.01   0.01   0.01     0.01   0.02   0.03
    35   6    -0.01  -0.00   0.01     0.00   0.00  -0.00    -0.00   0.00  -0.00
    36   1    -0.04  -0.03  -0.06     0.02   0.02   0.03     0.02   0.02   0.04
    37   1    -0.03  -0.00  -0.03     0.02   0.00   0.01     0.03   0.01   0.03
    38   1    -0.02   0.01   0.01     0.01  -0.01   0.00     0.01   0.00   0.00
    39   1    -0.02  -0.01   0.03     0.01   0.00  -0.02     0.01   0.00  -0.02
    40   1    -0.01   0.01   0.02     0.01  -0.00  -0.01     0.00  -0.00  -0.02
    41   1     0.01   0.01  -0.01     0.00  -0.00   0.00    -0.01  -0.01   0.01
    42   6    -0.00  -0.00   0.01    -0.01  -0.12   0.07    -0.00   0.06  -0.02
    43   6    -0.01  -0.00  -0.00    -0.05  -0.03  -0.00     0.00   0.00  -0.01
    44   6     0.00   0.00   0.03    -0.00   0.02   0.14     0.00   0.01   0.02
    45   1    -0.01  -0.00  -0.01     0.05   0.06  -0.04    -0.09  -0.06  -0.01
    46   1    -0.02  -0.01  -0.02    -0.26  -0.00  -0.13     0.10  -0.03   0.02
    47   1     0.02   0.00  -0.00     0.08   0.06  -0.03    -0.01  -0.03   0.00
    48   1    -0.03  -0.02   0.05    -0.05  -0.13   0.12    -0.10  -0.02   0.14
    49   1    -0.00  -0.00   0.05    -0.01   0.02   0.06    -0.00  -0.02   0.19
    50   1    -0.00  -0.00   0.03    -0.01   0.06   0.15     0.00  -0.06   0.03
    51   1     0.00  -0.01   0.01    -0.01   0.07   0.19     0.01  -0.11  -0.11
    52   6     0.00   0.00   0.00     0.04  -0.08   0.01    -0.05   0.13  -0.02
    53   1     0.00  -0.01   0.00     0.03  -0.08   0.02    -0.07   0.08  -0.01
    54   1     0.00   0.00  -0.00     0.03  -0.07   0.01    -0.12   0.20  -0.04
    55   1    -0.00   0.01  -0.00     0.04  -0.10   0.02    -0.06   0.06  -0.02
                     55                     56                     57
                      A                      A                      A
 Frequencies --    756.0415               771.3095               777.2031
 Red. masses --      2.4613                 1.9866                 1.8347
 Frc consts  --      0.8289                 0.6963                 0.6530
 IR Inten    --      0.0000                 0.0000                 0.0000
  Atom  AN      X      Y      Z        X      Y      Z        X      Y      Z
     1  26    -0.01  -0.02   0.02     0.00  -0.01   0.01    -0.00  -0.01   0.02
     2   6     0.01   0.01   0.00    -0.00  -0.01  -0.00     0.00   0.00   0.01
     3  46     0.00  -0.00   0.00    -0.00  -0.00  -0.00     0.00   0.00   0.00
     4   6     0.00   0.03  -0.00    -0.00   0.01   0.00    -0.00   0.01   0.01
     5   1    -0.05   0.14  -0.03     0.17   0.14  -0.14    -0.07   0.00   0.12
     6   1     0.02  -0.09  -0.33    -0.16   0.00   0.17     0.07   0.05  -0.23
     7   1    -0.04  -0.14   0.76     0.15  -0.02  -0.23     0.12   0.17  -0.48
     8   6    -0.00  -0.00  -0.00     0.00   0.00  -0.00    -0.00  -0.00   0.00
     9   8     0.00  -0.00   0.00    -0.00   0.00  -0.00     0.00  -0.00   0.00
    10   6    -0.02   0.04  -0.05     0.01   0.02  -0.04    -0.05   0.01  -0.00
    11   8    -0.00   0.01  -0.00     0.00   0.00   0.00    -0.00   0.01  -0.01
    12   6     0.02  -0.04  -0.01    -0.02   0.03  -0.02     0.04  -0.09  -0.05
    13   6     0.03   0.03  -0.02    -0.02  -0.04   0.03     0.09   0.11  -0.08
    14   6     0.01   0.00   0.06     0.02  -0.02  -0.01    -0.04   0.04   0.07
    15   1    -0.01  -0.04  -0.02     0.01   0.02   0.02    -0.04  -0.17   0.09
    16   1    -0.00   0.06  -0.08    -0.08   0.02  -0.19     0.26  -0.09   0.53
    17   1    -0.06   0.03  -0.10     0.03   0.04  -0.04    -0.19   0.04  -0.22
    18   1    -0.01  -0.01   0.03     0.01   0.02   0.00    -0.01  -0.04   0.02
    19   6    -0.02  -0.02  -0.02     0.01   0.00   0.03    -0.06  -0.04  -0.05
    20   6    -0.01   0.00   0.00    -0.00   0.00   0.00    -0.01   0.01   0.01
    21   8    -0.00  -0.00  -0.01     0.00   0.00  -0.00    -0.00  -0.00  -0.01
    22   6     0.12   0.19  -0.03    -0.06   0.01   0.02    -0.01  -0.02   0.04
    23   6     0.09  -0.08   0.03    -0.03   0.12   0.01     0.00  -0.02   0.05
    24   6    -0.01  -0.07  -0.01     0.12   0.02   0.06    -0.01   0.02  -0.06
    25   6    -0.04  -0.06  -0.08     0.05  -0.08  -0.16     0.01   0.03  -0.06
    26   6    -0.14   0.07   0.01    -0.08  -0.02  -0.01     0.01   0.01   0.01
    27   1    -0.14   0.02  -0.13    -0.00   0.15  -0.08     0.01   0.00  -0.02
    28   7    -0.00  -0.00  -0.00    -0.00   0.00   0.00    -0.00  -0.00  -0.00
    29   1    -0.01   0.00   0.01    -0.00   0.00   0.00    -0.00   0.01   0.01
    30   1     0.05  -0.05  -0.00     0.00  -0.04  -0.01     0.01  -0.00   0.01
    31   1    -0.01   0.07   0.09    -0.00   0.04   0.06    -0.01   0.02   0.05
    32   1     0.09  -0.16   0.13    -0.16  -0.50   0.59    -0.02  -0.14   0.26
    33   7    -0.00   0.00   0.00     0.00  -0.00   0.00    -0.00  -0.00  -0.00
    34   6     0.00   0.00  -0.01     0.00  -0.00   0.00    -0.00  -0.01   0.00
    35   6    -0.01  -0.01   0.01     0.00  -0.00  -0.00     0.00   0.00  -0.00
    36   1     0.00   0.00  -0.01    -0.01  -0.00  -0.01    -0.01  -0.01   0.00
    37   1    -0.00  -0.01  -0.02    -0.00   0.01   0.01     0.00   0.01   0.02
    38   1     0.00   0.00  -0.01     0.00   0.01   0.01    -0.00   0.00  -0.00
    39   1    -0.01  -0.01   0.01    -0.01  -0.00   0.00     0.00   0.00  -0.00
    40   1    -0.01   0.00   0.00     0.00   0.01  -0.01     0.00  -0.00   0.00
    41   1    -0.01  -0.00   0.01    -0.00   0.00  -0.00     0.00  -0.00   0.00
    42   6     0.00  -0.00   0.00     0.00  -0.00  -0.00     0.00  -0.00   0.00
    43   6     0.00  -0.00   0.00    -0.00  -0.00  -0.00     0.00   0.00   0.00
    44   6     0.00  -0.00   0.00    -0.00  -0.00  -0.00    -0.00  -0.00  -0.00
    45   1     0.00   0.00  -0.00     0.00   0.00   0.00     0.00   0.00   0.00
    46   1    -0.00   0.00  -0.00    -0.00   0.00   0.00    -0.00   0.00  -0.00
    47   1     0.00   0.00  -0.00    -0.00   0.00  -0.00     0.00   0.00   0.00
    48   1     0.00   0.00  -0.00     0.00   0.00  -0.00     0.00   0.00  -0.01
    49   1    -0.00   0.00  -0.00     0.00   0.00  -0.00     0.00   0.00  -0.01
    50   1    -0.00   0.00   0.00     0.00   0.00  -0.00    -0.00   0.00  -0.00
    51   1    -0.00   0.00   0.00     0.00   0.00   0.00    -0.00   0.00   0.00
    52   6     0.00  -0.00   0.00     0.00  -0.00   0.00     0.00  -0.00   0.00
    53   1     0.00   0.01   0.00    -0.00  -0.00   0.00     0.00   0.00  -0.00
    54   1     0.01  -0.01   0.00    -0.01   0.01  -0.00     0.01  -0.01   0.00
    55   1     0.00   0.00   0.00    -0.00  -0.01  -0.00     0.00   0.01  -0.00
                     58                     59                     60
                      A                      A                      A
 Frequencies --    790.7996               799.4980               800.0590
 Red. masses --      1.6411                 1.7609                 1.9404
 Frc consts  --      0.6047                 0.6632                 0.7318
 IR Inten    --      0.0000                 0.0000                 0.0000
  Atom  AN      X      Y      Z        X      Y      Z        X      Y      Z
     1  26    -0.01  -0.01   0.02    -0.00  -0.02   0.05     0.00  -0.02   0.03
     2   6     0.00  -0.00  -0.00    -0.00   0.00   0.00    -0.00  -0.00  -0.00
     3  46     0.00   0.00  -0.00     0.00   0.00   0.00    -0.00  -0.00  -0.00
     4   6     0.01  -0.02  -0.01     0.00  -0.00  -0.02    -0.00  -0.01  -0.00
     5   1    -0.13  -0.15   0.18     0.00  -0.10   0.09    -0.26  -0.19   0.50
     6   1     0.08   0.07  -0.08    -0.15  -0.08   0.67     0.11  -0.01  -0.03
     7   1    -0.15  -0.05   0.23    -0.11  -0.18   0.40     0.07   0.14  -0.20
     8   6    -0.00  -0.00  -0.01    -0.00  -0.00  -0.00     0.00   0.00   0.00
     9   8    -0.00   0.00  -0.00     0.00  -0.00   0.00    -0.00   0.00  -0.00
    10   6     0.01  -0.01  -0.01    -0.04   0.00  -0.01     0.03   0.01  -0.02
    11   8     0.00  -0.01   0.00    -0.00  -0.00  -0.00     0.00   0.01   0.00
    12   6     0.01   0.02   0.02     0.02  -0.04  -0.02    -0.05   0.08   0.03
    13   6    -0.00  -0.02   0.02     0.04   0.06  -0.04    -0.10  -0.04  -0.06
    14   6     0.02  -0.01   0.03    -0.03   0.06  -0.06     0.05  -0.03  -0.11
    15   1     0.03   0.05  -0.05    -0.00  -0.04  -0.03     0.02   0.07   0.11
    16   1    -0.10   0.08  -0.26     0.12  -0.03   0.30    -0.04  -0.09   0.16
    17   1    -0.05   0.15  -0.25     0.05  -0.15   0.28     0.25  -0.22   0.44
    18   1     0.06   0.05  -0.01     0.01   0.00   0.04    -0.06   0.00   0.02
    19   6     0.01   0.03  -0.02    -0.05  -0.01  -0.02     0.02   0.05   0.03
    20   6    -0.00   0.00   0.00    -0.00   0.00   0.00     0.00   0.00   0.00
    21   8     0.00  -0.00   0.00    -0.00  -0.00  -0.00     0.00   0.00   0.00
    22   6     0.01  -0.03  -0.03     0.00   0.01  -0.08     0.04   0.02   0.07
    23   6    -0.03  -0.02   0.00    -0.03   0.08  -0.09     0.07  -0.04  -0.05
    24   6    -0.08   0.02  -0.02     0.03   0.02  -0.04    -0.05  -0.01  -0.10
    25   6     0.02   0.12  -0.06     0.02  -0.03  -0.01    -0.00   0.04  -0.05
    26   6     0.12  -0.00  -0.05     0.03  -0.03  -0.02    -0.02   0.04   0.04
    27   1    -0.05  -0.25   0.49    -0.00  -0.04   0.18     0.03   0.05  -0.26
    28   7    -0.00  -0.00   0.00    -0.00  -0.00  -0.00     0.00   0.00   0.00
    29   1     0.00   0.00   0.00     0.00   0.00   0.00    -0.00  -0.00  -0.00
    30   1     0.02  -0.03  -0.01    -0.01  -0.04  -0.03    -0.01  -0.02  -0.01
    31   1    -0.01  -0.02  -0.00     0.01   0.00  -0.01    -0.01  -0.00   0.01
    32   1    -0.13  -0.19   0.48    -0.02  -0.02  -0.02     0.08  -0.09   0.21
    33   7    -0.01   0.01   0.00     0.00   0.00   0.00     0.00  -0.00   0.00
    34   6    -0.00   0.00  -0.00     0.00   0.01   0.00     0.00  -0.00   0.01
    35   6    -0.01  -0.01   0.01    -0.00  -0.00   0.00     0.00   0.00  -0.01
    36   1     0.01   0.01   0.01     0.01   0.01   0.00    -0.01  -0.01   0.00
    37   1     0.01  -0.01  -0.01    -0.00  -0.01  -0.01     0.00   0.01   0.02
    38   1     0.00  -0.01  -0.02     0.00  -0.00   0.00     0.00   0.01   0.00
    39   1    -0.00  -0.00   0.00    -0.00  -0.00   0.00    -0.00  -0.00  -0.00
    40   1    -0.01  -0.01   0.01    -0.00   0.00  -0.01     0.00   0.00  -0.01
    41   1    -0.00  -0.00   0.01    -0.01  -0.00   0.01     0.00   0.00  -0.01
    42   6    -0.00  -0.00  -0.00    -0.00   0.00  -0.00     0.00  -0.00   0.00
    43   6    -0.00  -0.00  -0.00     0.00   0.00   0.00    -0.00  -0.00  -0.00
    44   6    -0.00   0.00   0.00    -0.00  -0.00  -0.00     0.00  -0.00   0.00
    45   1    -0.00  -0.00   0.00    -0.00  -0.00   0.00    -0.00  -0.00  -0.00
    46   1     0.00   0.00   0.00     0.00  -0.00   0.00    -0.00  -0.00  -0.00
    47   1    -0.00  -0.00  -0.00     0.00  -0.00   0.00    -0.00  -0.00  -0.00
    48   1     0.00   0.00  -0.00    -0.00   0.00  -0.00    -0.00  -0.00   0.00
    49   1    -0.00   0.00   0.00    -0.00  -0.00  -0.00    -0.00   0.00  -0.00
    50   1     0.00  -0.00  -0.00    -0.00  -0.00   0.00     0.00   0.00  -0.00
    51   1     0.00   0.00   0.00    -0.00  -0.00  -0.00     0.00   0.00   0.00
    52   6    -0.00   0.00  -0.00    -0.00   0.00  -0.00     0.00  -0.01   0.00
    53   1    -0.01   0.01  -0.00    -0.00   0.01  -0.00     0.01  -0.01   0.00
    54   1    -0.00   0.00   0.00     0.00  -0.00   0.00    -0.00  -0.00  -0.00
    55   1     0.00  -0.00   0.00     0.00   0.00   0.00    -0.00  -0.00  -0.00
                     61                     62                     63
                      A                      A                      A
 Frequencies --    827.4409               831.4671               857.4987
 Red. masses --      1.6739                 1.3243                 1.5194
 Frc consts  --      0.6752                 0.5394                 0.6582
 IR Inten    --      0.0000                 0.0000                 0.0000
  Atom  AN      X      Y      Z        X      Y      Z        X      Y      Z
     1  26     0.00  -0.00   0.01    -0.00   0.00  -0.01    -0.01  -0.00   0.01
     2   6    -0.00   0.01   0.01    -0.00  -0.01  -0.00    -0.01   0.05   0.05
     3  46     0.00   0.00  -0.00    -0.00  -0.00  -0.00     0.00  -0.00   0.00
     4   6    -0.00   0.03   0.01     0.00   0.01   0.00    -0.02   0.03   0.02
     5   1     0.09   0.09  -0.09    -0.14  -0.20   0.54    -0.01  -0.05  -0.03
     6   1     0.00   0.10  -0.43    -0.09  -0.02   0.13    -0.02  -0.03   0.24
     7   1    -0.07  -0.13   0.23     0.02  -0.09   0.11    -0.06  -0.03   0.09
     8   6     0.01   0.00  -0.00    -0.00   0.00   0.00     0.01  -0.00   0.01
     9   8     0.00  -0.00   0.00    -0.00   0.00  -0.00     0.02  -0.02   0.01
    10   6     0.05   0.01  -0.01     0.02  -0.00  -0.01     0.00  -0.00   0.00
    11   8    -0.01  -0.01  -0.00     0.00   0.01   0.01    -0.00  -0.00  -0.00
    12   6    -0.06   0.08  -0.02    -0.01  -0.01   0.04    -0.01   0.05  -0.07
    13   6    -0.08  -0.03  -0.09    -0.04  -0.02  -0.03     0.02  -0.02   0.02
    14   6     0.05  -0.07  -0.02     0.02  -0.04   0.07    -0.00  -0.02   0.03
    15   1    -0.01  -0.06   0.39     0.03   0.14  -0.33    -0.05  -0.24   0.63
    16   1     0.16  -0.28   0.49    -0.03  -0.03   0.10    -0.01   0.01  -0.17
    17   1     0.06   0.02  -0.08    -0.13   0.26  -0.50    -0.09   0.11  -0.26
    18   1     0.02  -0.03   0.07    -0.03   0.01  -0.05    -0.01  -0.06   0.06
    19   6     0.01   0.03   0.00     0.03   0.01   0.02     0.02   0.00  -0.05
    20   6     0.01  -0.01  -0.01    -0.00   0.00   0.00     0.02  -0.07  -0.07
    21   8    -0.00   0.00  -0.00     0.00   0.00   0.00    -0.04   0.02  -0.02
    22   6    -0.04  -0.00  -0.05    -0.01  -0.00  -0.01     0.02  -0.02  -0.03
    23   6    -0.05   0.03   0.06    -0.02   0.05   0.01    -0.01  -0.00  -0.04
    24   6     0.06   0.03   0.02     0.05   0.04  -0.07    -0.04   0.00  -0.00
    25   6     0.02  -0.04   0.01     0.02  -0.05   0.02     0.01   0.05   0.00
    26   6     0.02  -0.02  -0.05    -0.02  -0.03   0.02     0.02  -0.02   0.06
    27   1    -0.05  -0.05   0.30     0.07   0.12  -0.20     0.15   0.13  -0.45
    28   7     0.00   0.00  -0.00    -0.00   0.00   0.00    -0.00  -0.00   0.01
    29   1     0.00  -0.01  -0.01    -0.00   0.00  -0.00    -0.01  -0.09  -0.15
    30   1     0.03  -0.01   0.01    -0.00  -0.02  -0.01    -0.02  -0.01   0.00
    31   1    -0.01   0.05   0.05    -0.00   0.02   0.02     0.00   0.05   0.04
    32   1    -0.05   0.04  -0.14     0.03   0.04  -0.15    -0.00   0.03   0.03
    33   7     0.00  -0.00   0.00     0.00  -0.00   0.00     0.01  -0.01   0.00
    34   6    -0.00  -0.00  -0.01     0.00  -0.00  -0.00     0.00   0.00   0.00
    35   6    -0.00  -0.00   0.01    -0.00  -0.00   0.00     0.01   0.00  -0.01
    36   1    -0.00  -0.00  -0.02    -0.00  -0.00  -0.01    -0.01  -0.01  -0.02
    37   1    -0.01  -0.01  -0.02    -0.01  -0.01  -0.01    -0.01   0.00  -0.01
    38   1    -0.00   0.00   0.01    -0.00   0.00   0.00    -0.00   0.02   0.03
    39   1    -0.01  -0.00   0.01    -0.00  -0.00   0.00    -0.00   0.00   0.00
    40   1    -0.00   0.00   0.00    -0.00   0.00   0.00     0.01   0.02  -0.02
    41   1    -0.00  -0.00   0.01    -0.00   0.00   0.00     0.01   0.01  -0.01
    42   6    -0.00   0.00  -0.00     0.00  -0.00   0.00    -0.00   0.01  -0.00
    43   6     0.00   0.00   0.00    -0.00  -0.00  -0.00     0.00   0.00   0.00
    44   6    -0.00   0.00   0.00     0.00  -0.00   0.00     0.00   0.01   0.00
    45   1    -0.00  -0.00  -0.00     0.00   0.00   0.00    -0.01  -0.01  -0.01
    46   1     0.00  -0.00   0.00    -0.00   0.00  -0.00     0.01  -0.01  -0.00
    47   1     0.00  -0.00   0.00    -0.00   0.00  -0.00     0.02  -0.00   0.00
    48   1    -0.01  -0.00   0.01     0.00   0.00  -0.00    -0.03  -0.02   0.05
    49   1    -0.00  -0.00   0.01    -0.00   0.00  -0.00    -0.01  -0.01   0.07
    50   1    -0.00  -0.00   0.00     0.00   0.00   0.00    -0.00  -0.02   0.03
    51   1    -0.00  -0.00  -0.00    -0.00   0.00   0.00    -0.00  -0.05  -0.06
    52   6     0.00  -0.00  -0.00     0.00  -0.00   0.00    -0.00   0.01   0.00
    53   1    -0.00   0.00   0.00     0.00  -0.01   0.00     0.01  -0.02  -0.00
    54   1    -0.00   0.00   0.00     0.00  -0.01  -0.00    -0.01   0.02  -0.01
    55   1     0.01  -0.02   0.01    -0.00   0.00  -0.00    -0.01   0.02  -0.01
                     64                     65                     66
                      A                      A                      A
 Frequencies --    865.6100               867.7264               881.5594
 Red. masses --      1.4133                 2.7712                 1.4450
 Frc consts  --      0.6239                 1.2294                 0.6616
 IR Inten    --      0.0000                 0.0000                 0.0000
  Atom  AN      X      Y      Z        X      Y      Z        X      Y      Z
     1  26    -0.01  -0.00   0.01     0.00  -0.00   0.00    -0.00  -0.00  -0.00
     2   6     0.01  -0.01  -0.02     0.02  -0.14  -0.13     0.00  -0.01  -0.01
     3  46    -0.00   0.00   0.00    -0.00  -0.00  -0.00     0.00  -0.00   0.00
     4   6    -0.04   0.03   0.02    -0.01   0.02   0.01     0.04  -0.01  -0.02
     5   1    -0.08  -0.01   0.22     0.03   0.01  -0.16    -0.06  -0.26   0.45
     6   1    -0.11  -0.14   0.26     0.01  -0.01   0.14     0.05   0.15  -0.41
     7   1     0.16   0.12  -0.27    -0.07  -0.06   0.14     0.02  -0.11   0.07
     8   6     0.00  -0.01  -0.00    -0.01  -0.00  -0.01     0.00  -0.01   0.00
     9   8    -0.01   0.00  -0.00    -0.06   0.05  -0.04    -0.00   0.00  -0.00
    10   6     0.00   0.00  -0.01     0.01  -0.00   0.01    -0.02   0.00   0.01
    11   8     0.00  -0.00  -0.00    -0.02   0.01   0.00     0.00  -0.00  -0.00
    12   6     0.00   0.03  -0.04    -0.01   0.03  -0.03     0.02  -0.01  -0.05
    13   6     0.00  -0.02   0.02    -0.00  -0.01  -0.01     0.06   0.01   0.05
    14   6    -0.00  -0.02   0.02     0.00  -0.02   0.01    -0.02   0.03  -0.02
    15   1    -0.02  -0.12   0.35    -0.05  -0.13   0.35    -0.02  -0.15   0.28
    16   1    -0.06   0.05  -0.18     0.05  -0.06   0.01    -0.15   0.24  -0.33
    17   1    -0.05   0.07  -0.16    -0.04   0.08  -0.16    -0.02  -0.25   0.25
    18   1     0.04  -0.03   0.09    -0.09  -0.07  -0.00     0.03  -0.03   0.06
    19   6     0.03  -0.02  -0.03     0.01   0.01  -0.01    -0.03  -0.00  -0.01
    20   6    -0.02   0.02   0.02    -0.05   0.18   0.18    -0.01   0.01   0.01
    21   8     0.01  -0.01   0.00     0.12  -0.06   0.04     0.01  -0.01  -0.00
    22   6     0.02   0.05   0.06     0.01  -0.03  -0.03    -0.03  -0.01  -0.02
    23   6     0.05   0.01  -0.03    -0.01  -0.01  -0.02    -0.04   0.04   0.06
    24   6     0.02  -0.03  -0.03    -0.04   0.00   0.01     0.07   0.05  -0.03
    25   6    -0.03  -0.06   0.01     0.01   0.05   0.01     0.02  -0.04   0.00
    26   6    -0.03   0.05  -0.05     0.02  -0.02   0.05    -0.01  -0.03  -0.00
    27   1    -0.21  -0.19   0.54     0.14   0.13  -0.39     0.04   0.10  -0.01
    28   7    -0.00  -0.01  -0.01     0.01   0.00  -0.02     0.00  -0.01  -0.00
    29   1     0.01   0.04   0.06     0.03   0.26   0.41     0.00   0.02   0.03
    30   1    -0.07   0.00   0.00    -0.00  -0.01   0.00     0.10   0.00   0.02
    31   1     0.00   0.06   0.05    -0.00   0.02   0.02    -0.01  -0.02   0.00
    32   1     0.09   0.08  -0.24    -0.02   0.01   0.07    -0.08   0.03  -0.13
    33   7     0.01  -0.02   0.00     0.00  -0.00   0.00    -0.01   0.03  -0.01
    34   6     0.01  -0.00   0.02     0.00   0.00   0.00    -0.01  -0.00  -0.02
    35   6     0.02   0.01  -0.03     0.00   0.00  -0.00    -0.02  -0.01   0.04
    36   1    -0.03  -0.02  -0.03    -0.01   0.00  -0.00     0.02   0.01   0.03
    37   1    -0.01   0.03   0.03    -0.00  -0.01  -0.01     0.01  -0.03  -0.03
    38   1    -0.00   0.05   0.05    -0.00   0.00   0.01    -0.00  -0.05  -0.05
    39   1    -0.00   0.00  -0.00    -0.00   0.00   0.00     0.00  -0.01  -0.00
    40   1     0.02   0.03  -0.03     0.00   0.00   0.00    -0.02  -0.03   0.04
    41   1     0.02   0.03  -0.04     0.00   0.00  -0.00    -0.03  -0.04   0.05
    42   6    -0.00   0.00   0.00    -0.00  -0.02   0.01    -0.00  -0.00   0.00
    43   6     0.00   0.00   0.00    -0.00  -0.01  -0.00     0.00  -0.00   0.00
    44   6    -0.00  -0.00  -0.00    -0.01  -0.03  -0.01    -0.00  -0.00  -0.00
    45   1     0.01   0.00   0.00     0.05   0.02   0.02     0.01   0.00   0.00
    46   1     0.00   0.00   0.00    -0.03   0.02   0.00    -0.01   0.00  -0.00
    47   1     0.00   0.00   0.00    -0.04   0.01  -0.00     0.01   0.00   0.00
    48   1     0.01   0.01  -0.02     0.08   0.05  -0.14     0.01   0.01  -0.01
    49   1     0.00   0.00  -0.02     0.02   0.02  -0.20     0.00   0.00  -0.02
    50   1     0.00   0.00  -0.02     0.01   0.06  -0.09     0.00   0.00  -0.01
    51   1     0.00   0.01   0.01     0.01   0.13   0.17     0.00   0.01   0.01
    52   6    -0.01   0.01  -0.01    -0.01  -0.02   0.00    -0.01   0.01  -0.00
    53   1    -0.01   0.06  -0.00     0.02   0.02  -0.01    -0.01   0.02  -0.00
    54   1     0.02  -0.02   0.01     0.05  -0.08   0.02     0.00   0.00   0.00
    55   1     0.00   0.02   0.01     0.01   0.04  -0.00    -0.00   0.02  -0.00
                     67                     68                     69
                      A                      A                      A
 Frequencies --    899.1648               905.8888               925.0076
 Red. masses --      2.3432                 3.0219                 3.9438
 Frc consts  --      1.1162                 1.4611                 1.9882
 IR Inten    --      0.0000                 0.0000                 0.0000
  Atom  AN      X      Y      Z        X      Y      Z        X      Y      Z
     1  26    -0.00   0.00  -0.00     0.00   0.01  -0.01    -0.00   0.00   0.00
     2   6    -0.05  -0.04   0.05     0.01   0.01  -0.00     0.04   0.02  -0.00
     3  46    -0.00   0.00   0.00     0.00  -0.00   0.00    -0.00   0.00   0.00
     4   6     0.02   0.00  -0.00     0.22   0.00  -0.06    -0.03  -0.02   0.02
     5   1    -0.00   0.01  -0.01    -0.01   0.11  -0.10     0.01   0.03  -0.06
     6   1    -0.01  -0.01   0.04    -0.05  -0.11   0.33     0.03   0.02  -0.05
     7   1     0.01   0.02  -0.03     0.08   0.09  -0.18    -0.02  -0.01   0.03
     8   6    -0.01  -0.00   0.00     0.01  -0.01   0.00     0.07  -0.15   0.03
     9   8     0.02   0.01   0.01    -0.00  -0.00   0.00     0.00  -0.00   0.03
    10   6     0.00   0.00   0.00     0.02   0.01   0.05     0.01   0.00  -0.01
    11   8    -0.01  -0.01  -0.01     0.02   0.00   0.00     0.18   0.00   0.05
    12   6    -0.00   0.00  -0.00    -0.01   0.00  -0.01    -0.01   0.02  -0.01
    13   6    -0.00  -0.00  -0.00    -0.02  -0.04  -0.02    -0.02  -0.00  -0.01
    14   6    -0.00  -0.00   0.00     0.02  -0.02   0.00     0.02   0.00  -0.00
    15   1     0.01  -0.01   0.02     0.09  -0.02   0.15     0.08   0.10  -0.15
    16   1     0.00  -0.01   0.00    -0.00  -0.06   0.06     0.00  -0.02   0.08
    17   1    -0.01   0.00  -0.02    -0.04   0.09  -0.21     0.05   0.05   0.02
    18   1     0.00   0.00   0.00    -0.03  -0.03   0.01     0.19  -0.03   0.18
    19   6    -0.00   0.00   0.00    -0.08   0.05   0.03    -0.03  -0.01  -0.01
    20   6     0.05   0.14  -0.14    -0.03  -0.02   0.01    -0.21   0.03  -0.06
    21   8    -0.00   0.02  -0.01    -0.00  -0.00  -0.00     0.01  -0.03  -0.02
    22   6     0.00   0.00   0.01     0.02   0.02   0.03     0.00  -0.01  -0.01
    23   6     0.00  -0.00  -0.00     0.03  -0.02  -0.03    -0.00  -0.00   0.00
    24   6    -0.00  -0.00   0.00    -0.02  -0.03   0.01    -0.01   0.00   0.00
    25   6    -0.00  -0.00  -0.00    -0.02  -0.00   0.01    -0.00   0.00   0.00
    26   6    -0.00   0.00  -0.00    -0.02   0.03  -0.00     0.00  -0.01   0.01
    27   1    -0.02  -0.02   0.03    -0.06  -0.05   0.08     0.05   0.09  -0.10
    28   7     0.02  -0.02   0.02    -0.00  -0.02  -0.00     0.00  -0.21   0.01
    29   1     0.15   0.17  -0.30    -0.03  -0.02   0.01    -0.03   0.12  -0.12
    30   1     0.03  -0.01  -0.00     0.31  -0.14  -0.03    -0.07   0.06   0.01
    31   1     0.01   0.00   0.01     0.02  -0.01   0.09     0.02  -0.03  -0.06
    32   1     0.01   0.00  -0.01     0.09   0.01  -0.01    -0.03  -0.02   0.03
    33   7    -0.00   0.02  -0.00    -0.02   0.15  -0.03     0.00  -0.02   0.00
    34   6    -0.00  -0.01  -0.02    -0.05  -0.05  -0.15     0.01   0.01   0.01
    35   6    -0.01  -0.01   0.02    -0.11  -0.07   0.18     0.01   0.01  -0.02
    36   1     0.00  -0.00   0.01     0.05   0.02   0.10    -0.01  -0.00  -0.01
    37   1    -0.00  -0.02  -0.02    -0.01  -0.18  -0.18    -0.00   0.02   0.02
    38   1    -0.00  -0.02  -0.02    -0.03  -0.21  -0.23     0.00   0.02   0.03
    39   1    -0.00  -0.00  -0.00    -0.01  -0.03  -0.01     0.01   0.01  -0.00
    40   1    -0.01  -0.02   0.03    -0.10  -0.16   0.17     0.01   0.01  -0.00
    41   1    -0.01  -0.02   0.03    -0.15  -0.20   0.26     0.03   0.03  -0.04
    42   6     0.07  -0.10  -0.03    -0.01   0.01   0.01    -0.04  -0.01   0.02
    43   6    -0.11  -0.08  -0.05     0.02   0.01   0.01     0.06  -0.02   0.04
    44   6     0.04   0.01   0.16    -0.01  -0.00  -0.02    -0.01  -0.01  -0.03
    45   1     0.22   0.14   0.07    -0.01  -0.01  -0.01     0.21   0.11  -0.00
    46   1    -0.39   0.05  -0.08     0.03  -0.00  -0.00    -0.20   0.03  -0.11
    47   1    -0.30   0.06  -0.08     0.06   0.00   0.01     0.19   0.11   0.01
    48   1     0.25   0.03  -0.17    -0.02   0.01   0.02     0.15   0.12  -0.06
    49   1    -0.05   0.01  -0.19     0.01  -0.00   0.03     0.02   0.00  -0.03
    50   1    -0.04   0.20   0.32     0.01  -0.03  -0.05     0.00  -0.02  -0.07
    51   1    -0.05   0.18   0.27     0.01  -0.03  -0.04     0.00   0.00  -0.01
    52   6    -0.02  -0.00  -0.01    -0.01   0.02  -0.01    -0.14   0.23  -0.05
    53   1    -0.00   0.06  -0.01    -0.01   0.03  -0.00    -0.09   0.38  -0.05
    54   1     0.04  -0.06   0.01    -0.01   0.02  -0.00    -0.05   0.13  -0.02
    55   1     0.00   0.04   0.01    -0.01   0.02  -0.00    -0.10   0.40  -0.05
                     70                     71                     72
                      A                      A                      A
 Frequencies --    946.1596               951.3913               973.4576
 Red. masses --      2.7326                 1.1618                 1.8727
 Frc consts  --      1.4413                 0.6196                 1.0456
 IR Inten    --      0.0000                 0.0000                 0.0000
  Atom  AN      X      Y      Z        X      Y      Z        X      Y      Z
     1  26    -0.00  -0.01   0.01    -0.00   0.00   0.00    -0.00   0.00   0.00
     2   6     0.01  -0.00  -0.00     0.00   0.00  -0.00     0.01   0.00  -0.01
     3  46    -0.00   0.00  -0.00    -0.00  -0.00   0.00     0.00  -0.00   0.00
     4   6     0.01   0.18  -0.02    -0.00  -0.00   0.00    -0.00   0.01  -0.00
     5   1     0.00  -0.06  -0.01    -0.00   0.00   0.00     0.00  -0.00  -0.01
     6   1     0.06   0.07  -0.04    -0.00  -0.00  -0.00     0.01   0.01  -0.00
     7   1     0.04  -0.02  -0.04    -0.00   0.00   0.00     0.01  -0.01   0.00
     8   6     0.00  -0.01  -0.00    -0.00   0.01  -0.00     0.01  -0.03  -0.00
     9   8     0.00  -0.00   0.00    -0.00  -0.00  -0.00    -0.00  -0.00   0.00
    10   6    -0.02  -0.05  -0.02     0.00   0.00   0.00     0.00  -0.00   0.00
    11   8     0.02   0.01   0.00    -0.01  -0.00  -0.00     0.04   0.01   0.01
    12   6     0.02   0.06   0.05     0.00  -0.00  -0.00    -0.00   0.00  -0.00
    13   6    -0.04   0.02   0.01     0.00  -0.00  -0.00    -0.00   0.00  -0.00
    14   6    -0.16   0.00  -0.01     0.00  -0.00   0.00    -0.00  -0.00  -0.00
    15   1    -0.22   0.07  -0.21     0.00  -0.00   0.01     0.00   0.01  -0.00
    16   1     0.25  -0.29  -0.16    -0.00   0.01   0.00     0.01  -0.01   0.00
    17   1    -0.12  -0.11   0.18     0.00   0.00  -0.00     0.00   0.00   0.01
    18   1     0.00   0.00  -0.09     0.01   0.00   0.00     0.01  -0.02   0.02
    19   6     0.21  -0.14  -0.09    -0.00   0.00   0.00     0.00  -0.00  -0.00
    20   6    -0.01   0.00  -0.00    -0.00  -0.01   0.02    -0.06  -0.07   0.08
    21   8    -0.00   0.00   0.00    -0.00  -0.00   0.00     0.01  -0.01  -0.00
    22   6    -0.00  -0.01  -0.01     0.00   0.00   0.00     0.00  -0.00  -0.00
    23   6    -0.01   0.01   0.01     0.00  -0.00  -0.00    -0.00  -0.00   0.00
    24   6    -0.01  -0.00  -0.00     0.00   0.00  -0.00    -0.00  -0.00  -0.00
    25   6     0.01   0.02  -0.01    -0.00  -0.00   0.00    -0.00   0.00   0.00
    26   6     0.01  -0.01   0.01    -0.00   0.00  -0.00     0.00  -0.00   0.00
    27   1     0.01  -0.01   0.01    -0.00   0.00  -0.00     0.01   0.03  -0.01
    28   7     0.00  -0.01  -0.00     0.00   0.00  -0.00    -0.03  -0.02  -0.01
    29   1    -0.00   0.00  -0.03    -0.01  -0.01   0.05    -0.19  -0.12   0.35
    30   1     0.28  -0.19   0.03    -0.01   0.00  -0.00     0.01  -0.01   0.00
    31   1    -0.13   0.29   0.44     0.00  -0.01  -0.01    -0.01   0.01   0.01
    32   1     0.04   0.01   0.00    -0.00   0.00  -0.00    -0.00  -0.00   0.00
    33   7     0.03   0.02  -0.01    -0.00  -0.00   0.00     0.00   0.00  -0.00
    34   6     0.00  -0.02  -0.03     0.00   0.00   0.00    -0.00   0.00  -0.00
    35   6    -0.01  -0.03   0.07    -0.00   0.00  -0.00    -0.00  -0.00   0.00
    36   1    -0.04  -0.03  -0.05     0.00   0.00  -0.00    -0.00   0.00   0.00
    37   1    -0.04  -0.03  -0.06     0.00   0.00   0.00    -0.00  -0.00  -0.00
    38   1    -0.01   0.03   0.04     0.00   0.00   0.00    -0.00  -0.00  -0.00
    39   1    -0.09  -0.05   0.04    -0.00   0.00  -0.00    -0.00  -0.00  -0.00
    40   1     0.00   0.04  -0.07    -0.00  -0.00  -0.00    -0.00  -0.00   0.00
    41   1    -0.12  -0.08   0.12     0.01  -0.00  -0.00    -0.00  -0.00   0.00
    42   6    -0.01  -0.00   0.00    -0.02  -0.01  -0.04     0.11   0.04  -0.09
    43   6     0.01  -0.00   0.01     0.04  -0.05  -0.05    -0.08   0.01  -0.10
    44   6    -0.01  -0.00  -0.01    -0.06   0.04   0.01     0.08   0.08   0.07
    45   1     0.04   0.02   0.01     0.37   0.16   0.24    -0.15  -0.07   0.06
    46   1    -0.03   0.01  -0.01    -0.05   0.12   0.12     0.21   0.02   0.16
    47   1     0.01   0.02   0.00    -0.41   0.04  -0.05    -0.41  -0.12  -0.05
    48   1     0.02   0.02   0.01     0.24   0.12   0.27     0.04  -0.01  -0.03
    49   1     0.01   0.01   0.02     0.14   0.09   0.44    -0.12  -0.04   0.14
    50   1     0.01  -0.02  -0.04     0.09  -0.20  -0.34    -0.07   0.09   0.51
    51   1     0.01  -0.00   0.01     0.14  -0.07   0.04    -0.11  -0.15  -0.33
    52   6    -0.01   0.01   0.00     0.01  -0.00   0.00    -0.02   0.03   0.00
    53   1     0.00   0.01  -0.00     0.00  -0.02   0.00     0.00   0.02  -0.01
    54   1     0.00  -0.00  -0.00    -0.00   0.01  -0.00    -0.01   0.02  -0.01
    55   1    -0.01   0.03  -0.01     0.00  -0.01  -0.00    -0.03   0.09  -0.03
                     73                     74                     75
                      A                      A                      A
 Frequencies --    987.7110               993.5313              1001.2894
 Red. masses --      1.3576                 1.7797                 1.4988
 Frc consts  --      0.7803                 1.0350                 0.8853
 IR Inten    --      0.0000                 0.0000                 0.0000
  Atom  AN      X      Y      Z        X      Y      Z        X      Y      Z
     1  26    -0.00  -0.00   0.00    -0.00  -0.01   0.01     0.00  -0.00   0.00
     2   6     0.00   0.01   0.00     0.00  -0.00  -0.00     0.00   0.00   0.00
     3  46     0.00   0.00   0.00     0.00  -0.00   0.00    -0.00  -0.00  -0.00
     4   6     0.00  -0.00   0.01     0.02  -0.05   0.16     0.00  -0.01   0.00
     5   1    -0.00   0.01   0.00    -0.00   0.00   0.01     0.01  -0.01  -0.01
     6   1     0.01   0.00  -0.00     0.02   0.02  -0.01    -0.03  -0.01  -0.01
     7   1    -0.01   0.01  -0.00    -0.04   0.03  -0.01     0.03  -0.01   0.00
     8   6     0.01  -0.02   0.00    -0.00   0.01  -0.00     0.03  -0.00  -0.14
     9   8     0.00  -0.00   0.00    -0.00   0.00  -0.00    -0.00  -0.00   0.00
    10   6     0.00   0.00  -0.01    -0.02   0.05  -0.11    -0.00   0.00  -0.00
    11   8     0.01   0.00   0.00    -0.02  -0.00  -0.00     0.01   0.00   0.02
    12   6     0.00   0.01   0.00     0.00   0.03   0.02    -0.00  -0.01  -0.00
    13   6    -0.00  -0.00  -0.00    -0.01  -0.00  -0.00     0.00   0.00   0.00
    14   6    -0.00   0.00   0.00    -0.03   0.00   0.00     0.00  -0.00  -0.00
    15   1     0.02   0.03  -0.02    -0.05   0.04  -0.05    -0.05  -0.04   0.02
    16   1     0.02  -0.02  -0.01     0.11  -0.14  -0.08    -0.02   0.02   0.02
    17   1     0.01   0.01   0.00    -0.03  -0.01   0.02    -0.01  -0.03   0.00
    18   1     0.08  -0.00   0.09     0.09   0.01   0.17    -0.11  -0.00  -0.13
    19   6    -0.01  -0.01  -0.01     0.05  -0.06  -0.04     0.02   0.01   0.01
    20   6    -0.00  -0.02  -0.01     0.00   0.00   0.01     0.00   0.00  -0.01
    21   8    -0.01   0.00  -0.00     0.00  -0.00   0.00    -0.00   0.00   0.00
    22   6    -0.00  -0.00  -0.00    -0.00   0.00  -0.00     0.00   0.00   0.00
    23   6     0.00  -0.00  -0.00     0.00   0.00   0.00    -0.01   0.01   0.00
    24   6    -0.00   0.00  -0.00    -0.00   0.00  -0.00     0.00  -0.00   0.00
    25   6    -0.00  -0.00  -0.00     0.00  -0.01  -0.01     0.00   0.00   0.00
    26   6     0.00  -0.00   0.00     0.01  -0.00   0.00    -0.00  -0.00  -0.00
    27   1     0.01   0.02  -0.01     0.02   0.02  -0.02    -0.04  -0.09   0.02
    28   7    -0.02  -0.01  -0.00     0.00   0.00  -0.00    -0.00   0.01   0.02
    29   1    -0.02  -0.04  -0.08    -0.00   0.00   0.02    -0.00  -0.00  -0.02
    30   1    -0.02   0.03   0.01    -0.32   0.47   0.10    -0.01   0.02   0.00
    31   1     0.02  -0.00  -0.02     0.39  -0.04  -0.30     0.02  -0.01  -0.02
    32   1    -0.01  -0.00  -0.00    -0.02  -0.00  -0.02     0.06   0.00   0.01
    33   7     0.00   0.01   0.00     0.02   0.06   0.01    -0.00   0.00   0.00
    34   6     0.00  -0.00  -0.01     0.01  -0.01  -0.08    -0.00   0.00  -0.00
    35   6    -0.00  -0.00   0.00    -0.04   0.01   0.01    -0.00   0.00  -0.00
    36   1    -0.00  -0.00   0.01    -0.04  -0.00   0.08     0.00   0.00   0.01
    37   1    -0.01  -0.02  -0.02    -0.10  -0.20  -0.24     0.00  -0.01  -0.00
    38   1    -0.00  -0.00   0.01    -0.03  -0.02   0.10    -0.00  -0.01  -0.00
    39   1     0.01   0.00  -0.00     0.14   0.06  -0.09     0.01   0.00  -0.00
    40   1    -0.00  -0.01   0.01    -0.06  -0.15   0.23    -0.00  -0.01   0.01
    41   1    -0.00  -0.00   0.00     0.08  -0.03  -0.00     0.01   0.00  -0.01
    42   6    -0.02  -0.01  -0.05     0.00   0.00   0.00    -0.00  -0.00   0.01
    43   6     0.07   0.06  -0.05    -0.01  -0.01   0.00     0.00  -0.00   0.00
    44   6    -0.05  -0.04   0.10     0.00   0.00  -0.01    -0.00  -0.00  -0.00
    45   1    -0.14  -0.11   0.09     0.01   0.01  -0.01     0.01   0.00  -0.00
    46   1     0.52   0.02   0.25    -0.05  -0.00  -0.02    -0.01  -0.00  -0.01
    47   1    -0.23  -0.15   0.01     0.02   0.01  -0.00     0.02   0.01   0.00
    48   1    -0.17  -0.09  -0.21     0.02   0.01   0.02    -0.00  -0.00   0.01
    49   1     0.07   0.06  -0.19    -0.01  -0.01   0.02     0.01   0.00  -0.00
    50   1     0.04   0.08  -0.20    -0.00  -0.01   0.02     0.00  -0.00  -0.03
    51   1     0.07   0.25   0.49    -0.01  -0.03  -0.05     0.00   0.00   0.01
    52   6    -0.02   0.01  -0.00     0.01  -0.00   0.01    -0.06  -0.01   0.13
    53   1     0.00   0.03  -0.01     0.01  -0.06   0.01     0.32  -0.49  -0.06
    54   1     0.01  -0.01  -0.00    -0.03   0.04  -0.02     0.13  -0.11  -0.22
    55   1    -0.01   0.05  -0.01    -0.00  -0.04  -0.00    -0.24   0.60  -0.27
                     76                     77                     78
                      A                      A                      A
 Frequencies --   1003.8619              1019.7610              1033.0217
 Red. masses --      1.4089                 1.4126                 1.4554
 Frc consts  --      0.8365                 0.8655                 0.9151
 IR Inten    --      0.0000                 0.0000                 0.0000
  Atom  AN      X      Y      Z        X      Y      Z        X      Y      Z
     1  26    -0.00   0.00  -0.00    -0.00   0.00  -0.00     0.00   0.00  -0.00
     2   6    -0.00   0.00   0.00    -0.01  -0.00   0.00    -0.00   0.00   0.00
     3  46     0.00   0.00   0.00     0.00  -0.00   0.00     0.00  -0.00   0.00
     4   6    -0.01   0.02  -0.02    -0.00   0.01  -0.01    -0.01   0.01  -0.04
     5   1    -0.01   0.03   0.03    -0.02   0.06   0.04     0.04  -0.12  -0.05
     6   1     0.00  -0.01   0.00     0.04   0.01  -0.00    -0.05  -0.01  -0.02
     7   1    -0.09   0.09  -0.02    -0.16   0.12  -0.01     0.22  -0.14  -0.04
     8   6     0.01  -0.01  -0.03     0.01   0.02   0.00     0.00   0.00   0.00
     9   8    -0.01   0.00  -0.00    -0.00   0.00  -0.01     0.00  -0.00  -0.00
    10   6     0.02  -0.01   0.02     0.01  -0.01   0.01     0.01  -0.02   0.02
    11   8    -0.08  -0.01  -0.02     0.02  -0.03   0.00    -0.00  -0.01  -0.00
    12   6     0.01   0.03   0.01     0.01   0.04   0.01     0.00   0.01   0.00
    13   6     0.00  -0.01   0.00    -0.00  -0.01   0.00     0.00  -0.00   0.00
    14   6     0.01   0.01  -0.00     0.00   0.02  -0.00     0.00   0.01  -0.00
    15   1     0.13   0.11  -0.06     0.18   0.13  -0.06     0.06   0.03  -0.00
    16   1     0.05  -0.05  -0.05     0.06  -0.08  -0.07     0.01  -0.00   0.00
    17   1     0.04   0.07  -0.00     0.06   0.10   0.02     0.02   0.03   0.01
    18   1     0.39   0.03   0.46     0.33   0.00   0.50     0.08  -0.00   0.08
    19   6    -0.07  -0.04  -0.04    -0.07  -0.05  -0.04    -0.03   0.00   0.00
    20   6    -0.01   0.01   0.00     0.05   0.01   0.01     0.01  -0.00   0.00
    21   8     0.01  -0.01  -0.00     0.00  -0.00  -0.00    -0.00  -0.00  -0.00
    22   6    -0.00   0.01   0.01    -0.01   0.00  -0.00     0.01  -0.00   0.01
    23   6     0.01  -0.01  -0.01     0.01  -0.01  -0.00    -0.01   0.01   0.00
    24   6     0.01   0.00  -0.00     0.01   0.01   0.00    -0.01  -0.01  -0.00
    25   6    -0.00  -0.01  -0.00    -0.00  -0.01  -0.00     0.00   0.02   0.01
    26   6     0.01  -0.00   0.01     0.01  -0.01   0.01    -0.01   0.01  -0.00
    27   1     0.02   0.01  -0.05     0.04   0.04  -0.06    -0.02  -0.02  -0.01
    28   7     0.01  -0.03   0.00    -0.02   0.07  -0.01    -0.00   0.01  -0.00
    29   1     0.03   0.04   0.06    -0.02  -0.04   0.02     0.00  -0.00   0.01
    30   1     0.05  -0.08  -0.01     0.03  -0.02   0.01     0.04  -0.11  -0.04
    31   1    -0.08   0.01   0.06    -0.04   0.01   0.04    -0.09  -0.00   0.03
    32   1    -0.11   0.00  -0.04    -0.09  -0.01  -0.02     0.05   0.02   0.02
    33   7     0.00  -0.01  -0.00    -0.00  -0.00   0.00     0.02  -0.01  -0.07
    34   6    -0.00  -0.00   0.01    -0.01  -0.01  -0.00     0.09   0.09   0.03
    35   6     0.01  -0.00   0.00     0.01   0.01   0.00    -0.08  -0.09   0.01
    36   1    -0.00  -0.01  -0.02     0.01  -0.01  -0.02    -0.10   0.03   0.22
    37   1     0.01   0.03   0.03     0.02   0.04   0.04    -0.16  -0.26  -0.28
    38   1     0.00   0.01  -0.00     0.00  -0.01  -0.03    -0.00   0.15   0.41
    39   1    -0.03  -0.01   0.01    -0.01  -0.00  -0.01    -0.02  -0.02   0.28
    40   1     0.01   0.03  -0.05     0.01   0.02  -0.05    -0.11  -0.07   0.36
    41   1    -0.03  -0.01   0.02    -0.03  -0.03   0.03     0.21   0.26  -0.26
    42   6     0.00   0.00  -0.00     0.01  -0.00   0.02     0.00   0.00   0.00
    43   6    -0.00  -0.00   0.00    -0.02  -0.00   0.00    -0.00  -0.00   0.00
    44   6     0.00  -0.00   0.00    -0.00   0.01  -0.02    -0.00   0.00  -0.00
    45   1     0.02   0.01  -0.00    -0.03  -0.01  -0.02    -0.00  -0.00  -0.00
    46   1    -0.04   0.00  -0.02    -0.03  -0.01  -0.02    -0.01  -0.00  -0.00
    47   1     0.01   0.01  -0.00     0.02   0.00   0.00     0.00   0.00   0.00
    48   1     0.03   0.03  -0.03    -0.02  -0.03   0.09     0.00   0.00   0.01
    49   1    -0.01  -0.00  -0.03     0.00  -0.00   0.05     0.00   0.00   0.01
    50   1    -0.00   0.02   0.02     0.00  -0.03  -0.02     0.00  -0.00  -0.00
    51   1    -0.01   0.01   0.01     0.00  -0.04  -0.06     0.00  -0.00  -0.00
    52   6     0.08   0.05   0.06    -0.09  -0.06  -0.01    -0.01  -0.01  -0.00
    53   1     0.06  -0.42   0.02     0.05   0.24  -0.04     0.00   0.02  -0.00
    54   1    -0.26   0.41  -0.16     0.29  -0.43   0.10     0.03  -0.04   0.01
    55   1    -0.07  -0.16  -0.07     0.01   0.29   0.01     0.00   0.02   0.00
                     79                     80                     81
                      A                      A                      A
 Frequencies --   1041.6884              1050.5083              1052.8474
 Red. masses --      1.2329                 1.7779                 1.1463
 Frc consts  --      0.7882                 1.1560                 0.7486
 IR Inten    --      0.0000                 0.0000                 0.0000
  Atom  AN      X      Y      Z        X      Y      Z        X      Y      Z
     1  26    -0.00   0.01   0.00     0.00  -0.00   0.00     0.00   0.00   0.00
     2   6     0.00  -0.00  -0.00     0.00   0.00   0.00    -0.00  -0.00   0.00
     3  46    -0.00   0.00  -0.00     0.00   0.00   0.00     0.00  -0.00   0.00
     4   6     0.02   0.01  -0.01     0.15   0.02   0.01    -0.01  -0.00   0.00
     5   1    -0.19   0.54   0.18     0.03  -0.13  -0.03    -0.12   0.15   0.02
     6   1     0.15   0.03   0.05     0.05   0.06   0.04     0.17   0.11   0.05
     7   1    -0.48   0.31   0.01     0.09  -0.07   0.01     0.40  -0.38   0.00
     8   6    -0.00  -0.00  -0.01     0.00  -0.00   0.00    -0.00  -0.00  -0.01
     9   8     0.00  -0.00   0.00     0.00  -0.00   0.00     0.00  -0.00   0.00
    10   6    -0.00  -0.00   0.01     0.00   0.02   0.01    -0.01  -0.00  -0.00
    11   8     0.01   0.00   0.00    -0.00   0.00  -0.00    -0.00  -0.00  -0.00
    12   6     0.00  -0.01  -0.01    -0.00   0.01   0.01     0.00  -0.00  -0.00
    13   6     0.00   0.00   0.00    -0.01  -0.01  -0.01     0.00  -0.01  -0.01
    14   6    -0.01  -0.01  -0.00    -0.02   0.01  -0.00     0.00   0.01   0.00
    15   1    -0.07  -0.04   0.01    -0.02   0.01  -0.00     0.03  -0.00   0.01
    16   1    -0.04   0.05  -0.02     0.13  -0.16  -0.09     0.07  -0.08  -0.07
    17   1    -0.03  -0.04   0.00    -0.02   0.01  -0.00     0.10   0.16   0.04
    18   1    -0.09   0.00  -0.13     0.04  -0.02   0.03     0.03  -0.00   0.02
    19   6     0.03   0.01   0.01     0.00  -0.03  -0.02    -0.02  -0.00  -0.00
    20   6    -0.00  -0.00   0.00    -0.00  -0.00  -0.00     0.01   0.00  -0.00
    21   8    -0.00   0.00   0.00    -0.00  -0.00  -0.00    -0.00   0.00  -0.00
    22   6    -0.04  -0.01  -0.02     0.00   0.00  -0.00    -0.01  -0.05  -0.03
    23   6     0.05  -0.04  -0.02    -0.01   0.02   0.01     0.00  -0.01   0.00
    24   6     0.00   0.03   0.01    -0.01  -0.01  -0.00    -0.07  -0.02  -0.01
    25   6    -0.01  -0.07  -0.02     0.00   0.01   0.00     0.00  -0.02   0.00
    26   6     0.04  -0.01   0.02    -0.01   0.00  -0.00    -0.01   0.04   0.00
    27   1     0.14   0.29   0.14    -0.03  -0.04  -0.01     0.17   0.62   0.30
    28   7     0.00  -0.00   0.00     0.00  -0.00  -0.00    -0.00   0.00  -0.00
    29   1     0.00   0.00  -0.01     0.00   0.00   0.00     0.01   0.00  -0.00
    30   1     0.03  -0.03  -0.01     0.13   0.04   0.02     0.02   0.05   0.03
    31   1    -0.00   0.03   0.06     0.25   0.13   0.11    -0.01  -0.02  -0.04
    32   1    -0.11  -0.06  -0.04     0.09   0.01  -0.00     0.19  -0.02   0.02
    33   7    -0.01  -0.01  -0.02    -0.11  -0.06  -0.01     0.00  -0.00   0.01
    34   6     0.01   0.03   0.02    -0.07   0.02   0.08    -0.00  -0.00  -0.00
    35   6    -0.03  -0.02  -0.01    -0.04   0.01  -0.10     0.01   0.01   0.00
    36   1    -0.01   0.02   0.07     0.16   0.08   0.07     0.01   0.00  -0.02
    37   1    -0.01  -0.04  -0.02     0.19   0.21   0.33     0.01   0.01   0.01
    38   1    -0.00   0.01   0.08     0.02  -0.17  -0.33     0.00  -0.01  -0.04
    39   1     0.01   0.00   0.08     0.14   0.07   0.01    -0.02  -0.01  -0.02
    40   1    -0.04  -0.04   0.15    -0.08  -0.13   0.33     0.02   0.03  -0.07
    41   1     0.09   0.10  -0.11     0.26   0.20  -0.29    -0.04  -0.03   0.04
    42   6    -0.00   0.00  -0.00    -0.00   0.00  -0.00     0.00  -0.00   0.00
    43   6     0.00  -0.00   0.00     0.00   0.00   0.00    -0.00  -0.00   0.00
    44   6     0.00  -0.00   0.00    -0.00   0.00   0.00    -0.00  -0.00  -0.00
    45   1     0.01   0.00   0.00    -0.00  -0.00  -0.00    -0.00   0.00  -0.00
    46   1    -0.00   0.00  -0.00    -0.00  -0.00  -0.00    -0.01  -0.00  -0.00
    47   1     0.00   0.00  -0.00     0.00   0.00   0.00     0.01   0.00   0.00
    48   1     0.00   0.00  -0.01     0.01   0.01  -0.01     0.00  -0.00   0.01
    49   1    -0.00   0.00  -0.00     0.00   0.00   0.00     0.00   0.00  -0.00
    50   1    -0.00   0.00   0.00     0.00  -0.00  -0.00     0.00  -0.00  -0.01
    51   1     0.00   0.00   0.00     0.00   0.00   0.00     0.00   0.00   0.00
    52   6     0.00   0.00   0.00     0.00   0.00  -0.00     0.00  -0.00   0.01
    53   1     0.01  -0.03   0.00    -0.00  -0.00   0.00     0.01  -0.04  -0.00
    54   1    -0.01   0.02  -0.01    -0.00   0.01  -0.00    -0.00   0.00  -0.01
    55   1    -0.01   0.00  -0.01     0.00  -0.01   0.00    -0.01   0.02  -0.02
                     82                     83                     84
                      A                      A                      A
 Frequencies --   1072.4944              1083.3131              1086.1447
 Red. masses --      1.1136                 1.2439                 1.1301
 Frc consts  --      0.7547                 0.8601                 0.7855
 IR Inten    --      0.0000                 0.0000                 0.0000
  Atom  AN      X      Y      Z        X      Y      Z        X      Y      Z
     1  26    -0.00   0.00   0.00     0.00  -0.00   0.00     0.00   0.00  -0.00
     2   6     0.00   0.00  -0.00     0.00  -0.00   0.00    -0.00   0.00   0.00
     3  46     0.00   0.00  -0.00    -0.00   0.00  -0.00    -0.00   0.00   0.00
     4   6     0.00   0.01   0.00    -0.01  -0.01   0.02    -0.02  -0.00  -0.00
     5   1    -0.07   0.19   0.13    -0.02   0.05   0.03    -0.09   0.19   0.12
     6   1    -0.42  -0.30  -0.18     0.02   0.02   0.00     0.18   0.18   0.01
     7   1     0.09  -0.03   0.00    -0.03   0.02  -0.01    -0.15   0.04   0.02
     8   6    -0.00   0.00  -0.00     0.00  -0.00   0.00     0.00   0.00   0.01
     9   8     0.00  -0.00   0.00    -0.00   0.00  -0.00    -0.00   0.00  -0.00
    10   6    -0.01  -0.01   0.00    -0.00   0.01  -0.01    -0.00  -0.01  -0.00
    11   8     0.01   0.00   0.00    -0.00   0.00   0.00    -0.01  -0.00   0.00
    12   6     0.01  -0.03  -0.01    -0.00  -0.00   0.00     0.00  -0.02  -0.01
    13   6     0.01  -0.02  -0.01     0.00  -0.00  -0.00     0.01  -0.01  -0.00
    14   6    -0.01   0.03   0.01     0.00   0.00   0.00    -0.00   0.02   0.00
    15   1    -0.03  -0.06   0.03    -0.03  -0.01   0.00    -0.03  -0.04   0.02
    16   1     0.24  -0.27  -0.24     0.03  -0.03  -0.03     0.12  -0.12  -0.15
    17   1     0.31   0.43   0.21     0.02   0.03   0.01     0.15   0.22   0.07
    18   1    -0.08  -0.01  -0.17     0.00  -0.01   0.01    -0.01  -0.02  -0.00
    19   6    -0.03   0.01   0.01     0.00  -0.01  -0.01    -0.03   0.01   0.01
    20   6    -0.01  -0.00   0.00    -0.00   0.00  -0.00    -0.01  -0.00  -0.00
    21   8    -0.00   0.00   0.00     0.00  -0.00   0.00     0.01  -0.01   0.00
    22   6     0.02   0.01   0.02    -0.01  -0.00  -0.00    -0.03  -0.03  -0.02
    23   6    -0.02  -0.02  -0.02    -0.00   0.01   0.00    -0.02   0.04   0.01
    24   6     0.03   0.02  -0.00     0.00   0.00   0.00    -0.00   0.01   0.01
    25   6    -0.01   0.02   0.01     0.01  -0.00   0.00     0.04  -0.02   0.01
    26   6     0.04  -0.01   0.01    -0.00  -0.00  -0.00    -0.03  -0.01  -0.02
    27   1     0.03  -0.06  -0.04    -0.03  -0.09  -0.04    -0.14  -0.34  -0.15
    28   7     0.00  -0.00   0.00     0.00  -0.00   0.00     0.01  -0.01   0.00
    29   1     0.00   0.00  -0.01    -0.00   0.00   0.01    -0.00   0.00   0.02
    30   1     0.01   0.01   0.01    -0.00   0.08   0.05     0.04   0.03   0.03
    31   1     0.03   0.02  -0.01     0.00  -0.02  -0.03    -0.04  -0.02  -0.01
    32   1    -0.25   0.02  -0.03     0.14  -0.00   0.01     0.71  -0.02   0.09
    33   7    -0.00  -0.00  -0.00    -0.00   0.00   0.03     0.01   0.00  -0.01
    34   6    -0.00  -0.00   0.00    -0.06   0.06  -0.04     0.02  -0.01   0.01
    35   6    -0.00   0.00   0.00     0.07  -0.07  -0.01    -0.01   0.01   0.01
    36   1     0.00   0.00  -0.00     0.15   0.16   0.42    -0.04  -0.04  -0.09
    37   1     0.00   0.00   0.00     0.07  -0.23  -0.11    -0.02   0.04   0.01
    38   1     0.00  -0.00  -0.01    -0.02  -0.30  -0.21     0.00   0.07   0.08
    39   1     0.00   0.00  -0.00    -0.29  -0.13   0.37     0.03   0.02  -0.06
    40   1    -0.00  -0.00  -0.00     0.09   0.31  -0.29    -0.01  -0.04   0.02
    41   1    -0.00  -0.00   0.00    -0.05   0.21  -0.13    -0.01  -0.05   0.04
    42   6    -0.00   0.00  -0.00    -0.00  -0.00  -0.00    -0.00   0.00  -0.00
    43   6     0.00  -0.00  -0.00     0.00  -0.00  -0.00     0.00   0.00  -0.00
    44   6     0.00   0.00   0.00     0.00   0.00   0.00     0.00   0.00   0.00
    45   1     0.00   0.00   0.00     0.01   0.00   0.00     0.00   0.00   0.00
    46   1     0.00   0.00   0.00    -0.00   0.00   0.00     0.00   0.00   0.00
    47   1    -0.00   0.00  -0.00    -0.00   0.00  -0.00    -0.00  -0.00  -0.00
    48   1     0.00   0.00  -0.01    -0.01  -0.01   0.00    -0.00   0.00  -0.01
    49   1    -0.00  -0.00  -0.00    -0.00   0.00   0.00    -0.00  -0.00  -0.00
    50   1    -0.00   0.00   0.00    -0.00   0.00   0.01    -0.00   0.00   0.01
    51   1    -0.00   0.00   0.00    -0.00  -0.00  -0.00    -0.00   0.00  -0.00
    52   6     0.00   0.00  -0.00     0.00   0.00  -0.00     0.00   0.00  -0.00
    53   1    -0.00   0.00   0.00    -0.00   0.00   0.00    -0.01   0.01   0.00
    54   1    -0.00   0.00   0.00    -0.00   0.00   0.00    -0.01   0.01   0.00
    55   1     0.00  -0.00   0.00     0.00  -0.01   0.00     0.01  -0.03   0.01
                     85                     86                     87
                      A                      A                      A
 Frequencies --   1095.4799              1110.5349              1117.3435
 Red. masses --      1.1107                 1.7843                 1.3289
 Frc consts  --      0.7854                 1.2965                 0.9775
 IR Inten    --      0.0000                 0.0000                 0.0000
  Atom  AN      X      Y      Z        X      Y      Z        X      Y      Z
     1  26    -0.00  -0.00  -0.00    -0.00   0.00   0.00    -0.00   0.00  -0.00
     2   6    -0.00   0.00   0.00    -0.03  -0.03   0.02     0.00   0.00  -0.00
     3  46     0.00  -0.00   0.00     0.00  -0.00  -0.00     0.00   0.00  -0.00
     4   6     0.01  -0.00  -0.01     0.00  -0.00  -0.00    -0.01  -0.02  -0.01
     5   1    -0.17   0.48   0.11     0.01  -0.02  -0.00     0.03  -0.16   0.02
     6   1    -0.40  -0.27  -0.13     0.01   0.01   0.00     0.09   0.05   0.05
     7   1     0.20  -0.18   0.01    -0.01   0.01  -0.00    -0.07   0.07  -0.00
     8   6     0.00  -0.00   0.01     0.01  -0.05   0.01     0.00   0.00  -0.00
     9   8    -0.00   0.00  -0.00     0.01   0.01   0.02    -0.00  -0.00  -0.00
    10   6     0.02   0.01   0.01     0.00   0.00  -0.00     0.07   0.04   0.01
    11   8    -0.00  -0.00   0.00     0.01   0.01   0.00     0.00  -0.00   0.01
    12   6    -0.02   0.03   0.02    -0.00  -0.00   0.00    -0.06   0.03   0.05
    13   6     0.01   0.02   0.02     0.00   0.00   0.00     0.04   0.03   0.01
    14   6     0.01  -0.01  -0.01     0.00  -0.00  -0.00     0.05   0.02  -0.00
    15   1    -0.06   0.04  -0.04    -0.06  -0.02  -0.00    -0.27  -0.02  -0.01
    16   1    -0.06   0.10   0.02     0.04  -0.03  -0.02     0.47  -0.44  -0.35
    17   1    -0.26  -0.42  -0.08    -0.00  -0.01  -0.00    -0.22  -0.34  -0.14
    18   1     0.10   0.01   0.11     0.01  -0.00  -0.09     0.01  -0.01  -0.23
    19   6     0.01  -0.02  -0.01    -0.00   0.01   0.00    -0.09  -0.01   0.02
    20   6     0.00   0.00  -0.00     0.07   0.11  -0.13    -0.01  -0.01   0.01
    21   8     0.00  -0.00  -0.00     0.02  -0.01  -0.01    -0.00   0.00   0.00
    22   6     0.00  -0.02  -0.00     0.00   0.00   0.00     0.00   0.00   0.00
    23   6    -0.03  -0.01  -0.02     0.00   0.00   0.00     0.02   0.00   0.00
    24   6    -0.01   0.02   0.00     0.00  -0.00  -0.00     0.00  -0.00  -0.00
    25   6     0.02   0.02   0.02    -0.00  -0.00  -0.00    -0.01  -0.01  -0.00
    26   6     0.03  -0.01   0.00    -0.00  -0.00  -0.00    -0.02   0.00  -0.00
    27   1     0.02  -0.08  -0.08    -0.00   0.00   0.00     0.00   0.07   0.05
    28   7    -0.00   0.00  -0.00    -0.06  -0.01  -0.01     0.00  -0.00   0.00
    29   1    -0.01  -0.00   0.01    -0.08   0.10   0.59     0.00  -0.01  -0.05
    30   1    -0.06  -0.07  -0.05    -0.01  -0.01  -0.01    -0.09  -0.11  -0.08
    31   1     0.03   0.00  -0.02     0.00   0.00   0.00    -0.09  -0.08  -0.06
    32   1     0.26   0.00   0.07    -0.01   0.00  -0.00    -0.07  -0.00  -0.02
    33   7    -0.01  -0.00   0.01    -0.00   0.00   0.00    -0.00   0.00   0.02
    34   6    -0.00  -0.00  -0.00     0.00   0.00  -0.00     0.01  -0.01  -0.01
    35   6    -0.00   0.01  -0.01    -0.00   0.00   0.00     0.01  -0.00  -0.01
    36   1     0.01  -0.00  -0.01    -0.00  -0.00   0.00    -0.04  -0.03  -0.04
    37   1     0.00   0.00   0.00    -0.00  -0.01  -0.01    -0.03  -0.01  -0.04
    38   1     0.00  -0.01  -0.03    -0.00   0.00   0.00     0.00   0.04   0.05
    39   1     0.02   0.01  -0.03     0.01   0.00  -0.01    -0.02  -0.01   0.02
    40   1    -0.00  -0.01   0.01    -0.00  -0.01   0.01     0.01   0.03  -0.04
    41   1     0.01  -0.00  -0.00     0.00  -0.00   0.00    -0.00   0.02  -0.01
    42   6     0.00  -0.00   0.00     0.01  -0.12  -0.03    -0.00   0.01   0.00
    43   6    -0.00   0.00  -0.00     0.02   0.04   0.03     0.00  -0.00  -0.00
    44   6    -0.00   0.00  -0.00    -0.04   0.07   0.02     0.00  -0.00  -0.00
    45   1    -0.01  -0.00  -0.00    -0.16  -0.08  -0.08     0.01   0.00   0.01
    46   1     0.00  -0.00  -0.00     0.10  -0.06  -0.03    -0.00   0.00   0.00
    47   1     0.00  -0.00   0.00     0.17  -0.04   0.04    -0.01   0.00  -0.00
    48   1    -0.00  -0.00   0.01    -0.37  -0.34   0.16     0.02   0.02  -0.01
    49   1     0.00   0.00   0.00     0.03   0.04   0.36    -0.00  -0.00  -0.02
    50   1     0.00  -0.00  -0.00     0.02  -0.13  -0.06    -0.00   0.01   0.01
    51   1     0.00  -0.00  -0.00     0.06  -0.11  -0.09    -0.00   0.00   0.00
    52   6    -0.00   0.00  -0.00    -0.00   0.03  -0.00    -0.00  -0.00  -0.00
    53   1    -0.00   0.02  -0.00    -0.02   0.01   0.00    -0.00   0.01  -0.00
    54   1     0.01  -0.01   0.01    -0.05   0.08  -0.01     0.00  -0.01   0.00
    55   1     0.00  -0.00   0.01    -0.01   0.01  -0.01    -0.00   0.01  -0.00
                     88                     89                     90
                      A                      A                      A
 Frequencies --   1143.4743              1150.7577              1163.3758
 Red. masses --      2.6008                 1.5580                 2.9096
 Frc consts  --      2.0036                 1.2156                 2.3202
 IR Inten    --      0.0000                 0.0000                 0.0000
  Atom  AN      X      Y      Z        X      Y      Z        X      Y      Z
     1  26    -0.00   0.00   0.00     0.00   0.00  -0.00     0.00  -0.00  -0.00
     2   6     0.00   0.00  -0.01     0.00  -0.00  -0.00    -0.01   0.01   0.02
     3  46     0.00  -0.00   0.00    -0.00   0.00  -0.00    -0.00   0.00   0.00
     4   6    -0.01   0.00  -0.01    -0.02   0.01  -0.04     0.01   0.00  -0.00
     5   1     0.01  -0.02  -0.00     0.02  -0.06   0.00     0.00  -0.01  -0.00
     6   1     0.01   0.01  -0.01     0.04   0.03  -0.05     0.01   0.01  -0.01
     7   1    -0.03   0.02  -0.00    -0.05   0.02  -0.01     0.01  -0.01   0.00
     8   6     0.01  -0.12   0.01     0.00   0.00  -0.00    -0.01   0.12  -0.01
     9   8     0.00  -0.00  -0.00    -0.00  -0.00  -0.00    -0.01   0.01   0.00
    10   6    -0.00  -0.01   0.00     0.03  -0.05   0.03     0.01  -0.01   0.01
    11   8     0.02   0.02   0.00    -0.00  -0.00  -0.00    -0.04  -0.03  -0.01
    12   6     0.00  -0.00  -0.00     0.01  -0.01  -0.01    -0.00  -0.01  -0.00
    13   6     0.00   0.00  -0.00    -0.00   0.01   0.00    -0.00  -0.00   0.00
    14   6    -0.00  -0.01  -0.00    -0.02   0.01   0.00    -0.01   0.01   0.00
    15   1    -0.10  -0.04  -0.01     0.16   0.03   0.02     0.08   0.02   0.00
    16   1    -0.00   0.01   0.01    -0.01   0.02  -0.01    -0.00  -0.00  -0.00
    17   1     0.04   0.04   0.02     0.03   0.06   0.05    -0.01   0.00   0.01
    18   1     0.07  -0.03  -0.11    -0.01  -0.01  -0.05    -0.04   0.04   0.04
    19   6     0.00   0.01   0.01    -0.03   0.01   0.01     0.00   0.00   0.00
    20   6     0.13   0.03   0.00     0.00  -0.01   0.01    -0.19   0.07  -0.11
    21   8    -0.01   0.01   0.00    -0.00   0.00   0.00     0.03  -0.03  -0.01
    22   6     0.00  -0.00   0.00    -0.00  -0.01  -0.01    -0.00  -0.00  -0.00
    23   6     0.00   0.00   0.00     0.01   0.00   0.01     0.00  -0.00   0.00
    24   6     0.00   0.00   0.00     0.00   0.01   0.01    -0.00  -0.00   0.00
    25   6     0.00  -0.00   0.00    -0.00   0.00  -0.00    -0.00  -0.00  -0.00
    26   6    -0.01  -0.00  -0.00    -0.01  -0.00  -0.00     0.00   0.00  -0.00
    27   1    -0.01  -0.02  -0.01    -0.00   0.05   0.03     0.01   0.04   0.03
    28   7    -0.13  -0.01  -0.03    -0.00   0.00  -0.00     0.21  -0.05   0.08
    29   1     0.08   0.01  -0.03     0.04   0.01  -0.00    -0.54  -0.21  -0.04
    30   1    -0.04  -0.04  -0.03    -0.32  -0.36  -0.27    -0.07  -0.08  -0.06
    31   1     0.05   0.05   0.05     0.27   0.28   0.30     0.05   0.04   0.04
    32   1     0.04   0.00   0.00     0.08  -0.00   0.02    -0.02  -0.00  -0.00
    33   7     0.01  -0.01   0.01     0.02  -0.04   0.13    -0.01   0.01   0.04
    34   6    -0.01   0.01  -0.01    -0.00   0.03  -0.09     0.01  -0.01  -0.02
    35   6    -0.01   0.02  -0.00    -0.01   0.08  -0.05     0.01   0.00  -0.02
    36   1     0.03   0.03   0.08     0.02   0.06   0.25    -0.02  -0.02  -0.02
    37   1     0.01  -0.05  -0.03    -0.03  -0.25  -0.24    -0.03  -0.02  -0.04
    38   1    -0.00  -0.05  -0.02    -0.01  -0.16  -0.02    -0.00   0.02   0.02
    39   1     0.03   0.02  -0.05     0.18   0.09  -0.21    -0.01  -0.00   0.03
    40   1    -0.01  -0.04   0.02    -0.02  -0.12   0.09     0.00   0.02  -0.00
    41   1     0.02  -0.03   0.02     0.06  -0.08   0.03     0.03   0.03  -0.04
    42   6     0.14   0.04   0.17    -0.02   0.00  -0.02     0.12  -0.05   0.07
    43   6    -0.12   0.04  -0.06     0.02  -0.01   0.01    -0.07   0.08  -0.03
    44   6    -0.02  -0.09  -0.09     0.00   0.01   0.01    -0.04  -0.01  -0.03
    45   1    -0.30  -0.11  -0.02     0.06   0.02   0.01    -0.37  -0.14  -0.08
    46   1     0.11  -0.01   0.07    -0.03   0.00  -0.01     0.20  -0.04   0.04
    47   1    -0.20  -0.11  -0.01     0.02   0.02   0.00    -0.01  -0.13   0.02
    48   1     0.38   0.15   0.53    -0.04  -0.01  -0.08     0.23   0.01   0.31
    49   1     0.07  -0.02  -0.23    -0.01   0.00   0.01     0.07   0.03   0.07
    50   1     0.03  -0.03  -0.23    -0.00   0.01   0.03     0.03  -0.09  -0.19
    51   1     0.05   0.06   0.11    -0.01  -0.00  -0.01     0.07  -0.02   0.04
    52   6    -0.01   0.06  -0.00    -0.00  -0.00   0.00     0.01  -0.04   0.00
    53   1    -0.03   0.02   0.00     0.00  -0.00  -0.00     0.02  -0.03   0.00
    54   1    -0.09   0.14  -0.03     0.00  -0.01   0.00     0.08  -0.11   0.04
    55   1    -0.02   0.02  -0.02     0.00   0.00  -0.00     0.02  -0.03   0.01
                     91                     92                     93
                      A                      A                      A
 Frequencies --   1170.0960              1174.2866              1182.0200
 Red. masses --      1.2742                 1.6019                 2.0932
 Frc consts  --      1.0278                 1.3015                 1.7231
 IR Inten    --      0.0000                 0.0000                 0.0000
  Atom  AN      X      Y      Z        X      Y      Z        X      Y      Z
     1  26     0.00  -0.00   0.00     0.00   0.00   0.00     0.00   0.00   0.00
     2   6     0.00  -0.00  -0.00     0.00  -0.01  -0.00    -0.00   0.00   0.00
     3  46     0.00  -0.00  -0.00    -0.00  -0.00  -0.00     0.00  -0.00  -0.00
     4   6     0.02   0.01   0.01    -0.01  -0.00   0.00     0.08   0.02   0.01
     5   1    -0.02   0.04   0.02    -0.00   0.00   0.00     0.03  -0.10  -0.04
     6   1    -0.01   0.00  -0.01    -0.01  -0.00   0.00    -0.08  -0.05  -0.06
     7   1    -0.02   0.00   0.01    -0.01   0.01   0.00    -0.06   0.05   0.00
     8   6    -0.01  -0.01  -0.01     0.00   0.01   0.00     0.00  -0.02   0.00
     9   8     0.00  -0.00   0.00     0.01  -0.00   0.02     0.00  -0.00  -0.00
    10   6     0.03   0.00  -0.02     0.00   0.00  -0.01     0.02  -0.03  -0.00
    11   8     0.01   0.01  -0.00     0.01   0.00   0.00     0.00   0.00   0.00
    12   6     0.02   0.02   0.01     0.00   0.01   0.01     0.00  -0.04  -0.03
    13   6    -0.04   0.00  -0.00    -0.01   0.00  -0.00    -0.00  -0.02  -0.00
    14   6    -0.03   0.05   0.02     0.00   0.01   0.01    -0.05  -0.01  -0.00
    15   1     0.79   0.21   0.18     0.20   0.06   0.05    -0.28  -0.12  -0.08
    16   1    -0.00  -0.04  -0.03     0.01  -0.02  -0.01    -0.06   0.05   0.05
    17   1    -0.11  -0.09   0.01    -0.03  -0.03  -0.00     0.04   0.10   0.06
    18   1    -0.24  -0.06  -0.27    -0.04  -0.02  -0.12     0.08   0.03   0.22
    19   6    -0.03  -0.08  -0.01    -0.01  -0.02  -0.00     0.02   0.07   0.02
    20   6     0.01   0.02   0.00     0.00  -0.10  -0.03     0.02  -0.02   0.00
    21   8    -0.00   0.00   0.00    -0.01   0.01   0.00     0.00   0.00   0.00
    22   6    -0.00  -0.00  -0.01     0.00   0.00  -0.00     0.02  -0.01   0.00
    23   6    -0.01   0.00   0.00    -0.00   0.00   0.00     0.01   0.01   0.00
    24   6     0.00   0.00   0.00     0.00   0.00  -0.00    -0.01   0.01   0.01
    25   6    -0.00  -0.00  -0.00    -0.00  -0.00  -0.00    -0.01   0.00  -0.00
    26   6     0.00  -0.00   0.00     0.00  -0.00   0.00    -0.00  -0.02  -0.01
    27   1    -0.01  -0.02   0.00    -0.00  -0.01   0.00     0.03   0.10   0.04
    28   7    -0.02  -0.01  -0.00    -0.02   0.01   0.00    -0.03   0.01  -0.01
    29   1     0.05   0.04  -0.05    -0.05  -0.05   0.48     0.02   0.00   0.09
    30   1    -0.02  -0.00  -0.01     0.01   0.02   0.02    -0.13  -0.15  -0.13
    31   1    -0.04  -0.04  -0.05    -0.02  -0.02  -0.02     0.00  -0.00   0.00
    32   1     0.02  -0.00   0.01     0.00  -0.00  -0.00     0.12  -0.00   0.02
    33   7    -0.03   0.03   0.03     0.01  -0.00  -0.01    -0.09   0.11   0.14
    34   6     0.01  -0.03  -0.01    -0.00   0.00   0.00     0.04  -0.11  -0.05
    35   6     0.02  -0.02  -0.02     0.00   0.00   0.00     0.04  -0.05  -0.08
    36   1    -0.06  -0.06  -0.13     0.01   0.01   0.01    -0.18  -0.17  -0.36
    37   1    -0.04   0.05   0.01     0.01  -0.00   0.01    -0.13   0.12  -0.03
    38   1     0.00   0.08   0.05    -0.00  -0.01  -0.01     0.00   0.23   0.13
    39   1    -0.06  -0.02   0.10    -0.01  -0.00  -0.00    -0.12  -0.05   0.28
    40   1     0.01   0.08  -0.03     0.00  -0.00  -0.01     0.02   0.21  -0.02
    41   1     0.02   0.09  -0.08    -0.01  -0.01   0.01     0.09   0.28  -0.27
    42   6    -0.01  -0.01   0.03     0.09   0.07  -0.11     0.01   0.02  -0.02
    43   6     0.01  -0.00  -0.02    -0.06  -0.00   0.07    -0.01  -0.01   0.01
    44   6     0.01  -0.00  -0.01    -0.07  -0.02   0.05    -0.01  -0.01   0.01
    45   1     0.02  -0.00   0.04    -0.10   0.01  -0.18     0.02   0.01  -0.01
    46   1     0.04   0.01   0.04    -0.23  -0.07  -0.18    -0.05  -0.00  -0.03
    47   1    -0.07  -0.02  -0.01     0.28   0.08   0.02     0.03   0.02  -0.00
    48   1    -0.05  -0.04   0.08     0.34   0.23  -0.26     0.03   0.03  -0.04
    49   1    -0.02  -0.02  -0.03     0.12   0.08   0.02     0.01   0.01  -0.02
    50   1    -0.01   0.00   0.04     0.04  -0.00  -0.24     0.00   0.01  -0.02
    51   1    -0.02  -0.02  -0.05     0.08   0.12   0.30     0.01   0.02   0.04
    52   6     0.01   0.01   0.00    -0.00  -0.00  -0.00    -0.00   0.00  -0.00
    53   1    -0.00  -0.02   0.00    -0.00   0.00   0.00    -0.00   0.01  -0.00
    54   1    -0.02   0.03  -0.01     0.01  -0.02   0.02    -0.00   0.00   0.00
    55   1    -0.01  -0.01  -0.01     0.00   0.01   0.00    -0.00   0.01  -0.00
                     94                     95                     96
                      A                      A                      A
 Frequencies --   1188.1263              1196.2467              1217.8415
 Red. masses --      1.3039                 1.7562                 1.7093
 Frc consts  --      1.0845                 1.4807                 1.4936
 IR Inten    --      0.0000                 0.0000                 0.0000
  Atom  AN      X      Y      Z        X      Y      Z        X      Y      Z
     1  26     0.00  -0.00  -0.00    -0.00  -0.00   0.00     0.01  -0.00  -0.00
     2   6    -0.00  -0.00   0.00    -0.01   0.01   0.02     0.01  -0.01  -0.01
     3  46    -0.00   0.00   0.00    -0.00  -0.00  -0.00    -0.00  -0.00   0.00
     4   6    -0.01  -0.00   0.00     0.00  -0.00  -0.00    -0.01   0.01   0.00
     5   1     0.13  -0.35  -0.10     0.00  -0.00  -0.00     0.01  -0.01   0.01
     6   1    -0.40  -0.28  -0.15     0.00  -0.00   0.00     0.01  -0.02  -0.00
     7   1    -0.30   0.23   0.00     0.01  -0.00  -0.00     0.00  -0.02   0.01
     8   6    -0.00   0.00  -0.00     0.00   0.05   0.00    -0.04   0.01  -0.01
     9   8    -0.00   0.00  -0.00     0.01   0.00   0.02     0.01  -0.00   0.01
    10   6    -0.01   0.01   0.00    -0.00   0.00   0.00     0.06   0.01   0.00
    11   8    -0.00   0.00  -0.00    -0.00  -0.01  -0.00     0.03   0.02  -0.00
    12   6     0.00   0.01   0.00    -0.00  -0.00   0.00    -0.07  -0.12  -0.07
    13   6    -0.00   0.00  -0.00     0.00   0.00   0.00    -0.05  -0.02   0.00
    14   6     0.01   0.00   0.00     0.00  -0.00  -0.00    -0.04   0.08   0.02
    15   1     0.05   0.02   0.01    -0.02  -0.00  -0.01     0.18  -0.05  -0.06
    16   1    -0.00   0.00   0.01     0.00   0.00   0.00     0.14  -0.23  -0.15
    17   1     0.01  -0.01   0.01     0.00  -0.00  -0.00    -0.18  -0.13  -0.02
    18   1    -0.03  -0.00   0.00     0.03   0.03  -0.02    -0.48   0.06   0.67
    19   6     0.00  -0.01  -0.01     0.00   0.00  -0.00     0.08   0.09   0.02
    20   6    -0.00   0.00  -0.00    -0.04  -0.05  -0.15     0.00  -0.00  -0.01
    21   8     0.00  -0.00  -0.00     0.01  -0.01  -0.01    -0.02   0.01  -0.00
    22   6     0.06  -0.04   0.00    -0.00   0.00   0.00    -0.01  -0.00  -0.00
    23   6     0.05   0.03   0.02     0.00  -0.00  -0.00     0.01  -0.02  -0.00
    24   6    -0.02   0.06   0.02    -0.00  -0.00  -0.00     0.01   0.01   0.01
    25   6    -0.07   0.01  -0.01     0.00   0.00  -0.00     0.00   0.01  -0.00
    26   6    -0.02  -0.06  -0.03     0.00   0.00   0.00    -0.00   0.01  -0.01
    27   1     0.11   0.37   0.18     0.00   0.01   0.01    -0.02  -0.02   0.02
    28   7     0.00  -0.00   0.00     0.02   0.02   0.02    -0.01  -0.01  -0.00
    29   1    -0.00   0.00  -0.01     0.07   0.16   0.72     0.07   0.05   0.03
    30   1     0.01   0.03   0.02    -0.00   0.00  -0.00     0.00  -0.03  -0.01
    31   1    -0.00  -0.01  -0.02     0.02   0.01   0.01    -0.13  -0.10  -0.08
    32   1     0.46  -0.01   0.09    -0.02  -0.00  -0.00    -0.03  -0.00   0.01
    33   7     0.02  -0.01  -0.04    -0.00  -0.00  -0.00     0.02  -0.03  -0.01
    34   6    -0.01   0.01   0.02    -0.00   0.00   0.00    -0.01   0.02   0.00
    35   6    -0.01  -0.00   0.02    -0.00   0.00   0.00    -0.01   0.01   0.00
    36   1     0.03   0.02   0.04     0.01   0.01   0.02     0.02   0.03   0.07
    37   1     0.03   0.02   0.04     0.00  -0.01  -0.00     0.02  -0.03  -0.00
    38   1    -0.00  -0.03  -0.02    -0.00  -0.00   0.00    -0.00  -0.05  -0.02
    39   1    -0.00  -0.00  -0.01     0.01   0.00  -0.02     0.02   0.01  -0.04
    40   1    -0.00  -0.02  -0.00    -0.00  -0.01  -0.00    -0.01  -0.05   0.02
    41   1    -0.02  -0.03   0.04    -0.00  -0.01   0.01     0.01  -0.05   0.04
    42   6    -0.00  -0.00   0.00    -0.09   0.09   0.08     0.01  -0.00   0.00
    43   6     0.00   0.00  -0.00     0.04  -0.04  -0.04    -0.00   0.00  -0.00
    44   6     0.00   0.00  -0.00     0.05  -0.07  -0.02    -0.00  -0.00  -0.00
    45   1    -0.00  -0.00   0.00     0.21   0.06   0.14    -0.02  -0.01  -0.01
    46   1     0.01   0.00   0.00    -0.00   0.08   0.10     0.01  -0.00   0.00
    47   1    -0.01  -0.00  -0.00    -0.22   0.04  -0.04    -0.00  -0.01   0.00
    48   1    -0.01  -0.01   0.01    -0.06   0.08   0.22     0.02   0.00   0.04
    49   1    -0.00  -0.00   0.00    -0.07  -0.08  -0.35     0.01   0.00   0.00
    50   1    -0.00  -0.00   0.00    -0.03   0.13   0.12     0.00  -0.00  -0.01
    51   1    -0.00  -0.00  -0.01    -0.10   0.08   0.03     0.01   0.00   0.01
    52   6     0.00  -0.00   0.00    -0.00  -0.02  -0.00     0.01  -0.00   0.01
    53   1    -0.00  -0.01   0.00     0.01  -0.00  -0.00    -0.00  -0.03   0.01
    54   1     0.00  -0.00  -0.00     0.03  -0.05   0.03    -0.02   0.03  -0.01
    55   1    -0.00  -0.01  -0.00     0.02   0.00   0.02    -0.01  -0.03  -0.01
                     97                     98                     99
                      A                      A                      A
 Frequencies --   1246.6097              1248.0737              1259.6334
 Red. masses --      4.7996                 1.3547                 2.6242
 Frc consts  --      4.3945                 1.2433                 2.4532
 IR Inten    --      0.0000                 0.0000                 0.0000
  Atom  AN      X      Y      Z        X      Y      Z        X      Y      Z
     1  26    -0.00  -0.01   0.02    -0.00   0.00  -0.00    -0.00   0.00   0.00
     2   6     0.03  -0.04  -0.03    -0.00   0.02   0.01    -0.01   0.01   0.01
     3  46    -0.00  -0.00   0.00    -0.00  -0.00  -0.00    -0.00   0.00  -0.00
     4   6     0.01  -0.00  -0.00     0.00   0.00  -0.00    -0.11   0.04   0.00
     5   1     0.21   0.03   0.17     0.00   0.00   0.00     0.01   0.02   0.01
     6   1     0.11  -0.26   0.05     0.00  -0.01   0.00     0.02  -0.01  -0.01
     7   1    -0.13  -0.28  -0.01    -0.00  -0.01  -0.00     0.00  -0.04   0.01
     8   6    -0.03   0.01  -0.01    -0.00   0.04  -0.00     0.01  -0.00   0.00
     9   8     0.02  -0.00   0.03    -0.00   0.00   0.00    -0.01   0.00  -0.01
    10   6    -0.05  -0.01   0.01    -0.01   0.00   0.00     0.03  -0.02  -0.03
    11   8     0.03   0.01   0.00     0.01  -0.00   0.00    -0.01  -0.01  -0.00
    12   6     0.01   0.07   0.03     0.00   0.01   0.01     0.01  -0.00  -0.00
    13   6     0.04   0.02   0.00     0.01   0.00  -0.00     0.00   0.01   0.00
    14   6     0.04  -0.05  -0.02     0.00  -0.01  -0.00    -0.03  -0.01   0.00
    15   1    -0.13   0.05  -0.04    -0.03   0.00  -0.00     0.02  -0.00   0.00
    16   1    -0.01   0.08  -0.03    -0.01   0.02   0.01    -0.01   0.03   0.01
    17   1     0.09   0.08  -0.06     0.02   0.01  -0.00    -0.01   0.01   0.02
    18   1    -0.33   0.01   0.17     0.00   0.00  -0.00     0.09   0.00  -0.08
    19   6    -0.04  -0.07  -0.02    -0.01  -0.01  -0.00    -0.02   0.01   0.01
    20   6    -0.00   0.01  -0.00    -0.06  -0.06  -0.02     0.01   0.00  -0.00
    21   8    -0.04   0.03  -0.00     0.01  -0.01  -0.00     0.01  -0.01   0.00
    22   6    -0.14  -0.17  -0.12    -0.00  -0.00  -0.00    -0.01  -0.01  -0.01
    23   6     0.16  -0.19  -0.06     0.00  -0.00  -0.00     0.01  -0.01  -0.01
    24   6     0.23   0.08   0.04     0.00   0.00   0.00     0.01   0.00   0.00
    25   6     0.01   0.24   0.06    -0.00   0.00   0.00     0.01   0.02   0.01
    26   6    -0.22   0.09  -0.05    -0.00   0.00   0.00    -0.02   0.01  -0.00
    27   1    -0.28   0.05   0.08    -0.00   0.01  -0.00    -0.02   0.01   0.00
    28   7    -0.00  -0.01  -0.00    -0.02   0.02  -0.00     0.00   0.00   0.00
    29   1    -0.02  -0.01   0.01     0.65   0.45   0.03    -0.04  -0.03   0.01
    30   1    -0.02   0.02  -0.00     0.01   0.00   0.00    -0.05  -0.08  -0.02
    31   1     0.14   0.10   0.06    -0.02  -0.01  -0.01    -0.30  -0.16  -0.14
    32   1    -0.07   0.20   0.16    -0.00   0.00   0.00    -0.01   0.02   0.01
    33   7    -0.02   0.02  -0.01    -0.00   0.00   0.01     0.26   0.09   0.07
    34   6     0.01  -0.01   0.01     0.00  -0.00  -0.00    -0.11  -0.07  -0.02
    35   6     0.01  -0.01   0.00     0.00   0.00  -0.00    -0.10  -0.06  -0.04
    36   1    -0.02  -0.02  -0.08    -0.01  -0.00  -0.01     0.21   0.04  -0.12
    37   1    -0.01   0.03   0.02    -0.01  -0.00  -0.01     0.19   0.14   0.25
    38   1     0.01   0.05   0.02    -0.00   0.00  -0.00    -0.01  -0.13  -0.38
    39   1    -0.04  -0.02   0.04    -0.01  -0.00   0.01     0.14   0.05   0.18
    40   1     0.01   0.04  -0.03    -0.00  -0.00   0.00    -0.12  -0.08   0.38
    41   1    -0.02   0.02  -0.01     0.01   0.01  -0.01     0.25   0.14  -0.22
    42   6     0.02   0.01  -0.01    -0.03  -0.11   0.02    -0.01   0.00   0.01
    43   6    -0.00  -0.01   0.00    -0.01   0.07  -0.01     0.00  -0.00  -0.00
    44   6    -0.00  -0.01  -0.00     0.00   0.04  -0.00     0.00   0.00  -0.00
    45   1     0.01   0.00  -0.01    -0.18  -0.07  -0.04     0.01   0.00   0.01
    46   1    -0.03  -0.00  -0.01     0.22  -0.04   0.04    -0.00   0.01   0.01
    47   1    -0.00   0.01  -0.00     0.06  -0.09   0.03    -0.01  -0.00  -0.00
    48   1    -0.06  -0.04   0.07     0.41   0.18  -0.10     0.00   0.01  -0.04
    49   1     0.01   0.00  -0.02    -0.02  -0.00   0.12    -0.00  -0.00  -0.00
    50   1     0.00   0.01  -0.01    -0.00  -0.06   0.04    -0.00  -0.00   0.00
    51   1     0.01   0.01   0.03     0.00  -0.06  -0.09    -0.00  -0.00  -0.01
    52   6     0.01  -0.00   0.01     0.00  -0.02   0.00    -0.00   0.00  -0.00
    53   1    -0.01  -0.02   0.01     0.03  -0.01  -0.01     0.00   0.01  -0.00
    54   1    -0.01   0.02  -0.01     0.00  -0.02  -0.01     0.01  -0.01   0.00
    55   1    -0.01  -0.01  -0.01     0.02  -0.01   0.02     0.00   0.01   0.00
                    100                    101                    102
                      A                      A                      A
 Frequencies --   1263.3831              1272.4565              1292.2009
 Red. masses --      1.6212                 3.9986                 1.6724
 Frc consts  --      1.5246                 3.8145                 1.6454
 IR Inten    --      0.0000                 0.0000                 0.0000
  Atom  AN      X      Y      Z        X      Y      Z        X      Y      Z
     1  26     0.00   0.00  -0.00    -0.01  -0.00   0.02    -0.00  -0.00   0.00
     2   6    -0.01   0.01   0.01    -0.13   0.16   0.16     0.01  -0.02  -0.01
     3  46    -0.00  -0.00   0.00     0.00   0.00  -0.00     0.00   0.00  -0.00
     4   6    -0.06  -0.06   0.02     0.04   0.02   0.03     0.00   0.00   0.01
     5   1    -0.02   0.01   0.01     0.06   0.02   0.02     0.00   0.00   0.00
     6   1     0.04   0.04  -0.02     0.02  -0.09  -0.00     0.00  -0.00  -0.00
     7   1     0.03  -0.02   0.02    -0.02  -0.07  -0.02    -0.00  -0.00   0.00
     8   6     0.01  -0.00   0.00     0.09  -0.05   0.02     0.01  -0.01   0.00
     9   8    -0.00   0.00  -0.01    -0.07   0.02  -0.11     0.01  -0.00   0.00
    10   6     0.04  -0.04   0.01     0.07   0.01  -0.04     0.01  -0.00  -0.01
    11   8    -0.00  -0.00  -0.00    -0.06  -0.02  -0.01    -0.01  -0.00  -0.00
    12   6    -0.02  -0.03  -0.01    -0.02  -0.10  -0.05     0.00  -0.01  -0.00
    13   6    -0.00   0.02   0.01    -0.05  -0.03  -0.01    -0.00  -0.00  -0.00
    14   6    -0.00   0.01   0.00    -0.07   0.06   0.03    -0.01   0.00   0.00
    15   1     0.08   0.00  -0.00     0.22  -0.05   0.01     0.01  -0.01   0.00
    16   1     0.05  -0.04  -0.04     0.00  -0.10  -0.02    -0.00  -0.00   0.00
    17   1    -0.03  -0.05   0.00    -0.15  -0.08   0.03    -0.01  -0.00   0.01
    18   1     0.00   0.01   0.03     0.52   0.04  -0.34     0.06  -0.01  -0.03
    19   6    -0.00   0.04   0.02     0.07   0.09   0.02     0.00   0.01   0.00
    20   6     0.00  -0.00   0.00     0.05  -0.02   0.01     0.05   0.03   0.02
    21   8     0.01  -0.01   0.00     0.17  -0.14  -0.00    -0.01   0.01   0.00
    22   6    -0.00   0.01   0.00    -0.04  -0.05  -0.03    -0.00  -0.00  -0.00
    23   6    -0.01   0.00   0.00     0.06  -0.06  -0.03     0.00  -0.00  -0.00
    24   6    -0.01  -0.00  -0.00     0.06   0.02   0.01     0.00   0.00   0.00
    25   6     0.01  -0.01   0.00     0.02   0.08   0.02     0.00   0.00   0.00
    26   6     0.00  -0.00  -0.00    -0.08   0.02  -0.02    -0.00  -0.00  -0.00
    27   1     0.00  -0.01  -0.01    -0.08   0.07   0.03    -0.00   0.00  -0.00
    28   7    -0.01   0.00  -0.00    -0.00   0.03  -0.01     0.00  -0.00  -0.01
    29   1     0.03   0.02  -0.00    -0.14  -0.14  -0.01    -0.23  -0.17  -0.00
    30   1    -0.36  -0.11  -0.17     0.02   0.02   0.02    -0.01  -0.01  -0.00
    31   1     0.62   0.41   0.28    -0.10  -0.10  -0.10    -0.01  -0.01  -0.01
    32   1    -0.02  -0.01  -0.01    -0.04   0.08   0.03     0.00   0.00  -0.00
    33   7     0.03   0.08  -0.13    -0.05  -0.05  -0.03    -0.00  -0.00  -0.00
    34   6    -0.01  -0.02   0.06     0.01   0.03   0.01    -0.00   0.00   0.00
    35   6     0.01  -0.06   0.06     0.02   0.02   0.01    -0.00   0.00   0.00
    36   1     0.06   0.00  -0.11    -0.01   0.01   0.08     0.01   0.00   0.00
    37   1     0.04   0.15   0.15    -0.03  -0.04  -0.05     0.00   0.00   0.00
    38   1     0.02   0.08  -0.10     0.00   0.00   0.04    -0.00  -0.00  -0.00
    39   1    -0.10  -0.05   0.10    -0.02  -0.01  -0.07    -0.01  -0.00   0.00
    40   1     0.02   0.11  -0.08     0.02  -0.02  -0.07     0.00  -0.01  -0.01
    41   1    -0.07   0.06   0.00    -0.05  -0.06   0.07     0.01  -0.00  -0.00
    42   6    -0.00  -0.00   0.00    -0.03  -0.01   0.02    -0.15  -0.06  -0.14
    43   6    -0.00   0.00   0.00     0.01   0.00  -0.00     0.02   0.05   0.04
    44   6    -0.00   0.00   0.00     0.00   0.01   0.00     0.06  -0.03   0.03
    45   1    -0.01  -0.00  -0.00     0.02   0.01   0.03    -0.06   0.00  -0.05
    46   1     0.01  -0.00  -0.00     0.01   0.01   0.01     0.13  -0.04  -0.01
    47   1     0.00  -0.00   0.00    -0.01  -0.01   0.00     0.21  -0.01   0.04
    48   1     0.02   0.01  -0.02     0.14   0.13  -0.29     0.46   0.25   0.63
    49   1     0.00   0.00   0.01    -0.01   0.00   0.02    -0.06  -0.06  -0.09
    50   1     0.00  -0.00  -0.00    -0.00  -0.01   0.01    -0.04   0.12   0.24
    51   1     0.00  -0.00  -0.00    -0.01  -0.02  -0.04    -0.09   0.09   0.07
    52   6    -0.00  -0.00  -0.00    -0.02   0.01  -0.01    -0.00   0.01  -0.00
    53   1     0.00   0.00  -0.00     0.01   0.07  -0.01    -0.01  -0.00   0.00
    54   1     0.00  -0.00  -0.00     0.00  -0.01   0.01     0.01  -0.01   0.00
    55   1     0.00   0.01   0.00     0.01   0.07   0.01    -0.01   0.00  -0.01
                    103                    104                    105
                      A                      A                      A
 Frequencies --   1301.6183              1325.8354              1330.0652
 Red. masses --      2.8478                 1.7302                 3.1940
 Frc consts  --      2.8427                 1.7920                 3.3292
 IR Inten    --      0.0000                 0.0000                 0.0000
  Atom  AN      X      Y      Z        X      Y      Z        X      Y      Z
     1  26    -0.01  -0.00   0.02    -0.00  -0.00   0.00    -0.01  -0.00   0.01
     2   6     0.09  -0.11  -0.11    -0.02   0.04   0.03     0.05  -0.07  -0.07
     3  46     0.00  -0.00  -0.00     0.00   0.00  -0.00     0.00  -0.00  -0.00
     4   6     0.03   0.06   0.07    -0.03  -0.05  -0.05    -0.07  -0.13  -0.13
     5   1     0.01   0.02  -0.01     0.01  -0.00  -0.00     0.03  -0.00  -0.00
     6   1     0.01  -0.03  -0.02    -0.01  -0.01   0.01    -0.01  -0.03   0.02
     7   1    -0.01  -0.01  -0.01    -0.00   0.00  -0.01    -0.02   0.02  -0.02
     8   6     0.07  -0.00   0.01     0.02   0.01   0.01     0.08  -0.04   0.02
     9   8     0.04  -0.01   0.07    -0.02   0.00  -0.02     0.03  -0.01   0.04
    10   6     0.13  -0.04  -0.07    -0.06   0.04   0.04    -0.12   0.11   0.09
    11   8    -0.06  -0.03  -0.01    -0.01  -0.00  -0.00    -0.07  -0.01  -0.01
    12   6     0.02  -0.06  -0.04    -0.02  -0.02  -0.00    -0.05  -0.06  -0.02
    13   6    -0.04  -0.02  -0.00    -0.01  -0.02  -0.01    -0.05  -0.06  -0.02
    14   6    -0.11   0.02   0.02     0.05   0.04   0.01     0.10   0.12   0.03
    15   1     0.07  -0.07   0.02     0.07   0.00   0.01     0.18  -0.01   0.03
    16   1    -0.07   0.00   0.04     0.03  -0.06  -0.02     0.06  -0.18  -0.06
    17   1    -0.12  -0.03   0.06    -0.01  -0.03  -0.02    -0.06  -0.10  -0.04
    18   1     0.67  -0.05  -0.33     0.09  -0.00  -0.04     0.38  -0.07  -0.13
    19   6    -0.01   0.09   0.04     0.05  -0.00  -0.02     0.14   0.01  -0.04
    20   6    -0.08  -0.01   0.01    -0.08  -0.02   0.03     0.03   0.01  -0.02
    21   8    -0.11   0.09   0.00     0.04  -0.03  -0.00    -0.07   0.06   0.00
    22   6    -0.02  -0.00  -0.00     0.01  -0.01  -0.00     0.01  -0.02  -0.00
    23   6     0.03  -0.02  -0.01    -0.00  -0.00  -0.00    -0.00  -0.02  -0.01
    24   6     0.01   0.00   0.00     0.01   0.01   0.00     0.02   0.02   0.00
    25   6     0.02   0.03   0.01     0.00  -0.00   0.00     0.01   0.00   0.00
    26   6    -0.04  -0.01  -0.01    -0.01   0.01  -0.00    -0.02   0.01  -0.01
    27   1    -0.02   0.03  -0.03    -0.01   0.01   0.00    -0.02   0.01  -0.01
    28   7     0.03   0.03   0.01    -0.00   0.01  -0.00     0.02   0.02   0.00
    29   1     0.23   0.19  -0.05     0.37   0.26  -0.15    -0.16  -0.11   0.08
    30   1    -0.10  -0.06  -0.04     0.09   0.08   0.05     0.25   0.25   0.16
    31   1    -0.09  -0.10  -0.14     0.04   0.05   0.09     0.13   0.15   0.25
    32   1     0.00   0.04  -0.00    -0.00   0.00  -0.00     0.01   0.02  -0.01
    33   7    -0.02  -0.03  -0.05     0.01   0.02   0.03     0.02   0.04   0.07
    34   6    -0.01   0.02   0.02     0.00  -0.01  -0.01     0.01  -0.02  -0.03
    35   6     0.01   0.01   0.02    -0.01  -0.00  -0.01    -0.01  -0.01  -0.02
    36   1     0.01   0.01   0.01     0.01  -0.00  -0.00    -0.02  -0.02  -0.03
    37   1     0.02  -0.02   0.01    -0.00   0.01  -0.00    -0.00   0.01  -0.01
    38   1     0.00  -0.04  -0.02    -0.00   0.02   0.01    -0.01   0.03   0.06
    39   1    -0.02  -0.01  -0.05     0.03   0.01   0.01     0.05   0.02   0.04
    40   1     0.01  -0.01  -0.04    -0.01   0.00   0.02    -0.02   0.04   0.07
    41   1    -0.04  -0.03   0.05     0.04   0.02  -0.03     0.03   0.04  -0.05
    42   6     0.05   0.01  -0.01     0.09   0.05  -0.11    -0.05  -0.04   0.07
    43   6    -0.01  -0.01  -0.00    -0.02  -0.02   0.02     0.01   0.01  -0.02
    44   6    -0.01  -0.00   0.00    -0.00  -0.04   0.02     0.00   0.03  -0.01
    45   1    -0.01  -0.00  -0.02     0.02   0.02  -0.07    -0.02  -0.02   0.04
    46   1    -0.01  -0.01  -0.01    -0.07  -0.04  -0.07     0.06   0.02   0.05
    47   1    -0.01   0.01  -0.00     0.04   0.05  -0.00    -0.02  -0.03   0.00
    48   1    -0.19  -0.15   0.14    -0.34  -0.27   0.64     0.20   0.15  -0.38
    49   1     0.02   0.01  -0.01     0.06   0.01  -0.07    -0.04  -0.01   0.05
    50   1     0.01  -0.00  -0.03    -0.00   0.08  -0.01     0.00  -0.05   0.01
    51   1     0.00  -0.01  -0.01     0.01   0.06   0.12    -0.02  -0.05  -0.10
    52   6    -0.01  -0.00  -0.00    -0.00  -0.01  -0.00    -0.02   0.02  -0.01
    53   1     0.04   0.01  -0.02     0.03   0.03  -0.01     0.01   0.02  -0.01
    54   1     0.02  -0.03   0.01    -0.02   0.01  -0.02     0.02  -0.02   0.02
    55   1     0.02   0.03   0.03     0.02   0.03   0.02     0.01   0.03   0.02
                    106                    107                    108
                      A                      A                      A
 Frequencies --   1349.0207              1365.4165              1399.1655
 Red. masses --      1.6919                 1.2369                 7.7343
 Frc consts  --      1.8141                 1.3587                 8.9209
 IR Inten    --      0.0000                 0.0000                 0.0000
  Atom  AN      X      Y      Z        X      Y      Z        X      Y      Z
     1  26    -0.00   0.00  -0.00     0.00   0.00  -0.00    -0.00  -0.00  -0.00
     2   6    -0.00   0.00   0.00     0.00  -0.00  -0.00     0.00   0.00   0.00
     3  46     0.00  -0.00  -0.00     0.00  -0.00   0.00    -0.00  -0.00   0.00
     4   6    -0.05  -0.01  -0.04     0.00   0.00   0.00    -0.01   0.04   0.03
     5   1    -0.00  -0.01  -0.01    -0.00  -0.00   0.00     0.12   0.01   0.04
     6   1    -0.05  -0.06   0.04    -0.00   0.00   0.00     0.16   0.18   0.08
     7   1     0.02  -0.00  -0.00    -0.00   0.00   0.00    -0.09   0.26  -0.02
     8   6    -0.01   0.00  -0.00     0.02   0.00   0.00    -0.00   0.00  -0.00
     9   8    -0.00   0.00  -0.00     0.00  -0.00   0.00    -0.00  -0.00   0.00
    10   6     0.08  -0.13  -0.08    -0.00  -0.00  -0.00     0.04  -0.11  -0.05
    11   8     0.00  -0.00   0.00    -0.02  -0.00  -0.00     0.00  -0.00   0.00
    12   6    -0.03  -0.02  -0.01    -0.00   0.00   0.00    -0.08   0.04   0.05
    13   6     0.02   0.09   0.04     0.01   0.00   0.00     0.11  -0.07  -0.05
    14   6    -0.01  -0.06  -0.02    -0.00  -0.00  -0.00    -0.04   0.05   0.02
    15   1     0.10   0.02   0.00     0.01   0.00   0.00    -0.04   0.08   0.02
    16   1     0.09   0.01  -0.03     0.00   0.01  -0.00    -0.07   0.13   0.05
    17   1    -0.03  -0.09  -0.04     0.00   0.00  -0.00    -0.06  -0.00   0.03
    18   1    -0.01   0.02   0.02    -0.02   0.01   0.01    -0.02   0.02  -0.01
    19   6    -0.05   0.06   0.04    -0.00   0.00   0.00    -0.02   0.02   0.00
    20   6    -0.00  -0.00  -0.00    -0.00  -0.00  -0.00    -0.00  -0.00  -0.00
    21   8     0.00  -0.00  -0.00    -0.00   0.00   0.00    -0.00   0.00   0.00
    22   6    -0.02   0.02   0.00     0.00   0.00   0.00     0.39  -0.16   0.07
    23   6     0.02  -0.00  -0.00    -0.00   0.00   0.00    -0.38  -0.21  -0.15
    24   6    -0.01  -0.00  -0.00    -0.00   0.00   0.00     0.04   0.28   0.08
    25   6    -0.00   0.01   0.00     0.00  -0.00  -0.00     0.09  -0.13  -0.00
    26   6     0.01  -0.02  -0.00     0.00  -0.00  -0.00    -0.12   0.19  -0.01
    27   1     0.02   0.02   0.00    -0.00  -0.00   0.00    -0.18   0.08   0.07
    28   7     0.00  -0.00   0.00     0.01   0.01   0.00    -0.00  -0.00   0.00
    29   1     0.00   0.00  -0.00    -0.02  -0.01   0.01     0.00   0.00   0.00
    30   1     0.49   0.57   0.40     0.00  -0.00   0.00     0.13   0.04   0.10
    31   1     0.13   0.23   0.31     0.00  -0.00  -0.00     0.09   0.04  -0.05
    32   1     0.01   0.01   0.01     0.01  -0.00  -0.00    -0.04  -0.11  -0.05
    33   7    -0.01   0.00   0.05    -0.00  -0.00  -0.00    -0.00  -0.01  -0.00
    34   6     0.01  -0.01  -0.03    -0.00   0.00  -0.00    -0.01  -0.01  -0.03
    35   6    -0.01   0.01  -0.02     0.00   0.00  -0.00     0.01   0.01  -0.01
    36   1    -0.02  -0.00   0.04    -0.00  -0.00  -0.00     0.01   0.02   0.16
    37   1     0.01   0.01  -0.00     0.00  -0.00   0.00     0.06   0.10   0.09
    38   1    -0.02   0.01   0.11    -0.00  -0.00   0.00    -0.03   0.04   0.14
    39   1     0.03   0.02  -0.01    -0.00  -0.00   0.00    -0.04  -0.01   0.05
    40   1    -0.01   0.00   0.04    -0.00  -0.00   0.00    -0.01  -0.02   0.07
    41   1     0.02   0.01  -0.02    -0.00  -0.00   0.00    -0.06  -0.04   0.04
    42   6     0.00   0.00  -0.00    -0.00  -0.00   0.00    -0.00  -0.00  -0.00
    43   6    -0.00   0.00   0.00     0.00   0.00  -0.00     0.01   0.00   0.00
    44   6    -0.00  -0.00   0.00    -0.00   0.00  -0.00     0.00   0.00   0.01
    45   1    -0.00  -0.00  -0.00    -0.00  -0.00   0.00    -0.02  -0.01  -0.01
    46   1    -0.00  -0.00  -0.00     0.00   0.00   0.00    -0.02   0.00  -0.02
    47   1     0.00   0.00   0.00     0.00  -0.00   0.00    -0.02  -0.00   0.00
    48   1    -0.00  -0.00   0.01     0.01   0.01  -0.01    -0.00  -0.00   0.01
    49   1     0.00   0.00   0.00     0.01   0.00   0.00    -0.02  -0.00  -0.05
    50   1    -0.00   0.00  -0.00    -0.00   0.01   0.00     0.02  -0.01  -0.05
    51   1    -0.00   0.00   0.00     0.00  -0.01  -0.01    -0.02  -0.03  -0.04
    52   6     0.00   0.00   0.00     0.06  -0.13   0.02    -0.00   0.00   0.00
    53   1     0.00  -0.01  -0.00    -0.19   0.54   0.12     0.00  -0.02  -0.00
    54   1     0.00  -0.00   0.00    -0.39   0.38  -0.12     0.02  -0.02  -0.00
    55   1     0.00  -0.01   0.00    -0.09   0.51  -0.25    -0.01  -0.02  -0.00
                    109                    110                    111
                      A                      A                      A
 Frequencies --   1399.5295              1402.8879              1403.8102
 Red. masses --      4.4040                 5.7748                 1.2791
 Frc consts  --      5.0823                 6.6963                 1.4852
 IR Inten    --      0.0000                 0.0000                 0.0000
  Atom  AN      X      Y      Z        X      Y      Z        X      Y      Z
     1  26     0.01  -0.00   0.01     0.00  -0.00   0.00     0.00  -0.00   0.00
     2   6    -0.01   0.01   0.01    -0.01   0.01   0.01     0.00   0.00   0.00
     3  46     0.00   0.00   0.00     0.00   0.00  -0.00     0.00  -0.00  -0.00
     4   6    -0.06  -0.07  -0.06    -0.03  -0.05  -0.04    -0.00  -0.01  -0.01
     5   1     0.04   0.05   0.01    -0.05  -0.06  -0.06    -0.00  -0.01  -0.01
     6   1    -0.06   0.02  -0.01     0.09  -0.07   0.02     0.01  -0.01   0.00
     7   1    -0.08  -0.04   0.00     0.13   0.09  -0.01     0.01   0.01  -0.00
     8   6    -0.14   0.08  -0.04    -0.13   0.08  -0.03    -0.01   0.01  -0.00
     9   8    -0.00   0.00  -0.01    -0.00   0.00  -0.01    -0.00   0.00  -0.00
    10   6     0.16   0.06  -0.00     0.06   0.06   0.02     0.01   0.01   0.00
    11   8     0.10  -0.00   0.02     0.09  -0.00   0.03     0.01  -0.00   0.00
    12   6     0.22   0.04  -0.02     0.08   0.05   0.00     0.01   0.01   0.00
    13   6    -0.14  -0.16  -0.05    -0.01  -0.12  -0.05    -0.00  -0.02  -0.01
    14   6    -0.07   0.15   0.06    -0.05   0.11   0.04    -0.01   0.02   0.01
    15   1    -0.43  -0.18  -0.02    -0.21  -0.06   0.01    -0.04  -0.01   0.00
    16   1    -0.26  -0.06   0.10    -0.16   0.03   0.11    -0.03   0.01   0.02
    17   1    -0.23  -0.10   0.05    -0.12   0.00   0.05    -0.02  -0.00   0.01
    18   1     0.15  -0.05  -0.07     0.05  -0.11  -0.05     0.01  -0.01  -0.01
    19   6    -0.09  -0.02   0.00    -0.04  -0.05  -0.01    -0.01  -0.01  -0.00
    20   6     0.02   0.01   0.00     0.02   0.01   0.00    -0.00  -0.00  -0.00
    21   8     0.01  -0.01  -0.00     0.01  -0.01  -0.00     0.00  -0.00   0.00
    22   6     0.03  -0.10  -0.04    -0.07   0.20   0.08    -0.00   0.02   0.01
    23   6    -0.02   0.05   0.02     0.04  -0.10  -0.05    -0.00  -0.01  -0.01
    24   6     0.09  -0.08  -0.02    -0.14   0.14   0.03    -0.01   0.02   0.01
    25   6    -0.16   0.00  -0.03     0.30   0.03   0.08     0.03   0.00   0.01
    26   6     0.05   0.14   0.07    -0.13  -0.29  -0.14    -0.01  -0.02  -0.01
    27   1    -0.01  -0.07  -0.07     0.00   0.16   0.08    -0.00   0.02   0.01
    28   7    -0.03  -0.05  -0.00    -0.03  -0.05  -0.01    -0.00  -0.00   0.00
    29   1    -0.03  -0.02  -0.00    -0.03  -0.02  -0.01     0.00   0.00  -0.00
    30   1     0.14   0.27   0.14     0.02   0.13   0.04     0.01   0.03   0.01
    31   1     0.07   0.12   0.21    -0.01   0.05   0.13     0.00   0.01   0.02
    32   1     0.06  -0.00   0.00    -0.10   0.06  -0.02    -0.01   0.00  -0.00
    33   7     0.00   0.00   0.01     0.00  -0.00   0.00     0.00  -0.00   0.00
    34   6    -0.00  -0.00  -0.01    -0.00  -0.01  -0.02     0.00   0.00  -0.00
    35   6    -0.01  -0.01   0.02     0.01   0.00  -0.01    -0.00  -0.00   0.00
    36   1     0.02   0.01   0.01     0.03   0.02   0.12    -0.01  -0.00  -0.00
    37   1     0.03   0.00   0.02     0.03   0.08   0.06     0.00   0.00   0.00
    38   1    -0.01   0.02   0.06    -0.02   0.07   0.09    -0.00  -0.00   0.00
    39   1     0.07   0.01  -0.10    -0.03  -0.00   0.06     0.01   0.00  -0.02
    40   1     0.01   0.04  -0.09    -0.01  -0.02   0.06    -0.00   0.01  -0.00
    41   1     0.07   0.08  -0.06    -0.04  -0.04   0.03    -0.01   0.01  -0.01
    42   6     0.00   0.00  -0.00    -0.00  -0.00  -0.01     0.01   0.01   0.02
    43   6     0.01   0.00   0.00     0.02   0.01   0.01    -0.05  -0.01  -0.02
    44   6     0.00   0.00   0.01     0.01   0.01   0.06    -0.01  -0.03  -0.12
    45   1    -0.02  -0.01  -0.01    -0.09  -0.05  -0.05     0.17   0.10   0.10
    46   1    -0.03   0.00  -0.02    -0.09   0.00  -0.07     0.17  -0.00   0.14
    47   1    -0.03  -0.00   0.00    -0.12  -0.02   0.01     0.23   0.04  -0.03
    48   1    -0.00   0.00   0.01     0.02   0.01   0.04    -0.04  -0.02  -0.06
    49   1    -0.01  -0.00  -0.03    -0.07  -0.01  -0.23     0.15   0.01   0.49
    50   1     0.01  -0.01  -0.04     0.09  -0.06  -0.23    -0.19   0.14   0.49
    51   1    -0.01  -0.01  -0.02    -0.08  -0.12  -0.19     0.16   0.27   0.40
    52   6     0.04  -0.03   0.01     0.04  -0.02   0.01     0.00  -0.00   0.00
    53   1    -0.12  -0.01   0.06    -0.13  -0.04   0.06    -0.01   0.00   0.01
    54   1    -0.01   0.01  -0.02     0.01  -0.00   0.00     0.01  -0.00  -0.01
    55   1    -0.08  -0.04  -0.11    -0.08  -0.04  -0.11    -0.01  -0.01  -0.01
                    112                    113                    114
                      A                      A                      A
 Frequencies --   1406.6034              1422.4967              1422.6056
 Red. masses --      1.1887                 1.2994                 2.1547
 Frc consts  --      1.3856                 1.5491                 2.5692
 IR Inten    --      0.0000                 0.0000                 0.0000
  Atom  AN      X      Y      Z        X      Y      Z        X      Y      Z
     1  26     0.00  -0.00   0.00    -0.00   0.00   0.00    -0.00   0.00   0.00
     2   6     0.00   0.00  -0.00     0.00  -0.00   0.00    -0.00   0.00   0.00
     3  46     0.00   0.00  -0.00    -0.00   0.00  -0.00     0.00   0.00  -0.00
     4   6     0.00  -0.00  -0.00     0.00  -0.00  -0.00     0.01  -0.01  -0.01
     5   1    -0.01   0.02   0.00     0.04  -0.06  -0.01     0.14  -0.21  -0.03
     6   1    -0.02   0.00  -0.01     0.03  -0.02   0.01     0.11  -0.07   0.03
     7   1    -0.01  -0.02   0.01     0.06  -0.04  -0.00     0.19  -0.15  -0.01
     8   6     0.00  -0.00   0.00     0.00  -0.01   0.00     0.02  -0.01   0.01
     9   8     0.00  -0.00   0.00    -0.00   0.00  -0.00    -0.00  -0.00  -0.00
    10   6     0.00   0.00   0.00     0.01  -0.00  -0.00     0.02  -0.00  -0.00
    11   8    -0.00  -0.00  -0.00    -0.00   0.00  -0.00    -0.01   0.00  -0.00
    12   6     0.01  -0.00  -0.00     0.00   0.00   0.00     0.00   0.01   0.01
    13   6    -0.01  -0.00   0.00     0.00  -0.01  -0.01     0.01  -0.03  -0.01
    14   6     0.00   0.00   0.00    -0.00   0.01   0.00    -0.01   0.02   0.01
    15   1    -0.01  -0.01  -0.00    -0.02  -0.00   0.00    -0.03   0.00   0.00
    16   1    -0.00  -0.01  -0.00    -0.01   0.01   0.01    -0.03   0.02   0.02
    17   1    -0.00  -0.00  -0.00    -0.01   0.00   0.00    -0.02   0.01   0.01
    18   1     0.01   0.00  -0.01    -0.02   0.01  -0.01    -0.02   0.02  -0.04
    19   6    -0.00  -0.00   0.00    -0.00  -0.00   0.00    -0.01  -0.00  -0.00
    20   6    -0.00  -0.00   0.00    -0.00   0.00  -0.00    -0.00  -0.00   0.00
    21   8    -0.00  -0.00   0.00     0.00  -0.00  -0.00     0.00  -0.00   0.00
    22   6    -0.00  -0.01  -0.01    -0.03   0.02   0.00    -0.10   0.07  -0.00
    23   6     0.01   0.02   0.01     0.01  -0.03  -0.01     0.03  -0.12  -0.05
    24   6     0.01  -0.03  -0.01     0.00   0.05   0.01     0.01   0.16   0.05
    25   6    -0.02   0.01  -0.00    -0.03  -0.02  -0.01    -0.09  -0.08  -0.04
    26   6     0.01   0.01   0.01     0.03   0.00   0.01     0.11   0.02   0.04
    27   1     0.00  -0.01  -0.01     0.02  -0.04  -0.02     0.08  -0.13  -0.06
    28   7     0.00   0.00   0.00     0.00   0.00   0.00     0.00   0.01   0.00
    29   1     0.00   0.00  -0.00    -0.01  -0.00   0.01     0.01   0.00  -0.00
    30   1    -0.04  -0.01  -0.02    -0.03   0.04  -0.00    -0.11   0.14  -0.02
    31   1    -0.00   0.00   0.01    -0.03   0.01   0.04    -0.10   0.02   0.14
    32   1    -0.00   0.01   0.00     0.06  -0.03   0.00     0.20  -0.10  -0.00
    33   7     0.00   0.00  -0.01     0.00   0.00  -0.00     0.01   0.01  -0.00
    34   6    -0.01  -0.02  -0.04     0.00   0.01   0.02     0.01   0.03   0.06
    35   6     0.06   0.03  -0.09     0.01   0.00  -0.01     0.02   0.01  -0.03
    36   1     0.10   0.06   0.22    -0.03  -0.02  -0.08    -0.09  -0.06  -0.31
    37   1     0.11   0.16   0.14    -0.03  -0.06  -0.04    -0.12  -0.21  -0.17
    38   1    -0.04   0.14   0.20     0.02  -0.05  -0.07     0.06  -0.17  -0.27
    39   1    -0.28  -0.05   0.41    -0.03  -0.01   0.04    -0.11  -0.02   0.13
    40   1    -0.04  -0.14   0.48    -0.00  -0.02   0.05    -0.01  -0.05   0.18
    41   1    -0.37  -0.30   0.26    -0.04  -0.03   0.02    -0.13  -0.09   0.08
    42   6     0.00   0.00  -0.00     0.01   0.00  -0.00    -0.01   0.00  -0.00
    43   6    -0.00  -0.00  -0.00    -0.11  -0.02  -0.03     0.06   0.01   0.02
    44   6     0.00  -0.00  -0.00    -0.00   0.01   0.05     0.00  -0.01  -0.02
    45   1     0.01   0.00   0.00     0.38   0.25   0.18    -0.18  -0.12  -0.09
    46   1     0.00  -0.00   0.00     0.41  -0.04   0.28    -0.20   0.02  -0.14
    47   1     0.01   0.00  -0.00     0.53   0.07  -0.04    -0.26  -0.03   0.02
    48   1    -0.01  -0.01   0.01    -0.02  -0.02   0.01     0.01   0.01   0.01
    49   1     0.00  -0.00   0.02    -0.04   0.01  -0.21     0.02  -0.01   0.09
    50   1    -0.01   0.01   0.02     0.08  -0.06  -0.21    -0.03   0.03   0.09
    51   1     0.00   0.01   0.02    -0.05  -0.13  -0.17     0.02   0.06   0.07
    52   6    -0.00   0.00  -0.00    -0.00   0.00  -0.00    -0.01   0.00  -0.00
    53   1     0.00  -0.00  -0.00     0.01  -0.00  -0.00     0.02   0.01  -0.01
    54   1     0.00  -0.00  -0.00    -0.01   0.01   0.01    -0.01   0.01  -0.01
    55   1     0.00  -0.00   0.00     0.01   0.01   0.01     0.01   0.01   0.02
                    115                    116                    117
                      A                      A                      A
 Frequencies --   1425.5028              1435.1169              1440.1787
 Red. masses --      1.4935                 3.9779                 2.4702
 Frc consts  --      1.7881                 4.8270                 3.0187
 IR Inten    --      0.0000                 0.0000                 0.0000
  Atom  AN      X      Y      Z        X      Y      Z        X      Y      Z
     1  26    -0.00   0.00   0.00    -0.01  -0.01  -0.00    -0.01   0.00   0.01
     2   6     0.00  -0.00  -0.00    -0.00  -0.00   0.00     0.00  -0.00  -0.00
     3  46    -0.00   0.00  -0.00     0.00   0.00  -0.00     0.00  -0.00   0.00
     4   6    -0.01   0.01   0.01    -0.01   0.01   0.01     0.02   0.02   0.01
     5   1     0.07  -0.09  -0.00     0.09   0.27   0.16     0.04  -0.07  -0.02
     6   1     0.08  -0.02   0.02     0.33   0.30   0.14     0.03  -0.03  -0.01
     7   1     0.12  -0.10   0.01     0.15   0.15   0.03     0.04  -0.05  -0.01
     8   6     0.03  -0.02   0.01    -0.01   0.01  -0.00    -0.14   0.11  -0.04
     9   8     0.00  -0.00   0.00     0.00   0.00  -0.00     0.00  -0.00   0.00
    10   6     0.01   0.00   0.00    -0.02  -0.00  -0.00    -0.07   0.00   0.01
    11   8    -0.02   0.00  -0.01     0.01  -0.00   0.00     0.10  -0.01   0.03
    12   6    -0.00   0.01   0.01     0.02  -0.01  -0.01     0.01  -0.07  -0.05
    13   6     0.01  -0.02  -0.01    -0.03   0.02   0.02    -0.09   0.13   0.07
    14   6    -0.01   0.01   0.01     0.02  -0.01  -0.00     0.06  -0.09  -0.03
    15   1    -0.03   0.01  -0.00     0.02  -0.01  -0.00     0.22  -0.02   0.01
    16   1    -0.02   0.02   0.01     0.02  -0.04  -0.03     0.15  -0.11  -0.09
    17   1    -0.01   0.01   0.01     0.01  -0.02  -0.02     0.08  -0.04  -0.05
    18   1    -0.08   0.03  -0.01     0.06  -0.01  -0.00     0.53  -0.18  -0.10
    19   6    -0.00  -0.01  -0.00     0.01   0.01  -0.00     0.05   0.04  -0.00
    20   6    -0.00  -0.00  -0.00     0.00   0.00   0.00     0.02   0.01   0.01
    21   8    -0.00   0.00   0.00    -0.00  -0.00  -0.00    -0.00   0.00  -0.00
    22   6    -0.07   0.05   0.00     0.07   0.15   0.08    -0.01  -0.01  -0.01
    23   6     0.02  -0.06  -0.02    -0.19  -0.07  -0.06    -0.00  -0.04  -0.02
    24   6     0.02   0.06   0.02     0.23  -0.10  -0.01    -0.01   0.07   0.02
    25   6    -0.07  -0.03  -0.02    -0.19   0.18   0.00    -0.01  -0.04  -0.01
    26   6     0.07  -0.01   0.02     0.02  -0.22  -0.06     0.02   0.04   0.02
    27   1     0.06  -0.05  -0.02     0.21   0.32   0.13    -0.00  -0.07  -0.07
    28   7     0.01   0.01   0.00    -0.00  -0.01  -0.00    -0.04  -0.06  -0.01
    29   1     0.00   0.00   0.00     0.00   0.00  -0.00    -0.01  -0.01  -0.01
    30   1     0.12  -0.19   0.01     0.04  -0.09  -0.01    -0.00  -0.17  -0.05
    31   1     0.14  -0.01  -0.17     0.06  -0.01  -0.07     0.02  -0.05  -0.13
    32   1     0.13  -0.04   0.01     0.29   0.14   0.14     0.06  -0.03  -0.02
    33   7    -0.01  -0.01  -0.00     0.00   0.00   0.00    -0.00  -0.00  -0.00
    34   6    -0.02  -0.05  -0.08     0.01   0.01   0.02    -0.00  -0.01  -0.01
    35   6    -0.02  -0.01   0.03     0.00   0.00  -0.01    -0.00  -0.00   0.00
    36   1     0.20   0.10   0.44    -0.08  -0.03  -0.07     0.04   0.02   0.08
    37   1     0.17   0.29   0.24    -0.06  -0.03  -0.06     0.01   0.05   0.03
    38   1    -0.09   0.30   0.37     0.02  -0.09  -0.10    -0.01   0.06   0.04
    39   1     0.11   0.02  -0.14    -0.01   0.00   0.05     0.01   0.00  -0.01
    40   1     0.02   0.05  -0.21    -0.00   0.00   0.05     0.00   0.01  -0.02
    41   1     0.15   0.10  -0.09    -0.04  -0.04   0.03     0.01   0.00  -0.01
    42   6    -0.00  -0.00   0.00     0.00   0.00  -0.00     0.01   0.00   0.00
    43   6     0.00   0.00   0.00     0.00   0.00  -0.00    -0.00  -0.00  -0.00
    44   6    -0.00   0.00  -0.00     0.00  -0.00  -0.00    -0.00  -0.00  -0.00
    45   1    -0.01  -0.00  -0.01    -0.00  -0.00   0.00     0.01   0.00   0.02
    46   1    -0.00   0.00  -0.00    -0.00   0.00  -0.00     0.01   0.00   0.01
    47   1    -0.01   0.00  -0.00    -0.00  -0.00   0.00     0.02  -0.00  -0.00
    48   1     0.01   0.00  -0.02    -0.00  -0.00   0.00    -0.01  -0.01  -0.00
    49   1    -0.00   0.00   0.00     0.00  -0.00   0.00     0.02   0.00   0.02
    50   1    -0.00  -0.01   0.01    -0.00   0.00   0.00    -0.00   0.03  -0.00
    51   1     0.01  -0.00   0.01    -0.00   0.00   0.00    -0.02   0.01  -0.00
    52   6    -0.01   0.00  -0.00     0.01  -0.00   0.00     0.06  -0.01   0.02
    53   1     0.05   0.01  -0.02    -0.05  -0.00   0.02    -0.36  -0.06   0.15
    54   1    -0.01   0.01  -0.00     0.01  -0.01   0.00     0.12  -0.10   0.01
    55   1     0.03   0.02   0.04    -0.03  -0.01  -0.04    -0.25  -0.11  -0.30
                    118                    119                    120
                      A                      A                      A
 Frequencies --   1447.6166              1449.8800              1462.0642
 Red. masses --      1.5269                 2.2670                 1.0613
 Frc consts  --      1.8852                 2.8078                 1.3367
 IR Inten    --      0.0000                 0.0000                 0.0000
  Atom  AN      X      Y      Z        X      Y      Z        X      Y      Z
     1  26    -0.00   0.00  -0.00     0.00   0.00   0.00    -0.00   0.00   0.00
     2   6    -0.00   0.00   0.00    -0.00   0.00   0.00     0.00   0.00   0.00
     3  46    -0.00  -0.00  -0.00    -0.00  -0.00   0.00     0.00  -0.00   0.00
     4   6    -0.06   0.04   0.03    -0.05   0.01   0.01     0.00   0.00   0.00
     5   1    -0.01  -0.01  -0.01     0.00  -0.03  -0.01     0.00   0.00   0.00
     6   1    -0.02  -0.02  -0.01     0.00  -0.01   0.01     0.00   0.00  -0.00
     7   1    -0.02  -0.00  -0.02    -0.01   0.03  -0.02    -0.00  -0.00   0.00
     8   6    -0.03   0.02  -0.01     0.05  -0.04   0.01    -0.01   0.01  -0.01
     9   8    -0.00   0.00  -0.00    -0.00   0.00  -0.00    -0.00  -0.00  -0.00
    10   6    -0.01  -0.04  -0.02    -0.01   0.01   0.01    -0.00   0.00   0.00
    11   8     0.02  -0.00   0.01    -0.04   0.00  -0.01     0.01  -0.00   0.00
    12   6    -0.09   0.02   0.03     0.20  -0.02  -0.05    -0.00  -0.00   0.00
    13   6     0.09  -0.07  -0.05    -0.18   0.08   0.07     0.00  -0.00  -0.00
    14   6     0.00   0.07   0.02     0.04  -0.04  -0.02    -0.00  -0.00  -0.00
    15   1     0.00   0.05   0.02    -0.11  -0.12  -0.05     0.00   0.00   0.00
    16   1    -0.04   0.06   0.03     0.02  -0.14  -0.05     0.00   0.00   0.00
    17   1    -0.04  -0.01   0.01    -0.02  -0.11  -0.06     0.00   0.00   0.00
    18   1     0.09  -0.05  -0.04    -0.17   0.11   0.06     0.02  -0.01   0.00
    19   6     0.01   0.02   0.00    -0.04  -0.02   0.00     0.00   0.00  -0.00
    20   6     0.01   0.00   0.00    -0.01  -0.01  -0.00     0.00   0.00   0.00
    21   8     0.00  -0.00   0.00     0.00  -0.00  -0.00    -0.00   0.00   0.00
    22   6    -0.03   0.00  -0.01     0.02  -0.00   0.00     0.00  -0.00  -0.00
    23   6     0.04   0.02   0.02    -0.02  -0.03  -0.01    -0.00  -0.00  -0.00
    24   6    -0.00  -0.03  -0.01    -0.03   0.06   0.01     0.00  -0.00   0.00
    25   6    -0.01  -0.00  -0.00     0.05  -0.02   0.00    -0.00   0.00  -0.00
    26   6     0.01   0.00   0.01    -0.02   0.00  -0.01     0.00   0.00   0.00
    27   1     0.00  -0.02  -0.02    -0.02  -0.00   0.02    -0.00  -0.00  -0.00
    28   7    -0.01  -0.02  -0.00     0.02   0.03   0.00    -0.00  -0.00   0.00
    29   1     0.00   0.00  -0.00    -0.00  -0.00   0.00     0.01   0.00  -0.02
    30   1     0.45  -0.39   0.14     0.36  -0.31   0.11    -0.00  -0.00  -0.00
    31   1     0.43   0.03  -0.42     0.34   0.02  -0.33    -0.00  -0.00   0.00
    32   1    -0.00  -0.00  -0.00    -0.03  -0.02  -0.01     0.01  -0.00   0.00
    33   7    -0.01   0.01   0.01    -0.01   0.01   0.01     0.00  -0.00  -0.00
    34   6     0.02   0.02   0.01     0.02   0.02   0.01    -0.00   0.00  -0.00
    35   6     0.00  -0.00  -0.02    -0.00  -0.00  -0.02     0.00  -0.00   0.00
    36   1    -0.20  -0.07  -0.10    -0.19  -0.07  -0.06    -0.00  -0.00  -0.00
    37   1    -0.04  -0.03  -0.04    -0.05   0.00  -0.03     0.01  -0.00   0.01
    38   1     0.02  -0.21  -0.06     0.02  -0.19  -0.05    -0.00  -0.01   0.01
    39   1     0.07   0.04   0.11     0.08   0.04   0.12     0.01  -0.00  -0.02
    40   1    -0.01   0.10   0.09    -0.01   0.09   0.05    -0.00   0.01   0.01
    41   1    -0.06  -0.09   0.06    -0.02  -0.10   0.06    -0.02   0.01  -0.00
    42   6     0.00   0.00  -0.00    -0.00  -0.00  -0.00    -0.00  -0.00  -0.00
    43   6    -0.00   0.00  -0.00     0.00   0.00   0.00     0.00   0.00   0.00
    44   6     0.00  -0.00  -0.00     0.00   0.00   0.00    -0.00  -0.00  -0.00
    45   1     0.00  -0.00   0.00    -0.00  -0.00  -0.01    -0.00  -0.00   0.00
    46   1    -0.00   0.00   0.00    -0.00  -0.00  -0.00    -0.00  -0.00  -0.01
    47   1     0.00  -0.00   0.00    -0.01   0.00   0.00    -0.00  -0.01   0.00
    48   1    -0.00  -0.00   0.01     0.01   0.00   0.00    -0.00  -0.00   0.00
    49   1     0.00  -0.00   0.01    -0.01  -0.00  -0.01     0.03   0.01   0.00
    50   1     0.00   0.01  -0.00     0.00  -0.02   0.00    -0.01   0.02   0.01
    51   1    -0.01   0.00  -0.00     0.01  -0.00   0.00     0.01  -0.01  -0.00
    52   6     0.02   0.00   0.00    -0.03  -0.00  -0.01     0.02  -0.01  -0.06
    53   1    -0.11  -0.02   0.04     0.25   0.03  -0.10    -0.21  -0.40   0.04
    54   1     0.04  -0.04   0.01    -0.10   0.09  -0.01    -0.20   0.06   0.71
    55   1    -0.07  -0.04  -0.09     0.18   0.07   0.21     0.21   0.41   0.13
                    121                    122                    123
                      A                      A                      A
 Frequencies --   1463.8077              1467.5319              1472.6708
 Red. masses --      1.0569                 1.3156                 1.5276
 Frc consts  --      1.3343                 1.6694                 1.9520
 IR Inten    --      0.0000                 0.0000                 0.0000
  Atom  AN      X      Y      Z        X      Y      Z        X      Y      Z
     1  26    -0.00   0.00  -0.00    -0.00   0.00   0.00     0.00   0.00  -0.00
     2   6     0.00  -0.00  -0.00    -0.00  -0.00  -0.00     0.00  -0.00  -0.00
     3  46     0.00   0.00  -0.00     0.00  -0.00   0.00     0.00  -0.00   0.00
     4   6    -0.01   0.00   0.00     0.00   0.00   0.00     0.00   0.05   0.03
     5   1    -0.00   0.00  -0.00     0.01   0.00   0.00    -0.00  -0.00  -0.00
     6   1    -0.00  -0.00   0.00     0.01   0.00  -0.00    -0.00  -0.00   0.00
     7   1    -0.01   0.01  -0.00     0.00  -0.00  -0.00    -0.01   0.02  -0.02
     8   6     0.00  -0.00  -0.00    -0.08   0.07  -0.02     0.01  -0.01   0.00
     9   8     0.00  -0.00   0.00     0.00  -0.00   0.00     0.00   0.00   0.00
    10   6     0.00  -0.01  -0.00    -0.02  -0.01  -0.00    -0.08  -0.12  -0.03
    11   8    -0.00  -0.00   0.00     0.05  -0.00   0.02    -0.00  -0.00  -0.00
    12   6     0.00   0.00   0.00    -0.04  -0.01  -0.00     0.04   0.01  -0.00
    13   6     0.00  -0.01  -0.00     0.02  -0.00  -0.00    -0.04  -0.03  -0.01
    14   6     0.00   0.01   0.00     0.01   0.00   0.00     0.09   0.08   0.02
    15   1    -0.00  -0.00   0.00     0.06   0.02   0.02    -0.06  -0.02  -0.01
    16   1    -0.00   0.00   0.00     0.02   0.00  -0.00    -0.01  -0.06  -0.01
    17   1    -0.01  -0.01  -0.00     0.01   0.00   0.00    -0.05  -0.12  -0.04
    18   1     0.01  -0.00  -0.01     0.21  -0.10  -0.05    -0.02   0.02   0.00
    19   6    -0.00   0.00   0.00     0.02   0.02  -0.00    -0.01   0.01   0.01
    20   6    -0.00  -0.00   0.00     0.02   0.01   0.00    -0.00  -0.00  -0.00
    21   8    -0.00   0.00   0.00    -0.00   0.00   0.00     0.00   0.00   0.00
    22   6     0.00  -0.00  -0.00    -0.00   0.00  -0.00    -0.01   0.01   0.00
    23   6     0.00   0.00   0.00     0.00   0.00  -0.00     0.01   0.00   0.00
    24   6    -0.00  -0.00  -0.00     0.01  -0.00  -0.00    -0.00  -0.00  -0.00
    25   6     0.00   0.00   0.00    -0.01   0.00  -0.00     0.01  -0.00   0.00
    26   6    -0.00   0.00   0.00     0.00   0.00   0.00    -0.00  -0.01  -0.00
    27   1    -0.00  -0.00  -0.00     0.01  -0.00  -0.02     0.00   0.00   0.00
    28   7     0.00   0.00   0.00    -0.03  -0.05  -0.01     0.00   0.00   0.00
    29   1    -0.00  -0.00   0.00    -0.06  -0.04  -0.00     0.00   0.00   0.00
    30   1     0.06  -0.01   0.03    -0.01  -0.02  -0.01     0.08  -0.06   0.03
    31   1     0.05   0.02  -0.02    -0.01  -0.01  -0.01     0.05   0.01  -0.07
    32   1    -0.00   0.00  -0.00     0.02   0.00  -0.00    -0.01   0.00   0.00
    33   7    -0.00   0.01   0.00    -0.00  -0.00   0.00    -0.00  -0.00   0.02
    34   6     0.01  -0.02   0.02    -0.00  -0.00   0.00    -0.04  -0.01   0.02
    35   6    -0.02   0.05  -0.00     0.00   0.00   0.00     0.04   0.01   0.02
    36   1     0.07   0.03   0.11     0.04   0.01   0.00     0.42   0.11  -0.21
    37   1    -0.27   0.07  -0.12    -0.01  -0.01  -0.01     0.08  -0.31  -0.10
    38   1     0.05   0.21  -0.24     0.00   0.04  -0.01    -0.01   0.29  -0.01
    39   1    -0.23  -0.04   0.33    -0.02  -0.01  -0.02    -0.36  -0.15  -0.32
    40   1     0.04  -0.44  -0.31     0.00  -0.02   0.00     0.01  -0.28   0.11
    41   1     0.49  -0.26   0.03    -0.01   0.02  -0.01    -0.15   0.30  -0.12
    42   6    -0.00   0.00   0.00     0.00   0.00   0.00    -0.00   0.00   0.00
    43   6     0.00  -0.00  -0.00    -0.00  -0.00  -0.00     0.00  -0.00   0.00
    44   6    -0.00   0.00  -0.00     0.00   0.00  -0.00    -0.00  -0.00   0.00
    45   1     0.00   0.00  -0.01    -0.00  -0.00   0.01     0.00   0.00  -0.00
    46   1     0.00   0.01   0.01    -0.00   0.00   0.00     0.00  -0.00  -0.00
    47   1     0.00   0.02  -0.00     0.00   0.00  -0.00    -0.00  -0.00   0.00
    48   1    -0.01  -0.00  -0.02     0.00   0.00  -0.01     0.00  -0.00  -0.00
    49   1    -0.02  -0.01  -0.01    -0.01  -0.01   0.01     0.01   0.00   0.00
    50   1    -0.00  -0.04   0.02    -0.00  -0.02   0.01    -0.00   0.01  -0.00
    51   1     0.03   0.00   0.02     0.00   0.01   0.01    -0.00  -0.00  -0.01
    52   6     0.00   0.00  -0.00    -0.04  -0.05  -0.00     0.00   0.00   0.00
    53   1    -0.02  -0.02   0.00     0.60   0.09  -0.22    -0.03  -0.00   0.01
    54   1    -0.00  -0.00   0.03    -0.24   0.23  -0.13     0.01  -0.01   0.00
    55   1     0.00   0.02  -0.00     0.39   0.07   0.45    -0.02  -0.00  -0.02
                    124                    125                    126
                      A                      A                      A
 Frequencies --   1477.7592              1478.2424              1483.0771
 Red. masses --      2.2480                 1.0610                 1.0569
 Frc consts  --      2.8923                 1.3660                 1.3697
 IR Inten    --      0.0000                 0.0000                 0.0000
  Atom  AN      X      Y      Z        X      Y      Z        X      Y      Z
     1  26    -0.00  -0.01   0.00     0.00   0.00  -0.00    -0.00   0.00  -0.00
     2   6    -0.00   0.00   0.00    -0.00  -0.00  -0.00    -0.00   0.00   0.00
     3  46    -0.00   0.00   0.00    -0.00   0.00  -0.00     0.00  -0.00   0.00
     4   6    -0.06  -0.06  -0.05     0.01   0.01   0.00     0.01   0.00   0.00
     5   1     0.00   0.00   0.00    -0.00   0.00   0.00     0.00   0.00   0.00
     6   1     0.01   0.01   0.01    -0.00   0.00   0.00     0.00   0.00   0.00
     7   1    -0.02   0.04  -0.02    -0.02   0.02  -0.01     0.01   0.00  -0.01
     8   6     0.00  -0.00   0.00     0.00  -0.00   0.00    -0.00   0.00  -0.00
     9   8     0.00   0.00   0.00     0.00  -0.00   0.00    -0.00   0.00  -0.00
    10   6     0.12   0.20   0.06    -0.00  -0.01  -0.01    -0.01  -0.01  -0.00
    11   8    -0.00   0.00  -0.00    -0.00   0.00  -0.00     0.00  -0.00   0.00
    12   6    -0.04  -0.01   0.00     0.00   0.00   0.00    -0.00  -0.00  -0.00
    13   6     0.04   0.04   0.01    -0.00  -0.00  -0.00    -0.00  -0.00  -0.00
    14   6    -0.14  -0.12  -0.03     0.01   0.01   0.00     0.00   0.00   0.00
    15   1     0.07   0.02   0.00    -0.01  -0.00  -0.00     0.00   0.00   0.00
    16   1     0.02   0.08   0.02    -0.00  -0.00  -0.00     0.00  -0.00  -0.00
    17   1     0.06   0.18   0.06    -0.01  -0.01  -0.00    -0.00  -0.00  -0.00
    18   1    -0.02  -0.00   0.02    -0.01   0.01   0.00     0.01  -0.00  -0.00
    19   6     0.02  -0.03  -0.02    -0.00   0.00   0.00     0.00   0.00   0.00
    20   6     0.00  -0.00   0.00    -0.00   0.00   0.00     0.00  -0.00   0.00
    21   8     0.00  -0.00  -0.00    -0.00   0.00   0.00     0.00  -0.00  -0.00
    22   6     0.02  -0.00   0.00     0.00  -0.00   0.00     0.00   0.00   0.00
    23   6    -0.01  -0.01  -0.01    -0.00   0.00   0.00    -0.00  -0.00  -0.00
    24   6     0.00   0.01   0.00    -0.00  -0.00  -0.00     0.00   0.00   0.00
    25   6     0.00   0.00  -0.00     0.00   0.00   0.00     0.00   0.00   0.00
    26   6    -0.01   0.01  -0.00    -0.00  -0.00  -0.00    -0.00  -0.00  -0.00
    27   1    -0.01   0.01   0.01    -0.00   0.00   0.00     0.00   0.00   0.00
    28   7    -0.00   0.00  -0.00     0.00   0.00   0.00    -0.00  -0.00  -0.00
    29   1    -0.00  -0.00   0.00     0.00   0.00   0.00     0.00  -0.00  -0.00
    30   1     0.30  -0.18   0.09     0.02   0.02   0.02    -0.03  -0.01  -0.02
    31   1     0.24   0.00  -0.20    -0.01  -0.01  -0.00     0.01   0.01   0.02
    32   1    -0.01   0.00   0.00    -0.00   0.00  -0.00     0.00   0.00   0.00
    33   7    -0.01   0.00   0.02    -0.01  -0.02  -0.00    -0.02   0.01  -0.01
    34   6    -0.03  -0.01   0.03    -0.01  -0.03   0.03    -0.04   0.03  -0.00
    35   6     0.03   0.01   0.00    -0.02  -0.03  -0.02    -0.03   0.01  -0.01
    36   1     0.37   0.09  -0.23     0.37   0.12   0.05     0.22   0.04  -0.38
    37   1     0.04  -0.32  -0.13    -0.25  -0.11  -0.19     0.46  -0.37   0.08
    38   1     0.00   0.27  -0.03     0.05   0.45  -0.25    -0.08  -0.07   0.36
    39   1    -0.25  -0.10  -0.19     0.41   0.16   0.13     0.14   0.08   0.29
    40   1     0.00  -0.19   0.10    -0.02   0.44   0.06     0.01   0.05  -0.18
    41   1    -0.12   0.18  -0.07    -0.11  -0.16   0.11     0.24  -0.26   0.09
    42   6    -0.00   0.00   0.00     0.00  -0.00   0.00     0.00   0.00  -0.00
    43   6    -0.00   0.00  -0.00    -0.00   0.00   0.00     0.00  -0.00  -0.00
    44   6    -0.00  -0.00   0.00     0.00  -0.00   0.00    -0.00   0.01  -0.00
    45   1     0.00   0.00   0.00     0.01   0.01  -0.00    -0.02  -0.01  -0.02
    46   1     0.00  -0.00  -0.00     0.01  -0.01  -0.02    -0.00   0.02   0.03
    47   1     0.00  -0.01   0.00    -0.00  -0.02   0.00     0.00   0.05  -0.01
    48   1     0.00  -0.00  -0.00     0.01   0.00   0.00    -0.00   0.00  -0.00
    49   1     0.02   0.01   0.00     0.01   0.00   0.01    -0.05  -0.02  -0.02
    50   1     0.00   0.03  -0.01     0.00   0.02  -0.01     0.00  -0.08   0.03
    51   1    -0.01  -0.00  -0.01    -0.01   0.00  -0.01     0.04   0.00   0.03
    52   6    -0.00   0.00   0.00     0.00   0.00  -0.00     0.00  -0.00  -0.00
    53   1    -0.00   0.00   0.00    -0.01  -0.00   0.00    -0.00  -0.00   0.00
    54   1     0.00  -0.00  -0.00     0.00  -0.00   0.00    -0.00   0.00   0.00
    55   1    -0.00  -0.00  -0.00    -0.00   0.00  -0.00     0.00   0.00  -0.00
                    127                    128                    129
                      A                      A                      A
 Frequencies --   1489.1609              1495.2242              1500.2004
 Red. masses --      1.0573                 1.0605                 1.0534
 Frc consts  --      1.3815                 1.3969                 1.3968
 IR Inten    --      0.0000                 0.0000                 0.0000
  Atom  AN      X      Y      Z        X      Y      Z        X      Y      Z
     1  26     0.00   0.00  -0.00    -0.00   0.00  -0.00     0.00  -0.00  -0.00
     2   6    -0.00  -0.00  -0.00     0.00  -0.00   0.00     0.00  -0.00   0.00
     3  46     0.00   0.00   0.00     0.00  -0.00  -0.00    -0.00   0.00   0.00
     4   6     0.00   0.00   0.00     0.00   0.00   0.00     0.00   0.00   0.00
     5   1     0.00   0.00   0.00    -0.00   0.00   0.00    -0.00   0.00   0.00
     6   1     0.00   0.00   0.00    -0.00  -0.00   0.00     0.00   0.00   0.00
     7   1     0.00  -0.00  -0.00    -0.00   0.00  -0.00    -0.00   0.00   0.00
     8   6     0.00  -0.00   0.00     0.00   0.00   0.00     0.00  -0.00   0.00
     9   8     0.00  -0.00   0.00    -0.00   0.00  -0.00    -0.00   0.00  -0.00
    10   6    -0.00  -0.00  -0.00    -0.00  -0.00  -0.00     0.00  -0.00  -0.00
    11   8    -0.00   0.00  -0.00    -0.00  -0.00   0.00    -0.00   0.00  -0.00
    12   6     0.00   0.00   0.00     0.00   0.00   0.00     0.00   0.00   0.00
    13   6    -0.00  -0.00  -0.00     0.00  -0.00  -0.00    -0.00  -0.00  -0.00
    14   6     0.00   0.00   0.00     0.00   0.00   0.00     0.00   0.00   0.00
    15   1    -0.01  -0.00  -0.00     0.00   0.00   0.00    -0.00  -0.00  -0.00
    16   1    -0.00  -0.00   0.00    -0.00   0.00  -0.00    -0.00   0.00   0.00
    17   1    -0.00  -0.00  -0.00    -0.00  -0.00  -0.00    -0.00  -0.00  -0.00
    18   1    -0.01   0.01   0.00    -0.00   0.00  -0.00    -0.01   0.00   0.00
    19   6    -0.00  -0.00   0.00    -0.00   0.00   0.00    -0.00  -0.00   0.00
    20   6     0.00   0.00  -0.00     0.00   0.00   0.00    -0.00   0.00   0.00
    21   8    -0.00   0.00   0.00    -0.00   0.00   0.00    -0.00   0.00  -0.00
    22   6     0.00   0.00   0.00     0.00   0.00   0.00     0.00   0.00   0.00
    23   6    -0.00  -0.00  -0.00    -0.00  -0.00  -0.00    -0.00   0.00   0.00
    24   6     0.00  -0.00   0.00    -0.00   0.00   0.00     0.00  -0.00  -0.00
    25   6     0.00   0.00   0.00     0.00   0.00   0.00     0.00   0.00   0.00
    26   6     0.00  -0.00  -0.00     0.00  -0.00  -0.00    -0.00  -0.00  -0.00
    27   1     0.00   0.00   0.00     0.00   0.00   0.00    -0.00  -0.00   0.00
    28   7    -0.00   0.00   0.00    -0.00   0.00  -0.00    -0.00   0.00   0.00
    29   1    -0.00  -0.00   0.00     0.01   0.00   0.00     0.01   0.01  -0.02
    30   1    -0.01   0.00  -0.00     0.00  -0.00   0.00    -0.00   0.00  -0.00
    31   1    -0.00   0.00   0.01     0.00  -0.00  -0.00    -0.00  -0.00   0.00
    32   1    -0.00  -0.00   0.00    -0.00  -0.00   0.00    -0.00   0.00   0.00
    33   7    -0.00   0.00  -0.00    -0.00  -0.00  -0.00    -0.00  -0.00  -0.00
    34   6    -0.00   0.00  -0.00     0.00  -0.00   0.00     0.00  -0.00   0.00
    35   6    -0.01   0.00  -0.00    -0.00  -0.00  -0.00    -0.00  -0.00  -0.00
    36   1     0.01   0.00  -0.04     0.00   0.00   0.00     0.00   0.00   0.00
    37   1     0.05  -0.03   0.02    -0.00  -0.00  -0.00    -0.01   0.00  -0.00
    38   1    -0.01  -0.02   0.05     0.00   0.00  -0.00     0.00   0.01  -0.01
    39   1     0.00   0.01   0.06     0.01   0.00   0.01     0.00   0.00   0.00
    40   1     0.01  -0.03  -0.05    -0.00   0.01   0.00     0.00   0.00  -0.00
    41   1     0.07  -0.05   0.01    -0.00  -0.01   0.00     0.01  -0.00   0.00
    42   6    -0.00  -0.00   0.01    -0.01  -0.01  -0.01     0.01  -0.02  -0.00
    43   6    -0.01   0.03  -0.00     0.02  -0.01  -0.03     0.02  -0.05  -0.01
    44   6     0.00  -0.05   0.01    -0.05  -0.00   0.01     0.02  -0.03   0.01
    45   1     0.11   0.06   0.14    -0.18  -0.18   0.28    -0.25  -0.17  -0.08
    46   1     0.01  -0.15  -0.22    -0.22   0.26   0.19    -0.09   0.33   0.42
    47   1    -0.01  -0.34   0.08     0.18   0.03  -0.02     0.10   0.49  -0.13
    48   1    -0.01  -0.00  -0.04     0.02   0.01   0.03     0.02  -0.01  -0.01
    49   1     0.34   0.14   0.20     0.44   0.27  -0.24    -0.03  -0.05   0.23
    50   1    -0.02   0.61  -0.18    -0.09   0.14   0.20     0.04   0.27  -0.22
    51   1    -0.32  -0.01  -0.23     0.37  -0.35  -0.10    -0.36   0.16  -0.09
    52   6    -0.00  -0.00   0.00    -0.00   0.00   0.00    -0.00  -0.00  -0.00
    53   1     0.03   0.01  -0.01     0.01   0.01  -0.00     0.00  -0.00  -0.00
    54   1    -0.00   0.00  -0.02     0.01  -0.00  -0.02    -0.01   0.00   0.01
    55   1     0.01  -0.01   0.02    -0.00  -0.02   0.00     0.01   0.01   0.01
                    130                    131                    132
                      A                      A                      A
 Frequencies --   1505.0698              1693.2882              1745.3061
 Red. masses --      1.0574                 9.0805                12.5036
 Frc consts  --      1.4113                15.3399                22.4402
 IR Inten    --      0.0000                 0.0000                 0.0000
  Atom  AN      X      Y      Z        X      Y      Z        X      Y      Z
     1  26     0.00  -0.00  -0.00     0.00  -0.00  -0.00     0.00   0.00  -0.00
     2   6    -0.00   0.00  -0.00    -0.02   0.01  -0.03     0.57  -0.27   0.54
     3  46    -0.00  -0.00  -0.00     0.00   0.00   0.00    -0.00   0.00   0.00
     4   6    -0.00  -0.00  -0.00     0.00   0.00  -0.00    -0.00  -0.00   0.00
     5   1    -0.00   0.00  -0.00    -0.00  -0.00   0.00    -0.00  -0.00   0.00
     6   1    -0.00  -0.00   0.00    -0.01  -0.00   0.01    -0.00   0.00   0.00
     7   1    -0.00   0.00   0.00     0.01  -0.00  -0.00    -0.01   0.00   0.01
     8   6     0.00  -0.00   0.00     0.43   0.47   0.07     0.02   0.02   0.00
     9   8     0.00  -0.00   0.00     0.01  -0.01   0.02    -0.28   0.09  -0.37
    10   6     0.00   0.00   0.00     0.01  -0.00  -0.00    -0.00  -0.00   0.00
    11   8    -0.00   0.00  -0.00    -0.13  -0.02  -0.03    -0.01   0.00  -0.00
    12   6     0.00   0.00   0.00     0.02   0.01   0.01     0.00  -0.00   0.00
    13   6    -0.00  -0.00  -0.00    -0.01  -0.00   0.00     0.00   0.00   0.00
    14   6    -0.00  -0.00  -0.00    -0.00  -0.00  -0.00     0.00  -0.00  -0.00
    15   1    -0.00  -0.00  -0.00    -0.06   0.00  -0.04     0.00  -0.00  -0.00
    16   1    -0.00   0.00   0.00    -0.01   0.01   0.00     0.00  -0.00  -0.01
    17   1    -0.00   0.00   0.00    -0.01  -0.01  -0.01     0.00   0.00  -0.00
    18   1    -0.01   0.00   0.00    -0.27   0.39   0.02    -0.03  -0.01   0.02
    19   6    -0.00  -0.00   0.00    -0.01  -0.01   0.01     0.00   0.00   0.00
    20   6    -0.00  -0.00   0.00     0.07   0.03   0.04    -0.01   0.01  -0.02
    21   8     0.00  -0.00   0.00     0.00  -0.00   0.00    -0.14   0.10  -0.02
    22   6    -0.00  -0.00  -0.00     0.00  -0.00   0.00     0.00   0.00  -0.00
    23   6     0.00   0.00   0.00     0.00  -0.00   0.00     0.00   0.00  -0.00
    24   6    -0.00  -0.00  -0.00    -0.00  -0.00  -0.00     0.00  -0.00  -0.00
    25   6     0.00  -0.00  -0.00     0.00  -0.00  -0.00     0.00   0.00   0.00
    26   6     0.00   0.00  -0.00     0.00   0.00  -0.00     0.00  -0.00  -0.00
    27   1    -0.00  -0.00   0.00     0.00   0.03   0.02    -0.01  -0.01   0.01
    28   7    -0.00   0.00  -0.00    -0.29  -0.40  -0.06    -0.02  -0.03  -0.01
    29   1     0.02   0.01  -0.00    -0.03  -0.04  -0.03     0.03   0.02   0.18
    30   1     0.00   0.00   0.00     0.00   0.02   0.01    -0.00  -0.01  -0.00
    31   1    -0.00   0.00   0.00    -0.01  -0.00   0.01    -0.00   0.00  -0.00
    32   1    -0.00  -0.00   0.00    -0.04  -0.01   0.02     0.00  -0.00   0.00
    33   7    -0.00  -0.00   0.00    -0.01   0.00   0.00    -0.00  -0.00  -0.00
    34   6    -0.00  -0.00   0.00     0.00   0.00  -0.00     0.00  -0.00   0.00
    35   6     0.00  -0.00   0.00    -0.00   0.00   0.00     0.00  -0.00  -0.00
    36   1     0.00   0.00   0.00     0.00  -0.00   0.00     0.01   0.01   0.01
    37   1    -0.00  -0.00  -0.00    -0.00   0.00  -0.00    -0.01   0.01  -0.00
    38   1     0.00   0.01  -0.00    -0.00  -0.00  -0.00    -0.00   0.03   0.00
    39   1    -0.00  -0.00  -0.00    -0.00  -0.00  -0.00     0.00   0.01  -0.00
    40   1     0.00   0.00  -0.00    -0.00  -0.01  -0.00    -0.00   0.01  -0.01
    41   1    -0.00   0.00  -0.00     0.01  -0.00   0.00     0.00   0.00  -0.00
    42   6     0.01   0.01  -0.02     0.02   0.01   0.00     0.00   0.00  -0.00
    43   6     0.01   0.03  -0.05    -0.00  -0.00  -0.00     0.00   0.01   0.00
    44   6     0.03   0.01  -0.00     0.00   0.00  -0.00    -0.00  -0.00   0.00
    45   1    -0.10  -0.17   0.60     0.00   0.01  -0.00    -0.01  -0.01   0.01
    46   1    -0.32   0.18  -0.01     0.01  -0.00   0.01    -0.02  -0.02  -0.03
    47   1     0.28  -0.39   0.07    -0.00   0.00  -0.00    -0.05  -0.07   0.02
    48   1    -0.02  -0.01   0.02    -0.02  -0.01  -0.00     0.02   0.00  -0.03
    49   1    -0.29  -0.16   0.09    -0.00  -0.00   0.01     0.00   0.00   0.00
    50   1     0.06  -0.17  -0.09    -0.00  -0.01   0.01     0.01  -0.00  -0.01
    51   1    -0.15   0.19   0.09     0.00   0.00   0.01     0.00   0.00   0.00
    52   6     0.00   0.00  -0.00    -0.02  -0.04  -0.00    -0.00  -0.00   0.00
    53   1    -0.01  -0.00   0.00    -0.02   0.03   0.01     0.01   0.02  -0.00
    54   1    -0.00   0.00   0.01     0.17  -0.20   0.06     0.01  -0.00  -0.00
    55   1     0.00   0.01  -0.00    -0.01   0.05  -0.02    -0.00   0.00   0.00
                    133                    134                    135
                      A                      A                      A
 Frequencies --   2736.0211              2839.6402              2871.2710
 Red. masses --      1.0737                 1.0704                 1.0701
 Frc consts  --      4.7354                 5.0854                 5.1980
 IR Inten    --      0.0000                 0.0000                 0.0000
  Atom  AN      X      Y      Z        X      Y      Z        X      Y      Z
     1  26     0.00   0.00  -0.00    -0.00   0.00  -0.00    -0.00   0.00   0.00
     2   6     0.00  -0.00  -0.00    -0.00   0.00  -0.00    -0.00   0.00  -0.00
     3  46    -0.00  -0.00   0.00     0.00   0.00   0.00    -0.00   0.00   0.00
     4   6     0.00  -0.00   0.00     0.03  -0.06   0.03     0.00  -0.00   0.00
     5   1    -0.00  -0.00   0.00     0.00   0.00  -0.00     0.00   0.00  -0.00
     6   1    -0.00   0.00   0.00    -0.00   0.00   0.00     0.00  -0.00   0.00
     7   1     0.00   0.00  -0.00     0.00   0.00   0.00     0.00   0.00   0.00
     8   6    -0.00  -0.00   0.00     0.00   0.00   0.00     0.00   0.00   0.00
     9   8    -0.00   0.00  -0.00     0.00  -0.00   0.00     0.00  -0.00   0.00
    10   6    -0.00  -0.00   0.00     0.00  -0.00   0.00     0.00  -0.00  -0.00
    11   8    -0.00   0.00  -0.00    -0.00   0.00  -0.00    -0.00  -0.00  -0.00
    12   6    -0.00  -0.00  -0.00    -0.00   0.00   0.00     0.00   0.00   0.00
    13   6     0.00   0.00  -0.00     0.00  -0.00  -0.00     0.00  -0.00  -0.00
    14   6     0.00  -0.00  -0.00    -0.00   0.00   0.00    -0.00   0.00   0.00
    15   1     0.00  -0.00  -0.00     0.00  -0.00  -0.00     0.00  -0.00  -0.00
    16   1    -0.00  -0.00  -0.00    -0.00  -0.00   0.00    -0.00   0.00   0.00
    17   1    -0.00   0.00  -0.00     0.00  -0.00  -0.00     0.00  -0.00  -0.00
    18   1     0.00  -0.00  -0.00     0.00  -0.00   0.00     0.00  -0.00  -0.00
    19   6     0.00   0.00   0.00    -0.00   0.00   0.00     0.00  -0.00  -0.00
    20   6     0.00  -0.00   0.00     0.00  -0.00   0.00     0.00  -0.00   0.00
    21   8    -0.00   0.00  -0.00     0.00  -0.00  -0.00     0.00  -0.00   0.00
    22   6     0.00   0.00  -0.00    -0.00  -0.00  -0.00    -0.00  -0.00  -0.00
    23   6     0.00  -0.00   0.00     0.00  -0.00  -0.00     0.00   0.00  -0.00
    24   6     0.00  -0.00   0.00     0.00  -0.00  -0.00    -0.00  -0.00   0.00
    25   6     0.00   0.00   0.00    -0.00   0.00   0.00     0.00   0.00   0.00
    26   6    -0.00   0.00  -0.00    -0.00   0.00  -0.00    -0.00   0.00   0.00
    27   1     0.00  -0.00   0.00     0.00  -0.00  -0.00     0.00  -0.00  -0.00
    28   7    -0.00   0.00  -0.00     0.00  -0.00  -0.00     0.00  -0.00  -0.00
    29   1     0.00  -0.01   0.00    -0.00   0.00  -0.00    -0.00   0.00  -0.00
    30   1    -0.00  -0.00   0.00     0.03  -0.03  -0.02    -0.00  -0.00   0.01
    31   1    -0.00   0.00  -0.00    -0.40   0.82  -0.38    -0.03   0.06  -0.03
    32   1     0.00  -0.00   0.00    -0.00   0.00  -0.00     0.00  -0.00  -0.00
    33   7     0.00  -0.00   0.00     0.00  -0.00   0.00    -0.00  -0.00   0.00
    34   6     0.00  -0.00   0.00    -0.00   0.00  -0.00    -0.00   0.01  -0.00
    35   6     0.00  -0.00   0.00    -0.00   0.01  -0.00     0.03  -0.07   0.00
    36   1    -0.00   0.00  -0.00     0.02  -0.05   0.01     0.03  -0.10   0.02
    37   1    -0.00  -0.00  -0.00    -0.00   0.00  -0.00    -0.01  -0.00   0.01
    38   1    -0.00   0.00  -0.00     0.01   0.00   0.00    -0.00   0.00  -0.00
    39   1     0.00   0.00  -0.00     0.03  -0.07   0.00    -0.32   0.93  -0.09
    40   1    -0.01  -0.00  -0.00     0.02   0.00   0.00    -0.04  -0.04  -0.01
    41   1     0.00   0.00   0.00     0.00   0.01   0.00     0.03  -0.02   0.03
    42   6     0.04  -0.07  -0.01    -0.00   0.00   0.00    -0.00   0.00   0.00
    43   6     0.00   0.00   0.00     0.00   0.00  -0.00     0.00   0.00  -0.00
    44   6    -0.00  -0.00  -0.00     0.00   0.00  -0.00     0.00   0.00   0.00
    45   1     0.01  -0.02  -0.00    -0.00   0.00   0.00    -0.00   0.00   0.00
    46   1    -0.00  -0.00   0.01    -0.00  -0.00   0.00    -0.00  -0.00   0.00
    47   1     0.00   0.00  -0.00    -0.00   0.00   0.00    -0.00  -0.00   0.00
    48   1    -0.51   0.85   0.07     0.00  -0.00  -0.00     0.00  -0.00  -0.00
    49   1     0.01  -0.02  -0.00    -0.00   0.00   0.00    -0.00   0.00   0.00
    50   1     0.02   0.00   0.00    -0.00  -0.00  -0.00    -0.00  -0.00  -0.00
    51   1    -0.01  -0.00   0.00    -0.00  -0.00   0.00    -0.00  -0.00   0.00
    52   6    -0.00   0.00  -0.00     0.00  -0.00  -0.00    -0.00  -0.00   0.00
    53   1     0.00   0.00   0.00     0.00  -0.00   0.00    -0.00  -0.00  -0.00
    54   1    -0.00   0.00  -0.00     0.00   0.00   0.00     0.00   0.00   0.00
    55   1     0.00   0.00  -0.00    -0.00   0.00   0.00    -0.00   0.00   0.00
                    136                    137                    138
                      A                      A                      A
 Frequencies --   2895.4213              2918.0066              2967.7043
 Red. masses --      1.0694                 1.0728                 1.0676
 Frc consts  --      5.2823                 5.3819                 5.5398
 IR Inten    --      0.0000                 0.0000                 0.0000
  Atom  AN      X      Y      Z        X      Y      Z        X      Y      Z
     1  26    -0.00   0.00   0.00     0.00   0.00   0.00     0.00   0.00  -0.00
     2   6    -0.00   0.00  -0.00     0.00  -0.00   0.00     0.00  -0.00   0.00
     3  46    -0.00   0.00   0.00     0.00   0.00   0.00    -0.00  -0.00   0.00
     4   6     0.00  -0.00   0.00    -0.00   0.00  -0.00     0.00   0.00  -0.00
     5   1     0.00   0.00  -0.00    -0.00  -0.00   0.00     0.00   0.00   0.00
     6   1     0.00  -0.00  -0.00    -0.00  -0.00   0.00     0.00   0.00  -0.00
     7   1     0.00  -0.00  -0.00    -0.00  -0.00   0.00    -0.00  -0.00  -0.00
     8   6     0.00   0.00   0.00    -0.00  -0.00   0.00     0.00   0.00   0.00
     9   8     0.00  -0.00   0.00    -0.00   0.00  -0.00    -0.00   0.00  -0.00
    10   6     0.00  -0.00   0.00    -0.00   0.00   0.00    -0.00   0.00   0.00
    11   8    -0.00  -0.00  -0.00     0.00   0.00   0.00     0.00   0.00   0.00
    12   6    -0.00   0.00   0.00     0.00  -0.00  -0.00    -0.00   0.00   0.00
    13   6     0.00  -0.00  -0.00     0.00   0.00  -0.00     0.00   0.00   0.00
    14   6    -0.00   0.00   0.00    -0.00  -0.00  -0.00     0.00  -0.00  -0.00
    15   1     0.00  -0.00  -0.00    -0.00   0.00   0.00     0.00  -0.00  -0.00
    16   1    -0.00   0.00   0.00    -0.00  -0.00  -0.00    -0.00  -0.00  -0.00
    17   1     0.00  -0.00  -0.00    -0.00   0.00   0.00    -0.00   0.00   0.00
    18   1     0.00   0.00   0.00    -0.00  -0.00   0.00    -0.00   0.00  -0.00
    19   6     0.00   0.00  -0.00    -0.00  -0.00  -0.00     0.00  -0.00   0.00
    20   6     0.00  -0.00   0.00     0.04  -0.06   0.01     0.00  -0.00   0.00
    21   8     0.00  -0.00  -0.00    -0.00   0.00  -0.00    -0.00   0.00  -0.00
    22   6     0.00   0.00   0.00     0.00   0.00   0.00     0.00   0.00  -0.00
    23   6    -0.00   0.00   0.00    -0.00   0.00  -0.00     0.00  -0.00  -0.00
    24   6    -0.00  -0.00  -0.00     0.00  -0.00  -0.00    -0.00   0.00  -0.00
    25   6     0.00   0.00   0.00    -0.00   0.00   0.00     0.00   0.00   0.00
    26   6    -0.00   0.00   0.00     0.00  -0.00  -0.00    -0.00   0.00  -0.00
    27   1     0.00  -0.00  -0.00    -0.00   0.00  -0.00     0.00  -0.00   0.00
    28   7     0.00  -0.00   0.00     0.00  -0.00   0.00    -0.00  -0.00  -0.00
    29   1    -0.01   0.02  -0.00    -0.57   0.81  -0.12    -0.00   0.00  -0.00
    30   1     0.00  -0.00  -0.01     0.00   0.00  -0.00    -0.00  -0.00   0.01
    31   1    -0.03   0.05  -0.02     0.00  -0.00   0.00     0.01  -0.01   0.01
    32   1    -0.00   0.00  -0.00     0.00  -0.00   0.00     0.00  -0.00   0.00
    33   7     0.00  -0.01  -0.00     0.00   0.00   0.00    -0.00  -0.00   0.00
    34   6     0.02  -0.07   0.01    -0.00   0.00  -0.00     0.00   0.00  -0.00
    35   6     0.00  -0.01   0.00     0.00   0.00  -0.00    -0.07  -0.00  -0.01
    36   1    -0.30   0.93  -0.10     0.01  -0.02   0.00    -0.00   0.01  -0.00
    37   1     0.04  -0.02  -0.02    -0.00   0.00  -0.00    -0.01  -0.01   0.02
    38   1    -0.02  -0.04   0.01    -0.00   0.00  -0.00    -0.03   0.00  -0.01
    39   1    -0.03   0.10  -0.01     0.00  -0.01   0.00    -0.05   0.06  -0.01
    40   1    -0.01  -0.01  -0.00    -0.01   0.00  -0.00     0.98   0.01   0.13
    41   1    -0.00  -0.01  -0.01     0.00   0.00   0.00    -0.04  -0.01  -0.03
    42   6    -0.00   0.00   0.00     0.00  -0.00  -0.00     0.00  -0.00  -0.00
    43   6     0.00   0.00  -0.00    -0.00   0.00  -0.00    -0.00   0.00  -0.00
    44   6     0.00   0.00  -0.00    -0.00   0.00  -0.00    -0.00   0.00  -0.00
    45   1    -0.00   0.00   0.00     0.01  -0.02  -0.00     0.00  -0.00  -0.00
    46   1    -0.00  -0.00   0.00    -0.01  -0.01   0.01    -0.00   0.00  -0.00
    47   1    -0.00  -0.00   0.00    -0.00   0.00   0.01    -0.00   0.00   0.00
    48   1     0.00  -0.00   0.00    -0.00   0.00   0.00    -0.01   0.01   0.00
    49   1    -0.00   0.00   0.00     0.01  -0.02  -0.00     0.00  -0.01  -0.00
    50   1    -0.00  -0.00  -0.00     0.00   0.00   0.00     0.02   0.00   0.01
    51   1    -0.00  -0.00   0.00    -0.00  -0.00   0.00    -0.00  -0.00   0.00
    52   6    -0.00  -0.00  -0.00    -0.00  -0.00  -0.00    -0.00   0.00  -0.00
    53   1     0.00  -0.00   0.00     0.00  -0.00   0.02     0.00   0.00   0.00
    54   1     0.00   0.00   0.00     0.00   0.00  -0.00    -0.00  -0.00  -0.00
    55   1    -0.00   0.00   0.00     0.01  -0.00  -0.01     0.00  -0.00  -0.00
                    139                    140                    141
                      A                      A                      A
 Frequencies --   2981.8828              2998.8702              3013.7993
 Red. masses --      1.0747                 1.0716                 1.0707
 Frc consts  --      5.6302                 5.6779                 5.7301
 IR Inten    --      0.0000                 0.0000                 0.0000
  Atom  AN      X      Y      Z        X      Y      Z        X      Y      Z
     1  26    -0.00   0.00   0.00    -0.00  -0.00  -0.00     0.00   0.00  -0.00
     2   6    -0.00   0.00  -0.00    -0.00  -0.00  -0.00     0.00  -0.00  -0.00
     3  46     0.00  -0.00  -0.00    -0.00   0.00  -0.00     0.00  -0.00   0.00
     4   6    -0.00  -0.00   0.00    -0.00  -0.00   0.00     0.03   0.02  -0.06
     5   1     0.00   0.00   0.00    -0.00  -0.00  -0.00     0.00   0.00   0.00
     6   1     0.00  -0.00   0.00    -0.00  -0.00   0.00     0.00   0.02  -0.00
     7   1    -0.00  -0.00  -0.00     0.00   0.00   0.00     0.00   0.01   0.00
     8   6     0.00   0.00  -0.00     0.00  -0.00   0.00    -0.00  -0.00  -0.00
     9   8     0.00  -0.00   0.00     0.00   0.00   0.00    -0.00   0.00  -0.00
    10   6     0.00   0.00  -0.00     0.00   0.00   0.00     0.00  -0.00  -0.00
    11   8    -0.00   0.00   0.00    -0.00  -0.00  -0.00     0.00  -0.00  -0.00
    12   6     0.00  -0.00  -0.00     0.00  -0.00  -0.00     0.00   0.00   0.00
    13   6    -0.00  -0.00  -0.00    -0.00  -0.00  -0.00    -0.00  -0.00  -0.00
    14   6    -0.00   0.00   0.00     0.00   0.00  -0.00    -0.00   0.00   0.00
    15   1    -0.00   0.00   0.00    -0.00   0.00   0.00     0.00  -0.00  -0.00
    16   1     0.00   0.00   0.00     0.00   0.00   0.00    -0.00  -0.00  -0.00
    17   1     0.00  -0.00  -0.00    -0.00   0.00   0.00     0.01  -0.00  -0.00
    18   1     0.00   0.00  -0.00     0.00   0.00  -0.00     0.00  -0.00  -0.00
    19   6    -0.00  -0.00   0.00    -0.00  -0.00   0.00    -0.00   0.00  -0.00
    20   6    -0.00   0.00  -0.00    -0.00   0.00  -0.00     0.00  -0.00   0.00
    21   8     0.00  -0.00   0.00     0.00   0.00   0.00     0.00   0.00  -0.00
    22   6     0.00   0.00   0.00    -0.00  -0.00   0.00    -0.00   0.00  -0.00
    23   6    -0.00   0.00   0.00    -0.00   0.00   0.00     0.00   0.00  -0.00
    24   6    -0.00  -0.00   0.00    -0.00  -0.00   0.00    -0.00  -0.00   0.00
    25   6     0.00   0.00   0.00     0.00  -0.00   0.00    -0.00  -0.00  -0.00
    26   6    -0.00  -0.00   0.00     0.00  -0.00   0.00     0.00  -0.00   0.00
    27   1     0.00  -0.00  -0.00    -0.00   0.00  -0.00    -0.00   0.00  -0.00
    28   7     0.00  -0.00   0.00    -0.00   0.00   0.00     0.00   0.00   0.00
    29   1     0.00  -0.00   0.00     0.00  -0.00   0.00    -0.00   0.00  -0.00
    30   1     0.00   0.00  -0.01     0.03   0.02  -0.06    -0.41  -0.23   0.82
    31   1    -0.00   0.00  -0.00     0.00  -0.01   0.00    -0.00   0.03  -0.04
    32   1     0.00  -0.00  -0.00    -0.00   0.00   0.00     0.00   0.00   0.00
    33   7     0.00  -0.00   0.00    -0.00  -0.00  -0.00     0.00   0.00  -0.00
    34   6    -0.00  -0.00   0.00     0.00  -0.00   0.00    -0.02  -0.01   0.01
    35   6     0.00   0.00   0.00    -0.02  -0.04  -0.06    -0.00  -0.00  -0.00
    36   1    -0.00   0.00  -0.00    -0.00   0.02  -0.00    -0.01   0.00   0.00
    37   1     0.00   0.00  -0.00    -0.00  -0.00   0.00     0.09   0.09  -0.16
    38   1     0.00  -0.00   0.00    -0.05   0.00  -0.01     0.20  -0.01   0.04
    39   1    -0.00   0.00   0.00    -0.00  -0.05  -0.02     0.00  -0.01  -0.00
    40   1    -0.02  -0.00  -0.00     0.02  -0.02  -0.02     0.00  -0.00  -0.00
    41   1    -0.00  -0.01  -0.02     0.23   0.50   0.82     0.02   0.04   0.06
    42   6    -0.00   0.00  -0.00    -0.00   0.00  -0.00    -0.00   0.00   0.00
    43   6     0.00  -0.00  -0.00     0.00  -0.00   0.00     0.00  -0.00  -0.00
    44   6    -0.07  -0.01  -0.02    -0.00  -0.00  -0.00    -0.00  -0.00   0.00
    45   1    -0.02   0.03   0.00    -0.00   0.00   0.00    -0.00   0.00   0.00
    46   1    -0.01  -0.02   0.01     0.00   0.00  -0.00     0.00   0.00  -0.00
    47   1     0.00   0.00   0.01     0.00  -0.00  -0.00    -0.00   0.00   0.00
    48   1     0.01  -0.01  -0.00     0.00  -0.00  -0.00     0.00  -0.00  -0.00
    49   1    -0.02  -0.03  -0.01    -0.01   0.01   0.00    -0.00   0.00   0.00
    50   1     0.94   0.11   0.29     0.02   0.00   0.01     0.01   0.00   0.00
    51   1    -0.01   0.04  -0.04     0.00   0.01  -0.01     0.00   0.01  -0.01
    52   6    -0.00  -0.00   0.00     0.00  -0.00   0.00    -0.00  -0.00   0.00
    53   1    -0.00   0.00  -0.00    -0.00   0.00  -0.00    -0.00   0.00  -0.01
    54   1     0.00   0.00   0.00     0.00   0.00   0.00     0.00   0.00   0.00
    55   1     0.00  -0.00  -0.00    -0.00   0.00   0.00     0.00  -0.00  -0.00
                    142                    143                    144
                      A                      A                      A
 Frequencies --   3017.3422              3019.1936              3022.4388
 Red. masses --      1.0854                 1.0925                 1.0793
 Frc consts  --      5.8223                 5.8673                 5.8091
 IR Inten    --      0.0000                 0.0000                 0.0000
  Atom  AN      X      Y      Z        X      Y      Z        X      Y      Z
     1  26     0.00  -0.00   0.00    -0.00   0.00   0.00    -0.00   0.00  -0.00
     2   6     0.00   0.00   0.00    -0.00   0.00  -0.00     0.00  -0.00  -0.00
     3  46    -0.00   0.00  -0.00    -0.00  -0.00   0.00     0.00  -0.00   0.00
     4   6     0.00   0.00  -0.00     0.00   0.00  -0.00     0.00   0.00  -0.00
     5   1    -0.00  -0.00  -0.00    -0.00  -0.00  -0.00     0.00   0.00   0.00
     6   1    -0.00   0.00  -0.00    -0.00   0.00  -0.00     0.00   0.00  -0.00
     7   1     0.00   0.00   0.00    -0.00  -0.00  -0.00    -0.00  -0.00  -0.00
     8   6    -0.00   0.00  -0.00    -0.00   0.00  -0.00    -0.00   0.00  -0.00
     9   8    -0.00  -0.00   0.00     0.00  -0.00   0.00    -0.00   0.00   0.00
    10   6     0.00  -0.00  -0.00    -0.00  -0.00   0.00     0.00  -0.00  -0.00
    11   8     0.00   0.00   0.00     0.00   0.00   0.00    -0.00   0.00  -0.00
    12   6     0.00  -0.00  -0.00    -0.00  -0.00   0.00    -0.00   0.00  -0.00
    13   6     0.00   0.00   0.00     0.00   0.00  -0.00     0.00  -0.00  -0.00
    14   6    -0.00   0.00   0.00    -0.00  -0.00   0.00    -0.00   0.00   0.00
    15   1     0.00   0.00   0.00     0.00  -0.00  -0.00     0.00  -0.00  -0.00
    16   1     0.00  -0.00   0.00    -0.00  -0.00  -0.00    -0.00  -0.00  -0.00
    17   1     0.00  -0.00  -0.00    -0.00   0.00   0.00     0.00  -0.00  -0.00
    18   1     0.00  -0.00  -0.00     0.00  -0.00  -0.00     0.00  -0.00   0.00
    19   6    -0.00  -0.00  -0.00     0.00   0.00   0.00    -0.00   0.00  -0.00
    20   6    -0.00   0.00  -0.00    -0.00   0.00   0.00     0.00  -0.00   0.00
    21   8    -0.00   0.00  -0.00     0.00  -0.00   0.00    -0.00   0.00  -0.00
    22   6     0.00  -0.00   0.00     0.00   0.00   0.00     0.00   0.00   0.00
    23   6     0.00  -0.00  -0.00     0.00  -0.00  -0.00     0.00   0.00  -0.00
    24   6     0.00   0.00   0.00     0.00   0.00  -0.00    -0.00  -0.00  -0.00
    25   6     0.00  -0.00  -0.00     0.00  -0.00   0.00    -0.00  -0.00  -0.00
    26   6    -0.00   0.00  -0.00    -0.00   0.00  -0.00     0.00  -0.00   0.00
    27   1     0.00   0.00   0.00     0.00  -0.00   0.00    -0.00   0.00  -0.00
    28   7    -0.00  -0.00   0.00     0.00   0.00  -0.00     0.00  -0.00   0.00
    29   1     0.01  -0.01   0.00     0.00  -0.00  -0.00    -0.01   0.02  -0.00
    30   1    -0.00  -0.00   0.01    -0.00  -0.00   0.00    -0.03  -0.02   0.07
    31   1     0.00   0.00  -0.00    -0.00   0.00  -0.00    -0.00   0.01  -0.00
    32   1    -0.00   0.00   0.00    -0.00   0.00   0.00     0.00   0.00   0.00
    33   7    -0.00  -0.00  -0.00     0.00   0.00   0.00     0.00   0.00  -0.00
    34   6    -0.00  -0.00   0.00     0.00   0.00  -0.00     0.02   0.00  -0.00
    35   6    -0.00  -0.00  -0.00    -0.00   0.00   0.00     0.00   0.00   0.00
    36   1    -0.00  -0.00   0.00     0.00  -0.00  -0.00     0.01  -0.00  -0.00
    37   1     0.00   0.00  -0.00    -0.00  -0.00   0.00    -0.04  -0.04   0.07
    38   1     0.01  -0.00   0.00    -0.01   0.00  -0.00    -0.27   0.01  -0.05
    39   1    -0.00  -0.00  -0.00     0.00  -0.00   0.00     0.00  -0.00   0.00
    40   1    -0.00  -0.00  -0.00     0.00   0.00   0.00    -0.01   0.00  -0.00
    41   1     0.00   0.00   0.00    -0.00  -0.00  -0.01    -0.00  -0.01  -0.02
    42   6    -0.00   0.00   0.00     0.00  -0.00  -0.00     0.00  -0.00   0.00
    43   6     0.00  -0.01   0.00     0.00   0.06  -0.02    -0.02  -0.04   0.03
    44   6    -0.00   0.01  -0.00     0.00  -0.06   0.02     0.02  -0.05   0.00
    45   1    -0.02   0.03   0.01     0.22  -0.31  -0.07    -0.05   0.05   0.03
    46   1     0.02   0.04  -0.03    -0.24  -0.44   0.32     0.26   0.50  -0.35
    47   1     0.00  -0.00  -0.00    -0.00   0.03  -0.02    -0.01  -0.04  -0.04
    48   1     0.00  -0.00   0.00    -0.00   0.00  -0.00    -0.01   0.02  -0.00
    49   1     0.03  -0.06  -0.01    -0.26   0.45   0.05    -0.31   0.56   0.06
    50   1     0.00   0.00   0.00    -0.01  -0.03   0.01     0.03  -0.02   0.01
    51   1    -0.01  -0.02   0.02     0.21   0.29  -0.26     0.08   0.08  -0.09
    52   6    -0.00  -0.00  -0.08    -0.00   0.00  -0.01    -0.01   0.00   0.00
    53   1     0.33  -0.04   0.87     0.04  -0.00   0.10     0.01  -0.00   0.05
    54   1    -0.01  -0.01  -0.04    -0.00  -0.00  -0.00    -0.00   0.00   0.00
    55   1    -0.27   0.05   0.18     0.01  -0.00  -0.01     0.09  -0.02  -0.08
                    145                    146                    147
                      A                      A                      A
 Frequencies --   3022.7950              3024.7105              3027.5282
 Red. masses --      1.0796                 1.0664                 1.0554
 Frc consts  --      5.8118                 5.7485                 5.6998
 IR Inten    --      0.0000                 0.0000                 0.0000
  Atom  AN      X      Y      Z        X      Y      Z        X      Y      Z
     1  26     0.00  -0.00   0.00    -0.00   0.00   0.00     0.00  -0.00  -0.00
     2   6     0.00  -0.00   0.00     0.00  -0.00  -0.00    -0.00   0.00   0.00
     3  46    -0.00  -0.00  -0.00    -0.00  -0.00   0.00    -0.00   0.00  -0.00
     4   6    -0.01  -0.00   0.02    -0.00  -0.00   0.00     0.00   0.00  -0.00
     5   1    -0.00  -0.00  -0.00     0.00   0.00  -0.00    -0.00   0.00  -0.00
     6   1    -0.00  -0.00   0.00     0.00  -0.00  -0.00     0.00   0.00  -0.00
     7   1     0.00   0.00   0.00     0.00   0.00   0.00     0.00   0.00   0.00
     8   6    -0.00   0.00   0.00    -0.00   0.00   0.00    -0.00   0.00   0.00
     9   8    -0.00   0.00  -0.00    -0.00   0.00   0.00     0.00  -0.00  -0.00
    10   6    -0.00   0.00   0.00    -0.00   0.00   0.00     0.00  -0.00   0.00
    11   8    -0.00   0.00  -0.00    -0.00   0.00   0.00     0.00   0.00   0.00
    12   6    -0.00  -0.00   0.00    -0.00   0.00   0.00    -0.00   0.00   0.00
    13   6     0.00   0.00   0.00     0.00   0.00  -0.00     0.00   0.00  -0.00
    14   6     0.00  -0.00  -0.00     0.00  -0.00  -0.00     0.00  -0.00  -0.00
    15   1    -0.00   0.00   0.00     0.00  -0.00  -0.00    -0.00  -0.00  -0.00
    16   1     0.00  -0.00   0.00    -0.00  -0.00   0.00    -0.00  -0.00   0.00
    17   1    -0.00   0.00   0.00    -0.00   0.00   0.00    -0.00   0.00   0.00
    18   1    -0.00   0.00   0.00     0.00  -0.00   0.00     0.00  -0.00   0.00
    19   6     0.00  -0.00   0.00     0.00   0.00  -0.00    -0.00   0.00  -0.00
    20   6     0.00  -0.00   0.00     0.00  -0.00   0.00    -0.00   0.00  -0.00
    21   8    -0.00   0.00   0.00    -0.00   0.00  -0.00     0.00  -0.00  -0.00
    22   6    -0.00  -0.00  -0.00    -0.00  -0.00  -0.00    -0.00  -0.00  -0.00
    23   6    -0.00  -0.00   0.00    -0.00   0.00   0.00     0.00  -0.00  -0.00
    24   6     0.00   0.00  -0.00     0.00  -0.00  -0.00     0.00   0.00   0.00
    25   6     0.00   0.00   0.00     0.00   0.00   0.00    -0.00   0.00  -0.00
    26   6    -0.00   0.00  -0.00    -0.00   0.00  -0.00    -0.00   0.00  -0.00
    27   1     0.00  -0.00  -0.00     0.00  -0.00  -0.00     0.00  -0.00   0.00
    28   7    -0.00  -0.00  -0.00     0.00  -0.00  -0.00    -0.00  -0.00  -0.00
    29   1    -0.00   0.01  -0.00    -0.01   0.01  -0.00     0.01  -0.01   0.00
    30   1     0.11   0.06  -0.22     0.01   0.00  -0.01    -0.00  -0.00   0.00
    31   1     0.00  -0.01   0.01     0.00  -0.00   0.00    -0.00   0.00  -0.00
    32   1     0.00  -0.00  -0.00     0.00  -0.00  -0.00     0.00   0.00   0.00
    33   7    -0.00  -0.00   0.00    -0.00   0.00  -0.00     0.00   0.00  -0.00
    34   6    -0.07  -0.01   0.00    -0.00   0.00  -0.00     0.00  -0.00   0.00
    35   6    -0.00  -0.00  -0.00    -0.00   0.00   0.00     0.00  -0.00  -0.00
    36   1    -0.04   0.02   0.00    -0.00   0.00  -0.00     0.00  -0.00   0.00
    37   1     0.08   0.10  -0.18    -0.01  -0.01   0.01     0.00   0.00  -0.00
    38   1     0.87  -0.02   0.17     0.03  -0.00   0.01    -0.01   0.00  -0.00
    39   1    -0.01   0.01  -0.00    -0.00   0.00  -0.00     0.00  -0.00  -0.00
    40   1     0.04  -0.00   0.00     0.00   0.00   0.00    -0.00  -0.00  -0.00
    41   1     0.01   0.01   0.02    -0.00  -0.00  -0.00     0.00   0.00   0.00
    42   6     0.00  -0.00   0.00     0.00  -0.00   0.00     0.00   0.00  -0.00
    43   6    -0.01  -0.01   0.01     0.03  -0.04  -0.02     0.00   0.01  -0.00
    44   6     0.01  -0.02   0.00    -0.02  -0.02   0.03     0.00   0.01  -0.01
    45   1    -0.00  -0.01   0.00    -0.38   0.57   0.09     0.01  -0.01  -0.00
    46   1     0.08   0.15  -0.11    -0.02  -0.09   0.03    -0.04  -0.07   0.05
    47   1    -0.00  -0.01  -0.02     0.02   0.01   0.14     0.00   0.00  -0.01
    48   1    -0.00   0.01  -0.00    -0.01   0.01   0.00     0.00  -0.00   0.00
    49   1    -0.10   0.19   0.02     0.06  -0.15   0.00     0.03  -0.05  -0.01
    50   1     0.01  -0.01   0.00    -0.07  -0.02  -0.01     0.00   0.01  -0.00
    51   1     0.02   0.02  -0.02     0.30   0.45  -0.38    -0.07  -0.11   0.09
    52   6    -0.00   0.00   0.00    -0.01   0.00   0.00    -0.06   0.01   0.02
    53   1     0.00  -0.00   0.01     0.00  -0.00   0.02     0.08  -0.01   0.32
    54   1    -0.00  -0.00   0.00    -0.01  -0.00   0.00    -0.06  -0.03   0.00
    55   1     0.04  -0.01  -0.03     0.08  -0.01  -0.07     0.69  -0.13  -0.59
                    148                    149                    150
                      A                      A                      A
 Frequencies --   3030.1804              3031.6816              3046.4823
 Red. masses --      1.0525                 1.0562                 1.0602
 Frc consts  --      5.6937                 5.7196                 5.7972
 IR Inten    --      0.0000                 0.0000                 0.0000
  Atom  AN      X      Y      Z        X      Y      Z        X      Y      Z
     1  26     0.00   0.00   0.00    -0.00   0.00  -0.00     0.00  -0.00   0.00
     2   6     0.00   0.00   0.00     0.00  -0.00  -0.00    -0.00  -0.00   0.00
     3  46    -0.00   0.00  -0.00     0.00  -0.00  -0.00    -0.00  -0.00  -0.00
     4   6    -0.00   0.00  -0.00     0.00   0.00  -0.01    -0.00  -0.00   0.00
     5   1    -0.00  -0.00  -0.00     0.00   0.00   0.00    -0.00  -0.00  -0.00
     6   1    -0.00   0.00   0.00    -0.00   0.00  -0.00     0.00  -0.00  -0.00
     7   1    -0.00  -0.00  -0.00    -0.01  -0.01  -0.00    -0.00   0.00   0.00
     8   6    -0.00  -0.00  -0.00    -0.00   0.00  -0.00    -0.00   0.00  -0.00
     9   8    -0.00   0.00  -0.00    -0.00   0.00  -0.00     0.00   0.00  -0.00
    10   6    -0.00  -0.00   0.00     0.00  -0.00  -0.00     0.00  -0.00  -0.00
    11   8     0.00   0.00   0.00     0.00   0.00  -0.00     0.00   0.00   0.00
    12   6     0.00  -0.00   0.00    -0.00   0.00   0.00    -0.00   0.00   0.00
    13   6     0.00   0.00  -0.00     0.00  -0.00  -0.00     0.00   0.00  -0.00
    14   6     0.00  -0.00  -0.00    -0.00   0.00   0.00    -0.00  -0.00  -0.00
    15   1    -0.00   0.00  -0.00     0.00  -0.00  -0.00     0.00  -0.00  -0.00
    16   1    -0.00  -0.00  -0.00    -0.00  -0.00  -0.00     0.00   0.00   0.00
    17   1    -0.00   0.00   0.00     0.00  -0.00  -0.00     0.00  -0.00   0.00
    18   1    -0.00   0.00   0.00    -0.00  -0.00  -0.00    -0.00   0.00  -0.00
    19   6    -0.00  -0.00   0.00    -0.00  -0.00   0.00     0.00  -0.00   0.00
    20   6     0.00  -0.00   0.00    -0.00  -0.00   0.00    -0.00   0.00  -0.00
    21   8     0.00  -0.00   0.00    -0.00   0.00   0.00    -0.00   0.00  -0.00
    22   6     0.00   0.00   0.00     0.00   0.00   0.00     0.00  -0.00   0.00
    23   6     0.00  -0.00  -0.00     0.00  -0.00  -0.00    -0.00   0.00   0.00
    24   6     0.00   0.00   0.00    -0.00  -0.00   0.00     0.00   0.00   0.00
    25   6    -0.00   0.00  -0.00    -0.00  -0.00  -0.00    -0.00  -0.00  -0.00
    26   6     0.00  -0.00  -0.00     0.00  -0.00   0.00     0.00   0.00   0.00
    27   1    -0.00   0.00   0.00    -0.00   0.00   0.00    -0.00  -0.00   0.00
    28   7     0.00   0.00   0.00    -0.00  -0.00  -0.00    -0.00  -0.00   0.00
    29   1    -0.01   0.01  -0.00    -0.00   0.00   0.00     0.00  -0.01   0.00
    30   1    -0.00  -0.00   0.00    -0.06  -0.03   0.12     0.00   0.00  -0.00
    31   1     0.00  -0.00   0.00     0.00   0.00  -0.01     0.00   0.00   0.00
    32   1    -0.00  -0.00  -0.00     0.00   0.00   0.00    -0.00   0.00   0.00
    33   7    -0.00  -0.00   0.00     0.00   0.00  -0.00    -0.00   0.00  -0.00
    34   6    -0.00  -0.00   0.00     0.01   0.03  -0.06    -0.00  -0.00  -0.00
    35   6    -0.00   0.00   0.00    -0.00  -0.00  -0.00     0.00  -0.00  -0.00
    36   1     0.00  -0.00   0.00    -0.00   0.06  -0.03    -0.00   0.00  -0.00
    37   1     0.01   0.01  -0.02    -0.45  -0.40   0.72    -0.00  -0.00   0.00
    38   1    -0.00  -0.00   0.00     0.30   0.01   0.03     0.00   0.00   0.00
    39   1     0.00  -0.00   0.00     0.00  -0.01   0.00     0.00  -0.00  -0.00
    40   1     0.00   0.00   0.00    -0.01  -0.00  -0.00    -0.00  -0.00  -0.00
    41   1    -0.00  -0.00  -0.00     0.00   0.01   0.01     0.00   0.00   0.00
    42   6     0.00  -0.00  -0.00    -0.00   0.00  -0.00    -0.00  -0.00  -0.00
    43   6     0.03  -0.02  -0.03     0.00   0.00  -0.00    -0.01  -0.01  -0.07
    44   6     0.03  -0.00  -0.03     0.00   0.00  -0.00     0.00   0.00  -0.00
    45   1    -0.31   0.47   0.07     0.00  -0.00  -0.00     0.09  -0.14  -0.05
    46   1    -0.13  -0.30   0.19    -0.01  -0.01   0.01     0.03   0.06  -0.08
    47   1     0.02   0.01   0.08     0.00   0.00  -0.00     0.01   0.23   0.95
    48   1    -0.01   0.01  -0.00     0.00  -0.00  -0.00    -0.00   0.00  -0.00
    49   1    -0.21   0.42   0.03     0.00  -0.00  -0.00    -0.01   0.02   0.00
    50   1     0.03   0.00  -0.01     0.01   0.00   0.00     0.00   0.00  -0.00
    51   1    -0.23  -0.38   0.31    -0.01  -0.02   0.02    -0.02  -0.03   0.02
    52   6     0.00  -0.00  -0.00     0.00  -0.00  -0.00    -0.00   0.00  -0.00
    53   1    -0.00   0.00  -0.02     0.00  -0.00   0.00     0.00  -0.00   0.01
    54   1     0.01   0.00  -0.00     0.00   0.00  -0.00    -0.00  -0.00  -0.00
    55   1    -0.06   0.01   0.05    -0.00   0.00   0.00     0.00  -0.00  -0.00
                    151                    152                    153
                      A                      A                      A
 Frequencies --   3066.1260              3188.4150              3208.2754
 Red. masses --      1.0750                 1.0847                 1.0913
 Frc consts  --      5.9545                 6.4972                 6.6179
 IR Inten    --      0.0000                 0.0000                 0.0000
  Atom  AN      X      Y      Z        X      Y      Z        X      Y      Z
     1  26    -0.00   0.00   0.00     0.00   0.00   0.00     0.00  -0.00   0.00
     2   6    -0.00   0.00   0.00     0.00   0.00   0.00     0.00  -0.00   0.00
     3  46    -0.00   0.00   0.00     0.00  -0.00  -0.00     0.00   0.00  -0.00
     4   6    -0.00   0.00   0.00     0.00   0.00   0.00     0.00   0.00  -0.00
     5   1     0.00   0.00   0.00    -0.02  -0.00  -0.01    -0.04  -0.01  -0.02
     6   1     0.00  -0.00   0.00     0.09  -0.13  -0.01     0.06  -0.08  -0.01
     7   1    -0.00  -0.00  -0.00     0.51   0.67   0.38     0.18   0.23   0.13
     8   6    -0.00  -0.00  -0.00    -0.00  -0.00  -0.00     0.00  -0.00   0.00
     9   8     0.00  -0.00   0.00    -0.00  -0.00  -0.00    -0.00   0.00  -0.00
    10   6     0.00   0.00   0.00    -0.00  -0.00   0.00    -0.00  -0.00  -0.00
    11   8     0.00   0.00   0.00     0.00   0.00  -0.00    -0.00   0.00   0.00
    12   6    -0.00   0.00  -0.00    -0.00   0.00   0.00    -0.00   0.00   0.00
    13   6     0.00   0.00  -0.00     0.00   0.00   0.00     0.00  -0.00   0.00
    14   6    -0.00   0.00   0.00     0.00  -0.00  -0.00     0.00  -0.00  -0.00
    15   1     0.00  -0.00   0.00     0.00  -0.01  -0.00     0.01  -0.03  -0.01
    16   1    -0.00  -0.00  -0.00    -0.00  -0.00   0.00     0.00   0.00   0.00
    17   1     0.00  -0.00  -0.00    -0.01   0.01   0.01    -0.03   0.01   0.02
    18   1    -0.00  -0.00  -0.00    -0.00  -0.00   0.00    -0.00   0.00  -0.00
    19   6    -0.00  -0.00   0.00    -0.00  -0.00  -0.00    -0.00  -0.00   0.00
    20   6    -0.00   0.00  -0.00     0.00  -0.00  -0.00     0.00  -0.00   0.00
    21   8     0.00  -0.00  -0.00    -0.00  -0.00   0.00    -0.00  -0.00   0.00
    22   6     0.00   0.00   0.00    -0.04  -0.06  -0.03    -0.02  -0.02  -0.01
    23   6    -0.00   0.00   0.00    -0.01   0.01   0.00    -0.00   0.01   0.00
    24   6     0.00  -0.00  -0.00     0.00   0.00   0.00     0.00   0.00   0.00
    25   6    -0.00   0.00   0.00    -0.00   0.00   0.00     0.00  -0.00  -0.00
    26   6    -0.00   0.00  -0.00     0.03  -0.01   0.00    -0.07   0.03  -0.01
    27   1     0.00  -0.00  -0.00    -0.31   0.12  -0.05     0.86  -0.33   0.13
    28   7     0.00   0.00  -0.00     0.00   0.00  -0.00    -0.00  -0.00   0.00
    29   1     0.00  -0.00   0.00     0.00  -0.00  -0.00    -0.00   0.00  -0.00
    30   1     0.00   0.00  -0.00    -0.00   0.00  -0.00    -0.00  -0.00   0.00
    31   1     0.00  -0.00   0.00     0.00  -0.00   0.00     0.00  -0.00   0.00
    32   1     0.00  -0.00  -0.00     0.00  -0.03  -0.01    -0.01   0.08   0.04
    33   7     0.00  -0.00  -0.00     0.00   0.00  -0.00     0.00  -0.00  -0.00
    34   6    -0.00   0.00   0.00     0.00   0.00  -0.00     0.00   0.00  -0.00
    35   6    -0.00   0.00   0.00    -0.00   0.00   0.00    -0.00   0.00  -0.00
    36   1     0.00  -0.00   0.00     0.00   0.00  -0.00     0.00  -0.00  -0.00
    37   1     0.00   0.00  -0.00    -0.01  -0.01   0.01    -0.00  -0.00   0.00
    38   1     0.00   0.00   0.00    -0.00   0.00  -0.00    -0.00   0.00  -0.00
    39   1     0.00  -0.00   0.00     0.00  -0.00   0.00     0.00  -0.00   0.00
    40   1     0.00   0.00   0.00     0.00  -0.00   0.00    -0.00  -0.00  -0.00
    41   1    -0.00  -0.00  -0.00    -0.00  -0.00  -0.00     0.00   0.00   0.00
    42   6     0.00   0.00  -0.00    -0.00   0.00   0.00    -0.00   0.00   0.00
    43   6    -0.00   0.00  -0.00     0.00   0.00  -0.00    -0.00  -0.00   0.00
    44   6    -0.00   0.00   0.00    -0.00  -0.00  -0.00     0.00  -0.00  -0.00
    45   1     0.00  -0.00  -0.00    -0.00   0.00   0.00    -0.00   0.00   0.00
    46   1    -0.00  -0.00   0.00    -0.00  -0.00   0.00    -0.00   0.00  -0.00
    47   1     0.00   0.00   0.00     0.00   0.00  -0.00     0.00  -0.00   0.00
    48   1    -0.00  -0.00   0.00    -0.00  -0.00  -0.00     0.00  -0.00  -0.00
    49   1     0.00  -0.00  -0.00    -0.00   0.00   0.00    -0.00   0.00   0.00
    50   1    -0.00   0.00  -0.00     0.00  -0.00   0.00     0.00   0.00  -0.00
    51   1    -0.00  -0.00   0.00    -0.00  -0.00   0.00    -0.00  -0.00   0.00
    52   6    -0.06  -0.05  -0.01    -0.00  -0.00  -0.00     0.00   0.00   0.00
    53   1    -0.02  -0.02   0.02     0.00  -0.00   0.00    -0.00   0.00  -0.00
    54   1     0.70   0.70   0.14     0.00   0.00   0.00    -0.00  -0.00  -0.00
    55   1     0.01  -0.03  -0.03    -0.00   0.00   0.00    -0.00   0.00  -0.00
                    154                    155                    156
                      A                      A                      A
 Frequencies --   3217.9273              3224.0848              3231.8298
 Red. masses --      1.0837                 1.0877                 1.0847
 Frc consts  --      6.6118                 6.6614                 6.6751
 IR Inten    --      0.0000                 0.0000                 0.0000
  Atom  AN      X      Y      Z        X      Y      Z        X      Y      Z
     1  26    -0.00   0.00   0.00     0.00   0.00   0.00     0.00  -0.00  -0.00
     2   6     0.00  -0.00  -0.00     0.00  -0.00   0.00     0.00  -0.00   0.00
     3  46    -0.00  -0.00  -0.00     0.00  -0.00  -0.00    -0.00   0.00   0.00
     4   6     0.00  -0.00   0.00    -0.00  -0.00   0.00    -0.00   0.00   0.00
     5   1     0.02   0.01   0.01     0.15   0.04   0.06    -0.07  -0.02  -0.03
     6   1    -0.02   0.03   0.00    -0.53   0.71   0.06     0.21  -0.28  -0.02
     7   1     0.01   0.02   0.01     0.10   0.13   0.07    -0.03  -0.03  -0.02
     8   6    -0.00   0.00   0.00    -0.00  -0.00   0.00     0.00  -0.00   0.00
     9   8    -0.00   0.00   0.00    -0.00   0.00  -0.00    -0.00  -0.00  -0.00
    10   6     0.00   0.00   0.00     0.00   0.00   0.00     0.00   0.00   0.00
    11   8     0.00  -0.00   0.00    -0.00   0.00  -0.00    -0.00   0.00  -0.00
    12   6     0.02  -0.07  -0.03    -0.00   0.01   0.00    -0.01   0.02   0.01
    13   6     0.02   0.01   0.00     0.01   0.01  -0.00     0.02   0.01  -0.00
    14   6    -0.01   0.01   0.01    -0.02   0.01   0.01    -0.06   0.03   0.03
    15   1    -0.28   0.84   0.32     0.04  -0.12  -0.04     0.06  -0.19  -0.07
    16   1    -0.21  -0.19  -0.00    -0.07  -0.07   0.00    -0.20  -0.18   0.00
    17   1     0.13  -0.07  -0.07     0.26  -0.14  -0.15     0.68  -0.36  -0.38
    18   1    -0.00  -0.00  -0.00    -0.00   0.00   0.00     0.00   0.00   0.00
    19   6     0.00   0.00  -0.00    -0.00  -0.00   0.00    -0.00  -0.00  -0.00
    20   6     0.00   0.00   0.00     0.00  -0.00   0.00     0.00  -0.00  -0.00
    21   8    -0.00   0.00   0.00    -0.00  -0.00   0.00    -0.00   0.00  -0.00
    22   6    -0.00  -0.00  -0.00    -0.01  -0.01  -0.01     0.00   0.00   0.00
    23   6     0.00  -0.00  -0.00     0.05  -0.06  -0.01    -0.02   0.02   0.00
    24   6    -0.00  -0.00  -0.00    -0.01  -0.00  -0.00     0.01   0.00   0.00
    25   6     0.00   0.00   0.00     0.00   0.00   0.00     0.00  -0.00  -0.00
    26   6    -0.00   0.00  -0.00    -0.00   0.00  -0.00     0.00  -0.00   0.00
    27   1     0.03  -0.01   0.00     0.05  -0.02   0.01    -0.00   0.00  -0.00
    28   7     0.00   0.00   0.00    -0.00   0.00  -0.00    -0.00  -0.00  -0.00
    29   1     0.00  -0.00   0.00    -0.00   0.00  -0.00    -0.00   0.00  -0.00
    30   1     0.00   0.00  -0.00     0.01   0.01  -0.01     0.00  -0.00  -0.01
    31   1    -0.00   0.00  -0.00     0.00  -0.00   0.00     0.00  -0.00   0.00
    32   1     0.00  -0.01  -0.00     0.00  -0.02  -0.01    -0.00   0.03   0.02
    33   7    -0.00   0.00   0.00    -0.00  -0.00   0.00     0.00  -0.00  -0.00
    34   6    -0.00   0.00  -0.00     0.00  -0.00   0.00    -0.00   0.00   0.00
    35   6    -0.00   0.00   0.00    -0.00   0.00  -0.00    -0.00   0.00  -0.00
    36   1    -0.00   0.00  -0.00    -0.00   0.00  -0.00     0.00  -0.00   0.00
    37   1    -0.00  -0.00   0.00     0.00  -0.00   0.00     0.00   0.00  -0.00
    38   1     0.00   0.00   0.00    -0.00  -0.00  -0.00     0.00   0.00   0.00
    39   1    -0.00   0.00   0.00     0.00  -0.00   0.00     0.00  -0.00  -0.00
    40   1     0.00   0.00   0.00     0.00  -0.00   0.00     0.00   0.00   0.00
    41   1    -0.00  -0.00  -0.00    -0.00  -0.00  -0.00    -0.00   0.00   0.00
    42   6     0.00  -0.00  -0.00    -0.00   0.00   0.00     0.00  -0.00   0.00
    43   6     0.00  -0.00   0.00    -0.00  -0.00   0.00     0.00   0.00  -0.00
    44   6     0.00  -0.00   0.00    -0.00  -0.00   0.00     0.00   0.00  -0.00
    45   1    -0.00   0.00   0.00    -0.00  -0.00   0.00     0.00   0.00  -0.00
    46   1     0.00   0.00  -0.00     0.00   0.00  -0.00    -0.00  -0.00   0.00
    47   1     0.00   0.00   0.00    -0.00  -0.00   0.00     0.00   0.00  -0.00
    48   1    -0.00   0.00  -0.00     0.00  -0.00  -0.00    -0.00   0.00  -0.00
    49   1    -0.00   0.00   0.00    -0.00   0.00   0.00     0.00  -0.00  -0.00
    50   1    -0.00  -0.00  -0.00     0.00  -0.00   0.00    -0.00   0.00  -0.00
    51   1     0.00   0.00  -0.00     0.00   0.00  -0.00    -0.00  -0.00   0.00
    52   6     0.00  -0.00   0.00    -0.00   0.00   0.00    -0.00   0.00  -0.00
    53   1    -0.00  -0.00  -0.00    -0.00   0.00  -0.00     0.00   0.00   0.00
    54   1     0.00   0.00   0.00    -0.00   0.00   0.00    -0.00  -0.00  -0.00
    55   1     0.00  -0.00  -0.00     0.00   0.00  -0.00    -0.00   0.00  -0.00
                    157                    158                    159
                      A                      A                      A
 Frequencies --   3249.2103              3258.7953              3274.4673
 Red. masses --      1.0924                 1.0858                 1.0913
 Frc consts  --      6.7950                 6.7938                 6.8940
 IR Inten    --      0.0000                 0.0000                 0.0000
  Atom  AN      X      Y      Z        X      Y      Z        X      Y      Z
     1  26     0.00  -0.00   0.00     0.00  -0.00  -0.00     0.00   0.00  -0.00
     2   6     0.00  -0.00   0.00     0.00  -0.00   0.00     0.00  -0.00  -0.00
     3  46     0.00  -0.00   0.00     0.00   0.00  -0.00     0.00  -0.00   0.00
     4   6    -0.00  -0.00   0.00     0.00   0.00  -0.00    -0.00   0.00   0.00
     5   1    -0.23  -0.05  -0.10     0.76   0.18   0.32     0.38   0.09   0.16
     6   1    -0.03   0.04   0.00     0.11  -0.15  -0.01     0.02  -0.03  -0.00
     7   1     0.01   0.01   0.01    -0.00  -0.00   0.00     0.00   0.00   0.00
     8   6    -0.00  -0.00   0.00     0.00  -0.00  -0.00    -0.00  -0.00  -0.00
     9   8    -0.00   0.00  -0.00    -0.00   0.00  -0.00    -0.00   0.00   0.00
    10   6     0.00   0.00   0.00     0.00   0.00   0.00     0.00  -0.00  -0.00
    11   8     0.00  -0.00   0.00    -0.00  -0.00   0.00     0.00   0.00  -0.00
    12   6     0.01  -0.02  -0.01     0.00  -0.00  -0.00     0.00  -0.00  -0.00
    13   6    -0.06  -0.05  -0.00    -0.01  -0.01  -0.00    -0.00  -0.00  -0.00
    14   6    -0.02   0.01   0.01    -0.01   0.00   0.00    -0.00   0.00   0.00
    15   1    -0.06   0.19   0.07    -0.01   0.03   0.01    -0.00   0.01   0.00
    16   1     0.64   0.60  -0.00     0.17   0.16  -0.00     0.04   0.04  -0.00
    17   1     0.26  -0.14  -0.15     0.08  -0.04  -0.04     0.01  -0.00  -0.00
    18   1    -0.00  -0.00  -0.00     0.00   0.00  -0.00     0.00  -0.00   0.00
    19   6     0.00   0.00  -0.00     0.00   0.00  -0.00     0.00   0.00  -0.00
    20   6     0.00  -0.00   0.00     0.00  -0.00  -0.00     0.00   0.00   0.00
    21   8    -0.00   0.00  -0.00    -0.00   0.00   0.00    -0.00   0.00   0.00
    22   6    -0.00  -0.00  -0.00     0.00   0.00   0.00     0.00   0.00   0.00
    23   6     0.00  -0.00  -0.00    -0.01   0.01   0.00    -0.00   0.00   0.00
    24   6     0.02   0.00   0.01    -0.06  -0.02  -0.03    -0.04  -0.01  -0.01
    25   6    -0.00  -0.00  -0.00    -0.00   0.03   0.02     0.00  -0.07  -0.04
    26   6     0.00   0.00  -0.00    -0.01   0.00  -0.00     0.01  -0.00   0.00
    27   1     0.00  -0.00   0.00     0.06  -0.02   0.01    -0.07   0.02  -0.01
    28   7     0.00   0.00   0.00    -0.00  -0.00   0.00     0.00   0.00  -0.00
    29   1    -0.00   0.00  -0.00    -0.00   0.00  -0.00     0.00  -0.00  -0.00
    30   1     0.00   0.00  -0.00    -0.00  -0.00   0.00     0.00   0.00  -0.00
    31   1    -0.00   0.00   0.00     0.00   0.00  -0.00    -0.00   0.00   0.00
    32   1    -0.00   0.05   0.03     0.02  -0.37  -0.20    -0.05   0.78   0.43
    33   7     0.00   0.00  -0.00     0.00  -0.00  -0.00    -0.00   0.00   0.00
    34   6    -0.00   0.00   0.00    -0.00   0.00   0.00    -0.00  -0.00  -0.00
    35   6    -0.00   0.00   0.00    -0.00   0.00  -0.00     0.00   0.00   0.00
    36   1     0.00  -0.00   0.00     0.00  -0.00   0.00     0.00  -0.00   0.00
    37   1     0.00  -0.00   0.00    -0.00   0.00   0.00     0.00   0.00   0.00
    38   1     0.00   0.00   0.00     0.00   0.00   0.00     0.00   0.00   0.00
    39   1     0.00  -0.00  -0.00     0.00  -0.00  -0.00    -0.00   0.00  -0.00
    40   1     0.00   0.00   0.00     0.00   0.00  -0.00     0.00   0.00   0.00
    41   1    -0.00  -0.00  -0.00     0.00   0.00  -0.00    -0.00  -0.00  -0.00
    42   6     0.00  -0.00   0.00     0.00  -0.00  -0.00     0.00  -0.00  -0.00
    43   6     0.00  -0.00  -0.00     0.00   0.00  -0.00     0.00   0.00  -0.00
    44   6     0.00  -0.00   0.00     0.00   0.00   0.00    -0.00   0.00  -0.00
    45   1    -0.00   0.00   0.00    -0.00   0.00   0.00    -0.00   0.00  -0.00
    46   1     0.00   0.00   0.00    -0.00  -0.00   0.00    -0.00  -0.00   0.00
    47   1     0.00  -0.00   0.00     0.00   0.00   0.00     0.00   0.00   0.00
    48   1    -0.00   0.00  -0.00    -0.00   0.00  -0.00    -0.00   0.00  -0.00
    49   1    -0.00   0.00   0.00     0.00  -0.00  -0.00    -0.00   0.00  -0.00
    50   1    -0.00  -0.00  -0.00    -0.00  -0.00  -0.00     0.00  -0.00   0.00
    51   1     0.00   0.00  -0.00    -0.00  -0.00   0.00    -0.00  -0.00   0.00
    52   6    -0.00  -0.00   0.00     0.00   0.00  -0.00    -0.00  -0.00   0.00
    53   1    -0.00  -0.00  -0.00     0.00   0.00   0.00    -0.00  -0.00  -0.00
    54   1     0.00   0.00   0.00    -0.00  -0.00  -0.00     0.00   0.00   0.00
    55   1     0.00  -0.00  -0.00    -0.00   0.00   0.00     0.00  -0.00  -0.00

 -------------------
 - Thermochemistry -
 -------------------
 Temperature   298.150 Kelvin.  Pressure   1.00000 Atm.
 Atom     1 has atomic number 26 and mass  55.93494
 Atom     2 has atomic number  6 and mass  12.00000
 Atom     3 has atomic number 46 and mass 105.90320
 Atom     4 has atomic number  6 and mass  12.00000
 Atom     5 has atomic number  1 and mass   1.00783
 Atom     6 has atomic number  1 and mass   1.00783
 Atom     7 has atomic number  1 and mass   1.00783
 Atom     8 has atomic number  6 and mass  12.00000
 Atom     9 has atomic number  8 and mass  15.99491
 Atom    10 has atomic number  6 and mass  12.00000
 Atom    11 has atomic number  8 and mass  15.99491
 Atom    12 has atomic number  6 and mass  12.00000
 Atom    13 has atomic number  6 and mass  12.00000
 Atom    14 has atomic number  6 and mass  12.00000
 Atom    15 has atomic number  1 and mass   1.00783
 Atom    16 has atomic number  1 and mass   1.00783
 Atom    17 has atomic number  1 and mass   1.00783
 Atom    18 has atomic number  1 and mass   1.00783
 Atom    19 has atomic number  6 and mass  12.00000
 Atom    20 has atomic number  6 and mass  12.00000
 Atom    21 has atomic number  8 and mass  15.99491
 Atom    22 has atomic number  6 and mass  12.00000
 Atom    23 has atomic number  6 and mass  12.00000
 Atom    24 has atomic number  6 and mass  12.00000
 Atom    25 has atomic number  6 and mass  12.00000
 Atom    26 has atomic number  6 and mass  12.00000
 Atom    27 has atomic number  1 and mass   1.00783
 Atom    28 has atomic number  7 and mass  14.00307
 Atom    29 has atomic number  1 and mass   1.00783
 Atom    30 has atomic number  1 and mass   1.00783
 Atom    31 has atomic number  1 and mass   1.00783
 Atom    32 has atomic number  1 and mass   1.00783
 Atom    33 has atomic number  7 and mass  14.00307
 Atom    34 has atomic number  6 and mass  12.00000
 Atom    35 has atomic number  6 and mass  12.00000
 Atom    36 has atomic number  1 and mass   1.00783
 Atom    37 has atomic number  1 and mass   1.00783
 Atom    38 has atomic number  1 and mass   1.00783
 Atom    39 has atomic number  1 and mass   1.00783
 Atom    40 has atomic number  1 and mass   1.00783
 Atom    41 has atomic number  1 and mass   1.00783
 Atom    42 has atomic number  6 and mass  12.00000
 Atom    43 has atomic number  6 and mass  12.00000
 Atom    44 has atomic number  6 and mass  12.00000
 Atom    45 has atomic number  1 and mass   1.00783
 Atom    46 has atomic number  1 and mass   1.00783
 Atom    47 has atomic number  1 and mass   1.00783
 Atom    48 has atomic number  1 and mass   1.00783
 Atom    49 has atomic number  1 and mass   1.00783
 Atom    50 has atomic number  1 and mass   1.00783
 Atom    51 has atomic number  1 and mass   1.00783
 Atom    52 has atomic number  6 and mass  12.00000
 Atom    53 has atomic number  1 and mass   1.00783
 Atom    54 has atomic number  1 and mass   1.00783
 Atom    55 has atomic number  1 and mass   1.00783
 Molecular mass:   506.04813 amu.
 Principal axes and moments of inertia in atomic units:
                           1         2         3
     Eigenvalues --  5921.85097********************
           X            0.99972  -0.01352  -0.01953
           Y            0.01390   0.99971   0.01950
           Z            0.01927  -0.01977   0.99962
 This molecule is an asymmetric top.
 Rotational symmetry number  1.
 Warning -- assumption of classical behavior for rotation
           may cause significant error
 Rotational temperatures (Kelvin)      0.01463     0.00833     0.00719
 Rotational constants (GHZ):           0.30476     0.17353     0.14977
    1 imaginary frequencies ignored.
 Zero-point vibrational energy    1157156.4 (Joules/Mol)
                                  276.56701 (Kcal/Mol)
 Warning -- explicit consideration of  46 degrees of freedom as
           vibrations may cause significant error
 Vibrational temperatures:     37.25    49.95    70.51    97.77   106.16
          (Kelvin)            134.34   139.72   150.15   162.12   185.99
                              199.79   212.50   228.33   245.05   266.78
                              283.38   291.93   297.61   301.93   332.37
                              340.21   367.98   388.38   396.66   422.97
                              444.07   451.92   484.57   492.78   503.37
                              508.48   552.77   598.97   610.70   645.05
                              648.14   665.51   672.28   709.03   716.02
                              764.07   780.77   824.82   835.67   869.20
                              888.06   927.15   935.68   977.96   980.64
                             1020.02  1031.22  1039.44  1087.78  1109.74
                             1118.22  1137.78  1150.30  1151.11  1190.50
                             1196.30  1233.75  1245.42  1248.46  1268.37
                             1293.70  1303.37  1330.88  1361.31  1368.84
                             1400.59  1421.10  1429.47  1440.63  1444.33
                             1467.21  1486.29  1498.76  1511.45  1514.81
                             1543.08  1558.65  1562.72  1576.15  1597.81
                             1607.61  1645.20  1655.68  1673.84  1683.51
                             1689.54  1700.66  1709.45  1721.13  1752.20
                             1793.59  1795.70  1812.33  1817.73  1830.78
                             1859.19  1872.74  1907.58  1913.67  1940.94
                             1964.53  2013.09  2013.61  2018.44  2019.77
                             2023.79  2046.66  2046.81  2050.98  2064.81
                             2072.10  2082.80  2086.05  2103.58  2106.09
                             2111.45  2118.84  2126.17  2126.86  2133.82
                             2142.57  2151.29  2158.45  2165.46  2436.26
                             2511.11  3936.52  4085.61  4131.12  4165.87
                             4198.36  4269.86  4290.26  4314.71  4336.18
                             4341.28  4343.95  4348.62  4349.13  4351.88
                             4355.94  4359.75  4361.91  4383.21  4411.47
                             4587.42  4615.99  4629.88  4638.74  4649.88
                             4674.89  4688.68  4711.23
 
 Zero-point correction=                           0.440738 (Hartree/Particle)
 Thermal correction to Energy=                    0.468158
 Thermal correction to Enthalpy=                  0.469102
 Thermal correction to Gibbs Free Energy=         0.384820
 Sum of electronic and zero-point Energies=            -82.523913
 Sum of electronic and thermal Energies=               -82.496492
 Sum of electronic and thermal Enthalpies=             -82.495548
 Sum of electronic and thermal Free Energies=          -82.579830
 
                     E (Thermal)             CV                S
                      KCal/Mol        Cal/Mol-Kelvin    Cal/Mol-Kelvin
 Total                  293.774            108.138            177.386
 Electronic               0.000              0.000              0.000
 Translational            0.889              2.981             44.551
 Rotational               0.889              2.981             34.961
 Vibrational            291.996            102.176             97.874
 Vibration     1          0.593              1.985              6.122
 Vibration     2          0.594              1.983              5.540
 Vibration     3          0.595              1.978              4.857
 Vibration     4          0.598              1.969              4.212
 Vibration     5          0.599              1.966              4.050
 Vibration     6          0.602              1.954              3.588
 Vibration     7          0.603              1.951              3.512
 Vibration     8          0.605              1.946              3.371
 Vibration     9          0.607              1.939              3.222
 Vibration    10          0.612              1.924              2.957
 Vibration    11          0.614              1.914              2.820
 Vibration    12          0.617              1.905              2.702
 Vibration    13          0.621              1.893              2.565
 Vibration    14          0.625              1.879              2.432
 Vibration    15          0.631              1.860              2.273
 Vibration    16          0.636              1.844              2.161
 Vibration    17          0.639              1.836              2.107
 Vibration    18          0.641              1.830              2.071
 Vibration    19          0.642              1.826              2.045
 Vibration    20          0.653              1.794              1.871
 Vibration    21          0.655              1.785              1.829
 Vibration    22          0.666              1.753              1.691
 Vibration    23          0.674              1.729              1.597
 Vibration    24          0.677              1.718              1.560
 Vibration    25          0.689              1.685              1.451
 Vibration    26          0.698              1.657              1.370
 Vibration    27          0.702              1.647              1.341
 Vibration    28          0.718              1.602              1.227
 Vibration    29          0.722              1.591              1.200
 Vibration    30          0.727              1.576              1.167
 Vibration    31          0.730              1.568              1.151
 Vibration    32          0.753              1.504              1.023
 Vibration    33          0.780              1.435              0.905
 Vibration    34          0.786              1.417              0.877
 Vibration    35          0.807              1.365              0.801
 Vibration    36          0.809              1.360              0.794
 Vibration    37          0.820              1.333              0.759
 Vibration    38          0.825              1.323              0.745
 Vibration    39          0.848              1.266              0.676
 Vibration    40          0.853              1.255              0.664
 Vibration    41          0.886              1.181              0.585
 Vibration    42          0.898              1.156              0.560
 Vibration    43          0.930              1.089              0.498
 Vibration    44          0.938              1.073              0.484
 Vibration    45          0.963              1.023              0.443
 Vibration    46          0.977              0.995              0.421
                       Q            Log10(Q)             Ln(Q)
 Total Bot       0.988697-177       -177.004937       -407.568929
 Total V=0       0.524928D+26         25.720100         59.222718
 Vib (Bot)       0.226582-192       -192.644775       -443.580988
 Vib (Bot)    1  0.799881D+01          0.903026          2.079293
 Vib (Bot)    2  0.596201D+01          0.775393          1.785407
 Vib (Bot)    3  0.421893D+01          0.625203          1.439582
 Vib (Bot)    4  0.303590D+01          0.482287          1.110507
 Vib (Bot)    5  0.279365D+01          0.446173          1.027351
 Vib (Bot)    6  0.220065D+01          0.342550          0.788751
 Vib (Bot)    7  0.211455D+01          0.325218          0.748842
 Vib (Bot)    8  0.196481D+01          0.293322          0.675398
 Vib (Bot)    9  0.181659D+01          0.259256          0.596960
 Vib (Bot)   10  0.157736D+01          0.197931          0.455753
 Vib (Bot)   11  0.146477D+01          0.165770          0.381699
 Vib (Bot)   12  0.137380D+01          0.137925          0.317583
 Vib (Bot)   13  0.127439D+01          0.105301          0.242466
 Vib (Bot)   14  0.118312D+01          0.073029          0.168155
 Vib (Bot)   15  0.108116D+01          0.033891          0.078037
 Vib (Bot)   16  0.101355D+01          0.005845          0.013458
 Vib (Bot)   17  0.981621D+00         -0.008056         -0.018550
 Vib (Bot)   18  0.961393D+00         -0.017099         -0.039372
 Vib (Bot)   19  0.946531D+00         -0.023865         -0.054952
 Vib (Bot)   20  0.852231D+00         -0.069443         -0.159898
 Vib (Bot)   21  0.830561D+00         -0.080628         -0.185654
 Vib (Bot)   22  0.761013D+00         -0.118608         -0.273105
 Vib (Bot)   23  0.715967D+00         -0.145107         -0.334121
 Vib (Bot)   24  0.698952D+00         -0.155553         -0.358173
 Vib (Bot)   25  0.649088D+00         -0.187697         -0.432187
 Vib (Bot)   26  0.613140D+00         -0.212441         -0.489163
 Vib (Bot)   27  0.600579D+00         -0.221430         -0.509861
 Vib (Bot)   28  0.552441D+00         -0.257714         -0.593409
 Vib (Bot)   29  0.541282D+00         -0.266577         -0.613815
 Vib (Bot)   30  0.527400D+00         -0.277860         -0.639796
 Vib (Bot)   31  0.520894D+00         -0.283251         -0.652209
 Vib (Bot)   32  0.469229D+00         -0.328615         -0.756665
 Vib (Bot)   33  0.422968D+00         -0.373693         -0.860459
 Vib (Bot)   34  0.412269D+00         -0.384819         -0.886079
 Vib (Bot)   35  0.383016D+00         -0.416783         -0.959678
 Vib (Bot)   36  0.380529D+00         -0.419612         -0.966192
 Vib (Bot)   37  0.366939D+00         -0.435406         -1.002558
 Vib (Bot)   38  0.361822D+00         -0.441505         -1.016602
 Vib (Bot)   39  0.335635D+00         -0.474133         -1.091731
 Vib (Bot)   40  0.330939D+00         -0.480252         -1.105822
 Vib (Bot)   41  0.300856D+00         -0.521642         -1.201124
 Vib (Bot)   42  0.291222D+00         -0.535775         -1.233668
 Vib (Bot)   43  0.267595D+00         -0.572522         -1.318280
 Vib (Bot)   44  0.262140D+00         -0.581466         -1.338875
 Vib (Bot)   45  0.246119D+00         -0.608854         -1.401939
 Vib (Bot)   46  0.237619D+00         -0.624119         -1.437086
 Vib (V=0)       0.120299D+11         10.080261         23.210659
 Vib (V=0)    1  0.851443D+01          0.930155          2.141762
 Vib (V=0)    2  0.648294D+01          0.811772          1.869174
 Vib (V=0)    3  0.474846D+01          0.676553          1.557820
 Vib (V=0)    4  0.357680D+01          0.553494          1.274467
 Vib (V=0)    5  0.333805D+01          0.523492          1.205386
 Vib (V=0)    6  0.275673D+01          0.440395          1.014047
 Vib (V=0)    7  0.267286D+01          0.426976          0.983149
 Vib (V=0)    8  0.252744D+01          0.402680          0.927205
 Vib (V=0)    9  0.238414D+01          0.377332          0.868839
 Vib (V=0)   10  0.215471D+01          0.333389          0.767657
 Vib (V=0)   11  0.204776D+01          0.311279          0.716745
 Vib (V=0)   12  0.196196D+01          0.292691          0.673946
 Vib (V=0)   13  0.186896D+01          0.271601          0.625384
 Vib (V=0)   14  0.178443D+01          0.251501          0.579102
 Vib (V=0)   15  0.169118D+01          0.228190          0.525427
 Vib (V=0)   16  0.163017D+01          0.212233          0.488684
 Vib (V=0)   17  0.160163D+01          0.204561          0.471019
 Vib (V=0)   18  0.158364D+01          0.199657          0.459726
 Vib (V=0)   19  0.157048D+01          0.196032          0.451379
 Vib (V=0)   20  0.148808D+01          0.172626          0.397485
 Vib (V=0)   21  0.146945D+01          0.167155          0.384888
 Vib (V=0)   22  0.141057D+01          0.149395          0.343995
 Vib (V=0)   23  0.137327D+01          0.137757          0.317198
 Vib (V=0)   24  0.135938D+01          0.133341          0.307029
 Vib (V=0)   25  0.131934D+01          0.120356          0.277130
 Vib (V=0)   26  0.129116D+01          0.110981          0.255544
 Vib (V=0)   27  0.128147D+01          0.107708          0.248008
 Vib (V=0)   28  0.124511D+01          0.095208          0.219225
 Vib (V=0)   29  0.123688D+01          0.092326          0.212589
 Vib (V=0)   30  0.122674D+01          0.088752          0.204360
 Vib (V=0)   31  0.122203D+01          0.087083          0.200515
 Vib (V=0)   32  0.118569D+01          0.073972          0.170328
 Vib (V=0)   33  0.115491D+01          0.062547          0.144019
 Vib (V=0)   34  0.114805D+01          0.059960          0.138063
 Vib (V=0)   35  0.112984D+01          0.053018          0.122078
 Vib (V=0)   36  0.112833D+01          0.052437          0.120742
 Vib (V=0)   37  0.112020D+01          0.049294          0.113505
 Vib (V=0)   38  0.111718D+01          0.048124          0.110811
 Vib (V=0)   39  0.110221D+01          0.042262          0.097313
 Vib (V=0)   40  0.109960D+01          0.041235          0.094947
 Vib (V=0)   41  0.108354D+01          0.034843          0.080230
 Vib (V=0)   42  0.107863D+01          0.032872          0.075690
 Vib (V=0)   43  0.106710D+01          0.028207          0.064949
 Vib (V=0)   44  0.106455D+01          0.027166          0.062553
 Vib (V=0)   45  0.105729D+01          0.024195          0.055711
 Vib (V=0)   46  0.105359D+01          0.022672          0.052204
 Electronic      0.100000D+01          0.000000          0.000000
 Translational   0.447447D+09          8.650742         19.919069
 Rotational      0.975207D+07          6.989097         16.092990
 ***** Axes restored to original set *****
 -------------------------------------------------------------------
 Center     Atomic                   Forces (Hartrees/Bohr)
 Number     Number              X              Y              Z
 -------------------------------------------------------------------
      1       26          -0.000025243   -0.000025879   -0.000003617
      2        6           0.000003182   -0.000001698    0.000028860
      3       46           0.013740747   -0.002517343    0.017980608
      4        6          -0.000001047    0.000006610    0.000000292
      5        1           0.000006120    0.000002207   -0.000003556
      6        1          -0.000004095    0.000002013   -0.000000692
      7        1          -0.000004480   -0.000002367    0.000003570
      8        6          -0.000013639    0.000012704    0.000005584
      9        8          -0.000010555   -0.000001620   -0.000009958
     10        6          -0.000016992    0.000007062   -0.000002450
     11        8          -0.006548044   -0.019343935   -0.001920817
     12        6           0.000000704   -0.000005943    0.000000136
     13        6           0.000012882    0.000010013   -0.000001343
     14        6           0.000000684    0.000002323    0.000002353
     15        1          -0.000003313    0.000003098   -0.000001734
     16        1          -0.000002640   -0.000002795    0.000001899
     17        1          -0.000001214   -0.000002212    0.000004669
     18        1          -0.001704059   -0.010810021   -0.019391507
     19        6          -0.000837665    0.032268846    0.012674030
     20        6          -0.000011074    0.000010272    0.000006738
     21        8          -0.006352633    0.000898666   -0.009113150
     22        6           0.000020546    0.000014452   -0.000007104
     23        6          -0.000001290   -0.000009863   -0.000002566
     24        6          -0.000007431    0.000003495    0.000001755
     25        6           0.000017399   -0.000000900   -0.000000217
     26        6          -0.000006204    0.000000195    0.000010300
     27        1           0.000001408    0.000002262    0.000002119
     28        7           0.004677565    0.007097763   -0.000813736
     29        1           0.000002914    0.000002264   -0.000003471
     30        1           0.000000078    0.000002444    0.000000345
     31        1           0.000001372    0.000002322   -0.000001363
     32        1          -0.000008261    0.000001775    0.000000087
     33        7          -0.002929107   -0.007607836    0.000566302
     34        6          -0.000006477    0.000000946    0.000004877
     35        6           0.000005078   -0.000003568    0.000008186
     36        1           0.000001149   -0.000000589   -0.000000121
     37        1          -0.000004708   -0.000006095   -0.000004210
     38        1           0.000000377   -0.000003041   -0.000002479
     39        1          -0.000000673    0.000000943    0.000000195
     40        1          -0.000001354    0.000001513    0.000000464
     41        1          -0.000002770    0.000004043   -0.000006969
     42        6           0.000007749   -0.000013802   -0.000006418
     43        6          -0.000008281   -0.000007151   -0.000005858
     44        6           0.000004527   -0.000000957    0.000001199
     45        1           0.000004496   -0.000000630    0.000001913
     46        1           0.000001493    0.000007910    0.000001007
     47        1           0.000001279   -0.000000653   -0.000000107
     48        1           0.000005679    0.000004839    0.000000243
     49        1           0.000002576   -0.000000260   -0.000000644
     50        1          -0.000002435   -0.000001200   -0.000001080
     51        1          -0.000002346   -0.000000132   -0.000001682
     52        6           0.000003083    0.000000952   -0.000006271
     53        1           0.000000435   -0.000000396    0.000001340
     54        1          -0.000002139   -0.000001257   -0.000000538
     55        1          -0.000003353    0.000000210    0.000004590
 -------------------------------------------------------------------
 Cartesian Forces:  Max     0.032268846 RMS     0.004193446
 Z-matrix is all fixed cartesians, so copy forces.
 Leave Link  716 at Mon Oct 14 23:22:11 2024, MaxMem=   104857600 cpu:               0.1 elap:               0.4
 (Enter /home/echo/g16/l103.exe)

 GradGradGradGradGradGradGradGradGradGradGradGradGradGradGradGradGradGrad
 Berny optimization.
 Search for a local minimum.
 Step number   1 out of a maximum of    2
 All quantities printed in internal units (Hartrees-Bohrs-Radians)
 Second derivative matrix not updated -- analytic derivatives used.
 ITU=  0
     Eigenvalues ---   -0.03703   0.00008   0.00022   0.00036   0.00048
     Eigenvalues ---    0.00065   0.00081   0.00143   0.00164   0.00171
     Eigenvalues ---    0.00198   0.00219   0.00249   0.00275   0.00301
     Eigenvalues ---    0.00349   0.00501   0.00552   0.00708   0.00801
     Eigenvalues ---    0.01000   0.01102   0.01129   0.01181   0.01308
     Eigenvalues ---    0.01481   0.01591   0.01734   0.01842   0.01942
     Eigenvalues ---    0.01966   0.02080   0.02218   0.02261   0.02380
     Eigenvalues ---    0.02545   0.02847   0.03173   0.03361   0.03800
     Eigenvalues ---    0.04082   0.04166   0.04259   0.04275   0.04323
     Eigenvalues ---    0.04402   0.04645   0.04945   0.05025   0.05276
     Eigenvalues ---    0.05398   0.05754   0.05801   0.06060   0.06117
     Eigenvalues ---    0.06261   0.06403   0.06510   0.06658   0.06817
     Eigenvalues ---    0.06859   0.07225   0.07667   0.08108   0.08184
     Eigenvalues ---    0.09731   0.10139   0.10242   0.10614   0.10673
     Eigenvalues ---    0.10949   0.11334   0.11365   0.11536   0.11584
     Eigenvalues ---    0.12009   0.12055   0.12271   0.12440   0.13229
     Eigenvalues ---    0.13790   0.14331   0.14436   0.14695   0.14780
     Eigenvalues ---    0.14960   0.15404   0.16062   0.16462   0.16705
     Eigenvalues ---    0.17905   0.18463   0.18846   0.18982   0.19407
     Eigenvalues ---    0.19948   0.20828   0.20971   0.21638   0.22054
     Eigenvalues ---    0.22907   0.23838   0.24012   0.24308   0.25898
     Eigenvalues ---    0.30270   0.31719   0.32755   0.33607   0.36723
     Eigenvalues ---    0.38477   0.39394   0.40245   0.41515   0.42229
     Eigenvalues ---    0.43901   0.46170   0.49734   0.50821   0.51176
     Eigenvalues ---    0.53850   0.57252   0.58488   0.59522   0.63700
     Eigenvalues ---    0.65383   0.66852   0.68040   0.69810   0.70015
     Eigenvalues ---    0.70973   0.71506   0.72267   0.72729   0.73649
     Eigenvalues ---    0.74458   0.74808   0.75272   0.76244   0.77211
     Eigenvalues ---    0.78049   0.78282   0.78847   0.79175   0.80063
     Eigenvalues ---    0.86482   0.88687   0.91156   0.97990   1.02157
     Eigenvalues ---    1.02674   1.04693   1.12928   1.16291   1.16973
     Eigenvalues ---    1.20167   1.24913   1.37353   1.53607
 Eigenvalue     1 is  -3.70D-02 should be greater than     0.000000 Eigenvector:
                          Y18       Z18       Z15       X12       Z19
   1                    0.95746   0.10727  -0.07708   0.07462   0.07273
                          Y3        X18       Y19       Y15       Z11
   1                   -0.07097  -0.06876  -0.06817  -0.05804  -0.05618
 Quadratic step=7.955D+00 exceeds max=3.000D-01 adjusted using Lamda=-7.232D-02.
 Angle between NR and scaled steps=  79.77 degrees.
 Angle between quadratic step and forces=  31.02 degrees.
 Linear search not attempted -- first point.
 B after Tr=     0.001528    0.001399    0.005221
         Rot=    1.000000    0.000030    0.000038   -0.000047 Ang=   0.01 deg.
 Variable       Old X    -DE/DX   Delta X   Delta X   Delta X     New X
                                 (Linear)    (Quad)   (Total)
    X1        3.84969  -0.00003   0.00000  -0.01124  -0.00963   3.84006
    Y1       -0.82258  -0.00003   0.00000   0.01329   0.01505  -0.80753
    Z1        0.00119  -0.00000   0.00000   0.00183   0.00739   0.00858
    X2       -4.91514   0.00000   0.00000  -0.00314  -0.00136  -4.91650
    Y2       -0.24676  -0.00000   0.00000  -0.00019   0.00057  -0.24619
    Z2       -2.92806   0.00003   0.00000  -0.01167  -0.00681  -2.93486
    X3       -0.87974   0.01374   0.00000   0.03521   0.03662  -0.84312
    Y3        0.96036  -0.00252   0.00000   0.00454   0.00587   0.96623
    Z3        0.23194   0.01798   0.00000   0.06963   0.07473   0.30668
    X4        3.27448  -0.00000   0.00000   0.00380   0.00489   3.27937
    Y4        4.39416   0.00001   0.00000   0.00677   0.00850   4.40266
    Z4        0.38486   0.00000   0.00000  -0.00679  -0.00159   0.38327
    X5        8.21173   0.00001   0.00000  -0.00205  -0.00016   8.21156
    Y5       -2.75768   0.00000   0.00000   0.00072   0.00282  -2.75486
    Z5       -1.34339  -0.00000   0.00000  -0.00148   0.00452  -1.33886
    X6        6.84094  -0.00000   0.00000  -0.00079   0.00083   6.84177
    Y6        1.65387   0.00000   0.00000  -0.00008   0.00177   1.65564
    Z6       -3.17410  -0.00000   0.00000  -0.00444   0.00120  -3.17290
    X7        1.90350  -0.00000   0.00000  -0.00217  -0.00044   1.90306
    Y7        1.40084  -0.00000   0.00000  -0.00102   0.00030   1.40113
    Z7       -4.36353   0.00000   0.00000  -0.00287   0.00241  -4.36112
    X8       -1.72116  -0.00001   0.00000  -0.02058  -0.01871  -1.73987
    Y8       -4.25198   0.00001   0.00000  -0.01599  -0.01471  -4.26669
    Z8        0.73134   0.00001   0.00000  -0.00969  -0.00434   0.72700
    X9       -6.26433  -0.00001   0.00000  -0.01064  -0.00869  -6.27301
    Y9       -0.68410  -0.00000   0.00000  -0.00842  -0.00790  -0.69200
    Z9       -4.73883  -0.00001   0.00000  -0.00391   0.00088  -4.73795
   X10        3.77711  -0.00002   0.00000   0.02488   0.02605   3.80316
   Y10        2.15355   0.00001   0.00000   0.02797   0.02984   2.18339
   Z10        1.98956  -0.00000   0.00000   0.00345   0.00883   1.99839
   X11        0.64313  -0.00655   0.00000  -0.01800  -0.01617   0.62696
   Y11       -4.12316  -0.01934   0.00000  -0.10483  -0.10330  -4.22645
   Z11        1.28063  -0.00192   0.00000  -0.00737  -0.00185   1.27878
   X12        3.67397   0.00000   0.00000  -0.03109  -0.02968   3.64429
   Y12       -1.74535  -0.00001   0.00000   0.03338   0.03534  -1.71001
   Z12        3.68357   0.00000   0.00000  -0.01992  -0.01433   3.66924
   X13        6.12396   0.00001   0.00000  -0.01292  -0.01148   6.11248
   Y13       -1.29750   0.00001   0.00000   0.00163   0.00377  -1.29373
   Z13        2.87779  -0.00000   0.00000  -0.00665  -0.00089   2.87690
   X14        6.23037   0.00000   0.00000   0.01212   0.01339   6.24377
   Y14        1.16186   0.00000   0.00000  -0.00305  -0.00095   1.16091
   Z14        1.90048   0.00000   0.00000  -0.01182  -0.00620   1.89428
   X15        3.09635  -0.00000   0.00000  -0.01850  -0.01696   3.07939
   Y15       -3.55420   0.00000   0.00000   0.02691   0.02886  -3.52534
   Z15        4.36198  -0.00000   0.00000  -0.01182  -0.00616   4.35582
   X16        7.59787  -0.00000   0.00000  -0.01474  -0.01318   7.58469
   Y16       -2.66618  -0.00000   0.00000  -0.00321  -0.00092  -2.66710
   Z16        2.88006   0.00000   0.00000  -0.00453   0.00142   2.88148
   X17        7.82262  -0.00000   0.00000   0.01153   0.01279   7.83541
   Y17        2.01621  -0.00000   0.00000  -0.00481  -0.00261   2.01359
   Z17        1.01386   0.00000   0.00000  -0.01031  -0.00461   1.00924
   X18        1.44224  -0.00170   0.00000   0.00609   0.00769   1.44993
   Y18       -1.76740  -0.01081   0.00000  -0.09832  -0.09670  -1.86411
   Z18        1.51509  -0.01939   0.00000  -0.17038  -0.16494   1.35015
   X19        2.00523  -0.00084   0.00000   0.01225   0.01351   2.01874
   Y19        0.29194   0.03227   0.00000   0.12444   0.12621   0.41815
   Z19        2.97006   0.01267   0.00000   0.06129   0.06664   3.03670
   X20       -5.40688  -0.00001   0.00000   0.01502   0.01673  -5.39016
   Y20       -1.60050   0.00001   0.00000   0.00397   0.00484  -1.59567
   Z20       -0.33099   0.00001   0.00000  -0.00227   0.00264  -0.32835
   X21       -3.05408  -0.00635   0.00000  -0.01092  -0.00930  -3.06338
   Y21        1.26695   0.00090   0.00000   0.00243   0.00337   1.27032
   Z21       -2.88125  -0.00911   0.00000  -0.02817  -0.02325  -2.90450
   X22        3.03327   0.00002   0.00000   0.00049   0.00229   3.03556
   Y22       -0.05405   0.00001   0.00000   0.00120   0.00267  -0.05137
   Z22       -3.53303  -0.00001   0.00000  -0.00446   0.00099  -3.53204
   X23        5.64518  -0.00000   0.00000  -0.00256  -0.00080   5.64438
   Y23        0.03919  -0.00001   0.00000   0.00158   0.00334   0.04253
   Z23       -3.03290  -0.00000   0.00000  -0.00318   0.00246  -3.03043
   X24        6.39910  -0.00001   0.00000  -0.00445  -0.00254   6.39656
   Y24       -2.32773   0.00000   0.00000   0.00400   0.00588  -2.32184
   Z24       -2.09624   0.00000   0.00000   0.00522   0.01107  -2.08517
   X25        4.25587   0.00002   0.00000  -0.00181   0.00023   4.25611
   Y25       -3.87640  -0.00000   0.00000   0.00211   0.00379  -3.87261
   Z25       -1.99024  -0.00000   0.00000   0.00153   0.00730  -1.98294
   X26        2.20112  -0.00001   0.00000  -0.00085   0.00114   2.20225
   Y26       -2.50882   0.00000   0.00000   0.00154   0.00297  -2.50585
   Z26       -2.96472   0.00001   0.00000  -0.00024   0.00530  -2.95942
   X27        0.33512   0.00000   0.00000  -0.00056   0.00152   0.33664
   Y27       -3.21270   0.00000   0.00000   0.00135   0.00258  -3.21012
   Z27       -3.26762   0.00000   0.00000  -0.00127   0.00416  -3.26346
   X28       -2.92707   0.00468   0.00000   0.03012   0.03181  -2.89526
   Y28       -2.15795   0.00710   0.00000   0.01472   0.01588  -2.14207
   Z28        0.58137  -0.00081   0.00000  -0.00564  -0.00051   0.58087
   X29       -6.60391   0.00000   0.00000   0.01502   0.01690  -6.58701
   Y29       -3.27527   0.00000   0.00000   0.00123   0.00197  -3.27330
   Z29       -0.56401  -0.00000   0.00000   0.00192   0.00684  -0.55717
   X30        4.18399   0.00000   0.00000   0.00118   0.00244   4.18643
   Y30        3.93915   0.00000   0.00000   0.00183   0.00354   3.94269
   Z30       -1.40896   0.00000   0.00000  -0.00580  -0.00049  -1.40946
   X31        4.12416   0.00000   0.00000  -0.00611  -0.00525   4.11891
   Y31        6.13277   0.00000   0.00000   0.01167   0.01353   6.14629
   Z31        1.15651  -0.00000   0.00000  -0.01122  -0.00605   1.15046
   X32        4.14901  -0.00001   0.00000  -0.00136   0.00078   4.14978
   Y32       -5.63222   0.00000   0.00000  -0.00020   0.00153  -5.63069
   Z32       -1.01868   0.00000   0.00000  -0.00193   0.00394  -1.01474
   X33        0.57826  -0.00293   0.00000  -0.00584  -0.00475   0.57350
   Y33        4.71708  -0.00761   0.00000  -0.03088  -0.02943   4.68765
   Z33       -0.04309   0.00057   0.00000   0.00173   0.00672  -0.03637
   X34        0.07249  -0.00001   0.00000  -0.00248  -0.00136   0.07113
   Y34        6.16085   0.00000   0.00000  -0.01510  -0.01383   6.14701
   Z34       -2.32491   0.00000   0.00000   0.00173   0.00660  -2.31832
   X35       -0.61777   0.00001   0.00000  -0.00109  -0.00028  -0.61805
   Y35        5.94124  -0.00000   0.00000  -0.00836  -0.00689   5.93435
   Z35        2.12133   0.00001   0.00000  -0.00444   0.00038   2.12171
   X36        0.70814   0.00000   0.00000  -0.00065   0.00027   0.70841
   Y36        8.12771  -0.00000   0.00000  -0.01403  -0.01269   8.11502
   Z36       -2.12632  -0.00000   0.00000   0.00549   0.01029  -2.11603
   X37        1.04819  -0.00000   0.00000  -0.00147  -0.00015   1.04805
   Y37        5.31521  -0.00001   0.00000  -0.00523  -0.00396   5.31125
   Z37       -3.92577  -0.00000   0.00000  -0.00266   0.00232  -3.92345
   X38       -1.94562   0.00000   0.00000  -0.00152  -0.00036  -1.94598
   Y38        6.14123  -0.00000   0.00000  -0.00614  -0.00509   6.13614
   Z38       -2.72929  -0.00000   0.00000  -0.00192   0.00279  -2.72651
   X39        0.04894  -0.00000   0.00000   0.00081   0.00142   0.05036
   Y39        7.90106   0.00000   0.00000  -0.00731  -0.00577   7.89529
   Z39        2.32799   0.00000   0.00000  -0.01044  -0.00569   2.32230
   X40       -2.66750  -0.00000   0.00000  -0.00127  -0.00044  -2.66794
   Y40        5.97497   0.00000   0.00000  -0.00346  -0.00220   5.97277
   Z40        1.86752   0.00000   0.00000  -0.00389   0.00078   1.86830
   X41       -0.15834  -0.00000   0.00000  -0.00270  -0.00192  -0.16026
   Y41        4.90556   0.00000   0.00000   0.00009   0.00171   4.90727
   Z41        3.84389  -0.00001   0.00000   0.00062   0.00554   3.84943
   X42       -6.67179   0.00001   0.00000   0.00414   0.00553  -6.66626
   Y42        0.34469  -0.00001   0.00000  -0.00078   0.00008   0.34476
   Z42        1.43772  -0.00001   0.00000  -0.00532  -0.00062   1.43710
   X43       -9.37733  -0.00001   0.00000   0.00228   0.00369  -9.37364
   Y43        0.85172  -0.00001   0.00000  -0.00195  -0.00140   0.85032
   Z43        0.58856  -0.00001   0.00000  -0.00481  -0.00035   0.58821
   X44       -6.57721   0.00000   0.00000   0.00050   0.00176  -6.57545
   Y44       -0.54252  -0.00000   0.00000  -0.00084   0.00019  -0.54233
   Z44        4.18705   0.00000   0.00000  -0.00489  -0.00013   4.18691
   X45      -10.53764   0.00000   0.00000   0.00110   0.00264 -10.53500
   Y45       -0.82326  -0.00000   0.00000  -0.00100  -0.00054  -0.82380
   Z45        0.87186   0.00000   0.00000  -0.00328   0.00119   0.87305
   X46      -10.19806   0.00000   0.00000   0.00207   0.00325 -10.19481
   Y46        2.39933   0.00001   0.00000  -0.00181  -0.00127   2.39806
   Z46        1.66691   0.00000   0.00000  -0.00372   0.00059   1.66750
   X47       -9.42849   0.00000   0.00000  -0.00008   0.00143  -9.42706
   Y47        1.33275  -0.00000   0.00000  -0.00083  -0.00041   1.33234
   Z47       -1.40896  -0.00000   0.00000  -0.00413   0.00030  -1.40867
   X48       -5.55855   0.00001   0.00000   0.00102   0.00225  -5.55631
   Y48        2.12061   0.00000   0.00000   0.00099   0.00194   2.12255
   Z48        1.30195   0.00000   0.00000  -0.00293   0.00174   1.30369
   X49       -7.54757   0.00000   0.00000  -0.00030   0.00112  -7.54645
   Y49       -2.34462  -0.00000   0.00000  -0.00030   0.00065  -2.34397
   Z49        4.39734  -0.00000   0.00000  -0.00384   0.00095   4.39828
   X50       -4.61847  -0.00000   0.00000   0.00015   0.00139  -4.61708
   Y50       -0.76987  -0.00000   0.00000  -0.00066   0.00059  -0.76928
   Z50        4.79584  -0.00000   0.00000  -0.00278   0.00214   4.79798
   X51       -7.49250  -0.00000   0.00000   0.00020   0.00124  -7.49126
   Y51        0.83452  -0.00000   0.00000  -0.00056   0.00045   0.83497
   Z51        5.41013  -0.00000   0.00000  -0.00462  -0.00001   5.41012
   X52       -2.90152   0.00000   0.00000  -0.02382  -0.02167  -2.92319
   Y52       -6.80470   0.00000   0.00000  -0.00793  -0.00679  -6.81149
   Z52        0.27588  -0.00001   0.00000  -0.00923  -0.00383   0.27205
   X53       -3.61219   0.00000   0.00000  -0.01570  -0.01340  -3.62559
   Y53       -6.91256  -0.00000   0.00000  -0.00798  -0.00702  -6.91959
   Z53       -1.65134   0.00000   0.00000  -0.00960  -0.00424  -1.65558
   X54       -1.47487  -0.00000   0.00000  -0.01446  -0.01220  -1.48707
   Y54       -8.24928  -0.00000   0.00000  -0.00070   0.00059  -8.24869
   Z54        0.56571  -0.00000   0.00000  -0.00528   0.00032   0.56603
   X55       -4.46943  -0.00000   0.00000  -0.01677  -0.01469  -4.48412
   Y55       -7.10856   0.00000   0.00000  -0.00768  -0.00661  -7.11518
   Z55        1.56991   0.00000   0.00000  -0.00376   0.00154   1.57145
         Item               Value     Threshold  Converged?
 Maximum Force            0.032269     0.000450     NO 
 RMS     Force            0.004193     0.000300     NO 
 Maximum Displacement     0.164936     0.001800     NO 
 RMS     Displacement     0.023136     0.001200     NO 
 Predicted change in Energy=-1.075419D-02
 GradGradGradGradGradGradGradGradGradGradGradGradGradGradGradGradGradGrad

 Leave Link  103 at Mon Oct 14 23:22:12 2024, MaxMem=   104857600 cpu:               0.0 elap:               0.1
 (Enter /home/echo/g16/l9999.exe)
 Unable to Open any file for archive entry.
 1\1\GINC-ECHO\Freq\External='./xtb.sh'\ZDO\C20H28Fe1N2O3Pd1\ECHO\14-Oc
 t-2024\0\\#p freq external='./xtb.sh'\\Generate automatically by rxnb\
 \0,1\Fe,2.03717,-0.43529,0.00063\C,-2.60098,-0.13058,-1.54946\Pd,-0.46
 554,0.5082,0.12274\C,1.73278,2.32529,0.20366\H,4.34546,-1.4593,-0.7108
 9\H,3.62007,0.87519,-1.67966\H,1.00729,0.74129,-2.30908\C,-0.9108,-2.2
 5005,0.38701\O,-3.31494,-0.36201,-2.50768\C,1.99876,1.13961,1.05283\O,
 0.34033,-2.18188,0.67768\C,1.94418,-0.9236,1.94926\C,3.24066,-0.68661,
 1.52286\C,3.29697,0.61483,1.00569\H,1.63852,-1.8808,2.30826\H,4.02062,
 -1.41088,1.52406\H,4.13955,1.06693,0.53651\H,0.7632,-0.93527,0.80175\C
 ,1.06112,0.15449,1.57169\C,-2.8612,-0.84695,-0.17515\O,-1.61615,0.6704
 4,-1.52469\C,1.60514,-0.0286,-1.8696\C,2.9873,0.02074,-1.60494\C,3.386
 26,-1.23178,-1.10928\C,2.25211,-2.0513,-1.05319\C,1.16478,-1.32761,-1.
 56886\H,0.17734,-1.70009,-1.72915\N,-1.54894,-1.14194,0.30765\H,-3.494
 64,-1.7332,-0.29846\H,2.21407,2.08451,-0.74559\H,2.18241,3.24532,0.612
 \H,2.19556,-2.98044,-0.53906\N,0.306,2.49617,-0.0228\C,0.03836,3.26018
 ,-1.23029\C,-0.32691,3.14397,1.12256\H,0.37473,4.301,-1.1252\H,0.55468
 ,2.81269,-2.07743\H,-1.02958,3.2498,-1.44428\H,0.0259,4.18106,1.23192\
 H,-1.41158,3.16182,0.98825\H,-0.08379,2.59591,2.0341\C,-3.53056,0.1824
 ,0.76081\C,-4.96227,0.45071,0.31145\C,-3.48051,-0.28709,2.21569\H,-5.5
 7628,-0.43565,0.46137\H,-5.39658,1.26967,0.88209\H,-4.98934,0.70526,-0
 .74559\H,-2.94146,1.12218,0.68896\H,-3.994,-1.24072,2.32697\H,-2.44399
 ,-0.4074,2.53785\H,-3.96486,0.44161,2.86292\C,-1.53542,-3.60089,0.1459
 9\H,-1.91149,-3.65797,-0.87385\H,-0.78047,-4.36533,0.29936\H,-2.36512,
 -3.76169,0.83076\\Version=ES64L-G16RevC.01\HF=-82.9646501\RMSD=0.000e+
 00\RMSF=4.193e-03\ZeroPoint=0.4407376\Thermal=0.468158\ETot=-82.496492
 1\HTot=-82.4955479\GTot=-82.5798297\Dipole=0.,0.,0.\PG=C01 [X(C20H28Fe
 1N2O3Pd1)]\NImag=1\\0.46742423,-0.00908859,0.48062116,-0.07129930,0.13
 926596,0.74901381,0.00074451,-0.00164818,0.00061439,0.60898367,-0.0000
 1564,-0.00159271,0.00065604,0.23197072,0.36834411,0.00184035,0.0008174
 6,-0.00004610,0.26620839,0.06452821,0.61238142,-0.06426079,0.01709536,
 0.00304673,-0.00872842,-0.00553422,-0.00363652,0.22381676,0.02168681,-
 0.01290881,-0.00347677,-0.00274472,0.00231504,-0.01052350,0.02963204,0
 .18043400,-0.00010561,-0.00174284,-0.01447051,-0.00754202,-0.01056092,
 0.00879968,0.06066427,-0.01126351,0.16301504,-0.00340163,-0.00724924,-
 0.00136123,-0.00132996,-0.00096732,-0.00070700,-0.00169968,-0.00364315
 ,-0.00006273,0.46660346,-0.00162250,-0.00398425,0.00793509,-0.00060772
 ,-0.00038968,-0.00005734,-0.00741745,-0.00245455,-0.00147309,-0.018157
 72,0.49423042,0.00051656,-0.00545336,-0.00340147,-0.00006653,0.0000871
 0,-0.00023429,-0.00148944,-0.00055345,0.00100541,-0.01883879,0.0074209
 1,0.50786674,-0.00327618,-0.00009062,-0.00208623,0.00021681,0.00008286
 ,0.00000374,0.00081036,-0.00047536,-0.00029511,0.00020296,-0.00055938,
 -0.00000507,0.31158038,0.00082488,-0.00285289,0.00132701,-0.00001325,-
 0.00006266,0.00007542,-0.00057257,0.00003848,0.00014801,-0.00002859,0.
 00044276,-0.00003543,-0.06248452,0.05617921,0.00413366,-0.00085504,-0.
 00045309,0.00019611,0.00014276,0.00006747,-0.00090185,0.00032251,0.000
 00979,-0.00019001,0.00035290,-0.00006443,0.11803373,-0.03350257,0.0755
 1943,-0.00273728,-0.00106611,-0.00193997,0.00008990,-0.00006244,0.0000
 4332,-0.00055808,-0.00061683,0.00024026,-0.00028803,-0.00024028,0.0007
 3558,0.00010839,0.00024867,0.00058673,0.15852675,0.00071104,0.00010069
 ,-0.00149942,0.00007535,0.00002002,0.00011209,0.00014983,-0.00020880,-
 0.00004056,0.00068431,-0.00070785,-0.00084265,0.00041027,-0.00027803,-
 0.00015475,0.15437543,0.25228251,0.00181183,0.00339443,-0.00019368,0.0
 0001358,-0.00003554,0.00006978,-0.00057105,0.00019794,0.00024182,0.000
 28744,0.00059900,-0.00050722,0.00045725,-0.00002631,-0.00096155,-0.009
 05443,-0.02178304,0.02677928,0.00061795,-0.00259707,0.00199184,-0.0011
 9013,-0.00078509,0.00036572,0.00079821,0.00026596,0.00100923,0.0003276
 2,0.00018366,-0.00037357,-0.00001540,0.00098295,-0.00076041,-0.0000864
 1,-0.00005750,0.00029013,0.13936613,-0.00204716,0.00106975,-0.00176546
 ,-0.00084690,-0.00013894,0.00025997,-0.00057652,0.00093280,0.00241256,
 -0.00015093,-0.00041559,-0.00056266,-0.00024856,0.00010784,0.00028608,
 -0.00003025,0.00026430,-0.00017159,-0.12656643,0.20786332,-0.00124094,
 0.00495873,0.00258706,0.00104344,0.00046914,0.00036906,0.00382479,0.00
 117494,-0.00548566,-0.00044211,0.00020521,-0.00060353,0.00030305,-0.00
 002482,0.00054711,0.00006190,-0.00018856,-0.00092182,0.07616024,-0.099
 45129,0.07703708,0.00526792,0.00942200,-0.00102102,0.00934697,0.008764
 92,-0.01098874,0.01230945,-0.00653691,0.00413784,0.00215675,-0.0004857
 7,-0.00018033,0.00004278,0.00008825,0.00002107,0.00018852,0.00055056,0
 .00040658,0.00024734,0.00045043,-0.00052364,0.67026538,0.00212586,-0.0
 0534032,0.00030382,-0.00012077,0.00123436,0.00459948,-0.00387226,-0.01
 278383,-0.00119854,-0.00103367,-0.00025659,-0.00005472,0.00019528,0.00
 001086,0.00002555,0.00013652,-0.00011640,-0.00030767,-0.00003951,-0.00
 043649,0.00028161,-0.11287906,0.69639231,-0.00068006,0.00090860,-0.001
 96975,-0.00313056,0.00292793,-0.00201559,0.00179950,0.00045104,0.00228
 838,0.00046421,-0.00021034,-0.00003841,-0.00014557,-0.00000423,0.00005
 284,-0.00010016,0.00006491,0.00018523,0.00011215,0.00034072,-0.0001636
 4,0.11429835,0.00669868,0.18779168,-0.00045383,0.00039241,-0.00014683,
 -0.25851202,-0.06270456,-0.26526392,-0.00061801,-0.00370961,0.00106020
 ,0.00053773,0.00020456,0.00012921,-0.00007512,0.00000948,-0.00010727,-
 0.00001483,-0.00006456,-0.00004390,0.00041498,0.00023976,-0.00043300,0
 .00010924,-0.00160609,0.00014199,0.30100981,-0.00040751,0.00055706,-0.
 00036532,-0.06109616,-0.08387498,-0.08120079,-0.00109335,-0.00120788,0
 .00278394,0.00025376,0.00012587,-0.00002203,-0.00000694,0.00001357,-0.
 00005180,0.00003885,0.00002567,-0.00000655,0.00015205,0.00001937,-0.00
 019790,-0.00155241,-0.00114486,-0.00075519,0.10506727,0.07528867,-0.00
 121824,-0.00010679,0.00028165,-0.26734802,-0.08234248,-0.43388522,-0.0
 0136606,0.00100188,-0.00313290,0.00052415,0.00024504,0.00012833,0.0000
 0754,-0.00002986,-0.00007813,0.00001514,-0.00006272,-0.00005421,0.0000
 4742,-0.00009421,-0.00043076,0.00638114,-0.00399632,-0.00099808,0.3298
 0620,0.09351977,0.50405682,0.00331939,0.01783045,0.00396721,-0.0005006
 0,-0.00046702,0.00019197,-0.01096257,-0.00863667,-0.00360105,-0.063040
 47,0.02038927,-0.01219428,0.00023870,0.00016709,0.00011134,-0.00025920
 ,-0.00005656,-0.00012392,-0.00055037,0.00056177,0.00092731,0.00042136,
 -0.00090830,-0.00010859,0.00031682,0.00036690,0.00037994,0.52469066,0.
 00934328,-0.11821783,-0.07147961,-0.00008084,0.00001976,0.00008176,-0.
 00254714,0.00246617,-0.00336551,0.02022172,-0.17204445,0.09521629,-0.0
 0048622,0.00015639,0.00069040,-0.00063557,-0.00032577,0.00026268,0.000
 35839,-0.00017157,0.00028791,-0.00061669,-0.00006984,-0.00016869,0.000
 05353,-0.00001009,0.00005193,-0.08844815,0.61265932,0.00268295,-0.0615
 6366,-0.06587905,0.00065613,0.00054194,0.00059173,-0.00571204,-0.00294
 045,-0.00057653,-0.01285268,0.08747476,-0.10951428,-0.00020918,0.00030
 488,0.00032628,0.00011242,0.00019795,0.00022653,0.00004920,-0.00016513
 ,-0.00010209,0.00012936,0.00075095,0.00012411,-0.00021771,-0.00026313,
 -0.00055412,-0.02779603,-0.15006957,0.28595025,-0.00952369,-0.01826020
 ,0.00313971,-0.01378848,-0.01120924,0.01438435,-0.01073603,0.00509706,
 -0.00327942,-0.00211636,0.00168911,0.00008903,0.00076977,-0.00032762,-
 0.00064001,0.00032570,-0.00012430,-0.00118325,-0.00056728,-0.00026338,
 -0.00023012,-0.37657975,-0.00989209,-0.07765969,-0.00011863,0.00182236
 ,-0.00898483,-0.00012476,0.00233386,0.00022486,0.53585857,-0.01771014,
 -0.02419375,0.00074098,-0.00537715,-0.00519726,0.00341219,-0.00654169,
 -0.01058949,0.00046746,-0.00107438,0.00130991,0.00037720,0.00046665,-0
 .00021303,-0.00037550,0.00032278,0.00024540,-0.00053370,-0.00017006,-0
 .00002159,-0.00031878,0.01758070,-0.08376979,-0.00030239,0.00095072,0.
 00150454,-0.00111384,0.00123323,0.00172252,-0.00294222,-0.02524113,0.1
 4138337,0.00569741,0.00186627,-0.01047282,-0.00003504,-0.00293641,0.00
 290270,-0.00311152,0.00038462,-0.00449695,-0.00042736,-0.00029573,0.00
 011599,-0.00018535,0.00020622,0.00022558,-0.00006255,-0.00005077,0.000
 29502,-0.00004152,-0.00020897,0.00046879,-0.07551575,-0.00663393,-0.06
 101150,-0.00002082,0.00044893,-0.00047339,0.00018870,-0.00078503,-0.00
 157485,0.11167707,0.00065976,0.09200593,0.00309532,-0.01305121,0.01497
 397,0.00097695,0.00080392,-0.00016358,0.00316491,0.00232093,0.00294129
 ,-0.00218593,-0.00077939,-0.00048809,-0.00025351,-0.00006851,0.0003860
 6,0.00010638,0.00041338,-0.00021969,-0.00003463,-0.00011868,-0.0005116
 5,-0.00217801,-0.00396615,-0.00119756,-0.00051937,0.00000021,-0.000087
 01,0.00785576,-0.00083869,-0.00438386,-0.01229611,0.00050540,-0.017006
 67,0.56447965,-0.00983724,-0.02901348,0.02364834,0.00082261,0.00072937
 ,0.00023997,0.00201537,-0.00164757,0.00219965,-0.00338919,-0.00055937,
 0.00542626,0.00022773,-0.00015366,-0.00025827,0.00046469,-0.00018328,-
 0.00078732,-0.00024874,-0.00012689,-0.00006221,0.00026319,-0.00143716,
 0.00001253,-0.00033073,-0.00038383,-0.00052866,-0.00672595,-0.03904278
 ,0.02845994,-0.01471561,-0.00928153,-0.00911280,0.07418565,0.60557097,
 -0.00088919,0.03105077,-0.09048465,0.00013617,-0.00000915,0.00074036,0
 .00122013,-0.00279593,-0.00084517,0.00128570,-0.00023413,0.00032995,-0
 .00055005,0.00023720,0.00047074,-0.00033733,-0.00016830,0.00081764,0.0
 0007766,-0.00002908,0.00071099,0.00421288,-0.00237488,0.00028637,-0.00
 023050,-0.00008257,-0.00054636,-0.00472913,0.01006413,-0.00458296,-0.0
 1684765,-0.00530893,-0.00717834,-0.10201050,-0.22219420,0.27138091,-0.
 05322536,0.01213177,-0.05393933,0.00108121,0.00099050,-0.00031744,0.00
 097906,-0.00057459,0.00009592,-0.00413196,-0.00022078,0.00134655,-0.00
 082364,0.00076314,0.00233761,-0.00008349,-0.00029349,0.00061709,0.0001
 3535,-0.00024302,0.00018956,-0.00154931,0.00116442,-0.00087103,-0.0003
 7399,-0.00026862,0.00004936,0.00268469,0.02373493,-0.00845223,0.003831
 53,0.00118243,0.00147556,-0.31951988,-0.06149193,0.11678451,0.69319761
 ,0.01004369,-0.01805345,0.00461434,-0.00039213,-0.00036404,0.00011082,
 -0.00028713,-0.00145664,-0.00099754,0.00340141,0.00121916,0.00271648,0
 .00043600,0.00021018,-0.00194911,0.00029285,-0.00035044,0.00015309,-0.
 00001106,-0.00026095,-0.00077047,0.00095533,0.00012790,0.00002806,0.00
 012148,0.00021355,-0.00002514,0.04508537,-0.02874990,0.01611863,-0.000
 45513,-0.00142285,-0.00048075,-0.02288455,-0.07668280,0.03258126,-0.14
 859661,0.60373375,-0.04846823,0.00093443,-0.07198835,-0.00010599,-0.00
 015852,0.00019724,0.00131332,0.00008733,0.00039554,0.00102446,0.000053
 45,0.00049399,-0.00033978,-0.00053408,-0.00212769,-0.00044596,0.000189
 66,0.00053626,0.00084732,-0.00019002,-0.00066205,0.00057988,-0.0015627
 7,-0.00002534,0.00005720,0.00009308,-0.00011496,-0.00752558,0.00525514
 ,0.00083152,-0.00180063,0.00241459,-0.00391681,0.07073368,0.03171499,-
 0.06573522,-0.06006437,-0.15810262,0.22867631,-0.06424651,-0.04785788,
 -0.04546946,0.00050231,0.00031765,0.00009410,-0.00229507,-0.00331125,-
 0.00008516,-0.00990585,0.00730667,-0.00203320,-0.00037337,0.00096559,0
 .00028529,-0.00005248,-0.00043541,0.00179949,0.00011968,-0.00002589,0.
 00050583,0.00074282,0.00004259,0.00006023,-0.00013270,-0.00001613,-0.0
 0002061,-0.28562026,0.11631207,0.01827456,0.00001369,-0.00157179,-0.00
 095994,-0.00367851,-0.02516816,0.01328289,-0.07040049,-0.02585297,0.02
 334290,0.69965023,-0.04527267,-0.03711107,-0.03950732,-0.00014611,-0.0
 0021569,0.00016241,0.00017050,0.00056700,0.00077157,0.02676564,-0.0122
 5669,0.00425534,-0.00003443,-0.00013814,-0.00000154,-0.00051177,0.0000
 2633,0.00103354,0.00017808,0.00020106,0.00076314,-0.00000302,-0.000209
 42,0.00013436,0.00009125,-0.00004012,-0.00003327,0.06708594,-0.1013852
 8,0.01198785,-0.00017829,0.00072626,-0.00082217,-0.04073944,-0.0222530
 7,0.00840057,0.01529463,-0.29579028,0.11480108,0.07543403,0.57160246,-
 0.03653423,-0.02752808,-0.04753671,0.00003051,0.00008328,0.00007056,0.
 00122013,0.00211185,-0.00064215,-0.01181485,0.00468149,-0.00340469,-0.
 00034327,-0.00040816,-0.00020222,-0.00070522,-0.00075414,-0.00209276,0
 .00023609,0.00005808,0.00055569,-0.00057974,0.00034740,0.00014948,-0.0
 0004875,0.00005321,-0.00005071,0.01463224,0.01138395,-0.03660908,0.000
 77939,0.00010226,0.00258369,0.03177083,0.02016199,-0.00506717,0.003206
 91,0.09526174,-0.06883860,-0.11797009,-0.17193505,0.25035208,-0.001774
 90,0.00085743,-0.00120779,0.00024882,0.00021316,-0.00021926,0.00034036
 ,0.00060788,-0.00038119,0.00064795,0.00044552,-0.00029177,-0.00001728,
 -0.00020109,0.00009472,0.00003439,0.00017855,-0.00021394,-0.00006581,0
 .00005479,0.00009336,-0.00190427,-0.00048046,-0.00166685,-0.00001648,-
 0.00008281,0.00013353,-0.00183961,0.00235707,-0.00152733,-0.00360054,-
 0.00120042,-0.00365340,-0.06226819,-0.07367978,0.03187280,-0.00875031,
 -0.02441536,0.00981469,-0.00461418,-0.00180418,0.00380163,0.07798222,0
 .00102773,-0.00025268,-0.00240600,-0.00014216,-0.00014952,0.00008777,0
 .00043227,-0.00052088,0.00080721,-0.00095019,-0.00013047,0.00091245,0.
 00001680,-0.00001049,-0.00007675,0.00007732,-0.00007289,-0.00019987,0.
 00000026,-0.00008166,-0.00013297,-0.00006636,0.00021781,-0.00013399,0.
 00000186,0.00005693,-0.00004966,0.00094621,-0.00435126,0.00356413,-0.0
 0245185,-0.00083391,-0.00316624,-0.07469427,-0.27462715,0.09640295,-0.
 00205239,-0.00426169,0.00113247,-0.00071357,-0.00142798,0.00226541,0.0
 8428209,0.30034924,-0.00055604,0.00324971,0.00398387,0.00029582,0.0002
 5202,-0.00024461,0.00009893,0.00006769,-0.00028575,0.00008913,-0.00044
 527,0.00087091,-0.00031752,0.00021400,0.00022835,-0.00002754,-0.000257
 22,0.00029335,0.00002773,-0.00030105,0.00012663,-0.00290503,0.00001360
 ,-0.00146171,-0.00000197,-0.00005146,0.00018157,-0.00029962,-0.0010486
 1,0.00101788,-0.00237409,0.00038693,-0.00270828,0.03208715,0.09317626,
 -0.05857145,0.00346206,0.00579932,-0.00362103,0.00121794,-0.00006024,0
 .00259437,-0.02979590,-0.10387933,0.06369924,-0.00194558,0.00110868,0.
 00468260,0.00041614,0.00032790,0.00002671,0.00083498,-0.00007821,0.000
 54067,0.00029543,-0.00044421,0.00014994,0.00072467,0.00022404,0.000488
 97,-0.00009497,-0.00016213,0.00031569,0.00011045,-0.00016563,0.0000730
 4,-0.00048479,0.00041769,-0.00017047,-0.00013832,-0.00009372,-0.000093
 92,-0.00082148,-0.00070592,0.00079462,0.00117764,0.00040987,-0.0000684
 2,-0.01959165,0.01600772,-0.00123213,-0.19782821,0.15218783,0.00243797
 ,0.00378009,-0.00222030,-0.00114551,-0.00036986,-0.00015344,-0.0000931
 2,0.21839564,-0.00220266,-0.00180641,-0.00037808,-0.00011602,-0.000128
 18,-0.00006294,0.00009996,-0.00034401,0.00008037,0.00131461,0.00008366
 ,0.00018150,-0.00018645,0.00096357,0.00011279,0.00014261,-0.00015058,0
 .00004147,-0.00013807,-0.00010695,-0.00009901,-0.00004566,0.00004660,-
 0.00005557,0.00004981,0.00004154,0.00007923,0.00196083,-0.00500389,0.0
 0352803,0.00014246,-0.00006624,0.00010586,-0.00392025,0.00397736,-0.00
 110733,0.15133528,-0.17627609,0.00466766,0.01901698,-0.01485279,-0.000
 90367,-0.00025620,0.00055586,-0.00019498,-0.16657619,0.19321354,-0.001
 83341,0.00342956,0.00188080,-0.00028940,-0.00027944,-0.00000497,0.0007
 1744,-0.00047857,-0.00033938,-0.00003339,-0.00034684,0.00041379,0.0007
 8447,0.00002284,-0.00329275,-0.00027504,-0.00005510,0.00023936,0.00029
 946,-0.00018164,0.00017184,0.00012292,0.00009653,-0.00001491,0.0001088
 2,0.00010649,0.00010180,0.00143584,0.00129817,0.00099447,0.00085235,0.
 00042393,-0.00004681,0.00628200,-0.00899264,-0.00013864,0.00196287,0.0
 0592692,-0.02503934,-0.00628437,0.00469132,-0.00211670,-0.00023351,-0.
 00036937,-0.00126218,-0.00713836,-0.00636279,0.02710398,-0.00188892,0.
 00193130,0.00354031,0.00029222,0.00017887,0.00016248,-0.00049474,-0.00
 086070,0.00021205,0.00003874,-0.00096483,0.00044654,-0.00004362,0.0000
 0511,0.00018091,0.00052455,0.00010921,-0.00108182,0.00006192,-0.000070
 69,0.00024539,0.00001353,0.00029512,0.00005287,-0.00007782,-0.00003886
 ,-0.00012249,-0.01790688,-0.01022429,0.00890340,0.00067761,0.00023012,
 -0.00039828,-0.00083733,0.00083076,0.00006794,0.00214702,-0.00028453,-
 0.00125930,-0.22388668,-0.09914058,0.10829338,0.00019345,0.00028953,-0
 .00029116,0.00003512,-0.00033620,-0.00047280,0.24558359,-0.00068157,-0
 .00066179,0.00228496,-0.00000142,-0.00000409,0.00005612,0.00094979,0.0
 0034870,-0.00008730,0.00061779,-0.00043846,-0.00053990,0.00013751,-0.0
 0101669,-0.00025431,-0.00029229,0.00086288,-0.00032234,0.00026459,-0.0
 0002127,0.00015392,0.00009275,-0.00000304,0.00003571,-0.00001126,0.000
 03052,-0.00003332,0.00805491,0.00655527,-0.00597007,0.00067416,0.00078
 132,-0.00031712,-0.00136546,-0.00447899,0.00206173,-0.01963414,-0.0091
 8255,0.00888077,-0.09801732,-0.08941996,0.06090144,-0.00104662,-0.0000
 5390,0.00010106,-0.00020249,-0.00039450,-0.00009378,0.10717292,0.09886
 764,-0.00278719,-0.00032302,0.00046020,-0.00021748,-0.00015058,-0.0001
 8084,0.00094112,0.00016643,-0.00007846,-0.00062367,-0.00111190,-0.0002
 5157,-0.00011142,-0.00025043,0.00020411,-0.00076077,-0.00018045,-0.002
 98259,0.00003213,-0.00011497,0.00012080,-0.00064780,0.00018447,-0.0002
 4033,0.00009359,0.00006144,0.00015591,0.00127662,0.00148754,-0.0033954
 5,0.00131370,0.00121947,0.00034050,0.00305080,0.00417149,0.00055648,0.
 00958790,0.00295505,-0.00636064,0.10715594,0.06078610,-0.08102775,0.00
 087711,0.00043398,0.00018140,-0.00053836,-0.00017835,-0.00070268,-0.11
 860333,-0.06925179,0.09248839,-0.03739948,-0.00617021,0.02275178,0.001
 69036,0.00230193,-0.00414681,0.01162540,-0.00216221,0.00071396,0.00116
 517,0.00081566,0.00038200,0.00031193,-0.00032580,-0.00053435,0.0001863
 8,0.00027468,-0.00048538,0.00022688,0.00042700,-0.00081010,-0.02348949
 ,-0.00692499,-0.00623255,0.00036404,-0.00047679,0.00217626,-0.00482739
 ,-0.00176293,-0.00132256,0.00637551,0.02533900,0.00669681,-0.00875259,
 0.00792078,-0.00830103,-0.00581106,-0.00157656,0.00334782,-0.00025378,
 0.00033165,0.00239873,0.00082395,0.00082956,-0.00131098,-0.00008808,0.
 00038495,0.00076236,-0.00007312,0.00064655,0.00042427,0.05527555,-0.00
 385150,-0.00171897,0.01091463,0.00819363,0.00816182,-0.00539094,0.0079
 9513,0.01198070,0.00799424,0.00069292,0.00008075,0.00010508,-0.0001793
 6,-0.00009170,-0.00010613,0.00013576,-0.00044049,-0.00050971,0.0002127
 3,-0.00012229,-0.00007603,-0.05924100,0.01649823,-0.01288476,-0.001264
 04,-0.00189657,0.00216472,-0.00737055,-0.00378195,0.00723119,0.0414938
 3,0.00229803,0.01570922,-0.01756498,0.00926767,-0.00557265,0.00220530,
 0.00241537,-0.00517764,0.00305757,-0.00252481,0.00000290,0.00395556,-0
 .00083274,0.00634173,0.00028372,0.00015657,0.00005350,0.00033880,-0.00
 071983,-0.00024834,0.01060183,-0.02273488,0.02050847,0.00912055,-0.019
 28241,0.00108064,0.00177040,-0.00048931,0.00070750,0.00391936,0.008351
 67,0.00056129,-0.00101875,-0.00042612,-0.00025610,-0.00003255,0.000038
 38,-0.00048532,-0.00037006,-0.00002417,0.00040548,0.00001727,0.0000840
 9,-0.00709014,-0.00057150,0.00028285,-0.00029487,-0.00058832,-0.000193
 77,0.00013740,0.00156991,0.00599559,0.00262109,-0.00370161,-0.00542736
 ,-0.01101094,0.00315027,-0.01344796,-0.00446959,-0.00137920,0.00423694
 ,0.00005651,0.00091899,-0.00386705,-0.00208511,0.00147701,-0.00418340,
 -0.00038712,-0.00006884,-0.00019885,0.00017928,-0.00020739,-0.00084437
 ,-0.00788747,-0.00719460,0.04578244,-0.06734153,0.01998495,0.04527641,
 0.00084690,0.00128821,-0.00017096,-0.03524333,-0.00050144,-0.02842807,
 0.00570288,0.00270216,-0.00380860,0.00086113,-0.00089812,-0.00099905,0
 .00028501,0.00023841,-0.00101484,-0.00016169,0.00006481,-0.00067736,0.
 00446257,-0.00014836,0.00150730,-0.00055334,-0.00052902,-0.00033238,-0
 .13654748,-0.07843429,0.03871927,-0.00427813,-0.01126855,-0.00500620,-
 0.14278871,0.09165802,-0.03526736,-0.04164875,0.01443789,0.00981477,-0
 .03960927,0.00178048,0.01485245,0.00535650,-0.00626247,-0.00077827,-0.
 00465659,-0.00087317,0.00395156,-0.00390506,0.00299494,0.00151345,0.01
 100815,0.00241894,0.00163629,0.43659294,0.03414024,-0.02244735,-0.0296
 9809,-0.00136301,-0.00211385,0.00156228,-0.00215391,-0.02221456,0.0017
 9369,-0.00915620,-0.00879169,0.00423097,-0.00049613,-0.00000592,0.0004
 3865,0.00000427,0.00019084,0.00058231,0.00016321,-0.00046670,-0.000689
 76,0.00970184,-0.00076580,0.00133247,0.00098344,0.00050524,0.00011784,
 -0.06669879,-0.12092973,0.04294053,-0.00602664,-0.01259858,-0.01003910
 ,0.10041693,-0.16305992,0.06050779,0.02188044,0.00022971,-0.00834833,-
 0.02274676,0.01373305,0.00721562,0.01048764,-0.01391142,-0.00218111,0.
 00065526,-0.00028362,0.00058279,-0.00080275,-0.00024628,0.00208323,-0.
 01997934,0.00482491,-0.00429555,-0.04298267,0.34089511,0.07315658,-0.0
 3202984,-0.07705299,0.00311959,0.00297351,-0.00067929,-0.02496061,0.00
 353580,-0.02844550,0.00454073,0.00238143,-0.00731503,-0.00034776,0.000
 37657,0.00015729,-0.00049347,-0.00007249,0.00072994,0.00000220,0.00016
 515,0.00116360,0.00142666,0.00037993,-0.00040551,-0.00163880,-0.000758
 50,-0.00062396,0.04454204,0.06344743,-0.05590573,0.00193922,-0.0000112
 2,0.00214700,-0.02576859,0.03480488,-0.03925540,-0.01695949,-0.0053392
 0,0.01357928,0.00298617,0.00419278,-0.00123665,-0.00542218,0.00413461,
 -0.00457609,-0.00041347,0.00120680,0.00272521,-0.00031376,0.00134407,0
 .00236401,-0.00463446,-0.01490442,-0.01223083,-0.04186990,-0.06641787,
 0.20249056,0.00084894,-0.00019228,0.00001581,-0.05189989,0.00008309,0.
 01070614,-0.00505969,0.00021471,-0.00206204,-0.00018010,0.00018364,-0.
 00003192,0.00003890,0.00003829,0.00002770,0.00006255,0.00002509,0.0000
 1097,0.00014198,-0.00009398,-0.00007182,-0.01428361,0.01081923,-0.0027
 4698,0.00685146,0.00081167,-0.02665019,-0.00061119,-0.00010538,0.00022
 074,-0.00624238,0.00242747,-0.00492667,-0.00020398,0.00028759,-0.00007
 737,0.00014305,-0.00008108,0.00009295,0.00008052,-0.00005432,0.0001158
 1,0.00001131,-0.00002435,0.00016157,0.00011469,-0.00001863,-0.00005812
 ,0.00007880,0.00000623,-0.00008558,-0.00065246,0.00092419,0.00042694,-
 0.00007044,-0.00085323,-0.00022955,0.48048220,0.00039098,0.00067633,-0
 .00022088,-0.00183738,-0.06725696,0.01252427,-0.00559774,-0.00012263,-
 0.00174236,0.00032487,0.00005501,0.00005460,-0.00004943,0.00004526,0.0
 0003711,0.00002524,0.00002151,0.00001840,0.00022148,0.00001917,-0.0001
 3652,0.01807577,-0.00456536,0.00869194,-0.00338140,0.01194591,0.003173
 53,-0.00012494,0.00013817,0.00017403,0.01500987,-0.00023398,0.00266286
 ,-0.00024768,0.00014761,0.00055737,-0.00021053,0.00013577,0.00005494,-
 0.00005547,0.00001197,0.00001079,-0.00010842,-0.00000908,-0.00021413,-
 0.00006611,-0.00001665,-0.00003559,0.00003220,-0.00000110,-0.00007659,
 -0.00179092,-0.00308199,-0.00032030,0.00038355,0.00011470,-0.00057557,
 0.06254809,0.47835671,0.00011011,-0.00071138,0.00035640,0.00875603,0.0
 0523069,-0.07202487,-0.00441703,-0.00113579,-0.00385713,-0.00025739,-0
 .00007705,0.00003286,0.00002037,-0.00002358,0.00001222,-0.00001519,-0.
 00003892,-0.00002401,-0.00023648,-0.00003985,0.00007461,0.01003446,-0.
 00024173,-0.00661236,-0.01579807,0.01586383,-0.05452679,-0.00041007,-0
 .00015370,0.00007489,-0.01391852,-0.00450397,0.00700298,0.00015818,0.0
 0020242,-0.00040369,0.00037650,-0.00013782,-0.00011005,0.00003691,-0.0
 0010918,-0.00005667,0.00017564,0.00000369,0.00029861,0.00013164,-0.000
 01002,-0.00007304,0.00003545,-0.00003680,-0.00000837,0.00177776,0.0050
 2231,0.00058946,0.00019157,-0.00075628,0.00033631,0.03230288,0.0218440
 2,0.37029916,0.00080818,0.00094834,-0.00156100,-0.27179466,-0.17283444
 ,-0.00528427,-0.03008584,0.00641971,-0.03049128,0.00028056,0.00047790,
 0.00013022,-0.00012926,-0.00000572,-0.00019248,0.00002475,-0.00009260,
 -0.00006196,-0.00050581,0.00085199,-0.00047179,-0.00854260,0.00135650,
 -0.00042101,-0.05017695,-0.04464881,-0.03186733,0.00029717,0.00035564,
 -0.00083045,0.01087962,0.00475320,0.00182269,-0.00087086,-0.00154588,-
 0.00047652,-0.00127927,0.00039912,0.00020398,-0.00064893,0.00033008,0.
 00057328,-0.00024862,0.00007033,-0.00002479,-0.00034679,0.00008853,0.0
 0045527,-0.00018260,0.00006051,0.00027323,-0.00356839,-0.00802786,-0.0
 0216346,0.00271761,0.00255610,-0.00167310,-0.01815689,-0.03134237,0.01
 818831,0.37076854,-0.00024645,0.00054863,0.00023498,-0.17302753,-0.204
 47770,0.00717814,-0.00257597,-0.02207321,0.00939912,0.00073588,0.00006
 043,-0.00005231,-0.00004260,0.00001205,-0.00002929,0.00005370,-0.00000
 081,0.00002633,0.00035119,-0.00024201,-0.00006545,-0.00393226,0.000395
 44,-0.00097540,-0.03815282,-0.00504824,-0.01996699,0.00071634,-0.00030
 894,0.00002639,0.00500889,0.00254355,0.00115885,-0.00101316,-0.0000798
 0,0.00008487,-0.00025650,0.00036299,-0.00017571,0.00030005,-0.00012210
 ,-0.00046182,-0.00012511,0.00006339,-0.00012207,-0.00024310,0.00002705
 ,0.00007661,-0.00004748,-0.00011339,0.00008288,0.00004788,-0.00494185,
 -0.00104272,0.00068309,0.00581551,-0.00087984,-0.03343208,-0.02097114,
 0.02328206,0.24896251,0.25073805,0.00000522,-0.00029341,0.00094548,-0.
 00380724,0.00752269,-0.08128830,-0.02559453,0.02223387,-0.06642607,-0.
 00030705,0.00028117,0.00002006,0.00008758,-0.00004544,0.00000594,0.000
 01207,-0.00003768,-0.00004735,-0.00064906,-0.00083128,0.00033266,-0.00
 036352,0.00133761,-0.00037323,-0.04812712,-0.03223286,-0.00170627,-0.0
 0124895,0.00092461,-0.00091272,-0.00045108,0.00048672,0.00039902,-0.00
 096365,-0.00161398,0.00000609,-0.00032758,0.00031279,-0.00006951,-0.00
 046915,-0.00026972,0.00072222,0.00004501,-0.00011750,0.00014286,-0.000
 19512,-0.00001446,0.00024284,-0.00025118,0.00015755,0.00010839,-0.0004
 6242,-0.00262418,-0.00227719,0.00249157,-0.00027648,0.00334631,0.02261
 997,0.02706099,-0.00667908,0.05148488,-0.02523867,0.15817351,-0.018686
 62,0.01795905,-0.02020168,0.00024523,0.00039025,-0.00025636,-0.0020504
 6,0.00189305,0.00587235,-0.00043297,0.00154730,-0.00077338,-0.00078725
 ,0.00140153,-0.00426200,-0.01308331,-0.00011756,-0.00218017,-0.1272489
 7,0.11405396,-0.07747071,-0.00108293,-0.00014966,-0.00026395,-0.000020
 51,-0.00002155,0.00009819,0.00832554,0.00197247,-0.00063903,-0.0001648
 8,0.00168446,-0.00020272,0.00084451,-0.00122721,0.00750966,-0.00622500
 ,-0.00666301,0.00068448,-0.00412870,0.00766918,-0.00351924,-0.00010151
 ,0.00010478,0.00028922,0.00021596,-0.00024134,0.00013653,-0.00020472,0
 .00008304,-0.00020006,-0.00010178,-0.00189995,0.00245454,0.00455216,-0
 .00867291,-0.00536582,-0.00021037,-0.00000048,0.00000282,-0.00181351,-
 0.00011941,0.00011182,0.59178666,0.01693064,-0.02655592,0.03236720,-0.
 00036781,-0.00008208,-0.00038592,-0.00002190,0.00240137,0.00052116,-0.
 00078780,-0.00143942,0.00000535,0.00021064,-0.00398811,0.00273428,-0.0
 2024947,0.00037834,-0.00770131,0.11479266,-0.18331078,0.09668917,0.000
 17644,-0.00076600,0.00008715,0.00010820,0.00001643,0.00018553,0.000058
 37,0.00533088,-0.00041907,-0.00012048,0.00092560,-0.00154499,0.0016062
 2,-0.00012188,0.00313623,-0.00551748,-0.00195268,0.00144041,-0.0036456
 1,0.00385528,-0.00393533,0.00015970,-0.00013317,-0.00037205,-0.0005902
 4,-0.00036085,-0.00092124,-0.00019730,-0.00007569,-0.00024263,0.001155
 31,-0.00053843,0.00136235,0.00245605,-0.00109309,-0.00553567,-0.000041
 13,0.00004390,0.00004104,0.00072071,-0.00006289,0.00039230,-0.06490714
 ,0.61867768,-0.02131411,0.02843392,-0.10423498,-0.00132477,-0.00125131
 ,-0.00059315,0.00487055,-0.00234982,-0.00316946,-0.00091892,0.00008087
 ,-0.00003765,-0.00059917,0.00187236,0.00140702,0.00295545,-0.00071315,
 -0.00126853,-0.07061069,0.08977299,-0.07541670,0.00199980,-0.00148448,
 -0.00010051,0.00042618,0.00039909,0.00064012,0.00597239,0.00011426,-0.
 00050192,-0.00448564,-0.00199253,-0.00049120,-0.00928936,0.00246951,0.
 00683196,0.00204458,0.00261737,-0.00302654,0.00156588,0.00149105,0.001
 58248,-0.00010283,-0.00009565,0.00039402,0.00005257,-0.00039214,0.0000
 4130,0.00062601,0.00046722,0.00067365,0.00153702,0.00027569,-0.0003507
 5,-0.00026205,-0.00792499,0.00384422,-0.00016260,0.00019178,-0.0002465
 1,0.00113278,0.00084847,0.00015266,0.16294385,-0.21488574,0.27012491,-
 0.03434971,-0.01693728,0.05529292,-0.00038528,-0.00023492,0.00042146,-
 0.00323296,-0.00007824,0.00226000,-0.00018480,-0.00144787,0.00075654,-
 0.00423406,0.02192336,-0.00942853,-0.14326129,-0.14117959,0.01030171,-
 0.01298605,-0.00033740,0.00029641,0.00108652,-0.00058347,0.00051449,0.
 00015756,0.00015162,-0.00026385,0.00051866,-0.00248048,-0.00268416,-0.
 00103479,-0.00096570,-0.00069163,-0.00972982,0.00505000,-0.00237844,0.
 00616880,0.00697334,-0.00626171,0.00317993,-0.00622141,0.00110003,-0.0
 0024248,-0.00004581,-0.00048845,-0.00025905,0.00020626,-0.00043490,-0.
 00061132,-0.00093644,-0.00191769,0.00088662,0.00128112,0.00001648,-0.0
 0044728,-0.00348990,0.00664453,0.00018554,0.00013286,-0.00010545,0.000
 69190,0.00000754,-0.00045590,-0.30928670,0.00034845,-0.08245322,0.6216
 4994,-0.02423382,-0.02298089,0.03101744,-0.00030376,-0.00028121,-0.000
 01965,0.00091295,0.00004667,-0.00087315,0.00006666,-0.00109906,0.00037
 768,0.00207821,-0.00464080,0.00008672,-0.14322057,-0.22534809,0.023116
 49,0.01915286,0.00187319,0.00005372,-0.00002232,0.00008992,0.00014167,
 0.00017541,-0.00001697,0.00011616,0.00524178,0.00447344,0.00032052,0.0
 0093228,0.00207996,0.00096189,0.00556374,-0.00034339,-0.00052290,-0.00
 343840,-0.00319214,0.00307142,-0.00754217,0.00381494,0.00010780,0.0000
 6760,-0.00020738,-0.00076182,-0.00009630,-0.00025560,0.00004342,-0.000
 82071,-0.00009658,-0.00244034,-0.00056601,-0.00176785,-0.00015001,0.00
 203749,-0.00029772,-0.00502305,-0.00000573,0.00003957,-0.00006781,0.00
 028715,0.00001672,-0.00002602,-0.02124554,-0.06637416,0.01161655,0.145
 69852,0.64992814,0.05660429,0.01415525,-0.10440097,-0.00028355,-0.0002
 3696,-0.00019990,-0.00043251,-0.00084661,0.00066108,-0.00042633,0.0002
 1474,0.00056137,-0.00124736,0.00701321,-0.00562220,0.00981937,0.021404
 91,-0.02324493,-0.00975174,-0.00131183,-0.00185992,0.00028919,0.000308
 56,0.00020558,0.00008737,0.00010142,0.00013990,-0.00560505,-0.00077389
 ,0.00274985,0.00017314,-0.00016589,0.00178529,0.00018095,-0.00030886,-
 0.00306752,0.00516273,0.00334914,-0.00242997,0.00327571,-0.00386550,0.
 00015239,-0.00050558,-0.00031497,0.00012976,0.00066400,0.00024781,0.00
 082009,0.00030972,-0.00021238,-0.00201032,-0.00316453,-0.00052791,0.00
 052077,-0.00195929,0.00783572,0.00159148,-0.00011073,0.00006261,-0.000
 01869,-0.00018043,0.00032839,-0.00004969,-0.03700839,0.01548865,-0.046
 11575,0.03351853,-0.16121614,0.23413938,-0.07230852,0.04216006,0.05772
 888,0.00026963,0.00013919,0.00010084,-0.00021222,-0.00004956,0.0001604
 2,0.00023253,-0.00069345,-0.00036394,-0.28502932,0.05724855,-0.1065049
 0,0.00695806,-0.01486765,0.00442633,-0.00485241,-0.00035594,0.00016014
 ,-0.00054516,0.00054497,0.00011445,-0.00004278,-0.00016234,-0.00011324
 ,-0.00298362,-0.00408630,-0.00294166,0.00114904,-0.00049675,-0.0006941
 2,-0.00377996,0.00221601,-0.00087246,-0.00047964,0.00649813,-0.0025330
 6,0.00508745,-0.00466405,0.00092875,-0.00000426,-0.00011026,-0.0006886
 9,-0.00027502,0.00008963,-0.00209895,-0.00014916,-0.00097828,-0.000183
 93,0.00055552,0.00064593,0.00024127,0.00136078,-0.00114596,0.00261809,
 0.00015600,0.00004520,0.00006772,-0.00004004,-0.00010051,0.00003360,-0
 .02438834,0.02007725,-0.01368601,-0.09311471,0.08057876,-0.04616345,0.
 76840627,0.03923501,-0.02839981,-0.03788943,-0.00014466,-0.00014770,0.
 00014091,-0.00064721,0.00012906,0.00043795,0.00003962,0.00126771,-0.00
 025309,0.05753815,-0.05013132,0.03060634,0.00726981,-0.01887938,0.0051
 8383,0.00032620,-0.00066971,0.00029244,0.00062041,-0.00029792,0.000419
 00,0.00001222,0.00006851,-0.00000568,0.00522048,-0.00157446,-0.0073495
 8,-0.00231831,-0.00187884,-0.00033112,-0.01116727,0.00412129,0.0026919
 4,0.00371290,0.00855050,-0.00546788,0.00754761,-0.00189841,-0.00007312
 ,-0.00042669,0.00018784,0.00053102,0.00023590,0.00009885,0.00024117,0.
 00010863,-0.00026215,0.00015007,-0.00019163,0.00048633,0.00166355,-0.0
 0088911,-0.00919903,0.00625633,-0.00004324,0.00010407,-0.00008748,0.00
 016937,-0.00001131,-0.00008682,0.03779080,-0.00827972,-0.00427076,0.04
 164308,-0.26902441,0.10484828,-0.04334697,0.52587384,0.04429743,-0.030
 70406,-0.05372674,0.00000331,-0.00015810,-0.00031854,-0.00134823,0.000
 75289,0.00020297,-0.00006141,0.00049835,-0.00055374,-0.10677463,0.0303
 7504,-0.06545936,0.00008930,0.00098225,-0.00286967,-0.00290382,0.00121
 621,0.00170503,-0.00093907,-0.00012780,-0.00026660,0.00007201,0.000076
 55,0.00032905,0.00592999,0.00252364,0.00057953,0.00064743,0.00088210,0
 .00009764,0.00380110,-0.00318029,0.00258018,-0.00217505,-0.00030539,-0
 .00047526,-0.00175260,-0.00016531,0.00050814,0.00011605,0.00018670,0.0
 0082294,0.00018019,-0.00071225,-0.00272879,0.00027344,-0.00021725,-0.0
 0028831,-0.00104029,-0.00124622,0.00034063,0.00313719,-0.00322489,-0.0
 0588099,-0.00005181,-0.00007283,0.00004372,0.00026959,0.00005399,0.000
 37284,-0.03051593,0.00668643,0.00001660,-0.02460939,0.08284355,-0.0646
 5911,0.12133377,-0.12177873,0.22982091,-0.00406203,0.01132247,0.012184
 83,0.00029076,0.00044322,-0.00009956,-0.00109373,0.00177666,0.00108249
 ,-0.00005699,0.00019598,0.00005066,-0.01673230,-0.01458571,0.00059161,
 -0.00068629,-0.00100172,-0.00195115,-0.00053895,-0.00058135,-0.0003822
 6,-0.00066608,0.00001058,0.00019572,-0.00000838,0.00001713,-0.00000306
 ,-0.00902619,0.00035441,0.00547225,-0.00446160,0.00349533,0.00718485,0
 .00998609,-0.00255848,-0.00544333,0.00173421,-0.00856594,0.00428470,-0
 .00419621,-0.00472614,-0.00593174,0.00023858,-0.00012414,-0.00023447,-
 0.00012293,0.00022973,0.00054086,0.00006094,-0.00021138,-0.00047644,-0
 .00284807,0.00179573,0.00212570,-0.00016683,0.00948998,-0.00484801,0.0
 0010537,0.00004872,0.00002028,-0.00025590,-0.00045945,-0.00007914,0.00
 545098,0.02738545,0.00735285,0.01376442,-0.03527760,0.00210509,-0.2403
 4297,-0.10344699,0.00199648,0.52887357,0.01137786,-0.10705207,-0.04636
 979,0.00002049,-0.00031637,-0.00049427,0.00050331,-0.00105028,-0.00004
 798,-0.00045315,0.00027088,0.00078292,0.00481929,0.00567207,-0.0004231
 0,0.00188963,-0.00501563,0.00043156,-0.00180733,-0.00478194,-0.0003777
 6,-0.00058885,-0.00004043,-0.00040449,0.00001399,0.00020420,0.00033141
 ,-0.00357144,0.00147813,-0.00252374,0.00038700,0.00023233,0.00068955,-
 0.00332389,0.00349049,-0.00126002,0.00395228,0.00463677,-0.00122036,0.
 00490027,-0.00306762,0.00096029,-0.00029610,-0.00002892,0.00070858,0.0
 0070770,0.00030428,0.00035632,0.00073405,0.00034112,0.00072702,-0.0003
 5946,0.00172940,-0.00081869,-0.00349863,0.00080321,0.00424273,-0.00004
 884,-0.00017480,0.00000583,-0.00049299,0.00047632,0.00010194,0.0111749
 1,-0.03581440,0.01035034,-0.01175875,-0.04165791,0.00667675,-0.1508885
 7,-0.16063864,0.02435393,0.04391991,0.73371622,0.00643924,-0.04420411,
 -0.04933049,0.00011629,0.00025633,-0.00027252,-0.00034602,0.00110713,-
 0.00020229,-0.00016255,-0.00079374,0.00061690,-0.00618180,-0.00757599,
 -0.00228247,-0.00145762,0.00364916,0.00154981,-0.00024758,0.00355723,0
 .00175613,-0.00272112,0.00101616,-0.00106670,0.00003131,-0.00009585,0.
 00007644,-0.00497838,-0.00115595,0.00028462,0.00964203,-0.00067053,-0.
 00520725,0.00096129,-0.00081527,-0.00028351,0.00274528,0.00090159,0.00
 227653,0.00491569,-0.00637019,-0.00028884,-0.00001382,-0.00020748,0.00
 054908,0.00028129,-0.00020446,0.00040736,0.00026223,0.00041769,0.00038
 746,0.00044552,0.00194680,0.00002812,-0.00337720,0.00128602,0.00240187
 ,-0.00014414,-0.00014402,0.00022547,-0.00027089,-0.00015312,0.00006513
 ,0.00176395,0.03180915,-0.00159990,0.00004203,0.01788425,-0.00269038,-
 0.00414124,0.01925700,-0.03556117,0.06968225,-0.20559810,0.25818579,-0
 .04262215,-0.02548556,-0.03060527,0.00006254,0.00057824,0.00009099,0.0
 0016335,0.00178735,0.00276402,-0.00018672,0.00042152,0.00048370,-0.003
 99906,-0.00422369,-0.00263145,-0.00512491,-0.00054191,-0.00329355,0.00
 620806,0.01447977,0.00014113,-0.00080279,-0.00094433,0.00333531,-0.000
 13254,-0.00022486,-0.00013677,0.00195941,0.00262001,0.00166334,-0.0023
 7500,0.00032358,0.00486072,0.00079149,-0.00042817,0.00307269,-0.000971
 34,-0.00081251,-0.00083739,0.00021508,0.00351817,-0.00091420,0.0000817
 3,0.00019001,0.00063070,0.00021052,-0.00020494,0.00023870,0.00039142,0
 .00066649,0.00064545,-0.00240694,-0.00361210,0.00193911,0.00619111,-0.
 00083717,-0.00445737,-0.00005479,-0.00007754,0.00002671,-0.00112698,0.
 00032872,0.00004796,-0.09244605,-0.09024145,0.01437016,-0.03154960,-0.
 02422168,-0.00405553,-0.05277125,-0.01824753,-0.01621502,-0.22056896,0
 .11642330,-0.07698178,0.72816942,-0.02493704,-0.02890890,-0.02777907,0
 .00024230,0.00053532,-0.00058416,0.00507943,-0.00177723,-0.00557338,-0
 .00002873,0.00142638,0.00034285,-0.00116610,-0.00120918,0.00213873,-0.
 00108436,-0.00133190,-0.00126394,-0.00539715,-0.01622311,0.00010415,-0
 .00287585,0.00096739,0.00164362,-0.00020562,-0.00032878,0.00025391,-0.
 01058960,-0.00047223,0.00171130,0.00109067,0.00066217,0.00462982,0.009
 54700,-0.00138665,-0.00687313,0.00426995,-0.00214733,0.00694825,0.0015
 3541,-0.00802936,-0.00281565,0.00033830,0.00000224,0.00065541,0.000423
 20,0.00039992,0.00129184,0.00048952,0.00016688,0.00016322,-0.00334543,
 0.00334410,0.00027065,-0.00188834,0.01013687,-0.00117222,-0.00022914,-
 0.00029570,0.00029681,-0.00047135,-0.00028221,0.00024440,-0.07149976,-
 0.28770424,0.08652436,-0.03376736,-0.01567929,-0.01417418,0.01123626,0
 .02360123,0.00256939,0.07401422,-0.13362707,0.04936258,0.12588976,0.54
 229944,-0.02816225,-0.02875927,-0.04461365,-0.00088281,-0.00053354,-0.
 00136171,0.00398310,-0.00170505,-0.00109975,0.00032430,0.00142587,-0.0
 0016815,-0.00016507,0.00093289,0.00139358,-0.00030961,0.00126905,0.002
 17116,0.00376765,0.00914586,-0.00194605,-0.00181450,0.00109258,-0.0033
 4590,0.00037343,0.00024826,0.00093944,0.00086342,0.00384256,0.00255551
 ,0.00749817,0.00468836,-0.01243838,0.00377668,-0.00303291,0.00420753,-
 0.00377632,-0.00565622,0.00241466,-0.00399118,0.00465950,-0.00296075,0
 .00008892,0.00001890,0.00140961,0.00038689,0.00017158,0.00056085,0.000
 08798,0.00032096,0.00016283,0.00100595,0.00036182,-0.00254040,0.003723
 71,0.00030811,-0.00715577,-0.00050905,-0.00011521,0.00006514,0.0005943
 0,0.00041097,0.00057947,-0.00730996,0.04070270,-0.04788794,0.01933059,
 -0.00345149,0.01132564,-0.00646985,0.00299657,-0.00430738,-0.09379588,
 0.07384484,-0.07271338,0.15357574,-0.09519552,0.21253083,0.00292890,0.
 00117663,0.00224791,-0.00012323,0.00051909,0.00011879,0.00056547,-0.00
 151307,-0.00118031,-0.00014000,0.00032790,0.00007550,-0.00043170,-0.00
 089484,-0.00028828,-0.00007423,0.00008272,-0.00060002,0.00019278,-0.00
 014252,0.00034494,0.00164343,-0.00076733,0.00172748,-0.00006960,-0.000
 26298,-0.00016699,-0.00006980,0.00009202,0.00003454,-0.00082336,0.0000
 0818,0.00164288,-0.00017226,0.00005521,0.00040103,0.00032208,0.0000850
 4,0.00030227,0.00019310,0.00025366,0.00035926,-0.00007485,0.00002461,0
 .00020428,0.00019886,-0.00000916,0.00034922,0.00017930,0.00026850,0.00
 021245,-0.00048298,-0.00055585,-0.00029157,-0.00041684,0.00011813,0.00
 049483,-0.00011060,0.00004572,0.00009628,-0.00024169,0.00046358,0.0001
 2124,-0.00649526,-0.00263101,-0.00054178,-0.00146942,-0.00174938,-0.00
 127745,-0.00400936,0.00035825,-0.00297320,-0.01813749,-0.00678168,-0.0
 0178221,-0.28777256,-0.09575280,-0.04491401,0.31664961,-0.00057529,-0.
 00077838,0.00242987,0.00176078,0.00030468,-0.00029075,0.00025335,-0.00
 305683,-0.00316753,-0.00019239,0.00016117,-0.00006608,0.00075337,0.000
 50411,0.00015329,-0.00106262,0.00007795,-0.00023893,0.00006970,-0.0000
 3399,-0.00016258,-0.00110758,0.00178369,0.00043617,-0.00036795,-0.0000
 4881,0.00006972,-0.00009744,0.00015532,0.00029257,0.00079449,-0.000241
 02,0.00208670,0.00025582,0.00000717,0.00007950,0.00013432,-0.00009920,
 -0.00018956,0.00025726,-0.00021662,-0.00011558,0.00003334,0.00003663,0
 .00011404,0.00000513,0.00006230,-0.00000760,0.00016777,-0.00002637,0.0
 0014785,-0.00080108,-0.00015287,-0.00026488,-0.00000223,0.00014257,0.0
 0023375,0.00026114,-0.00005313,0.00010859,-0.00051701,-0.00007945,0.00
 082544,-0.02165602,-0.00650596,-0.00359670,-0.00203617,-0.00399344,0.0
 0067026,0.00271625,-0.00115482,0.00229681,0.01441533,0.00632484,0.0010
 5129,-0.09908633,-0.07353731,-0.01177916,0.10595653,0.08073398,-0.0022
 3673,0.00021424,0.00375782,0.00017794,-0.00018687,0.00109997,0.0004496
 1,-0.00345951,-0.00182804,-0.00005780,0.00027373,0.00009502,0.00000012
 ,-0.00005304,0.00048045,0.00063592,0.00038353,0.00060057,0.00014153,-0
 .00064774,-0.00109139,0.00265778,0.00140884,-0.00293275,-0.00006895,-0
 .00008148,-0.00063244,-0.00018939,0.00049845,0.00053511,-0.00102032,0.
 00182242,-0.00351838,0.00048151,-0.00014597,0.00102091,0.00024402,-0.0
 0001616,0.00004966,0.00021997,0.00001184,-0.00083681,-0.00003951,-0.00
 004280,0.00023262,0.00022054,0.00007270,0.00010329,0.00003032,0.000058
 00,0.00012271,-0.00239116,-0.00263427,-0.00035705,0.00048103,0.0011036
 8,0.00001447,0.00016314,0.00009946,-0.00032199,-0.00004123,0.00000658,
 -0.00015696,0.00906071,0.00204258,0.00019395,0.00199427,0.00321144,0.0
 0172644,-0.00035122,0.00127874,0.00117288,-0.00457303,-0.00323179,-0.0
 0160019,-0.05100121,-0.01201787,-0.03175137,0.04433618,0.00932422,0.03
 414796,0.00149400,-0.00038512,0.00054278,-0.00736922,0.01051902,-0.013
 56879,-0.03520089,-0.03162662,-0.00004239,-0.00045779,0.00068616,-0.00
 000466,0.00017339,-0.00005249,-0.00011429,0.00015225,-0.00007760,-0.00
 016341,0.00000033,-0.00006919,-0.00000191,-0.17944784,0.18857737,-0.02
 339645,0.00161526,0.00030998,-0.00140297,-0.00070303,0.00100155,0.0000
 9138,-0.07456822,0.05142428,-0.01414134,-0.00003909,-0.00008289,-0.000
 08451,0.00062661,-0.00011128,0.00032485,0.00026699,0.00016593,0.000208
 82,0.00008394,-0.00034424,0.00086862,0.00028307,-0.00005232,0.00003605
 ,0.00010757,0.00000030,0.00016660,-0.00090752,0.00886190,0.00016762,-0
 .00191938,-0.00259483,-0.00305602,-0.19850021,0.01366579,-0.05785930,0
 .00140816,-0.00215322,0.00184428,-0.00016195,0.00032734,-0.00035458,0.
 00021278,0.00009325,-0.00047422,0.00025525,-0.00009146,0.00021863,-0.0
 0025868,-0.00034299,0.00056894,-0.00124641,0.00061956,0.00023413,-0.00
 109546,0.00000339,0.00071403,0.54151649,0.00041964,0.00363927,0.000171
 62,0.02013642,-0.00418665,0.00761252,-0.01328173,-0.06965303,0.0108011
 1,0.00054291,-0.00102913,-0.00032881,-0.00005306,0.00005237,0.00002814
 ,0.00011294,0.00014111,0.00011811,-0.00017579,0.00017848,-0.00008347,0
 .17978977,-0.41410863,0.01587857,-0.00029874,0.00034254,0.00618027,0.0
 0117448,0.00008400,-0.00016674,0.03080958,0.00115542,0.01031787,-0.000
 59903,0.00006249,0.00191100,-0.00026683,0.00069121,0.00015938,0.000615
 81,-0.00041430,-0.00029537,-0.00002290,0.00030172,-0.00042396,-0.00022
 913,0.00007831,-0.00002456,0.00001519,-0.00007640,-0.00013870,-0.00529
 035,-0.01157599,-0.00193847,0.00117070,0.00192684,-0.00163662,0.024653
 86,-0.07710023,0.01358204,-0.00258520,-0.00125973,-0.00030515,-0.00072
 197,0.00014792,0.00069807,0.00039608,-0.00015821,0.00039715,-0.0003453
 1,0.00032881,-0.00001969,0.00023638,0.00014904,-0.00108523,-0.00017272
 ,-0.00040790,-0.00107531,0.00064760,0.00016960,-0.00023227,-0.25144521
 ,0.63188615,0.00110373,0.00033897,-0.00222390,-0.02419963,0.01582084,-
 0.01677724,-0.00915892,0.00367024,-0.02652708,0.00033219,0.00027762,0.
 00004893,0.00002009,0.00007744,0.00006021,0.00000045,0.00002099,0.0001
 0188,-0.00004076,0.00007099,0.00017425,-0.03064725,0.02307708,-0.03799
 306,0.00217839,0.00064385,-0.00694230,-0.00014069,-0.00013844,0.000020
 28,-0.01502613,0.01440609,0.00443609,0.00070358,0.00023704,-0.00045032
 ,0.00011620,-0.00012744,0.00004426,-0.00024165,0.00007327,0.00016747,0
 .00011635,-0.00014690,-0.00005407,0.00003736,-0.00000019,0.00002615,-0
 .00008550,-0.00002198,0.00004050,-0.00041077,0.00085138,-0.00124438,-0
 .00218145,-0.00243148,0.00339950,-0.05710181,0.01033007,-0.06538746,-0
 .00204558,0.00101360,-0.00024248,0.00049592,-0.00049272,0.00026691,-0.
 00022060,-0.00006705,0.00020138,-0.00003357,0.00013861,0.00016375,-0.0
 0033254,0.00045083,-0.00012386,0.00079768,-0.00065564,-0.00073312,0.00
 093817,0.00014398,0.00008840,0.12483100,-0.05289011,0.12717388,-0.0000
 4377,0.00023614,-0.00004136,-0.00385685,-0.00642050,-0.00015191,-0.002
 28425,0.00084472,-0.00167641,0.00018209,0.00009006,0.00001764,0.000009
 18,0.00000732,-0.00001074,0.00001654,0.00000385,-0.00000335,0.00002164
 ,0.00001804,-0.00006515,0.00071601,-0.00267432,0.00026085,0.00048942,0
 .00134548,-0.00015795,0.00010170,0.00007684,-0.00001911,0.00055125,0.0
 0084845,0.00002161,0.00001654,-0.00001991,0.00003872,0.00002192,0.0000
 2510,0.00002843,0.00005885,-0.00004215,-0.00000956,0.00001099,-0.00003
 882,0.00002225,-0.00000466,0.00000337,0.00000665,-0.00000272,0.0000014
 3,0.00000847,0.00003344,-0.00008489,0.00000472,0.00007780,-0.00016350,
 0.00002386,-0.10633708,-0.10019380,-0.01286964,-0.00015201,-0.00072886
 ,0.00143230,0.00004881,0.00005017,0.00006106,0.00006313,0.00002449,0.0
 0002889,-0.00000235,-0.00001033,0.00002722,0.00004007,0.00002768,-0.00
 001263,-0.00007713,-0.00007111,0.00008268,-0.00011201,-0.00010184,-0.0
 0004432,-0.03140941,-0.02280585,-0.00731528,0.13681505,0.00011787,0.00
 017454,-0.00007261,-0.00868909,-0.01076988,-0.00445816,-0.00018810,-0.
 00072241,0.00026507,0.00013416,0.00007891,0.00001298,0.00000701,0.0000
 0274,-0.00001699,0.00001753,0.00000224,-0.00001192,0.00003806,0.000022
 31,-0.00007286,-0.00012340,0.00052261,-0.00014260,0.00160910,0.0020171
 6,-0.00050882,0.00009853,0.00000426,0.00003074,-0.00015059,0.00015848,
 -0.00004920,-0.00010235,0.00000023,-0.00001852,-0.00002414,-0.00000333
 ,0.00003563,0.00006267,0.00000492,-0.00001564,-0.00000950,-0.00000910,
 0.00000322,-0.00000225,0.00000256,0.00000990,0.00001559,0.00000890,0.0
 0000648,0.00008849,-0.00001546,-0.00002798,0.00005798,-0.00007344,0.00
 012118,-0.09714342,-0.18797596,-0.01699881,-0.00328375,-0.00292497,0.0
 0374320,-0.00004896,0.00001916,0.00005654,0.00009406,0.00004840,0.0000
 1094,0.00002744,-0.00003898,0.00001779,-0.00000108,0.00001261,-0.00000
 785,-0.00006052,-0.00012001,0.00002188,-0.00006864,-0.00002829,0.00002
 351,-0.00289095,0.00495691,-0.00147907,0.11736503,0.21767322,-0.000070
 12,0.00008184,0.00005128,0.00952892,0.01498688,0.00597775,-0.00068798,
 0.00126100,-0.00081437,0.00005762,0.00000829,-0.00000248,-0.00000106,-
 0.00000158,-0.00000370,-0.00000990,-0.00000111,-0.00000013,-0.00005147
 ,-0.00002863,0.00001370,-0.00047329,-0.00071731,0.00007688,0.00051575,
 -0.00136156,0.00134132,0.00000800,0.00003658,-0.00003733,0.00094196,0.
 00044312,0.00013226,0.00003378,-0.00006131,0.00004942,0.00002284,0.000
 00471,-0.00000479,0.00002645,-0.00003523,-0.00002366,-0.00000662,0.000
 00592,0.00000391,-0.00000515,0.00000995,0.00000658,-0.00000738,0.,0.00
 000242,-0.00018916,-0.00037560,0.00000856,0.00009018,0.00002714,-0.000
 20109,-0.01435978,-0.01768594,-0.04396096,0.00603298,0.00617322,-0.005
 71841,0.00002340,0.00002634,0.00004530,-0.00002624,-0.00003292,0.00003
 483,-0.00001412,0.00003999,0.00000706,-0.00002736,0.00001486,0.0000028
 9,0.00008825,0.00000676,0.00002717,0.00003133,0.00005037,-0.00001424,-
 0.01119786,-0.00843851,-0.00072695,0.01714963,0.02497372,0.04691621,-0
 .00310414,-0.00075253,-0.00005608,-0.00036908,-0.00019739,0.00011775,-
 0.00197249,-0.00083216,0.00082098,-0.08170996,0.02095581,0.08312589,0.
 00006184,0.00011619,-0.00025241,-0.00204295,0.00158504,0.00190814,-0.0
 0066225,-0.00059495,-0.00133300,0.00026005,-0.00007333,0.00013802,0.00
 018344,0.00007432,0.00007589,0.00385155,-0.00039639,-0.00072354,-0.000
 33260,-0.00002788,-0.00011359,-0.00040260,0.00020089,0.00017743,0.0000
 6113,-0.00016859,0.00001277,0.00012568,0.00257819,-0.00201562,-0.00015
 284,0.00006543,0.00011182,0.00013300,0.00007327,0.00018545,-0.00086917
 ,0.00054351,-0.00055568,-0.00008285,-0.00047201,0.00025316,-0.00023965
 ,-0.00083533,0.00017556,0.00010359,0.00011651,-0.00004438,0.00029818,0
 .00002596,-0.00007720,0.00094599,-0.00035097,0.00027387,0.00134568,0.0
 0280238,0.00067959,-0.00019296,-0.00025796,-0.00053479,0.00016325,-0.0
 0003118,0.00019281,-0.00041625,-0.00059948,-0.00032734,-0.00013644,-0.
 00013729,0.00003170,-0.00011519,-0.00009852,-0.00006068,0.00002948,0.0
 0001159,-0.00000112,0.10924062,-0.00137298,0.00381888,-0.00014740,0.00
 018821,0.00022398,0.00014173,-0.00115467,-0.00007396,0.00061681,0.0224
 0062,-0.04631993,-0.05194487,-0.00038149,0.00027529,0.00036358,0.00276
 102,-0.00073159,-0.00141785,-0.00077327,-0.00039451,-0.00084361,-0.000
 44256,0.00036265,-0.00010492,0.00001656,-0.00003686,-0.00005764,-0.007
 10280,-0.00763521,0.02510489,0.00184163,0.00099718,-0.00059607,0.00057
 294,-0.00150199,-0.00101860,-0.00104668,-0.00061910,-0.00060211,-0.001
 52512,-0.00022906,0.00098036,0.00021894,-0.00007763,-0.00063375,-0.000
 33855,0.00013085,-0.00049969,0.00028073,-0.00027524,0.00020370,0.00046
 448,0.00038916,-0.00023295,0.00191391,0.00009305,0.00086787,0.00011078
 ,-0.00000872,0.00004457,0.00011264,-0.00024241,-0.00006583,-0.00114138
 ,-0.00329247,-0.00092091,0.00080676,-0.00334661,-0.00052742,-0.0003577
 0,-0.00001030,0.00134059,-0.00032556,0.00065241,-0.00009012,0.00032311
 ,-0.00013579,0.00109385,0.00034678,0.00016497,0.00028835,0.00024318,-0
 .00039531,-0.00014857,0.00000505,0.00000340,-0.00002007,-0.03143821,0.
 06619062,-0.00071551,-0.00303679,-0.00219118,-0.00002421,-0.00000358,-
 0.00001153,0.00161565,0.00110043,0.00046416,0.08878968,-0.05152783,-0.
 21851407,-0.00008650,0.00010162,-0.00001733,0.00176967,-0.00131912,0.0
 0004262,-0.00094276,-0.00097012,-0.00060027,-0.00029410,-0.00001043,-0
 .00016541,-0.00003134,-0.00001268,-0.00002392,0.00848761,0.00909186,-0
 .02416230,0.00027745,0.00008270,-0.00000656,0.00025225,0.00140465,0.00
 016593,0.00017031,0.00072808,-0.00030650,0.00024308,-0.00010238,-0.000
 32271,-0.00013763,0.00010357,0.00032465,0.00011593,0.00000762,-0.00000
 138,-0.00116384,0.00010070,-0.00003444,0.00009068,0.00054335,-0.000407
 23,-0.00178005,-0.00032721,-0.00207833,-0.00007284,-0.00009904,0.00000
 410,0.00012422,0.00007290,-0.00007270,-0.00052095,-0.00320761,-0.00088
 779,0.00091738,-0.00303010,-0.00067303,0.00032901,0.00039548,0.0002668
 9,-0.00011854,0.00029754,0.00002027,-0.00023522,0.00021294,-0.00001310
 ,0.00005643,0.00000031,0.00008994,0.00007644,-0.00015285,0.00002193,-0
 .00001768,-0.00001036,-0.00001195,-0.10063031,0.05466266,0.25966891,-0
 .00038005,0.00171205,-0.00065763,0.00013826,0.00007888,0.00023670,-0.0
 0236012,0.00070266,-0.00129810,-0.06724373,-0.06292646,-0.02687899,0.0
 0004158,0.00000563,0.00000917,0.00015436,0.00005768,0.00000995,-0.0001
 2842,-0.00001779,-0.00007689,-0.00055958,0.00028654,-0.00011694,-0.000
 05642,-0.00004437,-0.00008261,0.00286510,0.00108184,0.00108549,0.00034
 707,0.00025629,0.00008131,-0.00003034,0.00004498,0.00012399,0.00007080
 ,-0.00013928,0.00023435,0.00013960,0.00043003,-0.00073250,-0.00004917,
 0.00001030,-0.00005617,0.00000892,-0.00000184,0.00003310,-0.00012643,0
 .00011430,0.00004746,-0.00029904,-0.00039783,-0.00003514,0.00001423,0.
 00008111,0.00038583,0.00016118,0.00001792,0.00004404,0.00016231,-0.000
 16039,0.00017994,-0.00016286,0.00011317,0.00017473,0.00017252,0.000088
 54,0.00015553,0.00006320,0.00001401,-0.00007059,-0.00024334,0.00017607
 ,0.00017079,0.00001667,-0.00022923,-0.00006264,0.00001653,0.00002545,0
 .00005371,0.00009584,-0.00110861,0.00025343,-0.00002164,-0.00002277,-0
 .00000713,0.00565356,0.00825019,0.00476162,0.09304882,0.00031723,-0.00
 195822,0.00158846,0.00054695,0.00026563,0.00023425,-0.00089175,-0.0002
 2372,-0.00086714,-0.05950201,-0.18268140,-0.06613842,-0.00009481,0.000
 06686,0.00007609,0.00002791,-0.00016527,-0.00014216,0.00006834,-0.0001
 1833,0.00011180,0.00010602,0.00033335,-0.00002872,-0.00018363,-0.00005
 668,-0.00016413,-0.00717238,-0.02586975,-0.00305931,0.00013053,0.00012
 574,0.00003556,0.00002297,-0.00043248,0.00028796,-0.00011368,-0.000327
 40,0.00006188,-0.00067598,0.00092825,0.00034218,0.00019627,0.00011402,
 -0.00000050,-0.00012776,0.00009689,-0.00011318,0.00053686,-0.00036478,
 -0.00041792,0.00012431,-0.00014978,-0.00025175,0.00031963,-0.00145820,
 -0.00073424,0.00013959,0.00003242,0.00005691,-0.00024993,-0.00022481,0
 .00010912,-0.00006365,0.00007339,0.00019103,-0.00049095,-0.00018346,0.
 00017486,-0.00033348,-0.00012277,0.00014092,0.00028970,0.00023376,-0.0
 0042514,0.00022586,0.00032815,0.00027231,0.00009759,0.00012643,0.00008
 245,-0.00018931,-0.00024298,0.00004871,-0.00003169,-0.00000658,-0.0000
 0431,-0.00315301,-0.00784520,-0.00680792,0.07900630,0.21550705,0.00013
 841,0.00158488,-0.00034633,0.00010720,0.00003950,0.00009386,-0.0003140
 9,0.00047611,0.00001076,-0.02728128,-0.06442121,-0.07427457,-0.0000083
 3,-0.00000425,-0.00000588,-0.00013805,-0.00017925,-0.00004248,0.000091
 85,-0.00006664,0.00022465,-0.00033432,0.00016276,-0.00008990,-0.000065
 99,-0.00002743,-0.00005659,0.00616682,0.01431174,0.00690025,0.00019123
 ,-0.00000617,-0.00005712,0.00031108,0.00033868,-0.00011674,-0.00001208
 ,-0.00010597,-0.00014406,0.00019609,0.00004167,0.00027437,-0.00010528,
 0.00012487,0.00000573,0.00002241,0.00003486,-0.00001986,0.00011765,-0.
 00016194,0.00010312,-0.00028582,0.00002484,-0.00003987,-0.00016717,0.0
 0152936,-0.00033792,0.00005576,-0.00002559,0.00003858,0.00007989,0.000
 01513,0.00006378,-0.00000583,-0.00076940,-0.00012159,-0.00006097,-0.00
 058144,-0.00010375,-0.00007524,0.00007924,0.00005321,-0.00009546,0.000
 06686,0.00001257,0.00010913,0.00017094,-0.00011205,0.00004801,0.000040
 05,0.00001876,0.00003447,-0.00025082,0.00004286,-0.00002467,-0.0000118
 1,-0.00000710,-0.00900469,-0.02375562,-0.01342724,0.03776753,0.0760719
 6,0.08240767,-0.00281447,0.00085027,-0.00144327,0.00028529,0.00026707,
 -0.00020893,-0.00020649,0.00050826,0.00014208,-0.00010604,-0.00007459,
 -0.00004303,-0.00034997,-0.00009285,0.00047310,0.00039053,-0.00122445,
 -0.00006509,0.00040554,0.00100621,0.00001846,-0.00212811,0.00081862,0.
 00011240,-0.00003588,-0.00009841,0.00011623,-0.00047247,-0.00010079,0.
 00005854,-0.00186284,-0.00041483,0.00139119,0.00019549,-0.00007137,-0.
 00033995,0.00006950,-0.00042335,-0.00004623,0.00006316,-0.00027401,0.0
 0030789,0.00023673,0.00010913,0.00025031,-0.00038497,-0.00018951,-0.00
 037576,0.00012786,-0.00002975,0.00007325,0.00106954,0.00217463,0.00027
 528,-0.00022016,-0.00017934,-0.00053577,0.00009751,-0.00011109,0.00015
 472,-0.00013350,-0.00012297,0.00007569,-0.00304538,0.00249613,-0.00128
 626,-0.00314650,-0.00407365,-0.00036064,0.00053875,-0.02006748,0.00979
 161,-0.03673011,-0.01642794,0.00460220,0.00250214,0.01867742,-0.007353
 65,-0.00002288,0.00025530,-0.00009494,0.00031478,-0.00030320,0.0000176
 5,-0.00001008,-0.00001804,-0.00000635,-0.00023167,-0.00000521,-0.00002
 602,-0.00004483,0.00003997,0.00001191,0.04568092,0.00102340,-0.0031691
 3,0.00412959,-0.00017265,-0.00022876,0.00013657,-0.00039374,-0.0001555
 7,-0.00007889,-0.00014656,0.00069410,-0.00003481,-0.00015595,-0.000261
 43,-0.00066166,0.00057901,-0.00019385,-0.00010260,-0.00051250,-0.00027
 932,-0.00019174,0.00149995,-0.00022087,-0.00001927,0.00002594,0.000062
 34,-0.00011340,-0.00007413,0.00034030,-0.00027361,-0.00071598,0.000048
 72,0.00063559,0.00009444,-0.00017837,0.00079091,0.00045765,-0.00018956
 ,0.00055562,0.00042899,0.00045506,0.00028040,0.00006198,-0.00000254,-0
 .00019515,-0.00015293,-0.00012932,0.00003885,0.00028450,0.00038572,0.0
 0025688,-0.00066291,-0.00136148,-0.00016589,-0.00073785,0.00057183,0.0
 0115277,-0.00009802,0.00013978,-0.00016838,0.00005586,0.00012191,-0.00
 006738,0.00075690,-0.00102764,0.00103013,-0.00150626,-0.00153614,0.000
 33081,-0.00099345,-0.01234161,0.00431705,-0.01675323,-0.26832053,0.135
 75729,0.00090461,-0.01016021,0.00316744,0.00029213,-0.00008282,-0.0003
 6835,-0.00070260,0.00026483,0.00003467,-0.00001559,0.00000966,0.000001
 89,-0.00013683,0.00067249,0.00014824,0.00001176,0.00011964,0.00000745,
 0.01791818,0.29549653,0.00192473,-0.00419714,0.00131514,0.00001753,0.0
 0005230,0.00004455,-0.00070900,0.00069357,0.00012762,-0.00000402,0.000
 61117,-0.00017085,0.00052003,-0.00069864,-0.00061052,-0.00010296,0.000
 58495,0.00032568,-0.00002355,0.00086470,0.00044532,0.00064761,-0.00012
 344,0.00034328,-0.00006602,-0.00003336,-0.00007105,-0.00010861,0.00057
 370,-0.00077861,0.00161072,-0.00090302,-0.00125864,-0.00036482,-0.0003
 4466,0.00052755,0.00055815,-0.00006603,0.00045830,0.00055123,0.0005137
 4,0.00021527,0.00014185,-0.00032915,-0.00058305,-0.00016942,-0.0002597
 1,0.00010374,0.00021127,0.00031397,0.00002014,-0.00078094,-0.00117275,
 0.00051216,-0.00085132,0.00041261,0.00093894,-0.00005803,0.00000191,0.
 00002204,-0.00009661,0.00000122,-0.00000789,-0.00166410,0.00471508,0.0
 0032509,-0.00089410,0.00355870,0.00069619,-0.00015762,-0.00017393,-0.0
 0219392,0.00329860,0.13732319,-0.09623328,0.00281363,0.00841816,-0.006
 29501,-0.00005362,-0.00053446,-0.00085587,-0.00035729,0.00004097,-0.00
 005681,-0.00002206,-0.00001480,0.00000088,-0.00011501,0.00033641,-0.00
 001132,-0.00000043,0.00009259,-0.00001351,-0.00559703,-0.15036545,0.10
 271118,0.00236102,-0.00255946,0.00062377,-0.00107925,-0.00119051,0.000
 59740,-0.02691290,-0.00675722,-0.00311655,-0.20425488,-0.00192131,-0.0
 2112630,0.00011618,-0.00009026,-0.00006942,0.00018367,0.00015965,-0.00
 011361,-0.00001628,0.00007149,0.00025481,-0.00350554,-0.00070729,-0.00
 066693,0.00027796,0.00023935,-0.00018334,-0.01521571,0.00882474,-0.007
 59325,0.00099678,0.00109587,0.00009113,0.00006791,0.00027909,0.0003450
 0,-0.00075268,0.00035237,0.00019991,0.00010021,0.00222293,-0.00177993,
 -0.00005612,0.00007223,-0.00001652,0.00018362,0.00025609,0.00009654,0.
 00046823,-0.00009915,-0.00010355,-0.00112239,-0.00132420,-0.00013895,0
 .00134889,0.00131190,0.00132674,0.00037912,0.00014250,-0.00042803,0.00
 031338,-0.00069586,0.00018905,-0.00018721,-0.00001237,-0.00024275,-0.0
 0034254,0.00036394,-0.00002028,0.00014589,-0.00013604,-0.00014226,-0.0
 0007612,-0.00011334,-0.00030921,-0.00000402,0.00002233,-0.00010293,0.0
 0014694,0.00005817,0.00006024,0.00820859,-0.00645908,0.00108686,0.0000
 2376,-0.00010192,-0.00007759,-0.02173318,0.00337642,0.00229099,-0.0334
 1598,-0.00991547,-0.00934818,-0.00001018,0.00005506,-0.00004873,0.4785
 4797,-0.00137367,0.00538205,-0.00005335,-0.00055499,-0.00165034,0.0023
 8309,-0.02154025,-0.03012020,0.00208070,0.02235762,-0.05854604,0.00372
 024,-0.00010138,0.00014644,0.00020347,0.00004189,-0.00002631,0.0001853
 8,0.00014174,-0.00044703,-0.00045581,-0.00617602,-0.00000850,-0.001307
 41,0.00010840,0.00026181,-0.00068628,0.02800351,-0.00613527,0.00729712
 ,0.00334055,0.00218463,0.00033499,0.00050437,0.00065762,-0.00053750,0.
 00076844,-0.00092108,-0.00032402,0.00126107,-0.00399048,0.00199039,-0.
 00017623,0.00027373,-0.00033057,-0.00017515,-0.00019276,-0.00001336,0.
 00003658,-0.00022930,-0.00021224,-0.00102799,-0.00344105,-0.00040079,-
 0.00038800,0.00297348,0.00290946,0.00001600,-0.00108261,-0.00035547,-0
 .00122236,0.00181372,-0.00220014,0.00120146,-0.00142181,-0.00018293,-0
 .00022879,-0.00027788,0.00026406,-0.00015922,-0.00003458,-0.00032071,-
 0.00039729,0.00053806,-0.00004282,0.00038453,0.00012093,-0.00043455,0.
 00011156,0.00009854,0.00028203,0.00926978,0.00324903,-0.00055323,-0.00
 055555,0.00000680,-0.00057677,0.00970276,-0.00150193,-0.00055060,-0.02
 615149,0.00092995,-0.00599627,-0.00018967,0.00022423,0.00017171,-0.072
 49502,0.34979937,0.00020832,-0.00072552,-0.00090546,-0.00070357,-0.000
 19348,-0.00071335,-0.00492352,-0.00359108,-0.02120498,-0.02066234,0.00
 024930,-0.07785517,-0.00000077,-0.00000289,-0.00002208,-0.00017004,-0.
 00006196,-0.00000039,0.00024285,-0.00016592,-0.00066984,0.00131015,-0.
 00010997,0.00039258,0.00006153,0.00008250,0.00033641,-0.02356314,0.006
 10366,-0.00490481,-0.00087027,-0.00058402,0.00033829,-0.00017752,0.000
 12927,-0.00020579,-0.00085852,0.00107079,0.00047485,-0.00086818,0.0031
 2636,-0.00199708,0.00007238,-0.00003390,-0.00000639,0.00011361,0.00036
 510,0.00001709,-0.00007337,-0.00001889,-0.00008467,0.00017484,0.000722
 78,0.00016861,0.00050401,0.00062164,0.00106884,0.00036471,0.00068117,0
 .00020645,0.00030621,-0.00207957,0.00144648,0.00061534,-0.00039341,-0.
 00014001,0.00014912,-0.00037282,-0.00046963,-0.00010008,0.00018339,0.0
 0000351,-0.00012976,-0.00004903,0.00001186,0.00010854,0.00006755,0.000
 13564,-0.00017980,-0.00010174,0.00002184,0.00005315,0.00184431,0.00679
 157,0.00020017,-0.00007471,0.00019575,0.02676016,-0.00223645,0.0008390
 6,-0.01475258,-0.00164548,-0.00250654,-0.00003016,-0.00004755,0.000048
 63,0.00317883,-0.02585601,0.50567519,0.00039828,-0.00042832,0.00039380
 ,0.00033878,-0.00032592,0.00024249,0.00088063,0.00000001,0.00152279,-0
 .01334752,0.01880856,-0.02768479,0.00002467,-0.00001547,-0.00000906,-0
 .00000521,0.00003887,-0.00003055,-0.00026200,0.00080695,0.00000950,-0.
 00043642,0.00012016,-0.00008103,-0.00010530,0.00013373,-0.00014736,-0.
 00545211,0.00056507,-0.00167160,0.00022784,0.00024179,0.00001604,-0.00
 003183,0.00012125,0.00001034,-0.00034478,0.00030693,0.00017629,-0.0002
 1436,0.00124359,-0.00096180,-0.00001250,0.00000992,0.00001050,0.000043
 24,0.00013746,0.00001915,0.00002167,0.00000906,-0.00001403,-0.00017914
 ,-0.00022425,-0.00004343,-0.00010060,-0.00041270,0.00021053,0.00002895
 ,-0.00013975,-0.00003134,-0.00088994,-0.00019938,-0.00014262,0.0002601
 9,-0.00046382,-0.00002853,-0.00004693,-0.00005241,-0.00005046,0.000010
 70,-0.00006439,0.00002251,-0.00001992,0.00004464,0.00004441,-0.0000448
 3,0.00007234,-0.00008698,0.00002594,0.00002021,0.00000159,0.00000008,-
 0.00044729,-0.00034167,-0.00003981,0.00001721,-0.00004541,0.00031206,0
 .00071715,-0.00244183,-0.00037685,0.00040609,-0.00032681,-0.00000733,0
 .00000181,0.00002796,-0.07547197,0.01304314,-0.01338046,0.53294977,-0.
 00069711,0.00070813,0.00028153,0.00000211,0.00015476,-0.00049438,0.002
 67518,-0.00062527,0.00501282,0.00373918,-0.00498912,0.00372365,-0.0000
 1561,0.00000124,0.00000168,0.00007599,-0.00001908,0.00006018,0.0006280
 9,-0.00134585,-0.00019973,-0.00031227,-0.00010649,-0.00005872,-0.00006
 444,-0.00009203,0.00004241,0.00253435,0.00009210,0.00018374,0.00031662
 ,0.00031780,-0.00009844,0.00005788,-0.00014394,-0.00014833,0.00013557,
 -0.00010068,-0.00017901,0.00005334,-0.00030061,0.00006615,-0.00000532,
 0.00005908,-0.00003100,-0.00007385,0.00000102,0.00004563,-0.00004743,-
 0.00007213,0.00004616,0.00014499,-0.00050156,-0.00023922,-0.00022792,0
 .00007538,0.00035780,-0.00025436,-0.00017472,0.00004689,-0.00093254,-0
 .00146199,-0.00014495,-0.00039291,0.00028609,-0.00006914,-0.00018795,-
 0.00008233,0.00021018,0.00002499,0.00010442,0.00003283,-0.00009593,0.0
 0001714,0.00009155,0.00024695,-0.00000263,0.00014506,-0.00001593,-0.00
 005618,0.00002201,-0.00050979,-0.00049085,-0.00095528,-0.00003688,0.00
 003138,-0.00000057,0.00023075,0.00000797,0.00091337,-0.00155059,0.0006
 9386,-0.00113114,-0.00000683,0.00001805,0.00001261,0.02059199,-0.10954
 647,0.07746361,-0.00748882,0.46546688,0.00031448,0.00035673,-0.0003803
 1,0.00058278,-0.00004483,0.00112229,-0.00079255,-0.00015948,-0.0001567
 4,-0.00641461,0.00667883,-0.00961666,0.00000618,0.00000158,0.00004073,
 0.00011619,0.00003724,0.00005181,0.00015967,-0.00140143,-0.00006608,-0
 .00040395,0.00047111,-0.00003705,-0.00011533,0.00005112,-0.00047288,-0
 .00060672,-0.00049025,0.00041352,0.00020137,-0.00001529,-0.00005456,0.
 00008193,0.00013943,0.00004369,-0.00014751,0.00009874,0.00009338,0.000
 00997,0.00018772,-0.00009199,-0.00001995,-0.00001811,-0.00000171,0.000
 04523,0.00000445,-0.00002989,0.00000915,0.00004438,0.00000111,-0.00032
 475,0.00034287,0.00021027,-0.00016590,-0.00048032,0.00031773,0.0002467
 8,-0.00002570,-0.00002685,-0.00036351,-0.00010240,-0.00038637,-0.00024
 012,0.00055817,-0.00036401,0.00025912,-0.00004559,-0.00019451,0.000058
 12,-0.00019438,-0.00006233,0.00001567,-0.00002416,-0.00008090,-0.00007
 726,-0.00021014,-0.00032411,0.00002296,0.00001885,0.00003023,0.0000328
 4,-0.00038215,0.00009556,-0.00007063,-0.00000577,-0.00005372,0.0018300
 6,-0.00055724,0.00145919,0.00055975,-0.00001772,0.00069224,0.00000551,
 0.00002315,0.00000461,-0.02055254,0.05741798,-0.16458156,-0.01145881,0
 .03827915,0.48780773,0.00014259,-0.00008649,-0.00010117,0.00048037,0.0
 0004682,0.00004162,0.00124533,-0.00197256,-0.00152023,-0.02468135,0.01
 470232,0.02649930,0.00001026,-0.00003639,0.00001728,0.00005527,0.00005
 781,-0.00003178,-0.00001822,0.00008116,0.00005197,-0.00040168,0.000235
 41,-0.00009503,-0.00019047,0.00000305,-0.00010856,0.00037709,-0.000182
 32,0.00047534,0.00012419,0.00018554,0.00008161,-0.00005975,0.00001537,
 0.00007434,-0.00005169,-0.00005090,-0.00002015,0.00003976,0.00037988,-
 0.00024996,-0.00000841,0.00003197,-0.00001578,-0.00000758,0.00000750,-
 0.00000823,0.00004667,0.00002164,0.00001554,-0.00015478,0.00006789,-0.
 00000865,0.00003724,0.00009523,-0.00018196,0.00003668,-0.00015893,0.00
 003256,-0.00034730,-0.00004044,0.00043507,-0.00002218,-0.00000847,0.00
 002113,-0.00023795,0.00029532,0.00010569,0.00006530,-0.00006512,0.0000
 2136,-0.00006540,-0.00001444,0.00004601,0.00000918,0.00007107,-0.00006
 019,0.00001428,-0.00002374,0.00002231,-0.00005783,-0.00048375,0.000500
 02,-0.00006836,-0.00000234,-0.00008036,-0.00687295,0.00163003,0.000381
 91,0.00127345,0.00159885,0.00145422,0.00000004,0.00002287,0.00001959,-
 0.09175442,0.02507253,0.03582231,0.00104005,-0.00234475,-0.00133225,0.
 51263003,-0.00043754,0.00009796,-0.00013069,-0.00086473,-0.00060195,-0
 .00033114,0.00127619,-0.00397294,-0.00356881,0.00235569,-0.00434607,-0
 .00403975,-0.00004279,0.00000098,-0.00002634,-0.00006929,-0.00007615,0
 .00003716,0.00005510,0.00001618,-0.00016630,0.00022581,-0.00034150,0.0
 0003851,0.00028121,0.00020679,0.00029068,-0.00048285,-0.00036328,-0.00
 003200,-0.00018011,-0.00006857,-0.00004325,0.00017573,-0.00003880,-0.0
 0023670,0.00010876,-0.00015282,-0.00009949,-0.00024825,0.00016292,-0.0
 0018022,0.00002314,-0.00005270,-0.00008192,0.00000174,0.00001548,0.000
 00842,-0.00004514,-0.00004356,-0.00000524,0.00026732,-0.00012165,-0.00
 006145,0.00146187,-0.00141415,0.00065437,-0.00014433,-0.00004962,-0.00
 014252,0.00000883,0.00035905,-0.00077191,0.00012252,0.00025515,0.00040
 486,-0.00009233,0.00014353,0.00020636,0.00002943,0.00013779,0.00002682
 ,-0.00014837,0.00005714,0.00012231,0.00016866,-0.00019968,0.00011278,0
 .00007672,-0.00000140,0.00001660,-0.00021817,0.00019510,0.00063646,0.0
 0007108,-0.00001637,-0.00000092,0.00059551,0.00034976,0.00032961,-0.00
 216443,0.00238360,0.00151247,-0.00003976,0.00006679,0.00000422,0.04106
 620,-0.09430382,-0.06037309,-0.00621897,0.00259408,0.01360431,-0.00137
 872,0.46246785,-0.00003367,0.00007248,0.00008843,-0.00076508,-0.000373
 99,-0.00055327,0.00063587,-0.00025401,0.00098091,0.00320521,-0.0008753
 9,0.00068397,0.00000105,-0.00002054,-0.00003945,0.00003024,-0.00003155
 ,-0.00002771,0.00004038,0.00003342,-0.00019533,0.00043387,-0.00037824,
 0.00019242,0.00028828,0.00013975,0.00029881,-0.00135994,0.00004081,-0.
 00010267,-0.00015970,0.00000603,-0.00032832,0.00007098,-0.00000924,-0.
 00022513,-0.00012296,0.00007958,-0.00007917,-0.00023360,0.00007159,-0.
 00009808,-0.00002724,0.00007300,0.00000004,-0.00002641,0.00006148,0.00
 005526,-0.00002643,-0.00000009,0.00006241,0.00028645,0.00003645,0.0000
 2841,0.00101170,-0.00083800,0.00033069,-0.00012697,0.00005840,-0.00008
 355,0.00005934,0.00049494,-0.00042352,-0.00000553,0.00014444,0.0002953
 6,-0.00004449,0.00010697,0.00016034,0.00006230,0.00008153,0.00000999,-
 0.00007306,0.00004371,0.00005990,0.00001294,-0.00008993,-0.00001386,0.
 00006204,-0.00001754,-0.00000933,0.00012220,0.00046593,-0.00018058,0.0
 0010116,0.00001444,0.00009076,-0.00072500,-0.00014793,0.00047560,-0.00
 170024,0.00049851,0.00062741,0.00000015,-0.00000328,-0.00002250,0.0439
 8068,-0.04237609,-0.15455212,0.01290745,-0.01057047,-0.03403965,0.0261
 9059,-0.04446243,0.48280793,-0.00003156,0.00007571,-0.00005305,0.00035
 626,0.00038867,-0.00001376,-0.00012566,-0.00005693,-0.00024838,0.00124
 723,0.00121935,0.00020365,0.00001064,-0.00000281,0.00001543,0.00002751
 ,0.00002821,0.00001403,-0.00005981,-0.00020379,0.00001158,-0.00006472,
 0.00012220,-0.00003214,-0.00022541,-0.00012408,-0.00011055,0.00002857,
 -0.00002677,-0.00005647,-0.00001882,0.00000597,0.00000612,0.00002791,-
 0.00003463,-0.00000997,-0.00000333,-0.00001109,-0.00000561,-0.00001648
 ,-0.00001194,0.00000051,0.00000215,0.00000022,-0.00001480,-0.00000449,
 -0.00001171,-0.00000603,-0.00000221,0.00001096,0.00000175,-0.00000467,
 0.00003669,-0.00001951,0.00011854,0.00003349,0.00004838,-0.00000627,-0
 .00002683,0.00007763,-0.00012396,-0.00048547,0.00014807,0.00004982,0.0
 0008104,0.00005958,-0.00003771,0.00003683,-0.00000869,-0.00002208,0.00
 000377,0.00003487,-0.00002825,0.00002665,-0.00000214,-0.00002253,0.000
 02890,-0.00002834,-0.00000648,0.00001467,0.00001335,0.00001313,-0.0000
 4236,0.00004531,-0.00001472,-0.00002120,0.00003085,-0.00007585,0.00010
 456,0.00011870,0.00037294,-0.00033153,0.00007601,-0.00000384,0.0000139
 0,0.00002049,0.00338370,0.00388157,0.00247976,-0.06699328,-0.06097553,
 -0.00992211,0.00029070,-0.00060859,-0.00017741,0.07078304,0.00027563,0
 .00058673,-0.00003963,0.00075054,0.00035104,0.00035506,0.00081741,0.00
 078779,0.00100200,-0.00106043,0.00077916,-0.00077415,0.00000596,0.0000
 0998,0.00003679,0.00008442,-0.00002855,0.00000604,-0.00009123,-0.00004
 766,0.00011913,-0.00060205,0.00055524,-0.00015801,-0.00033533,-0.00011
 769,-0.00032225,0.00023083,0.00009240,0.00000304,0.00044350,0.00010044
 ,0.00006221,0.00001247,0.00014417,0.00000454,-0.00002532,-0.00004888,-
 0.00003104,0.00000281,0.00002703,-0.00004895,0.00000166,0.00004042,-0.
 00003503,0.00000631,0.00001319,-0.00002617,0.00007573,-0.00003947,-0.0
 0002379,-0.00025289,-0.00007617,-0.00003841,-0.00015417,-0.00000146,0.
 00021913,0.00009664,-0.00014285,0.00009810,-0.00033320,0.00005019,0.00
 002806,-0.00014069,-0.00016330,-0.00006766,-0.00008577,-0.00009874,0.0
 0002249,0.00000460,-0.00001478,-0.00000409,-0.00009932,0.00007759,-0.0
 0002758,0.00007645,0.00005067,-0.00008209,0.00004811,0.00007390,0.0000
 5320,-0.00010090,-0.00058530,-0.00021930,-0.00010022,-0.00003423,-0.00
 002822,-0.00002880,-0.00041284,-0.00010959,0.00063774,0.00037314,0.000
 59177,0.00000090,0.00002743,0.00001789,-0.00308346,-0.03375527,0.01735
 147,-0.06256330,-0.22344819,-0.03128839,0.00065422,0.00176840,-0.00140
 804,0.07319339,0.27391198,-0.00010866,-0.00015253,-0.00001356,0.000293
 69,0.00033586,-0.00022354,-0.00074006,-0.00022940,-0.00158218,0.001072
 89,0.00052458,0.00075620,0.00001278,-0.00001842,0.00000340,-0.00002537
 ,-0.00002284,-0.00000271,-0.00004623,0.00022840,0.00013683,0.00017621,
 -0.00008528,0.00000147,-0.00018570,-0.00012316,-0.00003669,-0.00027250
 ,-0.00003486,-0.00012076,-0.00012874,-0.00011286,-0.00010678,0.0000382
 9,-0.00004349,0.00002200,0.00004302,-0.00001481,0.00001172,-0.00002091
 ,-0.00000584,-0.00000453,0.00000897,-0.00001251,0.00001039,0.00000637,
 -0.00000571,0.00000361,0.00000597,0.00000567,-0.00000365,0.00008512,0.
 00020515,-0.00013620,0.00007905,-0.00000268,0.00027079,-0.00006664,0.0
 0001334,0.00008322,-0.00020906,-0.00059289,0.00032248,-0.00008007,-0.0
 0000204,-0.00007165,-0.00008673,-0.00008866,0.00002200,-0.00000463,0.0
 0003011,0.00005672,-0.00002564,0.00000927,0.00003406,0.00012344,-0.000
 00819,0.00013333,0.00002358,0.00002989,-0.00000619,0.00014121,0.000325
 74,0.00033926,0.00003268,-0.00002090,0.00005463,-0.00007044,-0.0001813
 4,-0.00019894,0.00020819,-0.00034737,0.00000754,0.00001555,-0.00000718
 ,0.00001733,0.00723415,0.03153237,-0.00662210,-0.00815215,-0.02682484,
 -0.04739000,0.00010610,0.00346781,0.00169578,0.00955859,0.02263198,0.0
 5651064,0.00004963,-0.00052769,0.00035555,-0.00068124,-0.00050643,0.00
 027031,-0.00006664,-0.00038610,0.00083341,0.00081620,0.00000785,-0.002
 36926,0.00000907,-0.00001981,-0.00001292,-0.00021955,0.00001345,-0.000
 04126,0.00104097,0.00051974,0.00010926,0.00010551,0.00001255,0.0000838
 1,0.00030198,0.00016751,0.00000433,0.00018086,0.00002019,-0.00007470,-
 0.00027998,-0.00000518,-0.00002470,0.00002375,-0.00009957,0.00000889,-
 0.00007653,-0.00008891,0.00006835,0.00001050,0.00007164,0.00004621,0.0
 0001287,-0.00002541,-0.00003779,-0.00001812,-0.00004923,0.00001023,-0.
 00001630,0.00004378,-0.00002463,0.00012706,0.00007162,0.00014245,0.000
 06060,-0.00009779,-0.00007208,0.00006315,0.00009091,-0.00015495,0.0004
 9700,0.00056547,-0.00065342,-0.00014080,0.00043453,0.00013308,0.000025
 47,0.00027813,-0.00001203,-0.00009524,-0.00002914,-0.00010629,0.000081
 94,-0.00010378,-0.00002914,0.00000178,-0.00007670,-0.00003797,-0.00005
 790,-0.00007962,-0.00001888,0.00006655,-0.00008760,0.00003685,0.000011
 15,0.00002108,-0.00005425,-0.00081058,0.00057386,-0.00105027,-0.000168
 97,-0.00006686,0.00008808,-0.00001557,-0.00001177,0.00003523,0.0008204
 8,-0.00189189,-0.00123705,-0.09843760,0.04883285,0.08911200,0.00044396
 ,0.00005042,-0.00033334,0.00480312,-0.00453267,-0.00666027,0.11071973,
 -0.00081282,0.00084836,-0.00067811,-0.00036319,-0.00013846,0.00000716,
 -0.00011562,0.00001823,0.00062390,-0.00049020,0.00037219,0.00076791,-0
 .00006332,0.00008010,-0.00003992,0.00005681,0.00003177,0.00003145,0.00
 043234,-0.00240691,-0.00087772,-0.00008350,-0.00000204,0.00003025,0.00
 012763,0.00001843,0.00008200,-0.00021571,-0.00011788,-0.00003490,0.000
 23888,0.00013742,-0.00015569,-0.00012749,0.00009049,-0.00005130,0.0000
 0257,0.00017787,-0.00010206,-0.00010564,-0.00002869,-0.00005579,-0.000
 04133,0.00003136,0.00000254,0.00001717,0.00004662,-0.00000707,-0.00008
 861,-0.00003591,-0.00001563,-0.00002222,0.00000615,-0.00001585,0.00021
 899,-0.00016843,0.00001203,0.00005825,0.00006236,-0.00002146,0.0002398
 8,0.00000064,-0.00007490,0.00078623,-0.00130248,0.00027142,0.00026190,
 0.00005567,0.00006997,-0.00008611,0.00008879,0.00002852,-0.00006481,0.
 00012160,0.00002282,-0.00020459,-0.00011637,0.00004125,-0.00001732,-0.
 00004047,0.00003218,0.00000613,-0.00010455,-0.00005037,0.00001169,0.00
 000981,0.00000250,0.00050491,0.00044542,0.00055120,0.00008762,-0.00024
 565,-0.00020806,-0.00006171,0.00006408,-0.00004843,-0.00718017,0.00625
 633,0.01264718,0.04940687,-0.08696415,-0.08029744,0.00078793,-0.000579
 88,0.00250543,0.01433920,-0.01745654,-0.02388056,-0.05798385,0.0994847
 3,0.00024021,-0.00079916,0.00026895,0.00052195,0.00038137,0.00001335,0
 .00074992,0.00084821,-0.00091741,0.00133058,-0.00080315,0.00025215,0.0
 0004185,-0.00003906,-0.00001228,-0.00013636,0.00004059,0.00003449,0.00
 002432,0.00016231,0.00115586,0.00009114,-0.00015434,-0.00005379,-0.000
 28872,-0.00013978,-0.00017445,0.00031923,0.00004640,0.00016944,-0.0001
 1231,-0.00020173,-0.00003933,0.00002329,-0.00012903,0.00008192,0.00015
 555,-0.00007531,0.00004112,0.00002741,-0.00000446,0.00006236,0.0000069
 8,-0.00005040,0.00005542,0.00003126,-0.00003403,0.00004452,-0.00004901
 ,0.00002151,-0.00001005,0.00004286,0.00022096,-0.00017337,-0.00021473,
 0.00023287,0.00028028,-0.00009223,-0.00008519,0.00006078,-0.00039276,-
 0.00031957,0.00021684,0.00016641,-0.00039334,-0.00037539,-0.00017714,0
 .00003703,-0.00009728,0.00005373,0.00002648,0.00000328,0.00001187,-0.0
 0012216,0.00004902,0.00004083,0.00021955,-0.00001511,-0.00003041,-0.00
 001310,-0.00001218,-0.00008041,0.00015012,0.00008313,-0.00003022,-0.00
 002506,0.00001887,-0.00141889,0.00056095,-0.00011777,0.00011672,0.0000
 4498,0.00000347,0.00002148,-0.00006439,-0.00000720,0.01266111,-0.00839
 706,-0.02931100,0.08587167,-0.07707487,-0.18006991,-0.00139147,0.00349
 627,-0.00626144,0.00339188,-0.00633583,-0.00456141,-0.10218122,0.08824
 082,0.21711230,0.00037270,-0.00012499,0.00007955,0.00048767,0.00029976
 ,-0.00001007,0.00002858,0.00173141,-0.00084143,-0.00022420,0.00142506,
 -0.00225200,0.00003105,-0.00002177,0.00000007,0.00007694,0.00000562,-0
 .00002131,-0.00034302,0.00006914,0.00008781,-0.00005828,-0.00007446,-0
 .00003348,-0.00038698,-0.00014595,-0.00016047,-0.00054843,0.00001516,-
 0.00004123,0.00018626,-0.00001615,-0.00000727,-0.00002621,0.00013603,0
 .00005090,-0.00001296,-0.00003523,0.00009221,0.00007691,0.00004498,-0.
 00010121,-0.00000097,-0.00000876,0.00001525,0.00002901,0.00001096,0.00
 000573,0.00007390,0.00001227,-0.00000019,-0.00027493,-0.00027677,-0.00
 007975,0.00001902,0.00004522,0.00023451,-0.00004058,-0.00002834,0.0001
 1646,-0.00027417,-0.00105296,0.00028731,-0.00011412,0.00006459,-0.0001
 7026,0.00000048,-0.00006776,-0.00007753,0.00009443,-0.00011831,-0.0000
 0205,-0.00002646,0.00000363,0.00002502,-0.00001787,-0.00000127,-0.0000
 7335,0.00001080,0.00003845,-0.00001306,-0.00010100,0.00011361,-0.00009
 680,-0.00002582,-0.00003988,0.00004044,0.00040812,-0.00018896,-0.00037
 570,0.00031444,0.00014534,0.00020678,0.00001546,-0.00001573,0.00000048
 ,-0.00984306,0.00400798,-0.00560247,-0.27411975,-0.00533971,-0.0421850
 7,0.00099803,-0.00052575,0.00064263,-0.01337931,-0.00385793,-0.0016945
 4,-0.01967972,0.00074043,0.00034948,0.31603631,-0.00060799,-0.00000788
 ,-0.00008614,-0.00134927,-0.00150517,-0.00014895,0.00124837,-0.0005198
 0,0.00092758,0.00132236,-0.00086474,0.00366350,-0.00002475,0.00001782,
 -0.00001165,-0.00005847,-0.00002424,0.00002301,0.00020553,0.00012289,-
 0.00004508,0.00033708,-0.00002220,0.00010456,0.00041992,0.00039098,0.0
 0030655,0.00102039,-0.00000415,0.00018258,-0.00039059,-0.00003904,-0.0
 0010692,0.00001476,-0.00007980,-0.00006927,0.00002690,-0.00001398,-0.0
 0007505,-0.00008858,-0.00014265,0.00021570,-0.00000157,0.00001057,-0.0
 0001595,-0.00002438,-0.00001681,0.00000761,-0.00006411,-0.00001144,-0.
 00000048,0.00023120,0.00019798,0.00001230,0.00005272,0.00003251,-0.000
 17219,0.00019742,0.00010481,-0.00026845,0.00005040,0.00094603,-0.00028
 845,0.00008856,-0.00013007,0.00006605,-0.00001160,-0.00002476,0.000016
 67,-0.00007190,0.00006802,-0.00000045,0.00000203,0.00000582,0.00000423
 ,0.00006506,-0.00000563,0.00011671,0.00001300,-0.00003860,0.00000898,-
 0.00004241,0.00008457,0.00004823,0.00001663,0.00008234,-0.00006660,-0.
 00030374,0.00003682,0.00013035,0.00047817,-0.00002181,0.00023264,-0.00
 001125,0.00001684,0.00000420,0.01842429,-0.00180917,0.00579115,-0.0084
 3843,-0.04242297,-0.00260695,0.00021906,0.00024271,-0.00051441,-0.0306
 4615,-0.00390487,-0.00525829,0.01492382,0.00053169,0.00069606,0.003231
 90,0.04861743,0.00035851,-0.00011295,0.00005391,0.00009357,0.00006374,
 0.00054893,-0.00044706,0.00077157,0.00000753,-0.00126193,0.00229803,-0
 .00446768,0.00000342,-0.00001120,-0.00000834,-0.00004568,0.00000922,-0
 .00003259,0.00017312,0.00016586,0.00009831,-0.00028475,-0.00001727,-0.
 00004161,-0.00009982,0.00001595,-0.00028004,-0.00149171,0.00017624,-0.
 00015981,0.00025453,0.00002461,-0.00004855,-0.00000455,0.00001353,0.00
 004279,-0.00004100,0.00004112,0.00005410,-0.00000853,0.00030575,-0.000
 24698,0.00000183,-0.00001010,0.00001860,0.00002466,0.00002583,0.000005
 38,0.00002883,0.00000132,-0.00001845,-0.00019342,0.00004614,-0.0000715
 9,-0.00000356,-0.00015599,0.00030123,-0.00000918,0.00005215,-0.0000436
 5,0.00010707,0.00003587,-0.00036604,-0.00007472,-0.00011238,-0.0000750
 5,0.00000434,0.00004637,0.00001186,-0.00000689,-0.00002077,-0.00002050
 ,0.00001093,-0.00002038,0.00003305,0.00002536,0.00000241,-0.00004714,-
 0.00001719,-0.00002178,0.00000030,0.00009131,-0.00010914,-0.00006825,-
 0.00001613,-0.00005867,-0.00002954,0.00042882,-0.00001436,0.00004502,-
 0.00019931,-0.00006957,0.00011048,0.00000207,-0.00001388,-0.00000637,-
 0.02733255,0.00356083,-0.00951326,-0.03885782,-0.00218325,-0.05067802,
 -0.00143626,0.00030479,0.00041911,-0.00593017,-0.00200699,0.00034398,0
 .02424190,-0.00037424,0.00306773,0.05125997,-0.00277933,0.06177637,0.0
 0013863,0.00004183,-0.00017747,0.00025995,0.00022695,0.00016647,-0.000
 06049,-0.00017570,0.00065433,0.00268269,0.00218310,0.00114667,0.000006
 55,0.00000342,0.00000034,0.00001878,0.00000910,0.00000916,-0.00000749,
 -0.00003395,0.00000079,-0.00007458,0.00015444,-0.00000086,-0.00012780,
 -0.00005612,-0.00014399,-0.00012720,-0.00005254,-0.00008426,0.00000072
 ,-0.00005762,-0.00002315,-0.00002825,0.00003580,0.00000832,-0.00001103
 ,0.00000594,0.00000137,-0.00005793,-0.00000903,0.00000436,0.00000615,-
 0.00001179,-0.00001076,0.00001112,-0.00001489,-0.00001377,0.00000955,0
 .00000294,-0.00000585,-0.00011139,0.00002928,0.00001498,0.00019464,0.0
 0002329,0.00015701,0.00005169,-0.00003630,0.00004575,-0.00023195,-0.00
 002320,-0.00025568,-0.00001649,0.00001934,0.00004605,0.00000387,0.0000
 0450,0.00000755,-0.00000499,0.00002133,0.00004749,-0.00006622,0.000020
 48,-0.00000383,0.00002471,-0.00006459,-0.00003117,0.00002405,0.0000197
 8,0.00002272,0.00003295,-0.00008528,-0.00022727,0.00000168,-0.00003545
 ,0.00000568,0.00007907,-0.00015263,-0.00005935,0.00000030,-0.00075028,
 -0.00023541,-0.00000248,0.00002104,0.00000246,0.00407594,0.01232342,0.
 00186161,0.00041984,0.00054918,-0.00022831,-0.07072928,-0.06424071,-0.
 00369451,0.00006411,-0.00000649,-0.00047512,-0.00009371,0.00010075,-0.
 00007905,-0.00034668,-0.00029675,0.00001766,0.07557219,0.00038539,0.00
 050511,-0.00010726,0.00051371,0.00021109,0.00026060,0.00029509,-0.0003
 3413,-0.00189771,-0.00147379,0.00046154,0.00013810,0.00000095,0.000009
 13,0.00003447,0.00001815,-0.00000939,-0.00000286,0.00000635,-0.0000593
 8,0.00009947,-0.00014526,0.00049073,-0.00004263,-0.00023326,-0.0000809
 1,-0.00022753,-0.00005328,-0.00015235,0.00026228,0.00010780,-0.0000753
 0,0.00005033,-0.00004875,0.00022108,-0.00003447,-0.00005145,-0.0000883
 0,0.00000014,0.00001311,0.00006444,-0.00010037,0.00001014,0.00002939,-
 0.00005249,0.00002519,0.00002034,-0.00004142,0.00006138,-0.00001416,-0
 .00006419,-0.00013424,-0.00004543,0.00010264,-0.00003623,-0.00021079,0
 .00034609,0.00015482,-0.00007224,0.00012249,-0.00029608,-0.00010546,-0
 .00009853,-0.00003491,-0.00014881,-0.00008272,-0.00004132,-0.00001050,
 0.00002359,0.00004724,-0.00002227,-0.00005121,-0.00009960,0.00005293,0
 .00002256,0.00003868,0.00003410,-0.00017261,0.00006409,0.00006166,0.00
 006087,-0.00020443,-0.00021474,0.00022879,-0.00004624,-0.00000604,-0.0
 0002056,-0.00028698,0.00030519,0.00035509,0.00138969,0.00047373,0.0001
 6706,-0.00000525,0.00003502,0.00001339,0.00373387,-0.02901158,-0.01935
 081,0.00014376,0.00184412,0.00145657,-0.06758628,-0.21866829,-0.006679
 26,0.00019106,0.00075575,-0.00095335,-0.00019154,0.00026643,0.00052606
 ,-0.00000646,-0.00026505,-0.00003971,0.07497352,0.26725210,-0.00000329
 ,-0.00002106,-0.00002889,0.00010844,-0.00000437,0.00008462,0.00069601,
 -0.00046093,-0.00115661,-0.00108741,0.00005405,0.00011765,-0.00000713,
 0.00000695,0.00000967,-0.00002128,-0.00001692,0.00000658,0.00002807,-0
 .00003551,0.00004791,-0.00017008,0.00014340,-0.00009754,-0.00004416,-0
 .00000973,-0.00001928,0.00029312,0.00020001,-0.00005928,0.00010271,0.0
 0010149,-0.00001184,-0.00008757,-0.00000826,0.00005705,0.00000307,0.00
 004701,-0.00000754,0.00006358,0.00003473,-0.00001903,-0.00000937,-0.00
 000891,0.00000584,-0.00001997,-0.00000039,-0.00000418,-0.00001009,-0.0
 0001003,-0.00000615,-0.00001916,0.00007204,-0.00013108,-0.00029800,0.0
 0052838,0.00029182,0.00005232,-0.00004974,0.00001557,-0.00001179,0.000
 15051,0.00009152,0.00004685,-0.00005162,-0.00005484,-0.00002713,0.0000
 0450,-0.00000527,-0.00000232,0.00001052,0.00000314,-0.00000970,-0.0000
 0608,-0.00001388,0.00003228,0.00003516,-0.00000914,0.00000680,0.000016
 94,0.00001008,-0.00022618,-0.00006425,0.00041677,-0.00001237,0.0000165
 0,-0.00000952,-0.00030629,0.00014872,0.00013391,0.00010489,0.00040547,
 0.00038398,-0.00000172,-0.00000091,-0.00000348,-0.00244137,-0.03095939
 ,-0.01341097,-0.00035893,-0.00368426,0.00152928,-0.00556157,-0.0102605
 8,-0.04478990,0.00046898,0.00106519,0.00002240,-0.00007515,0.00021536,
 0.00047514,0.00003217,0.00008921,-0.00009596,0.00380203,0.02307027,0.0
 5459422,0.00051712,-0.00053213,-0.00040164,0.00040234,0.00033703,0.000
 27941,-0.00068186,0.00335347,0.00077197,-0.00183833,0.00149925,0.00396
 801,-0.00000590,-0.00001981,-0.00000374,0.00004295,-0.00000512,-0.0000
 4667,0.00001137,-0.00001937,-0.00000278,-0.00002303,-0.00003339,0.0000
 1654,-0.00018844,-0.00008480,-0.00012062,-0.00022962,-0.00022953,0.000
 28968,0.00019470,-0.00020313,0.00014591,-0.00007667,0.00018155,0.00008
 772,0.00008522,-0.00015207,0.00004967,0.00002898,0.00014280,-0.0000195
 0,0.00002646,-0.00005551,0.00001332,0.00004509,-0.00002887,-0.00001739
 ,0.00013056,-0.00000060,-0.00002985,-0.00039487,-0.00007825,-0.0000287
 4,0.00016484,0.00007055,0.00014327,0.00015500,0.00026456,0.00011806,-0
 .00005972,-0.00038637,-0.00019308,0.00000598,-0.00002914,-0.00020260,-
 0.00004605,0.00005141,-0.00007485,0.00008650,-0.00008040,-0.00001858,0
 .00004998,-0.00004290,0.00010843,-0.00009688,0.00003084,-0.00010828,-0
 .00002847,-0.00003600,-0.00002290,-0.00018763,0.00044098,-0.00000296,-
 0.00003238,-0.00004527,0.00002962,-0.00096483,0.00028854,-0.00012139,0
 .00077768,0.00037409,0.00022008,0.00000980,-0.00000653,0.00001388,-0.0
 1861314,0.00439906,0.00189319,0.00070557,-0.00026408,-0.00056447,-0.26
 564123,0.00007438,-0.03171768,-0.00027745,-0.00000232,-0.00011113,0.00
 023482,-0.00004195,-0.00038111,0.00045156,-0.00008472,0.00042092,-0.01
 477605,-0.00393068,-0.00356746,0.30975833,-0.00058312,-0.00011080,-0.0
 0014313,-0.00003593,-0.00012825,-0.00048457,0.00143566,-0.00116147,-0.
 00043906,0.00178481,-0.00019956,-0.00269375,-0.00001377,0.00000951,0.0
 0000575,-0.00005415,-0.00002995,0.00003450,0.00004483,-0.00001098,0.00
 004757,0.00055429,-0.00015333,0.00003332,0.00007870,0.00003806,0.00023
 848,-0.00005243,0.00017109,-0.00014191,-0.00051808,-0.00007274,-0.0000
 3849,-0.00001077,-0.00006143,-0.00008280,-0.00006215,0.00003245,-0.000
 05260,-0.00012932,0.00001982,0.00008376,0.00001655,-0.00000810,-0.0000
 3041,-0.00003834,0.00000592,-0.00000375,-0.00006483,-0.00001868,-0.000
 00450,0.00032393,0.00001128,-0.00003531,-0.00007450,0.00026297,-0.0000
 5967,0.00007685,-0.00000449,-0.00000283,-0.00022918,0.00012027,0.00007
 387,0.00012878,-0.00003506,0.00000589,-0.00005912,-0.00003750,-0.00002
 704,-0.00003536,0.00004640,0.00003335,-0.00000787,0.00000329,0.0000260
 1,0.00006785,0.00006220,0.00012248,0.00003153,0.00000318,0.00001562,-0
 .00020043,0.00013480,0.00009412,0.00000527,0.00013592,0.00003782,0.001
 02842,0.00003476,0.00005235,0.00004116,-0.00002717,0.00000796,-0.00000
 720,0.00001562,0.00002288,0.01584998,-0.00149537,0.00026609,-0.0002497
 3,0.00021916,0.00052554,0.00110690,-0.04196047,0.00148045,-0.00024518,
 -0.00026377,-0.00015981,0.00002075,-0.00012320,0.00014506,-0.00006100,
 0.00029516,0.00010972,-0.03050142,-0.00322791,-0.00497754,-0.00515409,
 0.04804911,-0.00036164,-0.00005279,-0.00008970,-0.00016025,-0.00045161
 ,0.00002263,0.00050791,-0.00008951,0.00045708,0.00283615,-0.00150116,-
 0.00376220,-0.00000869,0.00001046,-0.00000314,-0.00003581,-0.00001468,
 0.00001344,0.00003620,-0.00000074,0.00002138,0.00004935,0.00013942,0.0
 0002896,0.00003590,0.00013003,0.00000093,-0.00005279,-0.00005778,0.000
 08472,-0.00003630,-0.00001804,-0.00008219,0.00001667,-0.00006849,-0.00
 001807,0.00003181,-0.00001253,-0.00000327,0.00004910,-0.00004031,0.000
 04226,-0.00000115,0.00000821,-0.00000509,0.00000175,0.00000792,-0.0000
 0295,-0.00002801,0.00001182,-0.00002060,0.00001833,0.00006773,-0.00006
 798,0.00005719,-0.00015223,0.00028986,0.00008575,0.00002747,-0.0000279
 5,-0.00010218,0.00045472,-0.00009986,0.00009949,-0.00006388,-0.0000221
 5,0.00000506,-0.00008327,-0.00005250,-0.00005790,0.00005570,0.00002295
 ,-0.00000719,0.00003431,0.00001260,0.00004802,0.00000630,0.00007390,-0
 .00000465,-0.00000739,0.00000530,-0.00004427,0.00010101,-0.00006817,0.
 00001976,0.00001138,-0.00002552,0.00155302,-0.00015764,0.00011653,-0.0
 0011808,0.00016679,-0.00013040,-0.00000962,0.00000842,0.00001785,0.025
 40003,-0.00215378,0.00040968,0.00155690,-0.00038063,0.00085499,-0.0364
 1835,0.00123113,-0.04765171,-0.00008250,0.00003945,-0.00017242,-0.0001
 2784,-0.00005210,0.00032045,0.00000758,-0.00008684,-0.00093163,-0.0019
 7465,0.00023192,0.00092703,0.03345298,0.00209115,0.05400044,0.00007799
 ,-0.00034382,-0.00013684,0.00002748,0.00012105,-0.00014191,0.00039895,
 -0.00102314,-0.00059378,0.00036865,-0.00031396,0.00106591,0.00001577,-
 0.00001639,-0.00001532,0.00001794,0.00001188,-0.00000704,-0.00001591,-
 0.00001643,-0.00003730,0.00026464,-0.00015445,-0.00001122,0.00001194,-
 0.00002976,0.00005856,-0.00017502,0.00027371,0.00012921,-0.00043456,-0
 .00015347,-0.00002056,0.00002199,0.00005323,-0.00006000,-0.00001448,0.
 00012687,0.00000521,-0.00027074,-0.00004048,0.00012843,0.00000819,-0.0
 0002257,0.00002109,0.00000371,-0.00002917,0.00003884,-0.00002492,-0.00
 000822,0.00004217,0.00017147,0.00028733,0.00006835,0.00006130,0.000790
 31,-0.00017355,-0.00008073,-0.00008577,-0.00003648,-0.00007542,-0.0000
 4524,0.00004829,-0.00002026,0.00006041,-0.00003676,0.00001044,-0.00000
 343,-0.00002992,-0.00001826,-0.00003582,0.00000660,0.00003411,-0.00003
 614,-0.00004726,0.00002728,-0.00002014,0.00002944,0.00000174,-0.000008
 24,-0.00001542,-0.00006160,-0.00005387,0.00014662,-0.00000131,0.000032
 77,0.00001796,0.00015383,-0.00008258,-0.00001532,-0.00033428,-0.000364
 03,0.00036554,0.00001265,-0.00001690,-0.00003279,0.00204174,-0.0054320
 1,0.01186831,-0.00073848,0.00091311,0.00238048,-0.05772303,0.02965853,
 -0.04891970,-0.00009128,0.00000331,-0.00011311,0.00033710,-0.00032974,
 0.00085676,0.00009450,0.00005483,0.00006658,0.00310083,-0.00735267,0.0
 0857449,-0.00944787,0.01681716,-0.02612994,0.06239061,-0.00091995,0.00
 017244,0.00026949,0.00003311,0.00002293,-0.00011051,0.00017749,-0.0009
 8547,-0.00123732,-0.00020167,0.00050332,-0.00005429,-0.00001012,0.0000
 2855,0.00002873,-0.00007242,-0.00000710,0.00007659,0.00003658,-0.00002
 998,0.00007646,0.00007730,-0.00012955,-0.00009778,0.00002095,0.0000230
 3,0.00009587,0.00052780,0.00028995,-0.00058235,0.00006115,0.00019990,0
 .00017048,0.00020912,-0.00030672,-0.00001603,0.00002142,-0.00007432,-0
 .00007120,0.00008872,0.00000218,-0.00003811,0.00001708,-0.00006455,-0.
 00001862,-0.00005776,0.00000926,-0.00002340,-0.00007921,-0.00003166,-0
 .00001898,0.00014767,-0.00016967,-0.00017293,0.00062790,-0.00122827,0.
 00037751,-0.00002122,0.00000944,-0.00001132,-0.00011660,0.00009621,0.0
 0019706,0.00015244,0.00002597,0.00002286,-0.00009936,0.00009101,-0.000
 02270,0.00003050,0.00004076,0.00003536,-0.00008316,-0.00005349,-0.0000
 2746,0.00004837,0.00001139,0.00007865,-0.00002262,0.00003453,0.0000372
 6,-0.00004796,0.00005196,0.00003912,0.00003077,0.00000641,0.00002030,-
 0.00010033,-0.00015022,-0.00009056,-0.00010783,-0.00031974,0.00013245,
 -0.00002485,0.00001787,0.00004921,-0.00287365,0.00624758,-0.01100419,0
 .00136078,0.00014118,-0.00157335,0.02748386,-0.10435944,0.10211324,0.0
 0012167,0.00035933,-0.00020680,0.00004926,0.00059221,-0.00074372,-0.00
 004137,-0.00007350,0.00001389,0.00589718,-0.02004343,0.02425431,0.0008
 3042,0.00005890,0.00065121,-0.03324446,0.11888058,-0.00075352,0.000642
 59,0.00008713,-0.00006799,0.00003644,-0.00021569,-0.00127497,-0.001644
 51,-0.00233906,-0.00057259,0.00045542,0.00077121,-0.00003347,0.0000202
 1,0.00003702,-0.00002832,-0.00002044,0.00000951,-0.00002006,0.00005141
 ,0.00005524,0.00000852,-0.00000710,-0.00006581,0.00013644,-0.00004682,
 0.00019310,0.00044119,-0.00006176,-0.00000309,-0.00009210,0.00020034,-
 0.00013828,0.00016037,-0.00028071,-0.00001423,-0.00004251,0.00009062,-
 0.00007734,0.00022453,-0.00015577,-0.00012581,-0.00000626,0.00005199,-
 0.00005527,-0.00008292,0.00005123,-0.00002864,-0.00004224,-0.00001853,
 -0.00001544,0.00024994,-0.00040295,-0.00028264,-0.00042210,0.00033445,
 0.00060766,-0.00003040,-0.00006142,-0.00003251,0.00026627,-0.00028376,
 0.00035641,0.00012486,-0.00002470,0.00020154,-0.00009452,-0.00010894,0
 .00014521,-0.00015848,0.00011259,0.00012539,0.00000188,0.00014411,0.00
 003932,0.00016610,0.00001438,0.00021695,0.00008881,0.00004431,0.000035
 49,0.00002196,-0.00020145,-0.00007257,0.00005481,0.00006503,0.00002203
 ,-0.00047104,0.00020009,0.00014076,0.00013992,0.00018683,-0.00012336,-
 0.00001515,0.00005575,0.00004383,-0.00386981,0.01053154,-0.02834012,0.
 00318202,-0.00272369,-0.00560902,-0.04374474,0.09863098,-0.19973026,-0
 .00003152,-0.00060656,0.00041366,-0.00016373,0.00089546,-0.00166605,0.
 00029982,-0.00011612,0.00039691,-0.00024371,0.00257024,0.00071902,-0.0
 0404135,0.00392363,-0.00480542,0.05073753,-0.11267697,0.23910526,-0.00
 008241,-0.00030245,0.00013236,-0.00231416,-0.00005710,0.01069123,-0.00
 591744,0.00080696,0.00095733,-0.00026291,0.00001490,-0.00001123,0.0000
 2783,-0.00000051,0.00003110,0.00004875,0.00002791,-0.00001627,-0.00005
 751,0.00006093,-0.00005975,-0.00329074,-0.00090341,0.00237297,-0.00146
 457,0.00015094,-0.00106343,-0.00002614,0.00007392,0.00002923,-0.002133
 02,0.00056392,-0.00213409,0.00009788,-0.00007550,0.00006651,0.00023733
 ,0.00002475,-0.00002294,0.00008572,0.00001341,0.00009853,0.00000980,-0
 .00004647,0.00009663,0.00005392,-0.00003086,-0.00001767,0.00004721,0.0
 0000515,-0.00000590,0.00013167,0.00109476,0.00013856,-0.00012248,0.000
 01808,-0.00023978,-0.06916093,0.02161811,0.02262668,0.00176323,0.00044
 034,0.00059632,-0.00006220,0.00004842,-0.00001886,0.00008964,-0.000059
 85,-0.00008320,0.00009197,0.00004026,-0.00004625,0.00014012,-0.0001254
 5,-0.00003029,-0.00012521,0.00011758,0.00006255,-0.00008802,-0.0000143
 0,-0.00009489,-0.02761088,0.02699873,0.01141651,0.00510723,-0.00949049
 ,-0.00818529,0.00005591,0.00009817,-0.00003828,0.00004029,0.00005193,0
 .00003199,0.00005853,-0.00010470,-0.00001064,-0.00009502,0.00009968,0.
 00000616,-0.00001752,-0.00004119,0.00004420,0.00016929,0.00041998,0.00
 007291,0.00004307,0.00006150,0.00002096,0.00003652,0.00001783,-0.00006
 341,0.00002427,-0.00010235,0.00014912,0.00017502,0.00009688,-0.0000447
 6,0.00001664,-0.00048600,-0.00000002,-0.00011841,0.00004440,-0.0001214
 1,0.48580241,0.00032721,-0.00030269,-0.00003311,-0.00010784,0.01158321
 ,-0.00325776,-0.00261455,0.00401394,0.00140811,-0.00011603,-0.00002870
 ,-0.00000658,0.00000185,-0.00001376,-0.00000868,0.00000023,-0.00001120
 ,-0.00001721,0.00003280,0.00006113,-0.00006006,0.00291054,0.00086988,-
 0.00085733,0.00185133,-0.00189699,0.00252470,-0.00017886,0.00006728,0.
 00001493,-0.00207085,-0.00107021,-0.00010784,-0.00016778,0.00003276,-0
 .00006674,-0.00000610,-0.00004829,-0.00000356,-0.00007078,0.00004875,0
 .00006294,0.00003682,-0.00005960,0.00005368,0.00003398,-0.00003402,-0.
 00000623,0.00002634,0.00000646,0.00000118,0.00024680,0.00078666,0.0000
 4727,0.00027419,-0.00002050,-0.00033308,0.01643354,-0.10957625,-0.0390
 7389,-0.00326611,-0.00506007,0.00010275,-0.00005145,0.00010948,-0.0000
 9073,0.00007562,0.00003693,-0.00005181,0.00005784,-0.00005127,0.000010
 08,0.00005400,-0.00007991,0.00006403,-0.00014292,0.00000375,0.00001049
 ,-0.00002991,-0.00009512,-0.00007386,0.01494211,-0.00960670,-0.0024529
 8,0.00781147,-0.02059753,-0.01702604,0.00009575,0.00004261,-0.00003750
 ,0.00003651,0.00000185,0.00002271,0.00003284,-0.00004309,0.00001080,0.
 00009591,-0.00028784,0.00016025,-0.00010056,-0.00013776,0.00000904,0.0
 0013234,0.00054908,0.00010130,0.00001352,-0.00003462,0.00002628,0.0001
 0083,0.00002903,-0.00010853,0.00000999,-0.00006348,0.00020821,0.000196
 32,0.00002330,-0.00010175,0.00013380,-0.00064158,-0.00002122,-0.000162
 23,0.00002060,-0.00016065,0.02080685,0.46982156,0.00026048,0.00018572,
 -0.00017367,0.01521539,-0.00984637,-0.02343698,0.00085647,-0.00011817,
 0.00133728,0.00013313,-0.00002589,0.00001603,-0.00001254,0.00000772,-0
 .00003200,-0.00001036,-0.00002503,-0.00000990,0.00006057,-0.00002458,-
 0.00003275,-0.00115063,-0.00009027,0.00021745,-0.00231148,0.00271480,-
 0.00101462,-0.00011796,-0.00007147,0.00006806,-0.00062508,0.00082300,-
 0.00094767,-0.00034688,0.00015694,-0.00005148,-0.00021250,-0.00001934,
 0.00006090,-0.00006784,0.00005932,-0.00004763,-0.00002867,0.00002408,-
 0.00002687,-0.00000366,-0.00000290,0.00000635,0.00001837,0.00000878,-0
 .00000730,-0.00006020,-0.00045165,0.00010983,0.00049298,0.00006455,-0.
 00040275,0.02797971,-0.05103004,-0.09500200,-0.00330519,-0.00043196,-0
 .00008768,-0.00012832,0.00009141,0.00002824,0.00009535,0.00008575,0.00
 001894,0.00004376,-0.00007345,-0.00000884,-0.00002849,-0.00001475,0.00
 006572,-0.00014753,-0.00008539,0.00007455,-0.00000233,-0.00001791,-0.0
 0000521,-0.00098801,0.00457185,0.00739385,0.00098669,-0.00379166,-0.00
 245905,0.00000744,-0.00001505,-0.00000964,-0.00002468,-0.00001631,-0.0
 0001015,-0.00001587,0.00004217,-0.00001502,-0.00001235,-0.00006881,-0.
 00006327,0.00001477,-0.00000757,-0.00000737,0.00004238,-0.00006935,0.0
 0004860,-0.00002345,-0.00002361,-0.00001735,0.00002540,-0.00000023,-0.
 00001539,-0.00002563,0.00003774,-0.00001735,-0.00004351,-0.00000629,-0
 .00001424,-0.00004198,0.00005560,0.00001388,-0.00003406,-0.00002769,-0
 .00000794,0.00768987,-0.01440009,0.45271891,-0.00018297,-0.00014278,0.
 00006106,0.00002092,-0.00026598,0.00029864,-0.00085667,-0.00029644,-0.
 00015659,-0.00004813,-0.00000643,0.00001875,-0.00000542,0.00000033,0.0
 0001864,0.00000781,0.00000810,0.00000399,-0.00000137,0.00000346,0.0000
 0401,-0.00120373,0.00049952,-0.00000383,-0.00056852,0.00021751,-0.0001
 5773,0.00003805,0.00003525,-0.00000942,0.00025997,0.00012881,-0.000062
 03,0.00010941,-0.00006483,0.00003489,0.00007247,0.00004734,-0.00001833
 ,0.00002727,-0.00002991,0.00004573,-0.00000299,-0.00000374,0.00001817,
 -0.00000876,-0.00000177,-0.00000723,-0.00000607,-0.00000120,0.00000136
 ,0.00003888,0.00025532,0.00008872,-0.00011002,-0.00004504,-0.00003210,
 -0.01749484,0.00711433,-0.00058019,0.00010198,0.00016400,0.00032685,0.
 00005782,-0.00003227,-0.00005354,-0.00002270,-0.00004881,-0.00003727,-
 0.00001644,0.00003766,-0.00001623,0.00007280,-0.00003211,-0.00001922,0
 .00002048,0.00007670,-0.00002872,-0.00000729,-0.00001567,-0.00002061,-
 0.00153841,0.00249967,0.00139009,0.00057989,-0.00092502,-0.00059615,-0
 .00001375,0.00003917,0.00000604,-0.00000319,0.00001800,0.00000477,0.00
 001239,-0.00001874,0.00000313,0.00004665,0.00009031,-0.00005498,0.0000
 2992,0.00002958,-0.00001087,0.00006479,-0.00001491,-0.00002786,0.00000
 108,0.00002039,0.00000544,-0.00000442,-0.00000310,-0.00000090,-0.00002
 736,0.00000219,-0.00000843,-0.00004746,0.00000801,0.00001789,-0.000018
 87,0.00006909,-0.00001048,0.00001969,0.00000115,0.00005069,-0.18240392
 ,0.01865420,-0.03759745,0.46232733,-0.00004529,0.00012897,-0.00000759,
 -0.00079572,-0.00061381,0.00019775,-0.00002124,-0.00041252,-0.00006118
 ,0.00002572,0.00003680,-0.00000628,0.00000452,0.00000320,0.00000108,0.
 00001051,0.00000620,-0.00000246,0.00000237,-0.00000973,-0.00000352,0.0
 0075339,0.00030288,-0.00018173,0.00070732,-0.00005139,-0.00000126,0.00
 000317,0.00000179,0.00000808,0.00049258,-0.00016904,0.00047580,-0.0000
 2763,-0.00000570,0.00005742,-0.00002370,0.00001162,0.00002809,0.000037
 63,-0.00001132,0.00000174,-0.00001850,0.00001508,-0.00000836,-0.000003
 01,0.00000263,0.00000216,0.00000561,0.00000815,0.00000046,-0.00014365,
 -0.00019961,-0.00000140,0.00006215,0.00000325,-0.00007204,0.01925719,-
 0.00513241,0.00247240,0.00039529,0.00050771,0.00031203,-0.00002725,-0.
 00001238,0.00000818,0.00002666,0.00000867,-0.00001349,-0.00000218,-0.0
 0001859,-0.00000432,0.00000112,0.00000642,-0.00002680,0.00000037,-0.00
 002235,-0.00002057,-0.00001564,0.00000912,0.00003978,0.00309046,-0.003
 13613,-0.00225263,0.00109646,0.00055498,0.00036682,-0.00000790,0.00001
 215,-0.00000405,-0.00001125,0.00000392,-0.00000285,-0.00001375,0.00001
 215,-0.00000469,-0.00002090,-0.00005313,-0.00002034,0.00002355,0.00001
 527,-0.00001184,-0.00000662,-0.00003857,0.00003515,-0.00000863,-0.0000
 0228,0.00000054,-0.00001041,-0.00000615,-0.00000182,-0.00000343,0.0000
 2569,-0.00003339,-0.00005258,-0.00000136,0.00001245,-0.00003101,0.0001
 3222,0.00001214,0.00002758,-0.00000458,0.00004516,0.01840795,-0.069377
 84,0.00718103,0.00790960,0.51860156,0.00006836,-0.00000999,-0.00004383
 ,0.00079390,-0.00074355,0.00041089,0.00015566,-0.00015394,-0.00010923,
 -0.00000742,-0.00000539,0.00000031,-0.00000548,0.00000447,0.00000300,-
 0.00000197,-0.00000257,0.00000582,0.00000131,-0.00001400,0.00001577,0.
 00006750,0.00036015,-0.00030812,0.00027464,0.00015082,-0.00030575,-0.0
 0001600,0.00001233,0.00000903,0.00085404,-0.00016825,0.00052899,-0.000
 00715,0.00004527,0.00005055,0.00000200,0.00000077,0.00000473,-0.000005
 61,0.00000843,0.00001042,0.00001209,-0.00002600,-0.00001934,0.00000230
 ,-0.00000449,-0.00000976,0.00000030,-0.00000280,-0.00000949,-0.0001839
 1,-0.00006483,-0.00004946,0.00004163,-0.00004511,0.00012313,0.01263278
 ,-0.00234052,0.00340412,0.00011227,0.00008135,-0.00021201,-0.00001646,
 -0.00001517,-0.00001468,0.00001674,0.00001332,-0.00000686,0.00001922,-
 0.00000101,0.00000028,0.00000137,-0.00001347,-0.00000590,-0.00001154,-
 0.00001105,-0.00005608,-0.00000274,0.00001452,0.00004513,0.00258739,-0
 .00299858,-0.00150664,0.00041324,0.00014388,0.00039472,-0.00000606,0.0
 0000012,0.00000502,0.00000084,0.00000885,0.00000241,-0.00001052,0.0000
 1684,-0.00000323,0.00001080,0.00004438,-0.00000804,0.00000605,0.000002
 29,0.00001275,0.00000547,0.00000913,-0.00002832,-0.00000349,0.00000625
 ,0.,0.00000234,-0.00000899,0.00000760,0.00000917,0.00000847,0.00002229
 ,-0.00000247,-0.00000142,0.00001136,-0.00002042,0.00000008,0.00001464,
 0.00002013,0.00002082,-0.00001308,-0.03557666,0.00621474,-0.07433071,-
 0.01890564,0.00440300,0.52345489,0.00021125,0.00000592,-0.00005040,-0.
 00106608,0.00239270,0.00016590,-0.00060798,-0.00057472,0.00186036,-0.0
 0000612,0.00001626,0.00001294,0.00000957,-0.00000332,-0.00000501,0.000
 02159,0.00000202,-0.00001521,0.00002865,0.00000725,-0.00006167,0.00066
 015,0.00002359,0.00068167,0.00082360,-0.00048708,0.00090943,-0.0001663
 2,0.00002581,0.00008510,-0.00019562,-0.00008850,-0.00035195,-0.0002304
 4,0.00002764,0.00001501,-0.00007696,0.00002669,0.00004133,-0.00003011,
 0.00001957,0.00004229,-0.00005706,0.00004043,0.00001969,0.00000357,-0.
 00001775,0.00000799,0.00002878,0.00002219,-0.00000686,-0.00005664,0.00
 009694,0.00019466,0.00028635,-0.00012148,-0.00046435,-0.00162259,-0.00
 110425,0.01314825,-0.00017948,-0.00054541,0.00008056,-0.00010277,0.000
 03971,-0.00005681,0.00009591,0.00003719,-0.00004026,0.00007900,-0.0000
 2303,-0.00004109,0.00000041,-0.00010165,0.00000826,-0.00008781,-0.0000
 1441,-0.00004365,-0.00001155,-0.00005071,-0.00001270,-0.00051013,0.000
 45133,0.00148278,0.00009428,-0.00012534,-0.00034975,0.00001221,0.00003
 709,-0.00000899,-0.00000639,0.00001188,0.00000746,0.00000098,-0.000018
 48,0.00000334,-0.00001731,-0.00003767,0.00009532,0.00000972,-0.0000068
 0,-0.00001535,0.00007241,0.00003181,-0.00000963,-0.00000915,0.00000530
 ,-0.00000526,0.00001137,0.00001743,-0.00001739,-0.00002219,0.00004406,
 -0.00002197,0.00000175,0.00004372,-0.00001626,0.00002884,0.00003108,0.
 00002952,-0.00007107,-0.00004022,-0.00002531,-0.06358169,-0.00156971,-
 0.00279797,-0.00563332,0.00936818,-0.02722471,0.51883658,-0.00000729,-
 0.00000345,0.00004849,0.00137014,-0.00350879,0.00009548,-0.00020770,-0
 .00056646,-0.00034324,0.00002059,0.00001706,0.00001645,0.00000148,0.00
 000753,0.00001025,0.00001243,0.00001250,0.00000125,0.00000004,-0.00000
 524,0.00000969,-0.00075653,0.00041792,-0.00031524,-0.00113516,0.000747
 42,-0.00110530,0.00001900,0.00002218,0.00003348,0.00058303,0.00013347,
 0.00022141,0.00007990,-0.00004995,0.00007834,0.00001695,0.00004066,-0.
 00000010,0.00004144,-0.00000671,0.00000894,-0.00002695,0.00001063,-0.0
 0000778,-0.00000451,0.00000614,-0.00000524,0.00000017,0.00000481,-0.00
 000115,-0.00019838,-0.00028905,-0.00001589,-0.00000680,0.00011097,0.00
 000331,0.00232740,0.00405593,-0.01928731,0.00063014,0.00137432,0.00003
 594,0.00003003,-0.00005281,-0.00001092,-0.00000377,-0.00001469,-0.0000
 2283,-0.00001230,0.00002188,-0.00001230,0.00002610,0.00000666,-0.00003
 683,0.00001669,0.00000886,-0.00006768,-0.00000574,0.00002420,0.0000256
 9,0.00007054,0.00034779,-0.00068648,0.00016618,0.00049913,-0.00052877,
 -0.00002267,0.00000588,-0.00000482,-0.00001105,0.00002017,0.00000490,-
 0.00000535,0.00000807,-0.00001102,0.00005177,0.00017846,-0.00005362,0.
 00003018,0.00003983,0.00002035,0.00007878,0.00001355,-0.00010316,-0.00
 001304,0.00002699,0.00000130,-0.00001614,-0.00001891,0.00000419,0.0000
 0399,0.00001928,-0.00004188,-0.00005351,-0.00000122,0.00003533,0.00003
 614,0.00013734,0.00008265,0.00001907,0.00004081,0.00002751,-0.00054052
 ,-0.07958667,0.03876936,0.00244125,-0.00145532,0.00679203,-0.00009249,
 0.51417158,0.00002312,0.00021096,-0.00005814,0.00101533,-0.00406391,-0
 .00048294,0.00067907,-0.00025039,-0.00015350,0.00005112,0.00001071,0.0
 0000011,0.00001069,0.00000123,-0.00000956,0.00000067,-0.00000311,-0.00
 000554,-0.00001884,-0.00002025,-0.00000323,0.00005256,0.00018868,0.000
 22378,-0.00066522,0.00062955,-0.00121689,0.00000001,-0.00004214,0.0000
 3814,-0.00012739,0.00019451,-0.00016640,-0.00011450,0.00012155,0.00000
 485,-0.00007543,-0.00003681,0.00003776,-0.00001144,0.00002089,-0.00001
 994,0.00000348,-0.00000932,-0.00002747,0.00000961,-0.00000659,0.000002
 85,0.00001547,0.00000575,-0.00000584,-0.00019441,-0.00033576,-0.000037
 92,0.00019456,0.00000346,-0.00001067,0.00668662,-0.00056393,-0.0264236
 7,0.00019052,0.00126216,0.00001686,-0.00007237,0.00006202,0.00004048,0
 .00004352,0.00003671,0.00001956,0.00003133,-0.00004959,0.00000125,-0.0
 0004331,0.00002081,0.00001162,-0.00004152,-0.00007578,0.00004636,-0.00
 001974,0.00003102,-0.00000737,-0.00056429,0.00021075,-0.00096757,-0.00
 029722,0.00058943,0.00076370,-0.00000327,-0.00002632,-0.00001784,0.000
 00372,0.00000724,0.00000089,-0.00000790,0.00001494,-0.00000581,0.00001
 982,0.00002313,0.00004885,-0.00002245,0.00004166,-0.00002605,-0.000015
 86,-0.00004223,-0.00000655,0.00001315,-0.00001091,0.00000658,-0.000006
 46,-0.00000942,0.00001393,-0.00001407,-0.00002340,-0.00001992,0.000009
 42,0.00000718,0.00000806,-0.00007128,0.00001601,-0.00003383,0.00003221
 ,0.00000835,0.00000647,-0.00435094,0.04163260,-0.17420133,-0.00631176,
 0.00466694,-0.01463308,-0.00588189,0.02257341,0.45142007,-0.00011999,0
 .00012374,-0.00003982,-0.00089105,-0.00064230,0.00003067,-0.00016361,-
 0.00023901,0.00001940,0.00003641,0.00002633,0.00000162,0.00000090,0.00
 000267,-0.00000322,0.00000830,0.00000227,-0.00000188,0.00000951,-0.000
 00010,-0.00002298,0.00000917,-0.00022525,0.00001211,0.00045285,0.00027
 860,-0.00000038,0.00004616,-0.00000804,-0.00000844,0.00010380,0.000117
 08,0.00001519,-0.00001138,-0.00002372,0.00000877,-0.00000932,0.0000055
 1,0.00001046,0.00003112,-0.00001513,-0.00001381,-0.00000467,0.00000179
 ,0.00000003,-0.00000410,0.00000351,0.00000140,0.00000434,0.00000274,0.
 00000183,-0.00000185,-0.00013577,-0.00001171,-0.00005160,0.00000117,-0
 .00003412,0.00031262,-0.00118165,-0.00053114,0.00034399,0.00048064,0.0
 0007923,-0.00000040,0.00001582,0.00004570,0.00002702,0.00000028,0.0000
 1506,-0.00001340,-0.00000728,0.00001313,0.00000652,0.00002307,-0.00000
 494,-0.00000301,-0.00003642,0.00004487,-0.00000543,-0.00001476,0.00000
 107,0.00030972,0.00017267,-0.00000261,-0.00024018,0.00087124,0.0003200
 2,0.00000345,0.00000679,-0.00000103,-0.00000230,-0.00000312,-0.0000097
 3,-0.00000527,0.00000337,-0.00000343,0.00001671,0.00003113,-0.00001640
 ,0.00001067,0.00002004,-0.00000322,0.00001683,-0.00002315,0.00001537,-
 0.00000429,-0.00000855,-0.00001226,-0.00000477,0.00000626,0.00000310,-
 0.00001018,0.00002840,-0.00003960,-0.00002584,-0.00000336,0.00001769,-
 0.00005637,0.00010412,-0.00000170,0.00003663,0.00000987,0.00003669,-0.
 02355495,-0.02448929,0.00231221,-0.11508393,-0.10786579,0.01922146,0.0
 0111421,-0.00050318,0.00094691,0.13621106,-0.00002749,0.00009664,-0.00
 001905,-0.00029424,-0.00046200,0.00001934,-0.00001207,-0.00022833,0.00
 012261,0.00005118,0.00002970,-0.00000817,0.00000058,0.00000363,-0.0000
 0846,-0.00000142,-0.00000149,-0.00000129,0.00000264,-0.00000116,-0.000
 01170,0.00005595,-0.00011606,0.00003010,0.00015127,0.00020479,0.000078
 76,0.00001878,-0.00000134,0.00000294,-0.00011453,0.00005682,-0.0000177
 6,-0.00001567,-0.00000267,-0.00001544,-0.00002214,0.00000028,0.0000202
 6,0.00003398,-0.00002521,-0.00001934,-0.00000328,0.00001196,0.00000360
 ,-0.00000444,0.00001135,0.00000871,-0.00000562,0.00000467,0.00000862,-
 0.00001835,-0.00005400,-0.00001763,0.00012808,-0.00001839,0.00000897,0
 .00059497,0.00065770,0.00023187,-0.00001029,0.00026338,-0.00009791,-0.
 00002412,0.00000664,0.00002615,0.00003784,0.00000632,0.00001458,-0.000
 00892,-0.00001818,0.00001097,-0.00000697,0.00002623,-0.00000839,0.0000
 0880,-0.00004650,0.00002455,0.00000214,0.00000635,0.00000208,0.0002148
 6,-0.00002009,-0.00004348,0.00021013,0.00028855,0.00003169,-0.00000746
 ,-0.00000069,0.00000166,-0.00001495,-0.00001096,-0.00000781,-0.0000023
 0,0.00000414,-0.00000596,-0.00006550,-0.00000223,0.00001257,0.00002273
 ,0.00002231,-0.00001103,0.00004909,0.00001681,0.00001232,-0.00000597,-
 0.00001384,-0.00000437,-0.00001328,0.00000330,0.00000900,0.00001342,0.
 00001309,-0.00002856,-0.00001168,-0.00000437,0.00000341,0.00001121,0.0
 0003778,0.00001438,-0.00000438,0.00000210,0.00000268,-0.00184873,0.002
 50434,-0.00131400,-0.10671792,-0.20494288,0.02733347,0.00068735,0.0007
 1895,-0.00008997,0.12567423,0.23592486,-0.00001060,-0.00001510,-0.0000
 0557,0.00018984,0.00035964,0.00000877,0.00003194,0.00002473,-0.0000607
 2,-0.00000093,-0.00000378,0.00000637,-0.00000383,-0.00000030,-0.000001
 26,-0.00000554,-0.00000369,-0.00000087,0.00000172,-0.00000359,0.000000
 86,-0.00006668,0.00008218,-0.00000588,-0.00008578,-0.00028788,-0.00009
 522,0.00000095,-0.00000153,0.00000026,0.00001703,-0.00002376,0.0000577
 4,-0.00001380,0.00000546,-0.00000117,-0.00000614,0.00000831,0.00000212
 ,-0.00000968,0.00000144,0.00000524,-0.00000068,-0.00000362,0.00000306,
 0.00000210,-0.00000247,-0.00000323,0.00000231,0.00000071,-0.00000278,-
 0.00010186,0.00001506,0.00003285,0.00007656,0.00000498,-0.00004785,0.0
 0051102,0.00042348,0.00014739,-0.00023380,-0.00017920,0.00004071,-0.00
 000234,0.00001443,-0.00000293,0.00000309,-0.00000204,-0.00000450,0.000
 00641,0.00000465,-0.00000437,0.00000993,-0.00001268,0.00000749,-0.0000
 0410,0.00000898,0.00000217,0.00001171,0.00000385,-0.00000173,0.0000088
 2,-0.00014046,-0.00009980,0.00025820,-0.00034980,0.00008802,0.00000206
 ,0.00000322,0.,0.00000054,-0.00000057,0.00000007,0.00000061,0.00000298
 ,0.00000054,-0.00000429,-0.00002797,0.00002659,-0.00000910,0.00000192,
 -0.00000088,-0.00002675,-0.00001362,0.00001756,0.00000508,-0.00000323,
 0.00000301,-0.00000116,0.00000399,0.00000001,-0.00001657,-0.00000806,-
 0.00000659,-0.00000471,-0.00000329,0.00000150,-0.00000332,0.00000985,-
 0.00002083,0.00001023,-0.00000041,0.00000936,-0.00537714,-0.00680006,0
 .00102746,0.01934671,0.02774185,-0.04942994,-0.00062514,-0.00087837,0.
 00054253,-0.02079650,-0.03254585,0.05327096,-0.00007822,-0.00006174,0.
 00001638,0.00002266,0.00057705,-0.00061799,0.00000182,0.00039457,0.000
 11550,0.00002775,0.00000656,0.00000258,-0.00000275,-0.00000251,-0.0000
 0798,-0.00000899,-0.00000898,-0.00000150,0.00001323,0.00001393,-0.0000
 1346,0.00017015,-0.00042673,0.00023328,0.00011793,-0.00012534,0.000091
 81,0.00001053,0.00000326,-0.00001442,-0.00067168,0.00002862,-0.0003102
 4,-0.00002171,-0.00000401,-0.00005974,-0.00000347,-0.00000101,-0.00000
 723,-0.00002834,0.00000051,-0.00000029,0.00001646,-0.00000912,0.000017
 59,0.00000237,-0.00000032,0.00000500,-0.00000465,-0.00000139,0.0000077
 8,0.00014377,0.00021681,0.00003981,0.00009296,-0.00001642,-0.00007953,
 -0.00497918,0.00063873,-0.00180009,-0.00015915,-0.00024715,-0.00005221
 ,0.00001538,0.00004049,0.00000220,0.00000013,0.00000606,0.00001379,0.0
 0000258,0.00000167,0.00001032,0.00001891,-0.00000318,0.00002408,-0.000
 00313,0.00000790,0.00004828,0.00001103,-0.00001961,-0.00004128,-0.0012
 6679,0.00151242,0.00091125,-0.00006264,-0.00015275,-0.00014031,0.00003
 101,-0.00000459,-0.00000749,0.00000096,-0.00002500,-0.00000469,0.00001
 705,-0.00001122,-0.00000356,-0.00000663,-0.00013595,0.00000624,-0.0000
 2476,-0.00000240,-0.00002258,-0.00008083,0.00002127,0.00002040,-0.0000
 1015,-0.00003804,-0.00000106,0.00003082,0.00000543,-0.00002446,-0.0000
 1461,0.00001937,0.00003070,0.00002038,-0.00003915,-0.00001005,-0.00006
 650,-0.00002408,0.00003955,-0.00000856,0.00002339,0.00000723,-0.016489
 84,0.02334125,0.01455953,-0.07760380,0.06836223,0.04924599,0.00053430,
 -0.00012562,0.00079533,0.00650324,-0.01355372,-0.00871238,0.09265217,-
 0.00001206,0.00005664,0.00001006,-0.00043955,-0.00054452,0.00004013,-0
 .00009951,-0.00032265,-0.00018404,-0.00005329,0.00000012,-0.00002469,0
 .00000999,0.00000482,0.00001691,0.00001162,0.00001947,0.00000832,-0.00
 000840,-0.00000002,0.00001176,-0.00045419,0.00037902,-0.00018181,0.000
 21092,0.00017942,-0.00002930,0.00002064,0.00001758,0.00001144,0.000457
 38,0.00006893,0.00019816,0.00008899,-0.00001106,0.00003957,0.00001772,
 0.00000271,0.00000819,0.00004577,-0.00003462,0.00000563,-0.00001303,0.
 00000883,-0.00000969,0.00000060,-0.00000011,-0.00000552,0.00000001,0.0
 0000499,-0.00000619,-0.00018777,-0.00015240,-0.00001135,0.00008082,-0.
 00001032,0.00010136,0.00149045,0.00040039,0.00067649,0.00036504,0.0003
 3772,0.00009033,-0.00000001,-0.00004494,-0.00001025,0.00000314,-0.0000
 2605,-0.00001111,-0.00002490,-0.00000338,-0.00000921,-0.00000198,0.000
 02387,-0.00003293,0.00002707,-0.00001395,-0.00003130,-0.00001345,0.000
 00705,0.00002195,0.00057362,-0.00035457,-0.00029707,-0.00002317,0.0004
 2037,0.00020344,-0.00001395,0.00000400,0.00000527,0.00000477,0.0000231
 0,0.00000778,-0.00000985,0.00000209,0.00000824,0.00000986,0.00013890,-
 0.00002136,0.00001224,-0.00000246,0.00001749,0.00003630,-0.00001980,-0
 .00003369,0.00000474,0.00003529,-0.00000128,-0.00000769,-0.00000713,0.
 00001082,-0.00000040,-0.00000326,-0.00000876,-0.00000883,0.00002527,0.
 00001500,-0.00000729,0.00003666,-0.00001109,0.00001757,-0.00000781,0.0
 0000273,0.00523738,-0.00584922,-0.00345428,0.06838627,-0.17945688,-0.0
 9467388,-0.00023551,0.00004078,-0.00028123,0.00852776,-0.02659669,-0.0
 1614635,-0.08132986,0.20579108,0.00001635,0.00000128,-0.00002074,-0.00
 051764,-0.00049958,-0.00003688,0.00008126,-0.00032704,-0.00008522,-0.0
 0001724,-0.00001050,-0.00000258,0.00000255,0.00000513,0.00000730,0.000
 00447,0.00000590,0.00000326,-0.00000325,-0.00001298,0.00000599,-0.0003
 4717,0.00021504,-0.00005909,0.00032969,0.00013566,0.00000128,0.0000002
 0,-0.00000136,0.00002212,0.00026785,0.00004839,0.00003377,0.00002149,0
 .00001592,0.00002685,0.00000452,0.00001235,0.00000839,0.00000988,-0.00
 000370,0.00000658,-0.00000425,-0.00000143,-0.00000033,0.00000562,-0.00
 000181,-0.00000827,0.00000676,0.00000296,-0.00000999,-0.00019501,-0.00
 001208,-0.00001065,0.00005017,-0.00003450,0.00012063,-0.00081655,0.000
 21914,0.00015912,0.00017063,0.00027700,0.00005402,-0.00000145,-0.00001
 565,-0.00000793,0.00000549,-0.00000747,-0.00001127,0.00000557,0.000002
 95,-0.00000891,0.00000598,-0.00000091,-0.00001053,-0.00001239,-0.00000
 191,-0.00002146,-0.00000397,0.00001150,0.00000062,-0.00013577,0.000186
 96,0.00015142,0.00003733,0.00028598,-0.00003668,-0.00001218,0.00000264
 ,-0.00000347,0.00000069,0.00001918,0.00000378,-0.00000222,0.00000267,0
 .00000175,0.00002529,0.00012198,-0.00002621,0.00002469,-0.00000083,0.0
 0001978,0.00005531,-0.00001446,-0.00002786,0.00000487,0.00003115,-0.00
 000249,-0.00002427,-0.00000113,0.00000703,0.00001355,-0.00001665,-0.00
 002634,-0.00000794,0.00002587,0.00000963,0.00002029,0.00001303,0.00002
 528,-0.00001817,-0.00000047,-0.00000149,-0.00233896,0.00543776,0.00368
 591,0.04902866,-0.09511803,-0.11035355,-0.00072578,0.00046263,0.000656
 05,-0.00138575,0.00228981,0.00228003,-0.05632658,0.11132290,0.12550745
 ,0.00006539,-0.00002148,0.00003671,-0.00277679,0.00061124,-0.00114234,
 -0.00028951,-0.00002147,-0.00027619,-0.00001984,-0.00001181,-0.0000039
 8,0.00001146,0.00000032,0.00000713,0.00000335,0.00000656,0.00000452,-0
 .00002219,-0.00001292,0.00001298,-0.00003519,0.00000494,-0.00012544,0.
 00091589,-0.00005735,0.00118474,0.00004447,0.00001372,0.00001000,0.000
 22146,-0.00001100,0.00009142,0.00002158,0.00001762,0.00001273,0.000024
 32,-0.00001421,-0.00000983,0.00001544,-0.00000374,-0.00001254,0.000009
 32,-0.00001669,-0.00000278,0.00001091,-0.00000386,-0.00000458,0.000005
 79,-0.00000130,-0.00000836,-0.00002429,-0.00005406,-0.00006625,0.00000
 478,0.00001833,0.00016467,0.00065403,-0.00031549,-0.00030775,0.0004034
 5,-0.00007001,0.00018467,-0.00000498,0.00000102,0.00000674,-0.00001620
 ,-0.00000596,0.00000570,0.00000885,-0.00000078,0.00000792,-0.00001365,
 0.00002181,-0.00000652,-0.00000052,-0.00000610,0.00000092,-0.00000751,
 0.00003106,-0.00000160,0.00019831,-0.00027147,0.00014748,0.00005971,0.
 00003107,0.00006446,-0.00000114,-0.00000929,-0.00000403,0.00001904,0.0
 0001544,0.00000525,0.00000089,-0.00000162,0.00000334,-0.00001933,0.000
 03763,-0.00002259,-0.00004272,0.00000353,-0.00000499,-0.00002605,-0.00
 002495,-0.00002536,0.00003356,0.00001783,0.00001627,-0.00001030,-0.000
 00296,0.00001258,-0.00000951,-0.00006822,0.00000030,0.00001442,0.00001
 691,0.00000914,-0.00000156,0.00000705,-0.00004953,0.00003658,0.0000076
 8,0.00002383,-0.00356370,0.00797750,-0.02842804,-0.04274758,-0.0003500
 0,-0.00189641,-0.00528587,0.00121509,-0.00215320,-0.00020189,-0.005826
 93,0.01767749,0.00036664,-0.00208129,0.01258253,0.05192369,-0.00004626
 ,0.00000903,-0.00000178,0.00234327,0.00092523,0.00103337,0.00000504,0.
 00007535,0.00006056,-0.00001061,0.00000840,-0.00000456,-0.00000474,-0.
 00000040,-0.00000129,-0.00000936,-0.00000207,0.00000019,0.00000949,0.0
 0001165,-0.00000133,0.00006816,0.00000875,0.00006816,-0.00140053,-0.00
 032439,-0.00052794,-0.00000283,0.00001291,-0.00000666,-0.00026917,0.00
 001063,-0.00008899,-0.00000026,-0.00000402,-0.00002249,-0.00002052,0.0
 0000868,0.00000996,-0.00000140,-0.00002326,0.00000835,-0.00000389,0.00
 000605,0.00000595,-0.00000384,0.00000108,0.00000218,-0.00000744,0.0000
 0318,0.00000333,0.00000057,0.00009315,0.00001446,0.00013802,-0.0000459
 8,-0.00001188,0.00013674,0.00029001,0.00023596,-0.00055087,-0.00057933
 ,-0.00016195,-0.00001336,0.00001565,-0.00001396,0.00001981,-0.00000957
 ,0.00000109,-0.00001448,-0.00000980,-0.00000239,0.00001352,-0.00000412
 ,0.00000318,0.00002109,-0.00000714,0.00000893,0.00001543,-0.00001023,0
 .00000063,-0.00007134,-0.00006974,-0.00010570,-0.00002142,-0.00039166,
 0.00018092,0.00000642,0.00000376,0.00000395,-0.00000174,-0.00001202,-0
 .00000154,0.00000172,-0.00000032,0.00000246,-0.00002503,-0.00005284,0.
 00000489,-0.00002248,0.00000269,-0.00001678,-0.00002878,-0.00000033,0.
 00002089,0.00000002,-0.00001898,-0.00000057,0.00001890,0.00000335,-0.0
 0000550,-0.00003387,0.00000835,0.00000707,-0.00000612,-0.00001723,-0.0
 0000567,-0.00000493,0.00000290,-0.00002671,0.00000752,-0.00000095,0.00
 000164,0.00147367,-0.00145747,0.00581964,-0.00025793,-0.05805041,0.053
 76689,0.00159388,0.00033968,0.00056333,-0.00259558,-0.00928621,0.02853
 079,0.00098284,0.00449241,-0.02519392,-0.00132231,0.06367615,0.0000194
 7,-0.00001515,0.00004484,0.00071235,0.00028388,0.00111016,-0.00028425,
 0.00004941,-0.00023993,0.00001561,0.00000394,-0.00000161,0.00000548,-0
 .00000193,-0.00000431,-0.00000362,-0.00000355,-0.00000024,-0.00000330,
 -0.00000281,0.00000497,-0.00005835,0.00001763,-0.00008938,0.00033069,-
 0.00013652,-0.00064684,0.00005351,0.00001071,-0.00001182,0.00017661,-0
 .00007603,0.00010350,0.00000811,-0.00000271,-0.00000692,0.00001601,-0.
 00000287,-0.00000809,0.00000092,0.00000542,-0.00000508,0.00000932,-0.0
 0000804,-0.00000181,0.00000401,0.00000076,0.00000642,0.00000183,0.0000
 0056,0.00000286,-0.00008444,0.00001470,-0.00007046,0.00006316,0.000028
 26,0.00011747,0.00065976,-0.00014804,0.00019470,-0.00032396,-0.0004702
 5,-0.00015135,0.00000527,0.00000194,0.00002066,-0.00000893,0.00000640,
 0.00000261,0.00000885,0.00000891,0.00000833,-0.00000708,0.00001114,0.0
 0000628,-0.00000083,0.00000165,0.00001375,0.00000059,0.00001081,0.0000
 0840,0.00010902,-0.00015448,-0.00006799,-0.00002784,0.00023377,0.00000
 381,0.00000987,-0.00000607,-0.00000049,0.00000789,0.00000035,0.0000003
 7,-0.00000193,0.00000108,-0.00000135,-0.00002511,-0.00002464,0.0000145
 2,-0.00005056,0.00000426,-0.00002592,-0.00005262,0.00000662,-0.0000099
 4,0.00001048,-0.00001492,0.00000740,0.00001474,0.00000014,0.00000411,-
 0.00000862,-0.00002996,0.00003663,0.00002135,-0.00000937,-0.00000253,-
 0.00002646,-0.00002376,-0.00005723,0.00003700,0.00000621,0.00001031,-0
 .00416235,0.00375991,-0.01197450,-0.00219432,0.05461356,-0.27381034,-0
 .00285543,0.00018532,-0.00051996,0.00187369,0.00401400,-0.00757831,0.0
 0203061,0.00200865,-0.02189799,0.00391553,-0.06405299,0.31543238,0.000
 55492,-0.00005787,0.00039356,0.00018911,-0.00036166,0.00011488,-0.0011
 0945,-0.00108747,-0.00051393,-0.00008024,0.00016775,-0.00006311,0.0000
 3380,-0.00001937,-0.00004628,0.00002717,-0.00000293,-0.00006688,-0.000
 08278,0.00000519,0.00004268,-0.00021379,-0.00003323,-0.00004618,-0.000
 15560,0.00029653,-0.00023358,0.00003170,0.00003169,-0.00000589,0.00034
 150,0.00007544,0.00004525,0.00001905,-0.00005274,0.00009527,0.00008812
 ,0.00003003,0.00011388,0.00008627,-0.00000132,0.00008069,-0.00002031,0
 .00004107,0.00004936,0.00003623,0.00001462,0.00006507,0.00003286,0.000
 02931,0.00006286,-0.00038730,-0.00014118,0.00013471,-0.00031615,0.0000
 6795,-0.00026685,0.00499582,0.00772121,-0.00062652,0.00015162,0.001092
 72,0.00191959,-0.00019635,0.00005027,-0.00005175,0.00007205,-0.0000209
 3,-0.00007726,0.00008196,-0.00004291,-0.00011977,0.00003083,-0.0000667
 9,-0.00008261,-0.00014228,0.00005012,-0.00003372,-0.00001784,0.0000450
 8,-0.00000369,0.00120103,0.00154420,0.00031533,-0.00083161,0.00091652,
 0.00127183,-0.00006503,0.00003139,0.00003037,0.00000665,-0.00002354,0.
 00000782,0.00000592,-0.00005240,-0.00007962,-0.00038708,-0.00035362,0.
 00010622,0.00000308,-0.00003021,-0.00002459,-0.00046984,-0.00051775,0.
 00002409,0.00002104,0.00003660,0.00000427,-0.00001418,-0.00000730,0.00
 000274,0.00008119,-0.00003774,0.00003883,0.00000172,0.00005866,-0.0000
 2200,-0.00010322,-0.00080666,-0.00011632,-0.00005605,-0.00002318,-0.00
 009938,-0.08848453,-0.08097668,0.00744964,-0.02003962,-0.02200698,0.00
 016551,0.00002833,-0.00181187,0.00102425,-0.00568346,0.00046987,-0.002
 00974,0.00059140,-0.00052226,0.00027906,0.00048935,-0.00022198,0.00025
 181,0.10849565,-0.00056681,0.00029476,-0.00005537,-0.00339050,-0.00251
 602,0.00083318,0.00634851,-0.00167604,-0.00084724,0.00020181,0.0001653
 2,-0.00000916,-0.00003217,-0.00000798,-0.00005639,-0.00003375,-0.00004
 755,-0.00002361,-0.00000629,-0.00002763,0.00002251,0.00046772,-0.00122
 072,-0.00003292,0.00050003,0.00042961,0.00004782,-0.00001245,0.0000339
 7,-0.00010510,-0.00017940,0.00072466,-0.00007058,-0.00011777,-0.000065
 73,0.00001208,-0.00010938,0.00000414,0.00007059,-0.00007859,0.00003321
 ,0.00001264,-0.00000128,0.00001856,0.00000722,-0.00004321,0.00002751,0
 .00003742,-0.00004247,-0.00000100,0.00004627,-0.00005491,-0.00048302,0
 .00012124,-0.00003772,-0.00002759,-0.00040945,-0.00985756,-0.02170795,
 -0.00467141,0.00120928,0.00248478,0.00153487,-0.00006746,0.00008721,0.
 00011547,-0.00002346,0.00006669,0.00000219,0.00001207,-0.00003250,0.00
 000011,-0.00003991,-0.00003370,0.00001386,-0.00004605,0.00004381,0.000
 14054,0.00002250,-0.00000055,0.00000037,-0.00080982,0.00113071,0.00087
 695,0.00182958,-0.00348872,-0.00246771,-0.00005060,-0.00002069,0.00003
 606,-0.00005333,-0.00009937,-0.00002517,-0.00000980,0.00003049,-0.0000
 6058,0.00014646,-0.00008956,-0.00017056,0.00003272,0.00010552,-0.00016
 386,-0.00060120,-0.00039928,0.00013964,-0.00004944,-0.00009808,0.00000
 237,0.00003083,-0.00003707,0.00002870,-0.00007232,0.00008441,0.0000266
 4,-0.00008336,-0.00015007,0.00004166,-0.00091897,-0.00040958,-0.000166
 38,0.00024912,0.00005979,0.00015410,-0.08482985,-0.17595595,0.01006901
 ,0.00054103,0.00210658,-0.00016314,-0.00656934,-0.01102396,0.00413636,
 0.00059255,0.00082310,-0.00000521,0.00046700,0.00072123,0.00008882,0.0
 0005125,0.00021651,-0.00015202,0.09551218,0.20918162,-0.00019779,0.000
 08293,0.00010491,-0.00095851,-0.00334073,-0.00000107,0.00083157,-0.000
 17321,0.00037317,0.00002228,-0.00002348,-0.00001925,-0.00001452,0.0000
 0912,0.00000099,-0.00001005,-0.00000437,0.00001313,0.00001693,0.000005
 49,-0.00001149,-0.00026868,0.00025659,0.00001477,0.00003750,0.00023328
 ,-0.00008173,-0.00001521,-0.00003416,-0.00003236,0.00016090,0.00002568
 ,-0.00003318,0.00007701,-0.00001873,-0.00004915,-0.00002286,0.00001530
 ,-0.00003461,-0.00003736,-0.00001452,-0.00000553,0.00000598,0.00001931
 ,-0.00003126,-0.00001392,0.00000568,-0.00000591,-0.00001909,-0.0000083
 6,0.00000011,-0.00006464,-0.00004168,-0.00002236,0.00007359,-0.0000290
 8,-0.00003272,-0.00707715,-0.01580830,-0.00188139,0.00026838,0.0006211
 7,-0.00090791,0.00003935,-0.00005788,0.00006669,-0.00002062,-0.0000174
 2,0.00003917,-0.00005920,0.00003655,0.00001319,0.00000399,0.00004936,0
 .00002238,0.00003303,0.00002613,0.00004050,-0.00000997,-0.00001670,0.0
 0001062,-0.00064175,0.00031034,-0.00005514,0.00133343,-0.00294839,-0.0
 0177801,0.00002681,-0.00002158,-0.00001224,-0.00002900,-0.00002171,-0.
 00000402,-0.00001221,0.00002049,0.00000955,0.00030715,0.00015530,0.000
 00464,0.00012921,-0.00002257,0.00004352,-0.00004535,0.00002897,-0.0000
 0485,-0.00007906,-0.00001025,-0.00004053,-0.00000015,-0.00000607,-0.00
 004945,0.00002272,0.00018559,-0.00010875,0.00004022,-0.00002351,-0.000
 04114,-0.00008754,-0.00024361,0.00053818,-0.00025357,-0.00000499,-0.00
 014390,0.00745667,0.01030982,-0.04050352,-0.00508492,-0.00611422,0.001
 04737,0.01355594,0.02509345,-0.00738896,-0.00179769,0.00016428,-0.0000
 1645,0.00055601,0.00008618,0.00019156,-0.00024367,-0.00038468,0.000016
 85,-0.00922117,-0.01164009,0.05505425,-0.00003105,0.00011838,-0.000058
 84,-0.00002367,-0.00017352,0.00009263,-0.00004649,-0.00024745,-0.00003
 469,0.00004439,0.00003532,-0.00000014,0.00000347,0.00000412,-0.0000019
 7,0.00000925,0.00000706,-0.00000336,0.00000329,0.00000437,-0.00001246,
 -0.00037155,-0.00029999,0.00019104,-0.00000249,0.00010757,-0.00010103,
 0.00005537,0.00002697,-0.00000782,0.00011482,0.00018307,-0.00006093,0.
 00002100,-0.00006478,0.00003091,0.00000776,0.00001053,0.00001492,0.000
 05416,-0.00001398,-0.00001207,-0.00002501,-0.00001067,0.00000547,-0.00
 000173,0.00000297,0.00000058,0.00000780,0.00000805,-0.00000341,-0.0000
 9915,-0.00017871,-0.00002141,-0.00006809,0.00001294,0.00008906,0.00013
 465,-0.00036920,-0.00017117,-0.00000393,0.00011950,-0.00005497,0.00001
 012,-0.00001107,0.00002187,0.00001994,0.00000100,-0.00000373,-0.000014
 80,0.00000223,0.00000932,-0.00000371,0.00000775,-0.00001559,0.00001874
 ,-0.00004025,-0.00000561,0.00000577,-0.00000692,0.00001962,-0.00015808
 ,0.00000325,-0.00007037,0.00018812,0.00025178,0.00023564,-0.00000455,0
 .00001003,-0.00000082,0.00000102,0.00001416,-0.00000701,-0.00001283,0.
 00000644,-0.00000192,0.00002003,0.00005405,-0.00001170,0.00000493,0.00
 002168,-0.00000463,0.00003180,0.00001221,-0.00002503,-0.00000128,-0.00
 000297,-0.00000268,-0.00000780,0.00000095,0.00001203,-0.00000888,0.000
 00899,-0.00001869,-0.00001487,-0.00000655,0.00002951,-0.00004638,0.000
 07948,-0.00001515,0.00007056,0.00003652,0.00003891,-0.00059633,-0.0017
 0460,0.00277490,0.00079402,0.00091130,-0.00052008,-0.09844148,-0.09823
 817,0.00898469,0.00006545,0.00004105,-0.00020754,-0.00007751,0.0000221
 5,0.00005741,-0.00010390,-0.00003731,-0.00005784,0.00084213,-0.0000118
 3,0.00051422,0.10966837,-0.00011000,0.00018292,-0.00002950,-0.00016901
 ,-0.00035114,-0.00018669,-0.00014261,-0.00028049,0.00016329,0.00006200
 ,0.00004500,-0.00000327,0.00000787,0.00000134,-0.00000850,0.00000785,0
 .00000809,-0.00000234,-0.00001420,0.00001696,-0.00002932,0.00000224,-0
 .00018034,0.00025410,0.00016127,0.00018013,0.00003275,0.00009651,-0.00
 000393,-0.00002726,-0.00012701,0.00016873,-0.00004849,0.00002771,-0.00
 005987,-0.00002692,-0.00000778,0.00000149,0.00002573,0.00006767,-0.000
 03951,-0.00002379,-0.00002235,0.00003055,-0.00000103,-0.00000837,0.000
 01336,0.00001663,-0.00000257,0.00000904,0.00001279,-0.00003194,-0.0002
 3320,-0.00000801,0.00005264,0.00001036,-0.00005576,0.00037186,0.000764
 51,-0.00077630,0.00009428,0.00024664,-0.00004240,0.00000563,0.00001005
 ,0.00005103,0.00003414,-0.00001082,0.00002153,-0.00003058,-0.00000756,
 0.00001514,-0.00001278,0.00003990,-0.00001815,0.00003237,-0.00007909,0
 .00004495,-0.00001101,-0.00000012,0.00000892,-0.00014146,0.00010348,-0
 .00009654,0.00000815,0.00046006,0.00024430,-0.00000806,-0.00000281,0.0
 0000282,-0.00001301,-0.00000680,-0.00000718,-0.00001140,0.00000643,-0.
 00000030,-0.00005160,-0.00000901,0.00005585,0.00000492,0.00004854,-0.0
 0003048,0.00003526,0.00000223,0.00000120,-0.00000476,-0.00002027,-0.00
 000240,-0.00001334,0.00000636,0.00001706,-0.00000713,0.00002169,-0.000
 03866,-0.00002388,-0.00000995,0.00001078,-0.00003080,0.00010509,-0.000
 03371,0.00005826,0.00000128,0.00004245,-0.00632259,-0.01234435,0.00601
 197,-0.00029178,0.00030783,-0.00057751,-0.09785796,-0.22606270,0.01642
 009,0.00066883,0.00038708,0.00035436,-0.00007503,-0.00018279,-0.000025
 08,-0.00000522,0.00017931,-0.00031213,0.00019636,-0.00039994,0.0027500
 2,0.11545049,0.26152244,-0.00002924,-0.00009904,0.00004926,0.00010363,
 0.00039155,-0.00003556,0.00017105,0.00027636,-0.00023811,-0.00000702,-
 0.00001094,0.00000668,-0.00000469,-0.00000246,0.00000024,-0.00000990,-
 0.00000367,-0.00000035,-0.00000836,-0.00000501,0.00001874,0.00031268,0
 .00001754,-0.00004764,-0.00000788,-0.00014230,0.00012417,-0.00000711,0
 .00002613,-0.00001665,-0.00022230,-0.00014208,0.00006568,0.00000778,-0
 .00002280,-0.00000956,0.00000755,0.00001426,-0.00000922,-0.00001407,-0
 .00000414,0.00001459,0.00000294,-0.00001235,0.00001537,-0.00000216,-0.
 00000139,-0.00000139,-0.00000720,0.00000051,0.00000139,0.00000094,0.00
 012522,0.00003000,0.00004110,0.00003552,-0.00004492,0.00019028,0.00089
 985,0.00135528,-0.00016152,-0.00036771,0.00001138,0.00000625,0.0000085
 1,-0.00002756,-0.00001608,-0.00000470,-0.00001406,0.00000513,0.0000069
 2,0.00000010,0.00001877,-0.00001583,0.00000863,0.00000134,0.00003422,-
 0.00000604,0.00000956,0.00001960,-0.00000749,-0.00019191,-0.00001934,0
 .00007274,-0.00016954,-0.00031486,-0.00032471,-0.00000765,0.00000376,0
 .00000574,-0.00000203,-0.00000108,0.00000260,0.00000893,-0.00000377,-0
 .00000103,-0.00004409,-0.00005947,0.00004246,-0.00001379,-0.00000700,-
 0.00000594,-0.00000634,0.00002378,0.00001081,0.00000636,-0.00000466,0.
 00001615,0.00000084,-0.00000427,0.00000657,-0.00000074,-0.00002743,0.0
 0002982,0.00000722,-0.00001044,0.00000232,0.00000494,-0.00005181,-0.00
 004927,0.00003039,0.00000354,-0.00000866,0.01418744,0.02725241,-0.0065
 4769,0.00093480,0.00008600,0.00073063,0.00983324,0.01718493,-0.0449777
 0,-0.00050438,-0.00018112,-0.00005741,-0.00006293,-0.00010972,-0.00009
 065,0.00007422,-0.00017298,0.00019552,0.00001728,0.00303249,-0.0055900
 3,-0.01183417,-0.02230850,0.05279465,0.00015492,-0.00013011,0.00013246
 ,-0.00062581,-0.00019529,-0.00037891,0.00058234,0.00108659,-0.00264109
 ,-0.00001098,0.00006816,0.00000201,-0.00000975,0.00001081,-0.00000501,
 -0.00000997,-0.00002197,0.00000313,0.00000645,-0.00003993,0.00003176,0
 .00002394,0.00004738,0.00005901,0.00022526,-0.00000611,0.00018585,0.00
 021137,-0.00001648,-0.00005725,-0.00002090,-0.00015818,0.00010895,0.00
 027325,-0.00014276,-0.00002332,0.00005009,0.00005239,-0.00001631,0.000
 06445,-0.00006594,0.00002430,-0.00001812,0.00008686,-0.00002536,-0.000
 01300,0.00001757,0.00001332,-0.00002228,-0.00000463,0.00002197,-0.0000
 5289,-0.00022762,-0.00005547,-0.00027981,0.00014120,0.00028028,-0.0006
 4907,-0.00020262,0.00008480,0.00049719,0.00020454,0.00006769,0.0000981
 9,-0.00004080,0.00000549,-0.00004296,-0.00009404,0.00008245,-0.0000878
 1,0.00010000,0.00003291,0.00005009,0.00006999,-0.00002100,0.00001065,0
 .00003664,0.00006832,-0.00000661,0.00002304,-0.00002224,0.00012333,0.0
 0060358,0.00228258,-0.00008401,0.00005193,-0.00010466,-0.00004213,0.00
 001658,0.00005363,-0.00002347,-0.00002632,-0.00000741,0.00000118,-0.00
 001746,-0.00000266,0.00015496,0.00005460,-0.00014938,-0.00002138,0.000
 06674,-0.00001879,-0.00002981,0.00004134,0.00005042,-0.00000106,-0.000
 02249,-0.00000073,-0.00003332,0.00000472,0.00003489,0.00001236,-0.0000
 2091,-0.00000757,-0.00004593,-0.00004427,-0.00000063,-0.00003002,0.000
 08874,-0.00008562,0.00009026,-0.00003722,0.00003674,-0.00286335,0.0007
 1611,-0.00361683,0.00053443,0.00082869,-0.00139075,-0.25312160,0.02247
 015,-0.06221451,0.00043360,0.00022569,0.00016704,0.00016196,-0.0002463
 3,0.00003335,-0.00020545,0.00013233,-0.00012336,0.00058185,0.00035995,
 0.00042214,-0.01887977,-0.00114340,-0.00434386,0.29124418,0.00006500,-
 0.00011541,0.00015718,0.00020473,0.00002805,-0.00002391,-0.00031185,0.
 00040774,0.00001072,-0.00004346,-0.00002023,-0.00002224,0.00000151,-0.
 00000284,-0.00000434,-0.00000816,-0.00000639,-0.00000192,0.00000751,-0
 .00000802,0.00001118,0.00030346,-0.00021336,-0.00047981,-0.00009842,-0
 .00001906,-0.00000381,-0.00005516,-0.00004081,0.00001295,-0.00005068,-
 0.00016049,0.00025405,-0.00000703,0.00012578,-0.00008248,0.00000179,-0
 .00003053,-0.00001838,-0.00004751,-0.00002538,0.00001105,0.00007691,-0
 .00002391,0.00000216,0.00001183,-0.00000495,0.00000304,-0.00000285,-0.
 00000806,0.00001190,0.00010560,0.00023549,0.00007137,0.00016709,-0.000
 06946,-0.00025012,-0.00003659,0.00005764,-0.00051585,-0.00004676,-0.00
 006792,-0.00012016,-0.00002482,0.00001220,-0.00001132,-0.00000263,-0.0
 0001728,0.00003015,-0.00001128,-0.00001308,-0.00000222,0.00001638,0.00
 004449,0.00002710,-0.00000574,0.00002609,0.00003066,-0.00001596,0.0000
 0420,-0.00002135,-0.00006927,0.00014505,-0.00064231,-0.00008897,-0.000
 09924,-0.00000235,0.00001694,-0.00001798,-0.00000523,0.00000017,-0.000
 02612,0.00001041,0.00001392,-0.00001337,-0.00000795,-0.00002269,-0.000
 05783,0.00004547,0.00001573,-0.00003062,0.00000573,-0.00001220,-0.0000
 5572,0.00006406,-0.00000218,0.00000239,-0.00000489,0.00000828,0.000007
 99,-0.00002442,0.00001687,0.00000364,0.00001004,0.00003816,0.00002269,
 -0.00005703,0.00010269,-0.00009970,0.00008940,-0.00019469,-0.00007418,
 -0.00007395,0.00939961,-0.00138439,0.00462579,0.00030674,-0.00007248,0
 .00227750,0.02329276,-0.04711725,0.00646045,0.00002690,-0.00005527,0.0
 0005000,-0.00016723,0.00010255,-0.00003454,0.00057557,0.00005281,0.000
 25366,0.00072107,0.00002976,0.00030940,-0.02887189,0.00084565,-0.00749
 281,-0.02857818,0.05162638,-0.00064959,-0.00009377,0.00005059,-0.00063
 336,0.00004829,-0.00044318,0.00115668,0.00103926,-0.00110828,-0.000002
 64,-0.00002455,0.00001919,-0.00002532,-0.00000857,0.00001316,-0.000025
 19,-0.00000190,0.00000740,0.00000475,0.00000344,0.00001603,0.00100844,
 -0.00138754,-0.00064336,0.00043088,-0.00002819,0.00043905,0.00008482,0
 .00004315,-0.00012247,-0.00053837,0.00004349,0.00022747,0.00013589,-0.
 00015904,-0.00008312,0.00000043,0.00004299,-0.00004351,-0.00004712,-0.
 00004381,0.00001912,0.00003392,-0.00001638,0.00004234,-0.00004423,0.00
 001001,-0.00000944,-0.00004913,-0.00000915,0.00002058,0.00044416,0.000
 38201,-0.00004653,-0.00007027,-0.00001793,-0.00002163,-0.00088445,0.00
 025636,0.00087300,0.00032271,0.00001226,0.00027784,0.00011047,0.000047
 26,0.00002995,-0.00007454,-0.00002164,-0.00000552,-0.00006432,-0.00000
 426,0.00004258,0.00008273,0.00002364,0.00003080,0.00007787,0.00007741,
 0.00012349,0.00000156,-0.00001528,-0.00004518,0.00006973,-0.00039540,-
 0.00046932,0.00003665,0.00010194,0.00000788,-0.00000307,-0.00000360,0.
 00000804,-0.00002237,-0.00004824,-0.00001060,0.00002189,-0.00000111,0.
 00001234,-0.00004657,-0.00015199,-0.00005008,-0.00001187,0.00000878,-0
 .00002282,-0.00001353,0.00001477,0.00001906,-0.00001370,-0.00004802,0.
 00000900,-0.00000327,-0.00000572,0.00000123,-0.00000267,-0.00000582,0.
 00000513,-0.00005673,-0.00007855,0.00001022,-0.00003511,0.00006544,-0.
 00003900,0.00005617,0.00004580,0.00011146,-0.02781938,0.00421581,-0.01
 236931,-0.00042516,0.00187006,-0.00599234,-0.06295462,0.00652595,-0.06
 010113,0.00030813,0.00004970,-0.00000764,0.00018171,-0.00003412,-0.000
 06778,-0.00163563,0.00048681,-0.00059188,-0.00037474,-0.00009273,0.000
 75895,0.00078835,-0.00073441,0.00129607,0.07366986,-0.00934779,0.07281
 559,-0.00010697,-0.00010104,-0.00001066,0.00016289,0.00041710,-0.00043
 997,-0.00002913,0.00045563,0.00023525,-0.00000442,-0.00001172,-0.00000
 102,-0.00000501,-0.00000031,-0.00000535,-0.00001127,-0.00000784,0.0000
 0158,0.00000959,0.00000673,-0.00001041,0.00038835,-0.00042611,-0.00012
 843,0.00004753,-0.00008624,0.00019423,-0.00001193,0.00001244,-0.000023
 59,-0.00019084,-0.00002196,0.00005490,-0.00002657,0.00002107,-0.000045
 25,0.00000300,0.00000031,-0.00000853,-0.00003645,0.00000105,0.00000925
 ,0.00003812,-0.00003214,0.00001739,0.00000684,-0.00000480,-0.00000108,
 -0.00000381,-0.00000355,0.00000048,0.00007417,0.00017017,0.00002605,0.
 00009640,-0.00004176,-0.00009478,-0.00005936,-0.00005343,0.00046111,-0
 .00019790,-0.00022493,0.00004667,0.00002098,0.00004282,0.00000083,0.00
 000147,-0.00000612,0.00001322,-0.00000724,0.00000781,0.00000760,0.0000
 3219,0.00000149,0.00002395,0.00000418,0.00000750,0.00004153,-0.0000001
 8,-0.00001611,-0.00003233,-0.00009720,0.00007491,0.00061629,-0.0000497
 8,-0.00011047,-0.00001301,0.00003064,-0.00000099,-0.00001165,-0.000003
 37,-0.00002511,-0.00000302,0.00001383,-0.00001048,-0.00000389,-0.00001
 129,-0.00011394,-0.00000866,0.00000974,-0.00002131,-0.00000026,-0.0000
 4092,-0.00000431,0.00002590,-0.00001173,-0.00002535,-0.00000611,0.0000
 1524,0.00000947,-0.00002577,0.00000438,0.00001340,0.00001684,0.0000193
 9,-0.00002661,-0.00002564,0.00001137,-0.00006717,0.00010399,-0.0001025
 5,0.00003095,0.00000045,-0.00011205,0.00022844,0.00118853,0.00052621,-
 0.00028288,-0.00090995,-0.09174546,0.07208841,0.06246321,-0.00002682,-
 0.00011337,-0.00000467,0.00009709,0.00014557,-0.00024811,-0.00012687,0
 .00002137,-0.00003586,-0.00014772,0.00005144,0.00027659,0.00663106,-0.
 01092516,-0.00826217,-0.01823484,0.02342403,0.01756626,0.10320151,0.00
 007480,0.00008327,0.00001146,-0.00012618,-0.00002713,0.00036545,-0.000
 05120,-0.00021969,-0.00016946,-0.00002818,0.00000840,-0.00002658,0.000
 00740,0.00000394,0.00001051,0.00000945,0.00001453,0.00000523,0.0000071
 2,-0.00000043,0.00001039,-0.00057933,0.00032507,0.00002282,-0.00001739
 ,0.00002098,-0.00014508,-0.00000304,0.00001307,0.00002537,0.00029221,0
 .00006015,0.00008952,0.00005007,-0.00000530,0.00004221,-0.00000155,-0.
 00000965,0.00000773,0.00003532,-0.00002089,-0.00000564,-0.00002192,0.0
 0000906,-0.00001417,0.00000007,-0.00000016,-0.00000596,0.00000211,0.00
 000364,-0.00000533,-0.00018243,-0.00024610,0.00004425,0.00006259,0.000
 07125,-0.00003408,0.00024620,0.00053914,0.00114724,0.00017400,0.000141
 46,-0.00007213,-0.00001584,-0.00004284,-0.00000837,0.00000563,-0.00000
 692,-0.00000995,-0.00001475,-0.00001066,-0.00000916,-0.00001453,0.0000
 1525,-0.00002492,0.00001125,-0.00000721,-0.00003294,-0.00000125,-0.000
 00068,0.00002351,0.00019978,-0.00018540,-0.00037235,0.00003131,0.00024
 057,0.00025949,-0.00000649,0.00000366,0.00000615,0.00000831,0.00001847
 ,0.00000593,-0.00001068,0.00000487,0.00000435,0.00004338,0.00013015,-0
 .00000241,0.00000640,-0.00000664,0.00001845,0.00001136,-0.00001117,-0.
 00003227,0.00000333,0.00002783,-0.00000145,-0.00000085,-0.00000438,0.0
 0000512,-0.00000023,0.00000157,-0.00000268,-0.00000329,0.00001626,0.00
 002031,-0.00002085,0.00003227,0.00001283,0.00001945,0.00000452,-0.0000
 0057,-0.00298507,0.00520366,0.00376168,-0.00032324,0.00035284,0.000383
 33,0.07141839,-0.15386688,-0.09433469,-0.00001117,-0.00028990,-0.00017
 254,-0.00006284,0.00028118,0.00008613,-0.00005466,-0.00007404,0.000144
 67,-0.00002718,0.00052635,0.00026605,0.01228494,-0.02554548,-0.0176339
 4,0.00394992,-0.00360680,-0.00282815,-0.08443619,0.17591293,0.00001112
 ,-0.00000685,-0.00002091,0.00045907,-0.00210330,0.00056050,0.00011745,
 -0.00045466,-0.00038215,-0.00004845,-0.00002065,-0.00000346,0.00000180
 ,0.00000680,0.00001529,0.00000426,0.00001093,0.00000821,-0.00001387,-0
 .00002138,0.00002650,-0.00062775,0.00026284,-0.00019046,-0.00052462,0.
 00041139,-0.00068784,0.00000039,0.00002129,0.00001512,0.00057576,0.000
 09527,0.00017762,0.00005637,0.00000185,0.00006969,0.00001545,0.0000072
 8,0.00000349,0.00002762,-0.00000758,0.00000304,-0.00000438,-0.00000627
 ,-0.00000824,0.00000056,-0.00000061,-0.00001451,0.00000039,-0.00000073
 ,-0.00001523,-0.00024280,-0.00017808,-0.00004893,-0.00003206,0.0000554
 8,0.00019394,0.00081389,0.00191176,-0.00727642,0.00036501,0.00076308,0
 .00011526,-0.00000161,-0.00004210,-0.00000345,-0.00001017,-0.00001328,
 -0.00001838,-0.00000510,0.00000373,-0.00000618,-0.00000253,0.00000998,
 -0.00002311,0.00000590,0.00001130,-0.00003251,-0.00001335,0.00003244,0
 .00002605,-0.00060261,0.00039423,0.00037948,0.00002434,0.00016818,0.00
 014068,-0.00003500,0.00000779,0.00001017,0.00000377,0.00002933,0.00000
 399,-0.00000755,0.00000698,0.00000137,0.00000817,0.00019450,-0.0000476
 7,0.00001247,0.00000310,0.00002812,0.00007330,-0.00002919,-0.00003660,
 0.00001452,0.00004279,0.00000405,-0.00003429,-0.00000999,0.00003155,0.
 00001163,-0.00003753,-0.00001995,-0.00002980,0.00003030,0.00002617,0.0
 0002541,0.00006630,-0.00009026,0.00005898,-0.00000729,0.00002292,0.013
 03341,-0.01878042,-0.02305555,0.00075438,-0.00068734,0.00090970,0.0625
 2547,-0.09483760,-0.12238533,-0.00012687,-0.00010227,-0.00012609,-0.00
 065990,0.00069228,-0.00016398,0.00016086,-0.00003663,0.00041071,0.0000
 8714,-0.00036675,0.00047717,-0.00057593,-0.00104189,0.00121529,-0.0025
 9059,0.00436145,0.00498682,-0.07305115,0.10917839,0.14478004,-0.001205
 07,-0.00144385,-0.00011672,-0.00046552,-0.00050168,-0.00003626,-0.0020
 3712,-0.00060546,-0.00101586,-0.00008227,0.00010696,-0.00001686,0.0000
 2896,-0.00000841,-0.00001512,-0.00001618,-0.00001025,0.00001137,-0.000
 04017,-0.00001128,0.00000569,-0.07660517,-0.03782946,-0.00457075,0.000
 35304,0.00025548,0.00038067,0.00018727,0.00020043,-0.00016712,-0.03439
 563,-0.03768322,-0.01283943,-0.00124538,-0.00083911,-0.00085374,0.0004
 6642,0.00008508,-0.00041643,-0.00010119,-0.00009762,0.00011721,-0.0000
 9069,-0.00025152,0.00023030,0.00006450,-0.00000537,0.00003535,-0.00005
 234,-0.00001308,0.00006619,0.00237879,0.00700274,0.00025972,-0.0008217
 7,-0.00141749,-0.00007417,-0.00022786,0.00014020,0.00076566,0.00059837
 ,0.00030520,0.00013477,0.00014715,0.00013391,-0.00034932,-0.00013535,0
 .00016548,0.00023169,0.00004065,-0.00014096,0.00010448,0.00026060,0.00
 012540,0.00016856,0.00026634,0.00038210,0.00032782,-0.00017483,0.00001
 036,0.00013763,0.00835399,0.01234159,-0.00108909,0.00038052,0.00079605
 ,-0.00003826,0.00003535,0.00003426,-0.00001351,0.00005215,-0.00002946,
 0.00001752,0.00002824,-0.00020998,-0.00004894,0.00046494,0.00069377,-0
 .00002482,0.00003603,0.00003393,0.00001660,0.00002994,0.00001949,-0.00
 003240,-0.00000340,-0.00000556,-0.00001002,-0.00000611,0.00001395,-0.0
 0001452,0.00001721,-0.00002532,0.00001538,-0.00001035,-0.00002585,0.00
 000626,0.00001419,-0.00002805,-0.00001246,-0.00002146,0.00000971,0.000
 01740,0.00018247,0.00011185,-0.00002784,-0.00005666,-0.00006904,-0.000
 02172,-0.00006272,-0.00010860,0.00001697,0.00004346,0.00002064,-0.0000
 0997,0.00002311,-0.00000724,-0.00001130,0.00000757,-0.00000182,0.00001
 859,-0.00007738,0.00012928,0.00005959,0.00001736,0.00008333,-0.0000356
 2,0.00001858,0.00000144,0.00000933,0.00001422,-0.00001206,-0.00002075,
 0.51812321,-0.00076193,-0.00068223,0.00032163,-0.00092455,-0.00056013,
 -0.00078655,0.00135697,0.00050937,-0.00069292,0.00013208,-0.00007000,0
 .00003174,0.00001231,-0.00000165,-0.00002973,0.00000099,-0.00001320,0.
 00002158,-0.00000263,-0.00000786,-0.00006649,-0.04330933,-0.15697985,-
 0.01593182,0.00049564,0.00035196,0.00062849,0.00020633,0.00017774,-0.0
 0013549,-0.01609274,-0.00698072,-0.00516153,-0.00034410,-0.00046873,-0
 .00029269,0.00022032,0.00006450,-0.00006946,-0.00004785,-0.00002786,-0
 .00005301,-0.00007650,-0.00009524,0.00018863,0.00000369,0.00000724,0.0
 0002442,-0.00004374,-0.00001275,0.00003471,0.00142828,0.00135370,0.000
 10485,-0.00016812,-0.00045837,-0.00046622,-0.00142111,0.00141471,-0.00
 029919,0.00049400,0.00031075,0.00004928,0.00015797,0.00013285,-0.00002
 504,0.00000536,0.00010301,0.00011427,0.00007131,0.00001523,0.00004294,
 0.00006025,0.00001917,0.00010950,0.00003852,0.00013993,0.00001398,-0.0
 0015471,-0.00026767,0.00019445,-0.00482399,-0.05054716,-0.00447057,0.0
 0066643,-0.00054865,-0.00010923,0.00003224,-0.00000400,-0.00000972,-0.
 00009283,-0.00007855,-0.00004016,0.00001081,-0.00006182,-0.00008771,-0
 .00073952,-0.00071083,0.00025536,-0.00005070,0.00002040,-0.00013185,-0
 .00009876,0.00007250,0.00014944,-0.00002564,-0.00015515,0.00003383,-0.
 00000829,0.00000416,-0.00000665,0.00000628,0.00001245,-0.00002849,-0.0
 0004306,-0.00010941,-0.00001550,-0.00001586,0.00003654,-0.00000250,0.0
 0001253,0.00003688,0.00003554,-0.00007572,-0.00004930,0.00025540,-0.00
 006932,0.00002503,-0.00009109,-0.00002747,0.00002750,0.00013368,0.0001
 0244,0.00003103,-0.00001876,0.00006179,-0.00003193,-0.00000466,-0.0000
 0960,-0.00001341,-0.00002654,0.00011783,0.00025778,-0.00006835,0.00009
 937,0.00006059,-0.00003175,0.00004546,-0.00011228,0.00014223,0.0000115
 9,-0.00003138,-0.00004670,-0.03650681,0.46154460,-0.00209044,-0.001657
 43,0.00056283,0.00054389,0.00047331,-0.00067694,0.00019729,0.00154891,
 0.00395939,-0.00002290,-0.00000353,-0.00001158,0.00002623,0.00000471,-
 0.00002266,0.00000303,0.00000656,-0.00004254,0.00001931,0.00002009,-0.
 00002638,-0.00678135,-0.01490065,-0.06805941,-0.00005438,-0.00010297,0
 .00033333,0.00006803,0.00016918,0.00009838,-0.00985848,-0.00893481,0.0
 0654298,0.00056192,-0.00010061,-0.00024078,-0.00001246,-0.00005925,0.0
 0029399,0.00001165,0.00004262,-0.00024360,0.00018188,0.00007745,0.0001
 0573,0.00000536,-0.00001949,-0.00000615,0.00002605,0.00002752,0.000020
 84,0.00036100,0.00067827,0.00151159,0.00010854,0.00025719,-0.00109122,
 0.00142158,-0.00043729,-0.00114638,-0.00019481,-0.00040526,-0.00005003
 ,0.00017372,0.00023364,-0.00005761,0.00004003,0.00016660,0.00013672,0.
 00001817,-0.00013073,0.00000519,0.00033685,-0.00007349,0.00039076,-0.0
 0058893,0.00007424,0.00080693,0.00014629,-0.00005476,0.00004721,-0.003
 01478,-0.00209680,0.00940420,0.00018207,0.00017142,0.00008839,0.000006
 33,0.00003119,-0.00000546,-0.00003167,-0.00002646,0.00000271,-0.000095
 71,-0.00005258,-0.00013845,-0.00000412,0.00024313,-0.00064530,0.000044
 68,0.00011727,-0.00001418,-0.00005992,-0.00003958,0.00005270,-0.000014
 57,-0.00000466,-0.00002389,-0.00000056,0.00000262,-0.00000421,0.000019
 48,-0.00001434,0.00001758,0.00001536,-0.00004433,-0.00003597,0.0000076
 0,-0.00001262,0.00000680,-0.00002453,0.00001242,0.00000966,-0.00003374
 ,0.00022148,0.00003645,-0.00004720,-0.00000525,0.00001554,-0.00009211,
 0.00004283,0.00005554,0.00003519,0.00000152,0.00000544,-0.00000943,-0.
 00001177,-0.00000573,-0.00000026,0.00001098,-0.00000871,-0.00001768,0.
 00007477,0.00006173,0.00001607,-0.00001065,-0.00006251,-0.00005342,0.0
 0003116,-0.00002570,0.00001855,-0.00001260,0.00000144,0.00317171,-0.01
 275601,0.48821231,-0.00018676,-0.00021339,0.00003291,0.00045562,0.0002
 4163,-0.00013127,-0.00007242,0.00005645,0.00003961,0.00001905,0.000006
 15,0.00000970,0.00004161,0.00001081,-0.00001004,0.00003712,0.00002220,
 -0.00000603,0.00000848,-0.00000603,-0.00000448,-0.00527911,-0.00603324
 ,-0.01301085,-0.00016438,-0.00008836,0.00010180,0.00004306,0.00003456,
 -0.00001519,-0.00154055,-0.00247404,0.00044248,-0.00000244,-0.00004379
 ,-0.00000827,0.00005899,-0.00000061,0.00001214,0.00001961,0.00003440,-
 0.00001348,0.00005431,0.00000206,0.00004850,0.00002477,-0.00000226,0.0
 0001052,0.00000657,0.00000511,0.00001075,0.00013687,0.00021724,0.00003
 322,-0.00022014,0.00005826,-0.00003587,0.00038174,0.00014849,0.0000044
 1,-0.00022705,-0.00015595,0.00006857,0.00011478,-0.00003264,0.00002697
 ,0.00001525,0.00008276,0.00003253,-0.00001550,-0.00004887,0.00000808,0
 .00003218,0.00008550,0.00007078,-0.00021044,0.00012021,0.00016377,-0.0
 0014443,-0.00045420,0.00016771,-0.00085342,0.00146243,0.00032967,-0.00
 036184,0.00067257,0.00030866,-0.00000187,0.00000948,0.00000210,-0.0000
 0054,0.00000935,-0.00000184,-0.00006167,0.00002579,-0.00011650,0.00003
 229,-0.00001558,-0.00004178,0.00000432,0.00000841,-0.00001061,0.000002
 94,0.00001472,0.00001279,0.00000153,0.00000178,0.00000293,-0.00000624,
 -0.00000172,0.00000313,-0.00000036,0.00000286,-0.00000385,0.00000213,0
 .00000272,0.00000165,-0.00001517,0.00000821,0.00000217,0.00000400,0.00
 000594,0.00001407,-0.00011898,-0.00008477,0.00000677,-0.00001316,0.000
 02363,0.00000415,-0.00001402,0.00002347,0.00001338,-0.00001885,0.00000
 556,0.00002111,-0.00000465,-0.00001716,-0.00000991,0.00000317,0.000014
 74,-0.00000108,0.00001114,-0.00005922,-0.00004007,0.00003453,-0.000024
 99,0.00001717,-0.00003509,-0.00001212,-0.00002019,-0.00000358,0.000012
 64,-0.00000916,-0.06788551,-0.00041606,-0.07959607,0.07785633,-0.00031
 655,-0.00031094,0.00017445,-0.00020221,-0.00067368,-0.00064761,-0.0004
 2436,-0.00029534,0.00047189,0.00002836,0.00002529,-0.00000854,0.000035
 23,0.00000700,-0.00000420,0.00002746,0.00001276,-0.00000823,0.00000150
 ,-0.00002446,-0.00001088,-0.00961670,-0.00418727,-0.02624665,0.0002276
 4,0.00047057,0.00051618,0.00006966,0.00007646,0.00001171,-0.00195391,-
 0.00308539,-0.00010152,-0.00001238,-0.00006861,-0.00001057,0.00003655,
 0.00001350,0.00003015,0.00005915,-0.00001962,-0.00004751,0.00003341,-0
 .00004443,0.00004178,0.00001628,0.00000263,0.00001244,0.00000751,0.000
 01001,0.00000491,-0.00004938,0.00008514,0.00014351,0.00007680,0.000104
 94,0.00000327,0.00026958,-0.00038936,0.00015165,0.00010043,0.00015948,
 0.00018032,0.00004869,0.00002164,-0.00000768,0.00003797,0.00006773,0.0
 0003820,0.00003879,-0.00004934,0.00002167,0.00006968,0.00006179,0.0000
 5902,-0.00016639,0.00002475,0.00019328,-0.00032148,-0.00018952,0.00011
 916,-0.00191459,0.00058403,0.00087790,0.00091956,-0.00040569,-0.000390
 35,0.00000826,0.00001362,-0.00000930,-0.00000285,0.00000625,-0.0000030
 5,-0.00003288,-0.00002118,-0.00000824,-0.00004903,-0.00003313,-0.00016
 057,0.00000258,0.00002889,-0.00001628,-0.00002056,0.00001897,0.0000199
 5,0.00000279,-0.00000173,-0.00000002,-0.00000824,-0.00000073,-0.000006
 25,-0.00000043,-0.00001007,-0.00000679,0.00000429,-0.00000418,-0.00000
 582,-0.00001315,0.00000327,-0.00000197,0.00000042,0.00001435,0.0000229
 6,0.00009164,0.00014867,-0.00003559,-0.00000933,0.00002628,0.00002454,
 -0.00003748,0.00000938,-0.00000197,0.00002649,0.00001161,-0.00001179,-
 0.00003517,0.00002496,0.00001701,0.00001629,-0.00002298,0.00001183,-0.
 00003729,0.00012438,0.00005188,0.00000954,0.00000163,-0.00001295,-0.00
 000932,0.00002009,0.00003370,-0.00000333,0.00001052,0.00004979,-0.0017
 2816,-0.04051294,-0.01315760,0.00447838,0.04626084,-0.00000856,0.00002
 292,0.00008073,0.00017707,-0.00017791,0.00019292,-0.00021324,-0.000065
 00,-0.00016892,0.00000985,0.00004366,0.00000649,0.00001994,-0.00000992
 ,-0.00001478,0.00002251,0.00000700,-0.00002604,-0.00001060,0.00000591,
 0.00000172,-0.00571789,-0.00465967,-0.00650817,0.00012614,0.00015080,0
 .00004330,0.00004169,0.00004310,-0.00000278,0.00055371,-0.00116481,0.0
 0028672,0.00005221,-0.00004694,0.00000195,0.00007330,-0.00005872,0.000
 00786,0.00004533,0.00004435,-0.00000577,0.00006410,0.00001487,0.000004
 28,0.00000841,-0.00000418,0.00001086,0.00001981,0.00000447,0.00002723,
 0.00010070,0.00032391,0.00008468,-0.00011133,0.00003143,-0.00016099,-0
 .00026317,-0.00038811,0.00004086,0.00006648,0.00002743,-0.00007132,0.0
 0006093,-0.00003567,0.00002660,-0.00003474,0.00004571,0.00000284,0.000
 00397,-0.00000060,-0.00000404,0.00003565,0.00001156,0.00004849,-0.0001
 1337,0.00003689,-0.00005798,0.00000166,-0.00009862,0.00026772,-0.00041
 232,0.00040503,0.00054294,0.00072171,-0.00014666,0.00011490,-0.0000019
 2,0.00001077,0.00000442,0.00000137,0.00000183,0.00000632,-0.00006915,0
 .00000905,-0.00006279,0.00001807,-0.00000429,0.00002497,0.00000021,0.0
 0002244,-0.00001776,-0.00000502,0.00003231,0.00001593,0.00000475,0.000
 00090,0.00000862,-0.00000057,0.00000400,-0.00000070,-0.00000485,-0.000
 00007,0.00000300,0.00000245,-0.00000668,0.00000717,-0.00000861,-0.0000
 0067,0.00000363,0.00000249,0.00000359,0.00002131,0.00007579,0.00004503
 ,-0.00004654,-0.00000744,0.00000055,0.00004210,-0.00002976,-0.00002033
 ,-0.00002992,0.00004741,0.00000996,-0.00002515,-0.00002156,0.00003666,
 0.00000630,0.00000610,-0.00000919,0.00003145,0.00001400,0.00009767,0.0
 0004982,-0.00002255,0.00001319,-0.00006080,0.00001284,0.00005161,0.000
 00735,-0.00001208,0.00002146,0.00003434,-0.07669201,-0.00844294,-0.253
 99822,0.09001532,0.01209810,0.29134642,0.00004830,0.00034187,0.0000177
 5,-0.00017916,-0.00018263,0.00007189,-0.00003800,-0.00014052,-0.000071
 57,0.00000274,-0.00001684,0.00000273,0.00001597,-0.00001411,-0.0000096
 3,-0.00000267,0.00004347,0.00001952,-0.00000524,0.00002865,-0.00002797
 ,0.00765244,-0.00551236,0.00164943,0.00007589,0.00011029,0.00001366,0.
 00012114,0.00005366,-0.00004545,0.00164454,-0.00014652,0.00049908,0.00
 000798,-0.00007635,0.00007255,0.00005863,0.00001339,0.00002802,-0.0000
 3860,0.00004531,-0.00000549,0.00002475,-0.00006556,-0.00004237,0.00000
 109,-0.00001731,0.00001779,-0.00001720,0.00001545,-0.00001795,-0.00000
 525,-0.00025022,-0.00006411,-0.00013512,0.00010345,0.00007968,-0.00020
 607,-0.00004117,-0.00001250,0.00019363,0.00015538,-0.00002316,0.000018
 58,0.00005912,-0.00007256,0.00000375,0.00002164,-0.00002800,-0.0000005
 2,0.00002803,-0.00006051,-0.00000479,-0.00010315,0.00004840,0.00005772
 ,-0.00008924,0.00005742,0.00000026,0.00006401,-0.00006259,-0.00101567,
 -0.00287801,-0.00079800,0.00021645,0.00018731,0.00007560,0.00002636,-0
 .00000345,-0.00000639,0.00000738,0.00000238,-0.00000488,-0.00019462,-0
 .00010902,0.00007724,-0.00006963,-0.00008466,0.00001250,-0.00000994,-0
 .00000780,0.00000688,-0.00000860,-0.00001054,-0.00000718,0.00000411,0.
 00000647,0.00000207,0.00000182,0.00000252,-0.00000338,-0.00000278,-0.0
 0000111,-0.00000268,0.00000324,0.00000582,0.00000340,0.00000209,-0.000
 00005,0.00000429,0.00000018,0.00000709,0.00000515,0.00010015,-0.000014
 35,-0.00003045,0.00002180,-0.00000156,0.00001601,-0.00001958,-0.000009
 89,0.00000168,0.00004794,-0.00000372,-0.00000608,-0.00000750,0.0000249
 4,0.00001492,0.00000792,-0.00001385,0.00001155,-0.00001831,0.00007398,
 0.00003133,0.00005386,-0.00000831,-0.00006813,-0.00002427,0.00000674,0
 .00000213,0.00001093,0.00002695,0.00001333,-0.16601566,0.12296488,-0.0
 2475672,-0.00919966,0.00877069,-0.00394658,0.18743949,0.00050064,0.001
 05093,-0.00026545,-0.00004748,0.00003196,-0.00005590,0.00060305,0.0001
 1923,-0.00017802,0.00008366,0.00007434,-0.00000569,0.00002368,-0.00001
 619,-0.00003051,0.00003921,0.00005154,-0.00003384,0.00000620,0.0000483
 7,-0.00006245,0.01947475,-0.02612668,0.00357397,-0.00003682,-0.0000082
 8,-0.00004840,0.00010316,0.00010493,-0.00002768,0.00126199,0.00294895,
 0.00049384,0.00007923,-0.00017990,0.00025822,-0.00004386,-0.00003170,0
 .00012080,0.00011542,0.00004865,-0.00001608,-0.00009839,-0.00005076,-0
 .00014459,-0.00003441,-0.00000227,0.00003513,0.00002378,0.00005075,0.0
 0002058,-0.00004424,-0.00050058,-0.00000347,-0.00003748,0.00010960,0.0
 0001682,-0.00066745,0.00004222,-0.00027995,-0.00000924,0.00004386,-0.0
 0003003,-0.00000300,0.00001067,0.00002050,0.00010416,0.00008627,-0.000
 05629,-0.00007260,-0.00008582,-0.00005715,-0.00001494,-0.00011498,0.00
 001901,0.00000933,-0.00013627,0.00001698,0.00014560,-0.00027471,0.0001
 1657,-0.00243495,-0.00752085,-0.00063793,-0.00021529,0.00015721,-0.000
 05757,0.00000152,0.00003889,0.00000958,-0.00003425,0.00000108,-0.00002
 226,-0.00039486,0.00010567,0.00001751,-0.00022412,-0.00033112,0.000086
 24,-0.00001535,0.00000791,-0.00003796,-0.00001515,0.00004428,0.0000486
 0,-0.00000600,-0.00003513,0.00000610,0.00000458,0.00000657,-0.00000184
 ,-0.00001532,0.00002586,-0.00001405,-0.00001146,-0.00001743,0.00000147
 ,-0.00002616,0.00003138,0.00000403,0.00001591,0.00001419,0.00001941,-0
 .00002072,-0.00001231,0.00004584,0.00002282,0.00003111,-0.00000088,0.0
 0003162,0.00001807,-0.00003777,-0.00001292,-0.00000133,0.00000349,-0.0
 0000860,-0.00000158,-0.00000964,-0.00001870,0.00001380,-0.00001320,0.0
 0002502,0.00009131,0.00000111,-0.00000659,-0.00002592,0.00002643,0.000
 01111,-0.00001552,0.00007158,-0.00000093,0.00000261,0.00001018,0.12199
 131,-0.16169495,0.02516395,0.00153485,0.00031516,0.00154034,-0.1411875
 3,0.18883480,0.00000967,0.00002302,0.00003968,-0.00002637,-0.00013626,
 0.00009900,0.00002587,0.00012082,0.00012188,-0.00000132,-0.00000131,-0
 .00000356,-0.00000177,-0.00001003,0.00000452,-0.00000993,-0.00000807,0
 .00000486,-0.00001050,-0.00000732,0.00000168,0.00293340,-0.00307028,0.
 00112891,0.00001598,0.00004674,-0.00000236,0.00002000,0.00002108,-0.00
 001766,0.00080669,0.00027512,-0.00048247,-0.00000378,-0.00007477,0.000
 00058,-0.00000996,0.00002061,0.00000057,0.00001819,-0.00001419,-0.0000
 1639,-0.00006282,-0.00004756,-0.00002637,-0.00001566,0.00000115,0.0000
 1004,-0.00000096,0.00000610,-0.00000758,-0.00009306,-0.00029298,0.0001
 6428,0.00005656,0.00012648,-0.00023753,-0.00012506,-0.00000987,0.00016
 393,0.00005201,-0.00004779,-0.00000753,0.00001883,0.00004827,-0.000016
 36,-0.00003179,-0.00003236,-0.00001206,0.00005408,0.00003217,0.0000132
 7,-0.00000704,-0.00002570,-0.00008605,0.00000726,-0.00003863,-0.000051
 72,-0.00014390,0.00011755,-0.00007317,-0.00068462,-0.00128985,0.000597
 17,0.00010130,0.00010010,-0.00021716,0.00000536,-0.00000341,-0.0000067
 7,-0.00000079,-0.00000461,0.00000037,0.00013528,0.00001248,0.00015088,
 -0.00004323,-0.00005100,0.00003478,-0.00000381,0.00000585,0.00000090,-
 0.00000807,-0.00000425,0.00000904,0.00000199,0.00000215,0.00000457,0.0
 0000159,0.00000077,-0.00000326,0.00000033,-0.00000132,-0.00000012,-0.0
 0000091,-0.00000519,0.00000171,0.00000639,0.00000038,0.00000250,-0.000
 00031,-0.00000066,0.00000622,0.00001077,0.00005184,-0.00000700,0.00000
 773,0.00000729,0.00000806,0.00001172,-0.00001993,-0.00002208,-0.000002
 46,0.00000449,-0.00001077,-0.00000688,0.00000859,0.00000978,0.00000236
 ,-0.00001141,0.00000164,-0.00000268,0.00003260,0.00000982,-0.00003399,
 0.00002369,0.00002359,0.00002296,0.00000367,0.00002631,-0.00000514,-0.
 00001714,0.00001550,-0.02483760,0.02544012,-0.04884301,-0.02276761,0.0
 2141231,-0.00678323,0.02895279,-0.02872735,0.05185337,0.00023005,0.000
 08284,-0.00008988,0.00001805,-0.00008291,-0.00008077,-0.00017469,-0.00
 010742,-0.00016680,0.00004118,0.00000768,0.00002485,0.00000938,-0.0000
 0595,-0.00000969,0.00000019,-0.00001547,-0.00000924,-0.00000181,0.0000
 0345,-0.00001608,-0.01274712,-0.00828797,0.00757940,0.00007388,0.00004
 469,0.00001348,-0.00000234,-0.00001444,-0.00000394,-0.00089656,-0.0029
 8879,-0.00124165,-0.00031085,-0.00009683,-0.00005861,0.00003201,0.0000
 4435,-0.00008297,-0.00002242,0.00002444,0.00002098,-0.00010747,-0.0000
 3048,0.00002915,0.00001555,-0.00000220,0.00001455,0.00001251,0.0000026
 8,0.00000377,0.00011348,0.00059693,0.00005482,-0.00007512,-0.00013890,
 -0.00005278,0.00024415,-0.00002479,0.00042191,-0.00012975,-0.00010089,
 -0.00000083,-0.00001705,0.00003599,-0.00005365,0.00000476,0.00003033,-
 0.00001151,0.00007999,0.00000470,0.00000755,-0.00001033,-0.00004342,-0
 .00004032,0.00000597,0.00001035,-0.00005752,-0.00009233,0.00003756,-0.
 00006828,-0.00025546,0.00167215,-0.00077827,0.00015975,0.00028303,-0.0
 0012470,0.00001390,0.00001766,-0.00000761,0.00000444,-0.00000881,-0.00
 000673,0.00010539,-0.00000939,0.00004673,0.00004633,-0.00006076,0.0000
 3839,-0.00000188,0.00001322,-0.00001568,0.00000144,0.00003080,0.000032
 99,-0.00000254,-0.00001304,-0.00000197,0.00000458,0.00001025,-0.000011
 07,-0.00000518,0.00000863,-0.00000157,0.00000043,-0.00000222,-0.000002
 54,-0.00000944,-0.00000119,0.00000461,-0.00000651,-0.00000308,0.000013
 49,0.00008204,0.00012470,0.00005347,-0.00001470,0.00003130,-0.00001752
 ,0.00004571,0.00004670,-0.00003315,-0.00000679,0.00002743,-0.00000171,
 -0.00001175,-0.00001435,-0.00000053,-0.00002478,0.00000149,-0.00000553
 ,-0.00003336,0.00003097,0.00002321,0.00011153,0.00012044,0.00004301,-0
 .00007945,-0.00014113,-0.00005839,-0.00006605,0.00001804,0.00000809,-0
 .18079885,-0.02246473,0.11968839,0.00725543,0.00144955,-0.00469867,-0.
 02065231,-0.00045382,0.01566292,0.20784476,0.00008379,0.00008223,-0.00
 019923,-0.00027025,-0.00020201,0.00033141,-0.00063818,-0.00062495,-0.0
 0068487,0.00002691,0.00002927,0.00000275,0.00000693,0.00000806,0.00000
 126,0.00000603,0.00000708,0.00000602,-0.00000026,0.00002821,-0.0000178
 4,-0.02081413,-0.00621193,0.01769350,0.00013313,0.00012183,-0.00004556
 ,0.00005524,0.00000656,-0.00001123,-0.00245554,-0.00374964,-0.00150043
 ,-0.00028516,-0.00011826,-0.00007450,0.00005682,0.00001792,-0.00011824
 ,0.00002277,-0.00003398,0.00005068,-0.00006536,-0.00005519,0.00000416,
 0.00000835,0.00000330,0.00000623,-0.00000303,-0.00000350,0.00000553,0.
 00008459,0.00056083,-0.00023848,0.00005011,-0.00010755,0.00012752,-0.0
 0039505,-0.00022680,0.00023658,0.00037337,0.00030351,-0.00008858,-0.00
 001063,-0.00000943,-0.00003513,0.00000883,0.00002158,0.00004301,-0.000
 01930,-0.00000823,0.00001404,0.00002219,0.00002739,-0.00000183,0.00004
 615,0.00000466,0.00004730,0.00000375,-0.00001356,-0.00007328,-0.000064
 43,0.00086103,-0.00209203,0.00064293,-0.00034021,0.00053988,0.00001840
 ,0.00000363,-0.00001270,0.00000835,-0.00000069,-0.00000397,-0.00004115
 ,-0.00006377,0.00000301,-0.00000365,-0.00003544,0.00011337,-0.00000635
 ,-0.00000047,-0.00000782,0.00000156,0.00001932,0.00000439,-0.00000081,
 -0.00000783,0.00000097,0.00000693,0.00000651,-0.00001273,-0.00000947,0
 .00000410,-0.00000169,-0.00000287,0.00000030,0.00000510,-0.00000675,-0
 .00000419,0.00000702,-0.00000771,0.00000321,0.00001358,0.00003729,-0.0
 0018624,0.00009054,-0.00000952,-0.00000325,-0.00001037,-0.00009898,-0.
 00005630,0.00000994,0.00008722,0.00002433,0.00000564,-0.00001441,0.000
 02670,0.00000256,-0.00002404,0.00001746,-0.00001215,-0.00000368,0.0001
 1650,-0.00002083,0.00032620,0.00006733,-0.00018721,-0.00012044,-0.0001
 1477,-0.00005446,-0.00003807,0.00014024,-0.00000194,-0.02557721,-0.045
 44160,0.02522049,0.00074163,0.00158403,0.00012244,0.01782635,0.0026221
 0,-0.01399217,0.03030062,0.05090054,-0.00014291,-0.00013404,-0.0000241
 6,0.00017713,0.00010764,-0.00013280,0.00006627,0.00010437,-0.00018498,
 -0.00002037,-0.00001667,-0.00001032,0.00000460,0.00001320,0.00000908,0
 .00000157,0.00001692,0.00001958,0.00000413,0.00000351,0.00001208,-0.00
 087272,0.00002596,0.00351147,-0.00016039,-0.00008613,-0.00001225,0.000
 02041,0.00000559,-0.00003604,-0.00130166,-0.00056225,-0.00057701,0.000
 02324,-0.00004390,-0.00000445,0.00000715,0.00000953,-0.00002604,0.0000
 2074,-0.00002734,0.00001729,-0.00000127,0.00000297,0.00000937,-0.00000
 434,0.00000704,-0.00000123,-0.00001751,-0.00000167,-0.00000623,-0.0001
 2681,-0.00037048,-0.00013055,0.00001194,0.00015147,-0.00011269,0.00043
 727,0.00031890,0.00007507,-0.00019976,-0.00021148,0.00016242,0.0000680
 3,-0.00002167,0.00003477,-0.00002712,-0.00001671,0.00003729,-0.0000677
 1,-0.00000226,0.00001163,0.00002095,0.00007354,-0.00000183,-0.00001583
 ,0.00004955,0.00006803,-0.00002107,-0.00012743,0.00000542,-0.00035937,
 0.00047545,0.00029231,-0.00065277,0.00041965,-0.00022150,-0.00000452,-
 0.00001561,0.00000004,-0.00000048,0.00000555,0.00000283,-0.00002133,0.
 00001211,-0.00003419,-0.00000215,0.00001758,0.00007875,0.00000101,-0.0
 0001669,0.00001633,0.00000783,-0.00002510,-0.00001560,0.00000073,0.000
 01122,0.00000473,-0.00000096,-0.00000545,0.00000555,0.00000135,0.00000
 250,0.,-0.00000457,0.00000237,0.00000691,0.00000619,0.00000559,0.00000
 540,0.00000087,-0.00000065,-0.00000471,-0.00012826,-0.00004243,0.00003
 184,0.00001547,0.00001996,-0.00003146,-0.00001098,0.00002291,-0.000000
 11,-0.00006234,-0.00000947,0.00002979,0.00000685,-0.00003434,-0.000007
 61,-0.00000072,0.00001293,-0.00002568,-0.00000204,-0.00010080,-0.00007
 613,0.00005213,-0.00008746,0.00008846,-0.00003443,-0.00003211,0.000011
 76,0.00001793,-0.00000548,-0.00003700,0.11708614,0.02207327,-0.1372997
 1,0.02381459,0.00412837,-0.02536035,-0.00163452,-0.00089235,0.00242476
 ,-0.13597561,-0.02520968,0.15740167\\0.00002524,0.00002588,0.00000362,
 -0.00000318,0.00000170,-0.00002886,-0.01374075,0.00251734,-0.01798061,
 0.00000105,-0.00000661,-0.00000029,-0.00000612,-0.00000221,0.00000356,
 0.00000410,-0.00000201,0.00000069,0.00000448,0.00000237,-0.00000357,0.
 00001364,-0.00001270,-0.00000558,0.00001055,0.00000162,0.00000996,0.00
 001699,-0.00000706,0.00000245,0.00654804,0.01934393,0.00192082,-0.0000
 0070,0.00000594,-0.00000014,-0.00001288,-0.00001001,0.00000134,-0.0000
 0068,-0.00000232,-0.00000235,0.00000331,-0.00000310,0.00000173,0.00000
 264,0.00000279,-0.00000190,0.00000121,0.00000221,-0.00000467,0.0017040
 6,0.01081002,0.01939151,0.00083767,-0.03226885,-0.01267403,0.00001107,
 -0.00001027,-0.00000674,0.00635263,-0.00089867,0.00911315,-0.00002055,
 -0.00001445,0.00000710,0.00000129,0.00000986,0.00000257,0.00000743,-0.
 00000350,-0.00000175,-0.00001740,0.00000090,0.00000022,0.00000620,-0.0
 0000020,-0.00001030,-0.00000141,-0.00000226,-0.00000212,-0.00467756,-0
 .00709776,0.00081374,-0.00000291,-0.00000226,0.00000347,-0.00000008,-0
 .00000244,-0.00000034,-0.00000137,-0.00000232,0.00000136,0.00000826,-0
 .00000177,-0.00000009,0.00292911,0.00760784,-0.00056630,0.00000648,-0.
 00000095,-0.00000488,-0.00000508,0.00000357,-0.00000819,-0.00000115,0.
 00000059,0.00000012,0.00000471,0.00000610,0.00000421,-0.00000038,0.000
 00304,0.00000248,0.00000067,-0.00000094,-0.00000019,0.00000135,-0.0000
 0151,-0.00000046,0.00000277,-0.00000404,0.00000697,-0.00000775,0.00001
 380,0.00000642,0.00000828,0.00000715,0.00000586,-0.00000453,0.00000096
 ,-0.00000120,-0.00000450,0.00000063,-0.00000191,-0.00000149,-0.0000079
 1,-0.00000101,-0.00000128,0.00000065,0.00000011,-0.00000568,-0.0000048
 4,-0.00000024,-0.00000258,0.00000026,0.00000064,0.00000244,0.00000120,
 0.00000108,0.00000235,0.00000013,0.00000168,-0.00000308,-0.00000095,0.
 00000627,-0.00000043,0.00000040,-0.00000134,0.00000214,0.00000126,0.00
 000054,0.00000335,-0.00000021,-0.00000459\\\@
 The archive entry for this job was punched.


 When I told the people of Northern Ireland that I was
 an atheist, a woman in the audience stood up and said,
 "Yes, but is it the God of the Catholics or the God
 of the Protestants in whom you don't believe?"
                               -- Quentin Crisp
 Job cpu time:       0 days  0 hours  0 minutes  0.3 seconds.
 Elapsed time:       0 days  0 hours  0 minutes  5.5 seconds.
 File lengths (MBytes):  RWF=      6 Int=      0 D2E=      0 Chk=      2 Scr=      1
 Normal termination of Gaussian 16 at Mon Oct 14 23:22:12 2024.
