%chk=3-tsopt.chk
#p opt(ts,calcfc,noeigen,nomicro) external='./xtb.sh'

Generate automatically by rxnb

0 1
Fe           2.037170       -0.435290        0.000630
C           -2.600980       -0.130580       -1.549460
Pd          -0.465540        0.508200        0.122740
C            1.732780        2.325290        0.203660
H            4.345460       -1.459300       -0.710890
H            3.620070        0.875190       -1.679660
H            1.007290        0.741290       -2.309080
C           -0.910800       -2.250050        0.387010
O           -3.314940       -0.362010       -2.507680
C            1.998760        1.139610        1.052830
O            0.340330       -2.181880        0.677680
C            1.944180       -0.923600        1.949260
C            3.240660       -0.686610        1.522860
C            3.296970        0.614830        1.005690
H            1.638520       -1.880800        2.308260
H            4.020620       -1.410880        1.524060
H            4.139550        1.066930        0.536510
H            0.763200       -0.935270        0.801750
C            1.061120        0.154490        1.571690
C           -2.861200       -0.846950       -0.175150
O           -1.616150        0.670440       -1.524690
C            1.605140       -0.028600       -1.869600
C            2.987300        0.020740       -1.604940
C            3.386260       -1.231780       -1.109280
C            2.252110       -2.051300       -1.053190
C            1.164780       -1.327610       -1.568860
H            0.177340       -1.700090       -1.729150
N           -1.548940       -1.141940        0.307650
H           -3.494640       -1.733200       -0.298460
H            2.214070        2.084510       -0.745590
H            2.182410        3.245320        0.612000
H            2.195560       -2.980440       -0.539060
N            0.306000        2.496170       -0.022800
C            0.038360        3.260180       -1.230290
C           -0.326910        3.143970        1.122560
H            0.374730        4.301000       -1.125200
H            0.554680        2.812690       -2.077430
H           -1.029580        3.249800       -1.444280
H            0.025900        4.181060        1.231920
H           -1.411580        3.161820        0.988250
H           -0.083790        2.595910        2.034100
C           -3.530560        0.182400        0.760810
C           -4.962270        0.450710        0.311450
C           -3.480510       -0.287090        2.215690
H           -5.576280       -0.435650        0.461370
H           -5.396580        1.269670        0.882090
H           -4.989340        0.705260       -0.745590
H           -2.941460        1.122180        0.688960
H           -3.994000       -1.240720        2.326970
H           -2.443990       -0.407400        2.537850
H           -3.964860        0.441610        2.862920
C           -1.535420       -3.600890        0.145990
H           -1.911490       -3.657970       -0.873850
H           -0.780470       -4.365330        0.299360
H           -2.365120       -3.761690        0.830760


