%chk=4-tsfreq.chk
#p freq external='./xtb.sh'

Generate automatically by rxnb

0 1
Fe          -2.008210       -0.397980       -0.061610
C            2.674070       -0.255690        1.521100
Pd           0.466850        0.483240       -0.095760
C           -1.858010        2.276890       -0.124340
H           -4.389640       -1.531240        0.202800
H           -3.931240        0.765080        1.392730
H           -1.468810        0.689930        2.432850
C            1.067780       -2.337510       -0.328720
O            3.486510       -0.550150        2.379190
C           -1.997270        1.197700       -1.125290
O           -0.160930       -2.533460       -0.444270
C           -1.488520       -0.837270       -1.900410
C           -2.870030       -0.783960       -1.751050
C           -3.201530        0.493990       -1.262920
H           -0.975840       -1.743750       -2.118420
H           -3.518360       -1.621030       -1.851050
H           -4.159620        0.818710       -0.931360
H           -0.585480       -0.617270        0.196260
C           -0.889540        0.408390       -1.559350
C            2.870930       -0.723400        0.038150
O            1.612430        0.425040        1.690240
C           -1.949230       -0.080370        1.875800
C           -3.254430       -0.058430        1.378800
C           -3.508810       -1.290560        0.747240
C           -2.360450       -2.076330        0.851170
C           -1.392770       -1.350220        1.571810
H           -0.453090       -1.731100        1.907580
N            1.555530       -1.123440       -0.394380
H            3.603130       -1.535460       -0.023490
H           -2.432910        1.925300        0.727780
H           -2.242910        3.253370       -0.455910
H           -2.160710       -2.964840        0.303150
N           -0.443590        2.380460        0.249460
C           -0.268340        2.907150        1.610160
C            0.247850        3.230730       -0.720540
H           -1.188770        3.364910        1.980700
H            0.043870        2.107990        2.283500
H            0.515280        3.664220        1.632240
H           -0.108840        4.269660       -0.662780
H            1.323640        3.224270       -0.528980
H            0.063280        2.857010       -1.728550
C            3.374170        0.489900       -0.776360
C            4.845920        0.742050       -0.464980
C            3.146750        0.286110       -2.276420
H            5.457970       -0.068760       -0.856210
H            5.182200        1.674290       -0.916420
H            5.001490        0.795630        0.610430
H            2.790600        1.381350       -0.457720
H            3.667430       -0.606230       -2.619130
H            2.078570        0.167370       -2.485810
H            3.524130        1.141420       -2.835070
C            2.002810       -3.518340       -0.128570
H            2.476970       -3.452330        0.848830
H            1.416240       -4.430850       -0.184210
H            2.774220       -3.534580       -0.895210


