55
charge 0 multiplicity 1
Fe           2.03717  -0.43529   0.00063
C           -2.60098  -0.13058  -1.54946
Pd          -0.46554   0.50820   0.12274
C            1.73278   2.32529   0.20366
H            4.34546  -1.45930  -0.71089
H            3.62007   0.87519  -1.67966
H            1.00729   0.74129  -2.30908
C           -0.91080  -2.25005   0.38701
O           -3.31494  -0.36201  -2.50768
C            1.99876   1.13961   1.05283
O            0.34033  -2.18188   0.67768
C            1.94418  -0.92360   1.94926
C            3.24066  -0.68661   1.52286
C            3.29697   0.61483   1.00569
H            1.63852  -1.88080   2.30826
H            4.02062  -1.41088   1.52406
H            4.13955   1.06693   0.53651
H            0.76320  -0.93527   0.80175
C            1.06112   0.15449   1.57169
C           -2.86120  -0.84695  -0.17515
O           -1.61615   0.67044  -1.52469
C            1.60514  -0.02860  -1.86960
C            2.98730   0.02074  -1.60494
C            3.38626  -1.23178  -1.10928
C            2.25211  -2.05130  -1.05319
C            1.16478  -1.32761  -1.56886
H            0.17734  -1.70009  -1.72915
N           -1.54894  -1.14194   0.30765
H           -3.49464  -1.73320  -0.29846
H            2.21407   2.08451  -0.74559
H            2.18241   3.24532   0.61200
H            2.19556  -2.98044  -0.53906
N            0.30600   2.49617  -0.02280
C            0.03836   3.26018  -1.23029
C           -0.32691   3.14397   1.12256
H            0.37473   4.30100  -1.12520
H            0.55468   2.81269  -2.07743
H           -1.02958   3.24980  -1.44428
H            0.02590   4.18106   1.23192
H           -1.41158   3.16182   0.98825
H           -0.08379   2.59591   2.03410
C           -3.53056   0.18240   0.76081
C           -4.96227   0.45071   0.31145
C           -3.48051  -0.28709   2.21569
H           -5.57628  -0.43565   0.46137
H           -5.39658   1.26967   0.88209
H           -4.98934   0.70526  -0.74559
H           -2.94146   1.12218   0.68896
H           -3.99400  -1.24072   2.32697
H           -2.44399  -0.40740   2.53785
H           -3.96486   0.44161   2.86292
C           -1.53542  -3.60089   0.14599
H           -1.91149  -3.65797  -0.87385
H           -0.78047  -4.36533   0.29936
H           -2.36512  -3.76169   0.83076