%chk=1-modopt.chk
#p opt=(modredundant,nomicro) external='./xtb.sh'

Generate automatically by rxnb

0 1
Fe          -4.064670        3.377200        2.293580
C           -2.860270       -0.451590       -3.196390
Pd          -3.835510        1.249920       -1.150310
C           -6.213680        2.295410        0.118950
H           -5.491810        4.448970        4.500240
H           -6.056230        1.925730        3.691840
H           -3.710280        0.700750        3.087440
C           -1.287400        0.599160        0.000060
O           -2.720150       -0.941100       -4.298060
C           -5.106990        3.189440        0.570190
O           -1.692160        1.282690        0.995220
C           -2.941250        3.971220        0.646570
C           -3.805140        5.026510        1.057170
C           -5.150270        4.554540        0.978840
H           -1.853550        4.005040        0.642710
H           -3.494040        6.014030        1.394470
H           -6.048380        5.123310        1.216180
H           -2.862340        1.804200        0.670500
C           -3.724910        2.802080        0.341390
C           -1.747240       -0.549100       -2.130690
O           -3.980670        0.114460       -2.797590
C           -2.768170        2.638250        3.713870
C           -3.346700        3.860580        4.172600
C           -4.764520        3.691360        4.213650
C           -5.062020        2.359680        3.786470
C           -3.828490        1.709540        3.478180
H           -1.712980        2.451770        3.529380
N           -2.026320        0.423480       -1.073870
H           -0.785730       -0.320450       -2.617960
H           -6.279450        1.393130        0.743640
H           -7.198240        2.796970        0.133600
C           -2.590280        5.134110        4.513720
H           -3.249240        6.005090        4.339800
H           -2.340010        5.091820        5.606250
H           -1.666910        5.193770        3.908960
N           -5.886520        1.845450       -1.241710
C           -6.069060        2.770580       -2.299470
C           -6.222360        0.487750       -1.540310
H           -6.706360        2.389140       -3.139360
H           -6.463920        3.745040       -1.906920
H           -5.083640        3.033610       -2.764290
H           -7.297110        0.324090       -1.307890
H           -5.950910        0.164960       -2.546840
H           -5.671440       -0.157640       -0.794770
C           -1.686470       -1.973750       -1.604290
C           -2.600300       -2.902460       -2.267320
C           -0.252570       -2.234540       -1.540650
H           -2.630700       -2.240550       -3.082560
H           -2.348810       -3.809800       -2.810660
H           -3.613150       -2.960380       -1.845160
H           -2.086290       -1.761120       -0.636570
H            0.368960       -2.329450       -2.412290
H            0.210940       -1.576090       -0.779900
H           -0.239770       -3.238430       -1.179040
O            0.000000        0.000000        0.000000
C            2.368720       -0.000000        0.000000
C            1.126420        0.841020        0.000000
C            1.004410        1.759090       -1.163780
C            1.122290        1.643780        1.293210
H            2.100510       -0.970940        0.502060
H            2.786720       -0.181780       -0.998560
H            3.150810        0.449130        0.668740
H            1.450060        1.401060       -2.097950
H            1.371780        2.797030       -0.929300
H           -0.092540        1.910070       -1.392230
H            0.273330        1.327120        1.939480
H            2.042180        1.476920        1.891450
H            1.103450        2.725340        1.054360

B 11 18 F
B 18 19 F
B 3 19 F
B 3 33 F
B 3 28 F
B 3 21 F

