%chk=3-tsopt.chk
#p opt(ts,calcfc,noeigen,nomicro) external='./xtb.sh'

Generate automatically by rxnb

0 1
Fe          -2.062740        0.917200        0.338550
C            2.286400       -2.614340        0.394270
Pd          -0.016160       -1.282220       -0.639990
C           -2.910660       -1.635880       -0.726130
H           -3.806160       -0.092790        2.149060
H           -1.360900       -1.151300        1.963200
H            0.350690        0.887650        1.502990
C            1.978460        0.655780       -1.101230
O            3.047460       -3.501150        0.733410
C           -2.604370       -0.237280       -1.126080
O            1.103710        1.039580       -1.941500
C           -1.490940        1.721380       -1.320050
C           -2.840550        2.020860       -1.079310
C           -3.532160        0.805050       -0.939590
H           -0.730120        2.463210       -1.416920
H           -3.249170        2.998650       -0.950940
H           -4.553050        0.682920       -0.649060
H            0.015900        0.319030       -1.731230
C           -1.289660        0.304310       -1.352540
C            2.759310       -1.137020        0.348600
O            1.057820       -2.813690        0.084600
C           -1.445480        2.161440        1.717950
C           -2.809590        1.872710        1.973760
C           -2.894940        0.458880        2.049780
C           -1.603320       -0.106160        1.915470
C           -0.697350        0.963180        1.700350
H           -1.054440        3.130620        1.493740
N            1.768610       -0.426640       -0.428820
H            3.729690       -1.079290       -0.161070
H           -3.208750       -1.581910        0.325090
H           -3.743480       -2.068990       -1.300120
C           -3.959780        2.860920        1.955240
H           -4.354340        3.388960        2.889440
H           -3.670860        3.654960        1.270650
H           -4.808610        2.340090        1.517380
N           -1.704990       -2.455690       -0.850730
C           -1.528500       -2.908290       -2.232130
C           -1.769280       -3.610790        0.038160
H           -2.322880       -3.612670       -2.518930
H           -1.564780       -2.052220       -2.911510
H           -0.561680       -3.414700       -2.332060
H           -2.602440       -4.270820       -0.236070
H           -0.834180       -4.167620       -0.013170
H           -1.909070       -3.276880        1.066040
C            2.920460       -0.589080        1.785220
C            1.848380       -1.160030        2.714560
C            4.311330       -0.927220        2.311210
H            2.106040       -2.181120        2.986740
H            1.767910       -0.567280        3.623650
H            0.879810       -1.176310        2.214780
H            2.812830        0.502120        1.732630
H            4.470710       -2.000810        2.243010
H            5.078810       -0.423450        1.727050
H            4.407780       -0.621190        3.351160
O            3.094850        1.365440       -0.868010
C            4.304950        3.279960       -0.259390
C            2.970690        2.806340       -0.836590
C            2.766870        3.380990       -2.237830
C            1.819090        3.193860        0.101820
H            4.475150        2.821150        0.711040
H            5.117160        2.992380       -0.921010
H            4.299790        4.360240       -0.148290
H            3.570690        3.049500       -2.890710
H            2.773630        4.466770       -2.192660
H            1.822720        3.042760       -2.654000
H            2.042990        2.873170        1.117360
H            1.692020        4.272780        0.097650
H            0.883020        2.725110       -0.202030


