%chk=4-tsfreq.chk
#p freq external='./xtb.sh'

Generate automatically by rxnb

0 1
Fe          -2.057790       -0.286470        0.475250
C            0.947440       -1.148530       -2.197590
Pd          -0.018130        0.723170       -0.345200
C           -2.278020        2.527990        0.281760
H           -4.122680        0.720010       -0.965970
H           -1.828600        0.048570       -2.301330
H           -0.963240       -2.165710       -1.293400
C            2.405650        0.288320        0.418090
O            0.821350       -1.976650       -3.085900
C           -2.004070        1.482780        1.290240
O            2.197190        1.450660        0.804460
C           -0.952670       -0.290610        2.147690
C           -2.317320       -0.462360        2.381100
C           -2.981970        0.663580        1.865780
H           -0.198350       -0.946240        2.518840
H           -2.751710       -1.347790        2.779860
H           -4.028570        0.835450        1.811000
H            0.166360        1.593580        1.882450
C           -0.689780        0.997800        1.595000
C            1.605100       -1.585160       -0.841100
O            0.611100        0.077570       -2.288320
C           -2.713140       -2.072440        0.053680
C           -3.767500       -1.144810        0.110460
C           -3.495670       -0.130320       -0.827640
C           -2.286790       -0.428960       -1.465110
C           -1.810340       -1.643120       -0.921420
H           -2.599380       -2.894310        0.720100
N            1.404370       -0.516260        0.100710
H            2.674090       -1.671430       -1.077910
H           -3.275780        2.326890       -0.104300
H           -2.257810        3.552200        0.677960
C           -4.950680       -1.253070        0.976570
H           -5.567150       -2.089610        0.652200
H           -4.647370       -1.436960        2.000010
H           -5.553230       -0.352180        0.929370
N           -1.289120        2.364020       -0.796290
C           -0.177520        3.314270       -0.664400
C           -1.889390        2.554170       -2.109710
H           -0.511460        4.344400       -0.861370
H            0.250640        3.276330        0.339550
H            0.605730        3.054840       -1.390220
H           -2.161980        3.605550       -2.273130
H           -1.174160        2.256040       -2.876850
H           -2.783030        1.946210       -2.206410
C            1.108870       -2.950560       -0.317390
C            2.292980       -3.827620        0.089600
C            0.155320       -2.781910        0.872590
H            2.922440       -4.044150       -0.770300
H            2.894830       -3.319900        0.840900
H            1.941860       -4.771260        0.503690
H            0.602040       -3.454510       -1.147990
H            0.754080       -2.649400        1.770310
H           -0.505010       -1.916880        0.748900
H           -0.437980       -3.684190        0.998940
O            3.635250       -0.271420        0.370440
C            5.981480       -0.467030        0.414810
C            4.812240        0.509230        0.643660
C            4.893380        1.689650       -0.327180
C            4.792870        1.001540        2.092850
H            6.562520       -0.601170        1.322820
H            5.583430       -1.433310        0.115960
H            6.640770       -0.110330       -0.371300
H            4.851170        1.326690       -1.352600
H            5.824900        2.229110       -0.175790
H            4.059340        2.366110       -0.158610
H            4.700140        0.154470        2.769770
H            5.713780        1.536010        2.311350
H            3.947370        1.666810        2.245970


