68
charge 0 multiplicity 1
Fe          -2.06274   0.91720   0.33855
C            2.28640  -2.61434   0.39427
Pd          -0.01616  -1.28222  -0.63999
C           -2.91066  -1.63588  -0.72613
H           -3.80616  -0.09279   2.14906
H           -1.36090  -1.15130   1.96320
H            0.35069   0.88765   1.50299
C            1.97846   0.65578  -1.10123
O            3.04746  -3.50115   0.73341
C           -2.60437  -0.23728  -1.12608
O            1.10371   1.03958  -1.94150
C           -1.49094   1.72138  -1.32005
C           -2.84055   2.02086  -1.07931
C           -3.53216   0.80505  -0.93959
H           -0.73012   2.46321  -1.41692
H           -3.24917   2.99865  -0.95094
H           -4.55305   0.68292  -0.64906
H            0.01590   0.31903  -1.73123
C           -1.28966   0.30431  -1.35254
C            2.75931  -1.13702   0.34860
O            1.05782  -2.81369   0.08460
C           -1.44548   2.16144   1.71795
C           -2.80959   1.87271   1.97376
C           -2.89494   0.45888   2.04978
C           -1.60332  -0.10616   1.91547
C           -0.69735   0.96318   1.70035
H           -1.05444   3.13062   1.49374
N            1.76861  -0.42664  -0.42882
H            3.72969  -1.07929  -0.16107
H           -3.20875  -1.58191   0.32509
H           -3.74348  -2.06899  -1.30012
C           -3.95978   2.86092   1.95524
H           -4.35434   3.38896   2.88944
H           -3.67086   3.65496   1.27065
H           -4.80861   2.34009   1.51738
N           -1.70499  -2.45569  -0.85073
C           -1.52850  -2.90829  -2.23213
C           -1.76928  -3.61079   0.03816
H           -2.32288  -3.61267  -2.51893
H           -1.56478  -2.05222  -2.91151
H           -0.56168  -3.41470  -2.33206
H           -2.60244  -4.27082  -0.23607
H           -0.83418  -4.16762  -0.01317
H           -1.90907  -3.27688   1.06604
C            2.92046  -0.58908   1.78522
C            1.84838  -1.16003   2.71456
C            4.31133  -0.92722   2.31121
H            2.10604  -2.18112   2.98674
H            1.76791  -0.56728   3.62365
H            0.87981  -1.17631   2.21478
H            2.81283   0.50212   1.73263
H            4.47071  -2.00081   2.24301
H            5.07881  -0.42345   1.72705
H            4.40778  -0.62119   3.35116
O            3.09485   1.36544  -0.86801
C            4.30495   3.27996  -0.25939
C            2.97069   2.80634  -0.83659
C            2.76687   3.38099  -2.23783
C            1.81909   3.19386   0.10182
H            4.47515   2.82115   0.71104
H            5.11716   2.99238  -0.92101
H            4.29979   4.36024  -0.14829
H            3.57069   3.04950  -2.89071
H            2.77363   4.46677  -2.19266
H            1.82272   3.04276  -2.65400
H            2.04299   2.87317   1.11736
H            1.69202   4.27278   0.09765
H            0.88302   2.72511  -0.20203