68
charge 0 multiplicity 1
Fe          -2.05779  -0.28647   0.47525
C            0.94744  -1.14853  -2.19759
Pd          -0.01813   0.72317  -0.34520
C           -2.27802   2.52799   0.28176
H           -4.12268   0.72001  -0.96597
H           -1.82860   0.04857  -2.30133
H           -0.96324  -2.16571  -1.29340
C            2.40565   0.28832   0.41809
O            0.82135  -1.97665  -3.08590
C           -2.00407   1.48278   1.29024
O            2.19719   1.45066   0.80446
C           -0.95267  -0.29061   2.14769
C           -2.31732  -0.46236   2.38110
C           -2.98197   0.66358   1.86578
H           -0.19835  -0.94624   2.51884
H           -2.75171  -1.34779   2.77986
H           -4.02857   0.83545   1.81100
H            0.16636   1.59358   1.88245
C           -0.68978   0.99780   1.59500
C            1.60510  -1.58516  -0.84110
O            0.61110   0.07757  -2.28832
C           -2.71314  -2.07244   0.05368
C           -3.76750  -1.14481   0.11046
C           -3.49567  -0.13032  -0.82764
C           -2.28679  -0.42896  -1.46511
C           -1.81034  -1.64312  -0.92142
H           -2.59938  -2.89431   0.72010
N            1.40437  -0.51626   0.10071
H            2.67409  -1.67143  -1.07791
H           -3.27578   2.32689  -0.10430
H           -2.25781   3.55220   0.67796
C           -4.95068  -1.25307   0.97657
H           -5.56715  -2.08961   0.65220
H           -4.64737  -1.43696   2.00001
H           -5.55323  -0.35218   0.92937
N           -1.28912   2.36402  -0.79629
C           -0.17752   3.31427  -0.66440
C           -1.88939   2.55417  -2.10971
H           -0.51146   4.34440  -0.86137
H            0.25064   3.27633   0.33955
H            0.60573   3.05484  -1.39022
H           -2.16198   3.60555  -2.27313
H           -1.17416   2.25604  -2.87685
H           -2.78303   1.94621  -2.20641
C            1.10887  -2.95056  -0.31739
C            2.29298  -3.82762   0.08960
C            0.15532  -2.78191   0.87259
H            2.92244  -4.04415  -0.77030
H            2.89483  -3.31990   0.84090
H            1.94186  -4.77126   0.50369
H            0.60204  -3.45451  -1.14799
H            0.75408  -2.64940   1.77031
H           -0.50501  -1.91688   0.74890
H           -0.43798  -3.68419   0.99894
O            3.63525  -0.27142   0.37044
C            5.98148  -0.46703   0.41481
C            4.81224   0.50923   0.64366
C            4.89338   1.68965  -0.32718
C            4.79287   1.00154   2.09285
H            6.56252  -0.60117   1.32282
H            5.58343  -1.43331   0.11596
H            6.64077  -0.11033  -0.37130
H            4.85117   1.32669  -1.35260
H            5.82490   2.22911  -0.17579
H            4.05934   2.36611  -0.15861
H            4.70014   0.15447   2.76977
H            5.71378   1.53601   2.31135
H            3.94737   1.66681   2.24597