      -----------------------------------------------------------      
     |                   =====================                   |     
     |                           x T B                           |     
     |                   =====================                   |     
     |                         S. Grimme                         |     
     |          Mulliken Center for Theoretical Chemistry        |     
     |                    University of Bonn                     |     
      -----------------------------------------------------------      

   * xtb version 6.6.1 (8d0f1dd) compiled by 'stahn@M-Bot' on 2023-08-01

   xtb is free software: you can redistribute it and/or modify it under
   the terms of the GNU Lesser General Public License as published by
   the Free Software Foundation, either version 3 of the License, or
   (at your option) any later version.
   
   xtb is distributed in the hope that it will be useful,
   but WITHOUT ANY WARRANTY; without even the implied warranty of
   MERCHANTABILITY or FITNESS FOR A PARTICULAR PURPOSE.  See the
   GNU Lesser General Public License for more details.
   
   Cite this work as:
   * C. Bannwarth, E. Caldeweyher, S. Ehlert, A. Hansen, P. Pracht,
     J. Seibert, S. Spicher, S. Grimme, WIREs Comput. Mol. Sci., 2020, 11,
     e01493. DOI: 10.1002/wcms.1493
   
   for GFN2-xTB:
   * C. Bannwarth, S. Ehlert and S. Grimme., J. Chem. Theory Comput., 2019,
     15, 1652-1671. DOI: 10.1021/acs.jctc.8b01176
   for GFN1-xTB:
   * S. Grimme, C. Bannwarth, P. Shushkov, J. Chem. Theory Comput., 2017,
     13, 1989-2009. DOI: 10.1021/acs.jctc.7b00118
   for GFN0-xTB:
   * P. Pracht, E. Caldeweyher, S. Ehlert, S. Grimme, ChemRxiv, 2019, preprint.
     DOI: 10.26434/chemrxiv.8326202.v1
   for GFN-FF:
   * S. Spicher and S. Grimme, Angew. Chem. Int. Ed., 2020, 59, 15665-15673.
     DOI: 10.1002/anie.202004239
   
   for ALPB and GBSA implicit solvation:
   * S. Ehlert, M. Stahn, S. Spicher, S. Grimme, J. Chem. Theory Comput.,
     2021, 17, 4250-4261. DOI: 10.1021/acs.jctc.1c00471
   
   for DFT-D4:
   * E. Caldeweyher, C. Bannwarth and S. Grimme, J. Chem. Phys., 2017,
     147, 034112. DOI: 10.1063/1.4993215
   * E. Caldeweyher, S. Ehlert, A. Hansen, H. Neugebauer, S. Spicher,
     C. Bannwarth and S. Grimme, J. Chem. Phys., 2019, 150, 154122.
     DOI: 10.1063/1.5090222
   * E. Caldeweyher, J.-M. Mewes, S. Ehlert and S. Grimme, Phys. Chem. Chem. Phys.
     2020, 22, 8499-8512. DOI: 10.1039/D0CP00502A
   
   for sTDA-xTB:
   * S. Grimme and C. Bannwarth, J. Chem. Phys., 2016, 145, 054103.
     DOI: 10.1063/1.4959605
   
   in the mass-spec context:
   * V. Asgeirsson, C. Bauer and S. Grimme, Chem. Sci., 2017, 8, 4879.
     DOI: 10.1039/c7sc00601b
   * J. Koopman and S. Grimme, ACS Omega 2019, 4, 12, 15120-15133.
     DOI: 10.1021/acsomega.9b02011
   
   for metadynamics refer to:
   * S. Grimme, J. Chem. Theory Comput., 2019, 155, 2847-2862
     DOI: 10.1021/acs.jctc.9b00143
   
   for SPH calculations refer to:
   * S. Spicher and S. Grimme, J. Chem. Theory Comput., 2021, 17, 1701-1714
     DOI: 10.1021/acs.jctc.0c01306
   
   with help from (in alphabetical order)
   P. Atkinson, C. Bannwarth, F. Bohle, G. Brandenburg, E. Caldeweyher
   M. Checinski, S. Dohm, S. Ehlert, S. Ehrlich, I. Gerasimov, C. Hölzer
   A. Katbashev, J. Koopman, C. Lavigne, S. Lehtola, F. März, M. Müller,
   F. Musil, H. Neugebauer, J. Pisarek, C. Plett, P. Pracht, F. Pultar,
   J. Seibert, P. Shushkov, S. Spicher, M. Stahn, M. Steiner, T. Strunk,
   J. Stückrath, T. Rose, and J. Unsleber
   
 * started run on 2024/10/14 at 18:09:27.696     

           -------------------------------------------------
          |                Calculation Setup                |
           -------------------------------------------------

          program call               : xtb tsopted.xyz --gfn 2 --charge 0 --vfukui
          coordinate file            : tsopted.xyz
          omp threads                :                    12

   ID    Z sym.   atoms
    1   26 Fe     1
    2    6 C      2, 4, 8, 10, 12-14, 19, 20, 22-26, 34, 35, 42-44, 52
    3   46 Pd     3
    4    1 H      5-7, 15-18, 27, 29-32, 36-41, 45-51, 53-55
    5    8 O      9, 11, 21
    6    7 N      28, 33

           -------------------------------------------------
          |                 G F N 2 - x T B                 |
           -------------------------------------------------

        Reference                      10.1021/acs.jctc.8b01176
      * Hamiltonian:
        H0-scaling (s, p, d)           1.850000    2.230000    2.230000
        zeta-weighting                 0.500000
      * Dispersion:
        s8                             2.700000
        a1                             0.520000
        a2                             5.000000
        s9                             5.000000
      * Repulsion:
        kExp                           1.500000    1.000000
        rExp                           1.000000
      * Coulomb:
        alpha                          2.000000
        third order                    shell-resolved
        anisotropic                    true
        a3                             3.000000
        a5                             4.000000
        cn-shift                       1.200000
        cn-exp                         4.000000
        max-rad                        5.000000


          ...................................................
          :                      SETUP                      :
          :.................................................:
          :  # basis functions                 148          :
          :  # atomic orbitals                 146          :
          :  # shells                           84          :
          :  # electrons                       154          :
          :  max. iterations                   250          :
          :  Hamiltonian                  GFN2-xTB          :
          :  restarted?                      false          :
          :  GBSA solvation                  false          :
          :  PC potential                    false          :
          :  electronic temp.          300.0000000     K    :
          :  accuracy                    1.0000000          :
          :  -> integral cutoff          0.2500000E+02      :
          :  -> integral neglect         0.1000000E-07      :
          :  -> SCF convergence          0.1000000E-05 Eh   :
          :  -> wf. convergence          0.1000000E-03 e    :
          :  Broyden damping             0.4000000          :
          ...................................................

 iter      E             dE          RMSdq      gap      omega  full diag
   1    -83.6692515 -0.836693E+02  0.829E+00    1.28       0.0  T
   2    -83.9925510 -0.323300E+00  0.456E+00    1.25       1.0  T
   3    -84.0308847 -0.383337E-01  0.282E+00    1.56       1.0  T
   4    -84.0377918 -0.690711E-02  0.158E+00    1.52       1.0  T
   5    -84.0386650 -0.873142E-03  0.896E-01    1.66       1.0  T
   6    -84.0455198 -0.685482E-02  0.655E-01    1.57       1.0  T
   7    -84.0502951 -0.477529E-02  0.346E-01    1.62       1.0  T
   8    -84.0508494 -0.554361E-03  0.129E-01    1.63       1.0  T
   9    -84.0508998 -0.504071E-04  0.876E-02    1.62       1.0  T
  10    -84.0509291 -0.292317E-04  0.340E-02    1.62       1.0  T
  11    -84.0509277  0.141419E-05  0.217E-02    1.62       1.0  T
  12    -84.0509329 -0.525384E-05  0.792E-03    1.62       1.7  T
  13    -84.0509337 -0.763281E-06  0.329E-03    1.62       4.1  T
  14    -84.0509338 -0.135655E-06  0.123E-03    1.62      11.0  T
  15    -84.0509338 -0.752478E-08  0.760E-04    1.62      17.7  T
  16    -84.0509338 -0.169609E-08  0.396E-04    1.62      34.0  T

   *** convergence criteria satisfied after 16 iterations ***

         #    Occupation            Energy/Eh            Energy/eV
      -------------------------------------------------------------
         1        2.0000           -0.7945883             -21.6218
       ...           ...                  ...                  ...
        71        2.0000           -0.3573783              -9.7248
        72        2.0000           -0.3498884              -9.5209
        73        2.0000           -0.3480322              -9.4704
        74        2.0000           -0.3452870              -9.3957
        75        2.0000           -0.3412244              -9.2852
        76        2.0000           -0.3335749              -9.0770
        77        2.0000           -0.3173953              -8.6368 (HOMO)
        78                         -0.2577804              -7.0146 (LUMO)
        79                         -0.2366234              -6.4388
        80                         -0.2299045              -6.2560
        81                         -0.2151640              -5.8549
        82                         -0.1696153              -4.6155
       ...                                ...                  ...
       146                          6.3485986             172.7542
      -------------------------------------------------------------
                  HL-Gap            0.0596149 Eh            1.6222 eV
             Fermi-level           -0.2875878 Eh           -7.8257 eV

 SCC (total)                   0 d,  0 h,  0 min,  0.071 sec
 SCC setup                      ...        0 min,  0.003 sec (  3.928%)
 Dispersion                     ...        0 min,  0.001 sec (  1.084%)
 classical contributions        ...        0 min,  0.000 sec (  0.056%)
 integral evaluation            ...        0 min,  0.006 sec (  7.907%)
 iterations                     ...        0 min,  0.050 sec ( 70.822%)
 molecular gradient             ...        0 min,  0.008 sec ( 11.377%)
 printout                       ...        0 min,  0.003 sec (  4.763%)

         :::::::::::::::::::::::::::::::::::::::::::::::::::::
         ::                     SUMMARY                     ::
         :::::::::::::::::::::::::::::::::::::::::::::::::::::
         :: total energy             -82.968410955521 Eh    ::
         :: gradient norm              0.000040685431 Eh/a0 ::
         :: HOMO-LUMO gap              1.622204806313 eV    ::
         ::.................................................::
         :: SCC energy               -84.050933822007 Eh    ::
         :: -> isotropic ES           -0.056613378218 Eh    ::
         :: -> anisotropic ES         -0.008968949464 Eh    ::
         :: -> anisotropic XC          0.029630529039 Eh    ::
         :: -> dispersion             -0.083804496612 Eh    ::
         :: repulsion energy           1.079503402218 Eh    ::
         :: add. restraining           0.000000000000 Eh    ::
         :: total charge              -0.000000000000 e     ::
         :::::::::::::::::::::::::::::::::::::::::::::::::::::


Fukui index Calculation

 iter      E             dE          RMSdq      gap      omega  full diag
   1    -84.2029617 -0.842030E+02  0.780E-01    0.58       0.0  T
   2    -84.2219417 -0.189800E-01  0.741E-01    0.41       1.0  T
   3    -84.2296769 -0.773525E-02  0.415E-01    0.46       1.0  T
   4    -84.2296140  0.629199E-04  0.329E-01    0.46       1.0  T
   5    -84.2299001 -0.286065E-03  0.174E-01    0.43       1.0  T
   6    -84.2298618  0.382834E-04  0.161E-01    0.49       1.0  T
   7    -84.2304212 -0.559411E-03  0.669E-02    0.46       1.0  T
   8    -84.2304356 -0.144012E-04  0.324E-02    0.46       1.0  T
   9    -84.2304452 -0.957988E-05  0.160E-02    0.46       1.0  T
  10    -84.2304503 -0.509675E-05  0.792E-03    0.46       1.7  T
  11    -84.2304506 -0.307897E-06  0.524E-03    0.46       2.6  T
  12    -84.2304505  0.402428E-07  0.429E-03    0.46       3.1  T
  13    -84.2304508 -0.229160E-06  0.200E-03    0.46       6.7  T
  14    -84.2304508 -0.359673E-07  0.630E-04    0.46      21.4  T
  15    -84.2304508 -0.891207E-08  0.223E-04    0.46      60.4  T
     SCC iter.                  ...        0 min,  0.101 sec
     gradient                   ...        0 min,  0.007 sec

 iter      E             dE          RMSdq      gap      omega  full diag
   1    -83.6128776 -0.836129E+02  0.100E+00    1.62       0.0  T
   2    -83.4767124  0.136165E+00  0.173E+00    1.23       1.0  T
   3    -83.6442808 -0.167568E+00  0.656E-01    1.70       1.0  T
   4    -83.6488609 -0.458010E-02  0.562E-01    1.70       1.0  T
   5    -83.6506260 -0.176510E-02  0.437E-01    1.72       1.0  T
   6    -83.6339373  0.166887E-01  0.523E-01    1.67       1.0  T
   7    -83.6508435 -0.169062E-01  0.263E-01    1.68       1.0  T
   8    -83.6542981 -0.345455E-02  0.127E-01    1.70       1.0  T
   9    -83.6541659  0.132199E-03  0.909E-02    1.70       1.0  T
  10    -83.6543422 -0.176342E-03  0.529E-02    1.69       1.0  T
  11    -83.6544886 -0.146403E-03  0.141E-02    1.69       1.0  T
  12    -83.6544924 -0.384486E-05  0.658E-03    1.69       2.0  T
  13    -83.6544894  0.300290E-05  0.793E-03    1.69       1.7  T
  14    -83.6544923 -0.290143E-05  0.367E-03    1.69       3.7  T
  15    -83.6544930 -0.636502E-06  0.119E-03    1.69      11.3  T
  16    -83.6544930  0.240354E-07  0.874E-04    1.69      15.4  T
  17    -83.6544930 -0.304084E-07  0.393E-04    1.69      34.3  T
     SCC iter.                  ...        0 min,  0.060 sec
     gradient                   ...        0 min,  0.009 sec

     #        f(+)     f(-)     f(0)
     1Fe     -0.079   -0.098   -0.088
     2C       0.002   -0.002    0.000
     3Pd     -0.304   -0.225   -0.264
     4C       0.017    0.019    0.018
     5H      -0.038   -0.039   -0.038
     6H      -0.035   -0.037   -0.036
     7H      -0.023   -0.028   -0.026
     8C      -0.010   -0.010   -0.010
     9O      -0.055   -0.077   -0.066
    10C      -0.008   -0.008   -0.008
    11O      -0.034   -0.036   -0.035
    12C       0.000    0.003    0.002
    13C      -0.005   -0.006   -0.006
    14C      -0.003   -0.005   -0.004
    15H      -0.031   -0.030   -0.030
    16H      -0.041   -0.040   -0.040
    17H      -0.040   -0.040   -0.040
    18H      -0.013   -0.005   -0.009
    19C       0.001   -0.002   -0.001
    20C       0.013    0.001    0.007
    21O       0.008   -0.005    0.001
    22C       0.007    0.004    0.006
    23C      -0.005   -0.005   -0.005
    24C      -0.008   -0.007   -0.007
    25C      -0.005   -0.005   -0.005
    26C       0.006    0.004    0.005
    27H      -0.024   -0.024   -0.024
    28N       0.003    0.013    0.008
    29H      -0.038   -0.035   -0.036
    30H      -0.021   -0.021   -0.021
    31H      -0.037   -0.040   -0.038
    32H      -0.033   -0.034   -0.034
    33N       0.015    0.002    0.009
    34C       0.019    0.018    0.018
    35C       0.015    0.019    0.017
    36H      -0.034   -0.035   -0.035
    37H      -0.003   -0.006   -0.004
    38H      -0.011   -0.009   -0.010
    39H      -0.031   -0.032   -0.031
    40H      -0.013   -0.014   -0.013
    41H      -0.011   -0.012   -0.011
    42C       0.002    0.000    0.001
    43C       0.013    0.013    0.013
    44C       0.012    0.011    0.012
    45H      -0.020   -0.020   -0.020
    46H      -0.018   -0.019   -0.018
    47H      -0.005   -0.004   -0.005
    48H       0.015    0.012    0.014
    49H      -0.020   -0.020   -0.020
    50H       0.001   -0.003   -0.001
    51H      -0.018   -0.019   -0.019
    52C       0.010    0.010    0.010
    53H      -0.028   -0.023   -0.025
    54H      -0.030   -0.025   -0.028
    55H      -0.029   -0.025   -0.027
           -------------------------------------------------
          |                Property Printout                |
           -------------------------------------------------

    * Orbital Energies and Occupations

         #    Occupation            Energy/Eh            Energy/eV
      -------------------------------------------------------------
         1        2.0000           -0.7945883             -21.6218
       ...           ...                  ...                  ...
        65        2.0000           -0.3930982             -10.6967
        66        2.0000           -0.3902820             -10.6201
        67        2.0000           -0.3888330             -10.5807
        68        2.0000           -0.3857383             -10.4965
        69        2.0000           -0.3698298             -10.0636
        70        2.0000           -0.3624235              -9.8620
        71        2.0000           -0.3573783              -9.7248
        72        2.0000           -0.3498884              -9.5209
        73        2.0000           -0.3480322              -9.4704
        74        2.0000           -0.3452870              -9.3957
        75        2.0000           -0.3412244              -9.2852
        76        2.0000           -0.3335749              -9.0770
        77        2.0000           -0.3173953              -8.6368 (HOMO)
        78                         -0.2577804              -7.0146 (LUMO)
        79                         -0.2366234              -6.4388
        80                         -0.2299045              -6.2560
        81                         -0.2151640              -5.8549
        82                         -0.1696153              -4.6155
        83                         -0.1583773              -4.3097
        84                         -0.1566197              -4.2618
        85                         -0.1458207              -3.9680
        86                         -0.1371829              -3.7329
        87                         -0.0015558              -0.0423
        88                          0.0336898               0.9167
       ...                                ...                  ...
       146                          6.3485986             172.7542
      -------------------------------------------------------------
                  HL-Gap            0.0596149 Eh            1.6222 eV
             Fermi-level           -0.2875878 Eh           -7.8257 eV

     #   Z          covCN         q      C6AA      α(0)
     1  26 Fe       9.377     1.360   110.208    18.513
     2   6 C        2.723     0.371    20.714     7.451
     3  46 Pd       4.225    -0.307   382.044    35.697
     4   6 C        3.806    -0.033    21.155     6.548
     5   1 H        0.927     0.043     2.413     2.429
     6   1 H        0.927     0.028     2.609     2.526
     7   1 H        0.927     0.082     1.955     2.186
     8   6 C        2.809     0.247    22.854     7.832
     9   8 O        0.856    -0.490    23.566     6.509
    10   6 C        4.031    -0.094    22.209     6.694
    11   8 O        1.580    -0.415    21.193     6.212
    12   6 C        3.933    -0.139    23.092     6.829
    13   6 C        3.866    -0.140    23.144     6.841
    14   6 C        3.866    -0.150    23.355     6.872
    15   1 H        0.927     0.049     2.327     2.386
    16   1 H        0.927     0.041     2.438     2.442
    17   1 H        0.927     0.034     2.530     2.487
    18   1 H        0.816     0.329     0.638     1.253
    19   6 C        3.860    -0.186    24.096     6.981
    20   6 C        3.835     0.012    20.356     6.419
    21   8 O        1.492    -0.425    21.479     6.249
    22   6 C        3.902    -0.119    22.723     6.776
    23   6 C        3.880    -0.143    23.208     6.849
    24   6 C        3.889    -0.143    23.200     6.847
    25   6 C        3.881    -0.144    23.218     6.851
    26   6 C        3.887    -0.126    22.852     6.796
    27   1 H        0.927     0.104     1.746     2.066
    28   7 N        2.675    -0.143    24.105     7.292
    29   1 H        0.924     0.024     2.669     2.555
    30   1 H        0.925     0.044     2.400     2.422
    31   1 H        0.923     0.044     2.398     2.422
    32   1 H        0.927     0.046     2.368     2.406
    33   7 N        3.333    -0.070    22.590     7.059
    34   6 C        3.823    -0.042    21.303     6.568
    35   6 C        3.719    -0.057    21.720     6.657
    36   1 H        0.923     0.029     2.608     2.525
    37   1 H        0.924     0.095     1.834     2.118
    38   1 H        0.924     0.102     1.762     2.076
    39   1 H        0.923     0.032     2.556     2.500
    40   1 H        0.925     0.070     2.081     2.256
    41   1 H        0.925     0.054     2.268     2.355
    42   6 C        3.855    -0.026    21.000     6.518
    43   6 C        3.755    -0.114    22.733     6.798
    44   6 C        3.756    -0.110    22.665     6.788
    45   1 H        0.925     0.046     2.371     2.408
    46   1 H        0.925     0.035     2.519     2.482
    47   1 H        0.925     0.054     2.274     2.358
    48   1 H        0.922     0.061     2.187     2.313
    49   1 H        0.925     0.035     2.513     2.479
    50   1 H        0.925     0.027     2.632     2.537
    51   1 H        0.925     0.037     2.496     2.471
    52   6 C        3.754    -0.123    22.924     6.827
    53   1 H        0.925     0.068     2.104     2.268
    54   1 H        0.925     0.071     2.072     2.251
    55   1 H        0.925     0.066     2.134     2.285

 Mol. C6AA /au·bohr⁶  :      35959.477526
 Mol. C8AA /au·bohr⁸  :    1098005.298272
 Mol. α(0) /au        :        289.536126


Wiberg/Mayer (AO) data.
largest (>0.10) Wiberg bond orders for each atom

 ---------------------------------------------------------------------------
     #   Z sym  total        # sym  WBO       # sym  WBO       # sym  WBO
 ---------------------------------------------------------------------------
     1  26 Fe   1.064 --    24 C    0.232    14 C    0.232    10 C    0.230
                            12 C    0.228    13 C    0.217    25 C    0.205
                            23 C    0.205    26 C    0.169    22 C    0.167
                            19 C    0.157
     2   6 C    3.942 --     9 O    1.632    21 O    1.383    20 C    0.840
     3  46 Pd   3.560 --    19 C    0.761    28 N    0.620    21 O    0.460
                            33 N    0.357    22 C    0.186    26 C    0.160
                            12 C    0.125    10 C    0.110
     4   6 C    3.976 --    10 C    1.010    33 N    0.974    30 H    0.972
                            31 H    0.957
     5   1 H    0.997 --    24 C    0.990
     6   1 H    0.997 --    25 C    0.980
     7   1 H    0.992 --    26 C    0.943
     8   6 C    3.950 --    28 N    1.584    11 O    1.196    52 C    0.990
     9   8 O    1.965 --     2 C    1.632    21 O    0.208
    10   6 C    3.964 --    14 C    1.267    19 C    1.207     4 C    1.010
                             1 Fe   0.230     3 Pd   0.110
    11   8 O    2.154 --     8 C    1.196    18 H    0.574    28 N    0.162
    12   6 C    3.979 --    13 C    1.302    19 C    1.229    15 H    0.962
                             1 Fe   0.228     3 Pd   0.125
    13   6 C    3.973 --    14 C    1.302    12 C    1.302    16 H    0.988
                             1 Fe   0.217
    14   6 C    3.971 --    13 C    1.302    10 C    1.267    17 H    0.987
                             1 Fe   0.232
    15   1 H    0.995 --    12 C    0.962
    16   1 H    0.995 --    13 C    0.988
    17   1 H    0.996 --    14 C    0.987
    18   1 H    0.890 --    11 O    0.574    19 C    0.200
    19   6 C    3.832 --    12 C    1.229    10 C    1.207     3 Pd   0.761
                            18 H    0.200     1 Fe   0.157
    20   6 C    3.955 --    28 N    0.993    29 H    0.952    42 C    0.950
                             2 C    0.840
    21   8 O    2.192 --     2 C    1.383     3 Pd   0.460     9 O    0.208
    22   6 C    3.979 --    23 C    1.295    26 C    1.262    27 H    0.928
                             3 Pd   0.186     1 Fe   0.167
    23   6 C    3.972 --    24 C    1.299    22 C    1.295    32 H    0.982
                             1 Fe   0.205
    24   6 C    3.973 --    23 C    1.299    25 C    1.296     5 H    0.990
                             1 Fe   0.232
    25   6 C    3.973 --    26 C    1.310    24 C    1.296     6 H    0.980
                             1 Fe   0.205
    26   6 C    3.978 --    25 C    1.310    22 C    1.262     7 H    0.943
                             1 Fe   0.169     3 Pd   0.160
    27   1 H    0.987 --    22 C    0.928
    28   7 N    3.495 --     8 C    1.584    20 C    0.993     3 Pd   0.620
                            11 O    0.162
    29   1 H    0.998 --    20 C    0.952
    30   1 H    0.997 --     4 C    0.972
    31   1 H    0.995 --     4 C    0.957
    32   1 H    0.996 --    23 C    0.982
    33   7 N    3.402 --    35 C    1.003    34 C    0.987     4 C    0.974
                             3 Pd   0.357
    34   6 C    3.973 --    33 N    0.987    36 H    0.971    37 H    0.943
                            38 H    0.932
    35   6 C    3.977 --    33 N    1.003    41 H    0.976    40 H    0.972
                            39 H    0.972
    36   1 H    0.999 --    34 C    0.971
    37   1 H    0.990 --    34 C    0.943
    38   1 H    0.988 --    34 C    0.932
    39   1 H    0.997 --    35 C    0.972
    40   1 H    0.994 --    35 C    0.972
    41   1 H    0.996 --    35 C    0.976
    42   6 C    3.989 --    43 C    1.011    44 C    1.006    20 C    0.950
                            48 H    0.925
    43   6 C    3.993 --    42 C    1.011    46 H    0.986    45 H    0.984
                            47 H    0.978
    44   6 C    3.996 --    42 C    1.006    51 H    0.986    49 H    0.986
                            50 H    0.982
    45   1 H    0.998 --    43 C    0.984
    46   1 H    0.997 --    43 C    0.986
    47   1 H    0.997 --    43 C    0.978
    48   1 H    0.993 --    42 C    0.925
    49   1 H    0.998 --    44 C    0.986
    50   1 H    0.999 --    44 C    0.982
    51   1 H    0.998 --    44 C    0.986
    52   6 C    3.988 --     8 C    0.990    54 H    0.983    53 H    0.967
                            55 H    0.964
    53   1 H    0.995 --    52 C    0.967
    54   1 H    0.995 --    52 C    0.983
    55   1 H    0.996 --    52 C    0.964
 ---------------------------------------------------------------------------

Topologies differ in total number of bonds
Writing topology from bond orders to xtbtopo.mol

molecular dipole:
                 x           y           z       tot (Debye)
 q only:       -3.041       0.340      -2.182
   full:       -2.515      -0.481      -1.968       8.207
molecular quadrupole (traceless):
                xx          xy          yy          xz          yz          zz
 q only:        5.178       4.239      14.369     -24.601      -5.400     -19.547
  q+dip:       11.774       4.447      15.575     -27.452     -12.157     -27.349
   full:       10.575       5.767      12.830     -27.347      -9.986     -23.404


           -------------------------------------------------
          | TOTAL ENERGY              -82.968410955521 Eh   |
          | GRADIENT NORM               0.000040685431 Eh/α |
          | HOMO-LUMO GAP               1.622204806313 eV   |
           -------------------------------------------------

------------------------------------------------------------------------
 * finished run on 2024/10/14 at 18:09:28.130     
------------------------------------------------------------------------
 total:
 * wall-time:     0 d,  0 h,  0 min,  0.433 sec
 *  cpu-time:     0 d,  0 h,  0 min,  4.826 sec
 * ratio c/w:    11.136 speedup
 SCF:
 * wall-time:     0 d,  0 h,  0 min,  0.074 sec
 *  cpu-time:     0 d,  0 h,  0 min,  0.868 sec
 * ratio c/w:    11.706 speedup

