      -----------------------------------------------------------      
     |                   =====================                   |     
     |                           x T B                           |     
     |                   =====================                   |     
     |                         S. Grimme                         |     
     |          Mulliken Center for Theoretical Chemistry        |     
     |                    University of Bonn                     |     
      -----------------------------------------------------------      

   * xtb version 6.6.1 (8d0f1dd) compiled by 'stahn@M-Bot' on 2023-08-01

   xtb is free software: you can redistribute it and/or modify it under
   the terms of the GNU Lesser General Public License as published by
   the Free Software Foundation, either version 3 of the License, or
   (at your option) any later version.
   
   xtb is distributed in the hope that it will be useful,
   but WITHOUT ANY WARRANTY; without even the implied warranty of
   MERCHANTABILITY or FITNESS FOR A PARTICULAR PURPOSE.  See the
   GNU Lesser General Public License for more details.
   
   Cite this work as:
   * C. Bannwarth, E. Caldeweyher, S. Ehlert, A. Hansen, P. Pracht,
     J. Seibert, S. Spicher, S. Grimme, WIREs Comput. Mol. Sci., 2020, 11,
     e01493. DOI: 10.1002/wcms.1493
   
   for GFN2-xTB:
   * C. Bannwarth, S. Ehlert and S. Grimme., J. Chem. Theory Comput., 2019,
     15, 1652-1671. DOI: 10.1021/acs.jctc.8b01176
   for GFN1-xTB:
   * S. Grimme, C. Bannwarth, P. Shushkov, J. Chem. Theory Comput., 2017,
     13, 1989-2009. DOI: 10.1021/acs.jctc.7b00118
   for GFN0-xTB:
   * P. Pracht, E. Caldeweyher, S. Ehlert, S. Grimme, ChemRxiv, 2019, preprint.
     DOI: 10.26434/chemrxiv.8326202.v1
   for GFN-FF:
   * S. Spicher and S. Grimme, Angew. Chem. Int. Ed., 2020, 59, 15665-15673.
     DOI: 10.1002/anie.202004239
   
   for ALPB and GBSA implicit solvation:
   * S. Ehlert, M. Stahn, S. Spicher, S. Grimme, J. Chem. Theory Comput.,
     2021, 17, 4250-4261. DOI: 10.1021/acs.jctc.1c00471
   
   for DFT-D4:
   * E. Caldeweyher, C. Bannwarth and S. Grimme, J. Chem. Phys., 2017,
     147, 034112. DOI: 10.1063/1.4993215
   * E. Caldeweyher, S. Ehlert, A. Hansen, H. Neugebauer, S. Spicher,
     C. Bannwarth and S. Grimme, J. Chem. Phys., 2019, 150, 154122.
     DOI: 10.1063/1.5090222
   * E. Caldeweyher, J.-M. Mewes, S. Ehlert and S. Grimme, Phys. Chem. Chem. Phys.
     2020, 22, 8499-8512. DOI: 10.1039/D0CP00502A
   
   for sTDA-xTB:
   * S. Grimme and C. Bannwarth, J. Chem. Phys., 2016, 145, 054103.
     DOI: 10.1063/1.4959605
   
   in the mass-spec context:
   * V. Asgeirsson, C. Bauer and S. Grimme, Chem. Sci., 2017, 8, 4879.
     DOI: 10.1039/c7sc00601b
   * J. Koopman and S. Grimme, ACS Omega 2019, 4, 12, 15120-15133.
     DOI: 10.1021/acsomega.9b02011
   
   for metadynamics refer to:
   * S. Grimme, J. Chem. Theory Comput., 2019, 155, 2847-2862
     DOI: 10.1021/acs.jctc.9b00143
   
   for SPH calculations refer to:
   * S. Spicher and S. Grimme, J. Chem. Theory Comput., 2021, 17, 1701-1714
     DOI: 10.1021/acs.jctc.0c01306
   
   with help from (in alphabetical order)
   P. Atkinson, C. Bannwarth, F. Bohle, G. Brandenburg, E. Caldeweyher
   M. Checinski, S. Dohm, S. Ehlert, S. Ehrlich, I. Gerasimov, C. Hölzer
   A. Katbashev, J. Koopman, C. Lavigne, S. Lehtola, F. März, M. Müller,
   F. Musil, H. Neugebauer, J. Pisarek, C. Plett, P. Pracht, F. Pultar,
   J. Seibert, P. Shushkov, S. Spicher, M. Stahn, M. Steiner, T. Strunk,
   J. Stückrath, T. Rose, and J. Unsleber
   
 * started run on 2024/10/14 at 18:09:28.196     

           -------------------------------------------------
          |                Calculation Setup                |
           -------------------------------------------------

          program call               : xtb tsopted.xyz --gfn 2 --charge 0 --vipea
          coordinate file            : tsopted.xyz
          omp threads                :                    12

   ID    Z sym.   atoms
    1   26 Fe     1
    2    6 C      2, 4, 8, 10, 12-14, 19, 20, 22-26, 34, 35, 42-44, 52
    3   46 Pd     3
    4    1 H      5-7, 15-18, 27, 29-32, 36-41, 45-51, 53-55
    5    8 O      9, 11, 21
    6    7 N      28, 33

           -------------------------------------------------
          |                 G F N 2 - x T B                 |
           -------------------------------------------------

        Reference                      10.1021/acs.jctc.8b01176
      * Hamiltonian:
        H0-scaling (s, p, d)           1.850000    2.230000    2.230000
        zeta-weighting                 0.500000
      * Dispersion:
        s8                             2.700000
        a1                             0.520000
        a2                             5.000000
        s9                             5.000000
      * Repulsion:
        kExp                           1.500000    1.000000
        rExp                           1.000000
      * Coulomb:
        alpha                          2.000000
        third order                    shell-resolved
        anisotropic                    true
        a3                             3.000000
        a5                             4.000000
        cn-shift                       1.200000
        cn-exp                         4.000000
        max-rad                        5.000000

q/qsh data taken from xtbrestart
CAMM data taken from xtbrestart

          ...................................................
          :                      SETUP                      :
          :.................................................:
          :  # basis functions                 148          :
          :  # atomic orbitals                 146          :
          :  # shells                           84          :
          :  # electrons                       154          :
          :  max. iterations                   250          :
          :  Hamiltonian                  GFN2-xTB          :
          :  restarted?                       true          :
          :  GBSA solvation                  false          :
          :  PC potential                    false          :
          :  electronic temp.          300.0000000     K    :
          :  accuracy                    1.0000000          :
          :  -> integral cutoff          0.2500000E+02      :
          :  -> integral neglect         0.1000000E-07      :
          :  -> SCF convergence          0.1000000E-05 Eh   :
          :  -> wf. convergence          0.1000000E-03 e    :
          :  Broyden damping             0.4000000          :
          ...................................................

 iter      E             dE          RMSdq      gap      omega  full diag
   1    -84.0509338 -0.840509E+02  0.203E-04    1.62       0.0  T
   2    -84.0509338 -0.145789E-09  0.136E-04    1.62      99.0  T
   3    -84.0509338 -0.651141E-10  0.114E-04    1.62     117.9  T

   *** convergence criteria satisfied after 3 iterations ***

         #    Occupation            Energy/Eh            Energy/eV
      -------------------------------------------------------------
         1        2.0000           -0.7945925             -21.6220
       ...           ...                  ...                  ...
        71        2.0000           -0.3573800              -9.7248
        72        2.0000           -0.3498903              -9.5210
        73        2.0000           -0.3480329              -9.4705
        74        2.0000           -0.3452901              -9.3958
        75        2.0000           -0.3412269              -9.2853
        76        2.0000           -0.3335758              -9.0771
        77        2.0000           -0.3173981              -8.6368 (HOMO)
        78                         -0.2577824              -7.0146 (LUMO)
        79                         -0.2366257              -6.4389
        80                         -0.2299072              -6.2561
        81                         -0.2151672              -5.8550
        82                         -0.1696165              -4.6155
       ...                                ...                  ...
       146                          6.3485958             172.7541
      -------------------------------------------------------------
                  HL-Gap            0.0596157 Eh            1.6222 eV
             Fermi-level           -0.2875902 Eh           -7.8257 eV

 SCC (total)                   0 d,  0 h,  0 min,  0.037 sec
 SCC setup                      ...        0 min,  0.008 sec ( 22.322%)
 Dispersion                     ...        0 min,  0.001 sec (  2.280%)
 classical contributions        ...        0 min,  0.000 sec (  0.136%)
 integral evaluation            ...        0 min,  0.005 sec ( 13.498%)
 iterations                     ...        0 min,  0.012 sec ( 32.362%)
 molecular gradient             ...        0 min,  0.007 sec ( 19.098%)
 printout                       ...        0 min,  0.004 sec ( 10.187%)

         :::::::::::::::::::::::::::::::::::::::::::::::::::::
         ::                     SUMMARY                     ::
         :::::::::::::::::::::::::::::::::::::::::::::::::::::
         :: total energy             -82.968410956453 Eh    ::
         :: gradient norm              0.000040349371 Eh/a0 ::
         :: HOMO-LUMO gap              1.622225333447 eV    ::
         ::.................................................::
         :: SCC energy               -84.050933822938 Eh    ::
         :: -> isotropic ES           -0.056618916518 Eh    ::
         :: -> anisotropic ES         -0.008968346300 Eh    ::
         :: -> anisotropic XC          0.029630386571 Eh    ::
         :: -> dispersion             -0.083804383012 Eh    ::
         :: repulsion energy           1.079503402218 Eh    ::
         :: add. restraining           0.000000000000 Eh    ::
         :: total charge               0.000000000000 e     ::
         :::::::::::::::::::::::::::::::::::::::::::::::::::::

           ------------------------------------------------- 
          |        vertical delta SCC IP calculation        |
           ------------------------------------------------- 

 iter      E             dE          RMSdq      gap      omega  full diag
   1    -83.6128741 -0.836129E+02  0.100E+00    1.62       0.0  T
   2    -83.4767058  0.136168E+00  0.173E+00    1.23       1.0  T
   3    -83.6442807 -0.167575E+00  0.656E-01    1.70       1.0  T
   4    -83.6488603 -0.457960E-02  0.562E-01    1.70       1.0  T
   5    -83.6506257 -0.176541E-02  0.437E-01    1.72       1.0  T
   6    -83.6339346  0.166911E-01  0.523E-01    1.67       1.0  T
   7    -83.6508430 -0.169084E-01  0.263E-01    1.68       1.0  T
   8    -83.6542981 -0.345501E-02  0.127E-01    1.70       1.0  T
   9    -83.6541657  0.132383E-03  0.909E-02    1.70       1.0  T
  10    -83.6543422 -0.176508E-03  0.529E-02    1.69       1.0  T
  11    -83.6544886 -0.146422E-03  0.141E-02    1.69       1.0  T
  12    -83.6544924 -0.384697E-05  0.658E-03    1.69       2.0  T
  13    -83.6544894  0.300171E-05  0.793E-03    1.69       1.7  T
  14    -83.6544923 -0.290015E-05  0.367E-03    1.69       3.7  T
  15    -83.6544930 -0.636594E-06  0.119E-03    1.69      11.3  T
  16    -83.6544930  0.240055E-07  0.874E-04    1.69      15.4  T
  17    -83.6544930 -0.304073E-07  0.393E-04    1.69      34.3  T
     SCC iter.                  ...        0 min,  0.049 sec
     gradient                   ...        0 min,  0.006 sec
------------------------------------------------------------------------
empirical IP shift (eV):    4.8455
delta SCC IP (eV):    5.9422
------------------------------------------------------------------------
           ------------------------------------------------- 
          |        vertical delta SCC EA calculation        |
           ------------------------------------------------- 

 iter      E             dE          RMSdq      gap      omega  full diag
   1    -84.1269973 -0.841270E+02  0.135E+00    0.58       0.0  T
   2    -84.1900983 -0.631009E-01  0.151E+00    0.56       1.0  T
   3    -84.2260950 -0.359968E-01  0.804E-01    0.44       1.0  T
   4    -84.2224319  0.366316E-02  0.727E-01    0.58       1.0  T
   5    -84.2237387 -0.130685E-02  0.506E-01    0.38       1.0  T
   6    -84.2299629 -0.622416E-02  0.263E-01    0.47       1.0  T
   7    -84.2303885 -0.425593E-03  0.128E-01    0.45       1.0  T
   8    -84.2303998 -0.113335E-04  0.687E-02    0.46       1.0  T
   9    -84.2304374 -0.375613E-04  0.250E-02    0.46       1.0  T
  10    -84.2304470 -0.963735E-05  0.170E-02    0.46       1.0  T
  11    -84.2304500 -0.300115E-05  0.897E-03    0.46       1.5  T
  12    -84.2304505 -0.491573E-06  0.568E-03    0.46       2.4  T
  13    -84.2304507 -0.218995E-06  0.313E-03    0.46       4.3  T
  14    -84.2304508 -0.716532E-07  0.134E-03    0.46      10.0  T
  15    -84.2304508 -0.451164E-07  0.548E-04    0.46      24.6  T
  16    -84.2304508 -0.432482E-08  0.180E-04    0.46      74.8  T
     SCC iter.                  ...        0 min,  0.046 sec
     gradient                   ...        0 min,  0.006 sec
------------------------------------------------------------------------
empirical EA shift (eV):    4.8455
delta SCC EA (eV):    0.0394
------------------------------------------------------------------------
           -------------------------------------------------
          |                Property Printout                |
           -------------------------------------------------

    * Orbital Energies and Occupations

         #    Occupation            Energy/Eh            Energy/eV
      -------------------------------------------------------------
         1        2.0000           -0.6509344             -17.7128
       ...           ...                  ...                  ...
        66        2.0000           -0.2458344              -6.6895
        67        2.0000           -0.2422002              -6.5906
        68        2.0000           -0.2345205              -6.3816
        69        2.0000           -0.2203469              -5.9959
        70        2.0000           -0.2123466              -5.7782
        71        2.0000           -0.2022787              -5.5043
        72        2.0000           -0.1958347              -5.3289
        73        2.0000           -0.1901072              -5.1731
        74        2.0000           -0.1875389              -5.1032
        75        2.0000           -0.1823049              -4.9608
        76        2.0000           -0.1767644              -4.8100
        77        2.0000           -0.1598161              -4.3488
        78        0.9999           -0.1011941              -2.7536 (HOMO)
        79        0.0001           -0.0842832              -2.2935 (LUMO)
        80        0.0000           -0.0784406              -2.1345
        81                         -0.0703587              -1.9146
        82                         -0.0241451              -0.6570
        83                         -0.0239230              -0.6510
        84                         -0.0152456              -0.4149
        85                         -0.0014059              -0.0383
        86                          0.0159236               0.4333
        87                          0.1319293               3.5900
        88                          0.1734530               4.7199
        89                          0.1793185               4.8795
       ...                                ...                  ...
       146                          6.4772788             176.2557
      -------------------------------------------------------------
                  HL-Gap            0.0169109 Eh            0.4602 eV
             Fermi-level           -0.1116224 Eh           -3.0374 eV

     #   Z          covCN         q      C6AA      α(0)
     1  26 Fe       9.377     1.281   111.126    18.590
     2   6 C        2.723     0.373    20.675     7.444
     3  46 Pd       4.225    -0.611   401.286    36.585
     4   6 C        3.806    -0.016    20.860     6.502
     5   1 H        0.927     0.005     2.972     2.696
     6   1 H        0.927    -0.006     3.171     2.785
     7   1 H        0.927     0.059     2.211     2.325
     8   6 C        2.809     0.237    23.040     7.864
     9   8 O        0.856    -0.545    24.797     6.676
    10   6 C        4.031    -0.103    22.372     6.719
    11   8 O        1.580    -0.449    21.877     6.312
    12   6 C        3.933    -0.138    23.087     6.828
    13   6 C        3.866    -0.145    23.238     6.855
    14   6 C        3.866    -0.154    23.422     6.882
    15   1 H        0.927     0.019     2.755     2.596
    16   1 H        0.927     0.000     3.054     2.733
    17   1 H        0.927    -0.006     3.158     2.779
    18   1 H        0.816     0.317     0.671     1.286
    19   6 C        3.860    -0.186    24.086     6.979
    20   6 C        3.835     0.024    20.141     6.385
    21   8 O        1.492    -0.417    21.326     6.227
    22   6 C        3.902    -0.112    22.577     6.754
    23   6 C        3.880    -0.149    23.316     6.865
    24   6 C        3.889    -0.151    23.355     6.870
    25   6 C        3.881    -0.149    23.314     6.865
    26   6 C        3.887    -0.120    22.743     6.780
    27   1 H        0.927     0.080     1.977     2.199
    28   7 N        2.675    -0.140    24.037     7.282
    29   1 H        0.924    -0.013     3.303     2.842
    30   1 H        0.925     0.023     2.690     2.565
    31   1 H        0.923     0.007     2.938     2.680
    32   1 H        0.927     0.013     2.844     2.637
    33   7 N        3.333    -0.055    22.292     7.012
    34   6 C        3.823    -0.023    20.968     6.516
    35   6 C        3.719    -0.042    21.437     6.613
    36   1 H        0.923    -0.006     3.162     2.781
    37   1 H        0.924     0.092     1.860     2.133
    38   1 H        0.924     0.092     1.861     2.133
    39   1 H        0.923     0.002     3.030     2.722
    40   1 H        0.925     0.058     2.224     2.332
    41   1 H        0.925     0.043     2.405     2.425
    42   6 C        3.855    -0.024    20.968     6.513
    43   6 C        3.755    -0.101    22.487     6.761
    44   6 C        3.756    -0.098    22.429     6.753
    45   1 H        0.925     0.026     2.645     2.543
    46   1 H        0.925     0.017     2.777     2.606
    47   1 H        0.925     0.049     2.337     2.391
    48   1 H        0.922     0.077     2.016     2.220
    49   1 H        0.925     0.015     2.810     2.621
    50   1 H        0.925     0.028     2.614     2.528
    51   1 H        0.925     0.018     2.757     2.597
    52   6 C        3.754    -0.114    22.737     6.799
    53   1 H        0.925     0.041     2.442     2.444
    54   1 H        0.925     0.041     2.431     2.438
    55   1 H        0.925     0.036     2.498     2.472

 Mol. C6AA /au·bohr⁶  :      37198.078067
 Mol. C8AA /au·bohr⁸  :    1128279.944761
 Mol. α(0) /au        :        294.741313


Wiberg/Mayer (AO) data.
largest (>0.10) Wiberg bond orders for each atom

 ---------------------------------------------------------------------------
     #   Z sym  total        # sym  WBO       # sym  WBO       # sym  WBO
 ---------------------------------------------------------------------------
     1  26 Fe   1.179 --    10 C    0.255    12 C    0.254    14 C    0.238
                            13 C    0.217    23 C    0.209    25 C    0.205
                            24 C    0.200    22 C    0.148    26 C    0.148
                            19 C    0.102
     2   6 C    3.941 --     9 O    1.584    21 O    1.427    20 C    0.839
     3  46 Pd   3.468 --    19 C    0.732    28 N    0.507    21 O    0.414
                            33 N    0.297    22 C    0.194    26 C    0.172
                            12 C    0.127    10 C    0.108
     4   6 C    3.978 --    10 C    1.004    33 N    0.975    30 H    0.975
                            31 H    0.960
     5   1 H    0.998 --    24 C    0.994
     6   1 H    0.998 --    25 C    0.982
     7   1 H    0.995 --    26 C    0.948
     8   6 C    3.956 --    28 N    1.608    11 O    1.180    52 C    0.979
     9   8 O    1.907 --     2 C    1.584    21 O    0.213
    10   6 C    3.951 --    14 C    1.262    19 C    1.186     4 C    1.004
                             1 Fe   0.255     3 Pd   0.108
    11   8 O    2.113 --     8 C    1.180    18 H    0.540    28 N    0.160
    12   6 C    3.973 --    13 C    1.300    19 C    1.203    15 H    0.963
                             1 Fe   0.254     3 Pd   0.127
    13   6 C    3.970 --    12 C    1.300    14 C    1.299    16 H    0.990
                             1 Fe   0.217
    14   6 C    3.968 --    13 C    1.299    10 C    1.262    17 H    0.988
                             1 Fe   0.238
    15   1 H    0.997 --    12 C    0.963
    16   1 H    0.996 --    13 C    0.990
    17   1 H    0.997 --    14 C    0.988
    18   1 H    0.898 --    11 O    0.540    19 C    0.241
    19   6 C    3.751 --    12 C    1.203    10 C    1.186     3 Pd   0.732
                            18 H    0.241     1 Fe   0.102
    20   6 C    3.963 --    28 N    1.003    29 H    0.954    42 C    0.954
                             2 C    0.839
    21   8 O    2.186 --     2 C    1.427     3 Pd   0.414     9 O    0.213
    22   6 C    3.979 --    23 C    1.282    26 C    1.275    27 H    0.934
                             3 Pd   0.194     1 Fe   0.148
    23   6 C    3.968 --    24 C    1.303    22 C    1.282    32 H    0.984
                             1 Fe   0.209
    24   6 C    3.965 --    23 C    1.303    25 C    1.300     5 H    0.994
                             1 Fe   0.200
    25   6 C    3.965 --    24 C    1.300    26 C    1.297     6 H    0.982
                             1 Fe   0.205
    26   6 C    3.976 --    25 C    1.297    22 C    1.275     7 H    0.948
                             3 Pd   0.172     1 Fe   0.148
    27   1 H    0.991 --    22 C    0.934
    28   7 N    3.434 --     8 C    1.608    20 C    1.003     3 Pd   0.507
                            11 O    0.160
    29   1 H    0.998 --    20 C    0.954
    30   1 H    0.998 --     4 C    0.975
    31   1 H    0.998 --     4 C    0.960
    32   1 H    0.998 --    23 C    0.984
    33   7 N    3.359 --    35 C    1.010    34 C    0.992     4 C    0.975
                             3 Pd   0.297
    34   6 C    3.979 --    33 N    0.992    36 H    0.970    37 H    0.945
                            38 H    0.936
    35   6 C    3.986 --    33 N    1.010    41 H    0.978    40 H    0.974
                            39 H    0.972
    36   1 H    0.999 --    34 C    0.970
    37   1 H    0.990 --    34 C    0.945
    38   1 H    0.990 --    34 C    0.936
    39   1 H    0.999 --    35 C    0.972
    40   1 H    0.995 --    35 C    0.974
    41   1 H    0.997 --    35 C    0.978
    42   6 C    3.986 --    43 C    1.010    44 C    1.005    20 C    0.954
                            48 H    0.924
    43   6 C    3.996 --    42 C    1.010    46 H    0.987    45 H    0.986
                            47 H    0.979
    44   6 C    3.997 --    42 C    1.005    51 H    0.987    49 H    0.987
                            50 H    0.983
    45   1 H    0.999 --    43 C    0.986
    46   1 H    0.999 --    43 C    0.987
    47   1 H    0.997 --    43 C    0.979
    48   1 H    0.991 --    42 C    0.924
    49   1 H    0.999 --    44 C    0.987
    50   1 H    0.999 --    44 C    0.983
    51   1 H    0.999 --    44 C    0.987
    52   6 C    3.991 --    54 H    0.987     8 C    0.979    53 H    0.975
                            55 H    0.972
    53   1 H    0.998 --    52 C    0.975
    54   1 H    0.998 --    52 C    0.987
    55   1 H    0.998 --    52 C    0.972
 ---------------------------------------------------------------------------

Topologies differ in total number of bonds
Writing topology from bond orders to xtbtopo.mol

molecular dipole:
                 x           y           z       tot (Debye)
 q only:       -2.860       0.382      -1.888
   full:       -2.291      -0.240      -1.653       7.206
molecular quadrupole (traceless):
                xx          xy          yy          xz          yz          zz
 q only:       -6.461       7.034      16.527     -23.857      -4.288     -10.066
  q+dip:        2.213       7.168      17.582     -27.255     -11.811     -19.796
   full:        1.228       8.650      15.135     -27.145      -9.836     -16.364


           -------------------------------------------------
          | TOTAL ENERGY              -83.147927955445 Eh   |
          | GRADIENT NORM               0.091496547069 Eh/α |
          | HOMO-LUMO GAP               0.460169322761 eV   |
           -------------------------------------------------

------------------------------------------------------------------------
 * finished run on 2024/10/14 at 18:09:28.537     
------------------------------------------------------------------------
 total:
 * wall-time:     0 d,  0 h,  0 min,  0.341 sec
 *  cpu-time:     0 d,  0 h,  0 min,  3.720 sec
 * ratio c/w:    10.899 speedup
 SCF:
 * wall-time:     0 d,  0 h,  0 min,  0.157 sec
 *  cpu-time:     0 d,  0 h,  0 min,  1.851 sec
 * ratio c/w:    11.789 speedup

