%chk=1-modopt.chk
#p opt=(modredundant,nomicro) external='./xtb.sh'

Generate automatically by rxnb

0 1
Fe          -4.620140        2.219920        2.596330
C           -1.924000        1.111680       -3.532940
Pd          -3.509430        1.808250       -1.279020
C           -5.353290        3.744380       -0.154480
H           -5.871260        3.535880        4.775530
H           -4.387450        5.006460        3.051190
H           -2.159680        3.576710        2.442280
C           -1.287400        0.599160        0.000060
O           -1.491500        1.015240       -4.662320
C           -5.394200        2.561040        0.756950
O           -1.772210        1.120400        1.058540
C           -4.800980        0.461000        1.500110
C           -6.051170        0.801520        2.090760
C           -6.436370        2.089550        1.606010
H           -4.227520       -0.441870        1.703520
H           -6.607660        0.198170        2.806370
H           -7.346550        2.628780        1.865300
H           -2.996800        1.531170        0.775840
C           -4.359070        1.544340        0.661010
C           -1.418470        0.157400       -2.422570
O           -2.858850        1.967830       -3.180470
C           -2.942660        3.286330        3.139860
C           -4.120210        4.030250        3.452920
C           -4.903730        3.254560        4.363460
C           -4.206030        2.033920        4.615180
C           -2.997040        2.050690        3.855960
H           -2.261860        1.252360        3.792380
N           -1.947450        0.595370       -1.137440
H           -0.319030        0.216370       -2.415010
H           -4.532190        4.422560        0.118070
H           -6.294560        4.323020       -0.144270
P           -4.788730        0.664430        5.679980
O           -4.737100       -0.338770        4.486270
C           -6.398030        1.180400        6.194990
C           -7.079900        0.680200        7.296070
C           -8.326860        1.162930        7.640110
C           -8.940040        2.155310        6.906580
C           -8.279090        2.655700        5.818970
C           -7.036300        2.164870        5.487580
C           -3.392560        0.600710        6.764900
C           -3.468580        0.638570        8.148030
C           -2.338740        0.624700        8.946870
C           -1.082080        0.571460        8.392100
C           -0.984520        0.532130        7.029030
C           -2.109510        0.545780        6.220410
H           -6.639030       -0.111860        7.912950
H           -8.829600        0.737660        8.521810
H           -9.933460        2.539990        7.186170
H           -8.730910        3.443750        5.213700
H           -6.555760        2.610480        4.592400
H           -4.460880        0.676690        8.579890
H           -2.447520        0.658830       10.036420
H           -0.229700        0.566720        9.051430
H           -0.002140        0.493340        6.581120
H           -2.018560        0.514280        5.133090
N           -5.065630        3.255020       -1.510450
C           -4.147860        3.997670       -2.294160
C           -6.179990        2.703220       -2.216850
H           -4.539780        4.297210       -3.301010
H           -3.777470        4.891670       -1.725690
H           -3.226600        3.392420       -2.497190
H           -7.005950        3.447320       -2.222400
H           -5.942440        2.324030       -3.212230
H           -6.574260        1.849350       -1.591300
C           -1.812560       -1.266590       -2.779420
C           -1.506600       -2.052250       -1.586450
C           -1.016610       -1.497620       -3.990690
C           -1.506790       -0.651740       -5.137080
H           -0.872060       -1.474660       -0.951350
H           -1.099190       -3.067660       -1.840920
H           -2.442560       -2.267260       -0.976490
H           -2.775350       -0.825600       -2.878410
H           -0.797520       -2.530110       -4.271480
H           -0.029300       -1.040730       -3.656390
H           -0.792370        0.088730       -5.502110
H           -1.755060       -1.313640       -6.008830
H           -2.451520       -0.110980       -4.866850
O            0.000000        0.000000        0.000000
C            2.368720       -0.000000       -0.000000
C            1.126420        0.841020       -0.000000
C            1.004410        1.759090       -1.163780
C            1.122290        1.643780        1.293210
H            2.100510       -0.970940        0.502060
H            2.786720       -0.181780       -0.998560
H            3.150810        0.449130        0.668740
H            1.450060        1.401060       -2.097950
H            1.371780        2.797030       -0.929300
H           -0.092540        1.910070       -1.392230
H            0.273330        1.327120        1.939480
H            2.042180        1.476920        1.891450
H            1.103450        2.725340        1.054360

B 11 18 F
B 18 19 F
B 3 19 F
B 3 33 F
B 3 28 F
B 3 21 F

