%chk=3-tsopt.chk
#p opt(ts,calcfc,noeigen,nomicro) external='./xtb.sh'

Generate automatically by rxnb

0 1
Fe          -0.518860       -0.377550        0.274280
C            3.962930        0.202320       -1.822870
Pd           2.111100       -0.958520       -0.101580
C            0.194400       -3.016240       -0.019570
H           -2.096480       -1.708460       -1.321380
H            0.356220       -1.153310       -2.254330
H            0.996560        1.260410       -1.469410
C            2.227020        1.769300        0.621730
O            4.567380        0.625100       -2.791710
C           -0.087620       -2.042790        1.051340
O            1.012040        1.491570        0.923420
C           -0.144690       -0.140650        2.224300
C           -1.448300       -0.525480        1.985350
C           -1.425860       -1.730590        1.277750
H            0.076850        0.802160        2.665870
H           -2.272420        0.057340        2.301550
H           -2.246830       -2.264050        0.869350
H            0.762210        0.193160        0.925930
C            0.782340       -1.013830        1.567730
C            4.254850        0.778230       -0.397810
O            3.061060       -0.699070       -1.860700
C            0.072980        0.773710       -1.251150
C           -0.264420       -0.522800       -1.658260
C           -1.579620       -0.782750       -1.250110
C           -2.043230        0.358950       -0.579340
C           -1.005940        1.297870       -0.538970
H           -1.021550        2.110050        0.145570
N            2.966510        0.798330        0.234070
H            4.707110        1.773370       -0.474770
H           -0.458580       -2.703160       -0.832230
H           -0.057790       -4.048370        0.271710
P           -3.495630        0.691620        0.356690
O           -3.363040        1.703310        1.416270
C           -4.236940       -0.891320        0.854820
C           -4.604970       -1.106070        2.172770
C           -5.219280       -2.290700        2.539410
C           -5.474490       -3.260090        1.583930
C           -5.137760       -3.035040        0.257520
C           -4.530340       -1.848320       -0.107840
C           -4.672790        1.215650       -0.942090
C           -4.329650        1.248590       -2.284950
C           -5.258310        1.662410       -3.224560
C           -6.529000        2.042120       -2.825580
C           -6.873110        2.014970       -1.483150
C           -5.945060        1.602310       -0.545000
H           -4.409070       -0.335010        2.902610
H           -5.501130       -2.458740        3.567800
H           -5.949190       -4.187310        1.867920
H           -5.357780       -3.783640       -0.489520
H           -4.290130       -1.648450       -1.141170
H           -3.334520        0.958020       -2.588120
H           -4.990270        1.691130       -4.270670
H           -7.251520        2.364210       -3.560970
H           -7.862780        2.316020       -1.172520
H           -6.189490        1.582560        0.508060
N            1.583810       -2.915520       -0.442860
C            1.782790       -3.476210       -1.771300
C            2.455530       -3.612150        0.501550
H            1.644920       -4.565780       -1.765830
H            1.073790       -3.046480       -2.475990
H            2.787800       -3.245440       -2.121720
H            2.270390       -4.696770        0.478680
H            3.501710       -3.434530        0.238210
H            2.264580       -3.249620        1.512420
C            5.162800       -0.183320        0.400860
C            5.590020        0.493010        1.702080
C            6.368290       -0.669780       -0.416890
C            6.110770       -2.030690       -1.057760
H            6.244800        1.336690        1.492070
H            6.121760       -0.207670        2.343640
H            4.715720        0.859470        2.237880
H            4.529320       -1.061750        0.667270
H            7.242720       -0.744200        0.234550
H            6.594000        0.057060       -1.199080
H            6.955540       -2.329660       -1.674510
H            5.961670       -2.792520       -0.290890
H            5.230680       -1.987770       -1.695930
O            2.726150        3.005910        0.716610
C            2.797060        5.305430        1.153500
C            1.843420        4.130020        0.933010
C            1.004790        4.345360       -0.326750
C            0.947660        3.937250        2.158820
H            3.376820        5.150930        2.059490
H            3.483720        5.384340        0.315130
H            2.235180        6.230340        1.242230
H            1.655340        4.523120       -1.180300
H            0.350650        5.202380       -0.195560
H            0.401540        3.464010       -0.521760
H            1.547000        3.613750        3.006890
H            0.472560        4.882970        2.404490
H            0.184090        3.186940        1.963670


