%chk=4-tsfreq.chk
#p freq external='./xtb.sh'

Generate automatically by rxnb

0 1
Fe           0.561530       -0.479520       -0.149920
C           -4.057380        0.255610        1.629690
Pd          -2.022670       -0.951880        0.094190
C           -0.027580       -3.092070        0.262150
H            2.260500       -1.679740        1.456090
H           -0.184800       -1.148880        2.438930
H           -0.907080        1.230090        1.595420
C           -2.292210        1.790820       -0.655390
O           -4.791860        0.715840        2.485890
C            0.206560       -2.207540       -0.890870
O           -1.049450        1.734670       -0.832590
C            0.025250       -0.291310       -2.017730
C            1.374790       -0.581110       -1.906260
C            1.501130       -1.775790       -1.182210
H           -0.310960        0.644930       -2.392820
H            2.123800        0.077800       -2.257470
H            2.383420       -2.234860       -0.813700
H           -0.767510        0.149300       -0.266840
C           -0.764750       -1.308140       -1.407510
C           -4.281240        0.607010        0.122920
O           -3.058010       -0.506160        1.850200
C            0.002960        0.732430        1.339180
C            0.403220       -0.534530        1.800800
C            1.703050       -0.780400        1.349430
C            2.103480        0.338770        0.599720
C            1.043020        1.248190        0.557200
H            0.984050        2.032600       -0.158760
N           -2.955980        0.693890       -0.440630
H           -4.819570        1.557720        0.042500
H            0.673210       -2.734360        1.011730
H            0.164520       -4.155460        0.053850
P            3.496680        0.718250       -0.409250
O            3.224420        1.693910       -1.472610
C            4.287820       -0.831780       -0.926800
C            4.582400       -1.050790       -2.262250
C            5.233560       -2.209750       -2.647540
C            5.596020       -3.146980       -1.694500
C            5.325330       -2.918420       -0.353350
C            4.680460       -1.757940        0.031070
C            4.702850        1.338750        0.816000
C            4.394050        1.463160        2.161790
C            5.339850        1.958760        3.043030
C            6.592280        2.329340        2.582460
C            6.901370        2.210960        1.236380
C            5.956660        1.716630        0.356150
H            4.297940       -0.304490       -2.988370
H            5.460320       -2.382870       -3.688530
H            6.101010       -4.053330       -1.993000
H            5.625170       -3.643640        0.388810
H            4.483850       -1.554390        1.073260
H            3.412890        1.178810        2.512610
H            5.099250        2.058700        4.091320
H            7.327940        2.715590        3.272360
H            7.876610        2.505160        0.877650
H            6.174100        1.624280       -0.699160
N           -1.397580       -2.886730        0.728350
C           -1.568650       -3.285550        2.122100
C           -2.327580       -3.672710       -0.085510
H           -1.658300       -4.375180        2.216810
H           -0.714610       -2.974790        2.719980
H           -2.465980       -2.817640        2.527290
H           -2.157110       -4.751130        0.057960
H           -3.354830       -3.445950        0.211900
H           -2.188170       -3.439210       -1.141730
C           -5.053140       -0.511740       -0.608350
C           -5.393700       -0.042830       -2.022230
C           -6.302450       -0.957160        0.165310
C           -6.035080       -2.181230        1.036300
H           -6.102010        0.782670       -1.986350
H           -5.833260       -0.852920       -2.602030
H           -4.490280        0.296520       -2.526880
H           -4.355180       -1.376380       -0.702610
H           -7.102530       -1.193090       -0.541090
H           -6.644950       -0.137910        0.799790
H           -6.916910       -2.434220        1.620880
H           -5.777830       -3.043500        0.418710
H           -5.222420       -1.981380        1.731560
O           -2.990960        2.938500       -0.694000
C           -3.403540        5.239760       -0.825870
C           -2.290800        4.190510       -0.833520
C           -1.352500        4.397700        0.357300
C           -1.517310        4.238020       -2.152410
H           -4.079470        5.070030       -1.659730
H           -3.972060        5.167800        0.097450
H           -2.978340        6.235710       -0.907610
H           -1.911170        4.307430        1.286610
H           -0.906440        5.386820        0.306960
H           -0.565440        3.648700        0.343030
H           -2.189090        4.035300       -2.983610
H           -1.078680        5.223190       -2.282870
H           -0.728210        3.490190       -2.145240


