91
charge 0 multiplicity 1
Fe          -0.51886  -0.37755   0.27428
C            3.96293   0.20232  -1.82287
Pd           2.11110  -0.95852  -0.10158
C            0.19440  -3.01624  -0.01957
H           -2.09648  -1.70846  -1.32138
H            0.35622  -1.15331  -2.25433
H            0.99656   1.26041  -1.46941
C            2.22702   1.76930   0.62173
O            4.56738   0.62510  -2.79171
C           -0.08762  -2.04279   1.05134
O            1.01204   1.49157   0.92342
C           -0.14469  -0.14065   2.22430
C           -1.44830  -0.52548   1.98535
C           -1.42586  -1.73059   1.27775
H            0.07685   0.80216   2.66587
H           -2.27242   0.05734   2.30155
H           -2.24683  -2.26405   0.86935
H            0.76221   0.19316   0.92593
C            0.78234  -1.01383   1.56773
C            4.25485   0.77823  -0.39781
O            3.06106  -0.69907  -1.86070
C            0.07298   0.77371  -1.25115
C           -0.26442  -0.52280  -1.65826
C           -1.57962  -0.78275  -1.25011
C           -2.04323   0.35895  -0.57934
C           -1.00594   1.29787  -0.53897
H           -1.02155   2.11005   0.14557
N            2.96651   0.79833   0.23407
H            4.70711   1.77337  -0.47477
H           -0.45858  -2.70316  -0.83223
H           -0.05779  -4.04837   0.27171
P           -3.49563   0.69162   0.35669
O           -3.36304   1.70331   1.41627
C           -4.23694  -0.89132   0.85482
C           -4.60497  -1.10607   2.17277
C           -5.21928  -2.29070   2.53941
C           -5.47449  -3.26009   1.58393
C           -5.13776  -3.03504   0.25752
C           -4.53034  -1.84832  -0.10784
C           -4.67279   1.21565  -0.94209
C           -4.32965   1.24859  -2.28495
C           -5.25831   1.66241  -3.22456
C           -6.52900   2.04212  -2.82558
C           -6.87311   2.01497  -1.48315
C           -5.94506   1.60231  -0.54500
H           -4.40907  -0.33501   2.90261
H           -5.50113  -2.45874   3.56780
H           -5.94919  -4.18731   1.86792
H           -5.35778  -3.78364  -0.48952
H           -4.29013  -1.64845  -1.14117
H           -3.33452   0.95802  -2.58812
H           -4.99027   1.69113  -4.27067
H           -7.25152   2.36421  -3.56097
H           -7.86278   2.31602  -1.17252
H           -6.18949   1.58256   0.50806
N            1.58381  -2.91552  -0.44286
C            1.78279  -3.47621  -1.77130
C            2.45553  -3.61215   0.50155
H            1.64492  -4.56578  -1.76583
H            1.07379  -3.04648  -2.47599
H            2.78780  -3.24544  -2.12172
H            2.27039  -4.69677   0.47868
H            3.50171  -3.43453   0.23821
H            2.26458  -3.24962   1.51242
C            5.16280  -0.18332   0.40086
C            5.59002   0.49301   1.70208
C            6.36829  -0.66978  -0.41689
C            6.11077  -2.03069  -1.05776
H            6.24480   1.33669   1.49207
H            6.12176  -0.20767   2.34364
H            4.71572   0.85947   2.23788
H            4.52932  -1.06175   0.66727
H            7.24272  -0.74420   0.23455
H            6.59400   0.05706  -1.19908
H            6.95554  -2.32966  -1.67451
H            5.96167  -2.79252  -0.29089
H            5.23068  -1.98777  -1.69593
O            2.72615   3.00591   0.71661
C            2.79706   5.30543   1.15350
C            1.84342   4.13002   0.93301
C            1.00479   4.34536  -0.32675
C            0.94766   3.93725   2.15882
H            3.37682   5.15093   2.05949
H            3.48372   5.38434   0.31513
H            2.23518   6.23034   1.24223
H            1.65534   4.52312  -1.18030
H            0.35065   5.20238  -0.19556
H            0.40154   3.46401  -0.52176
H            1.54700   3.61375   3.00689
H            0.47256   4.88297   2.40449
H            0.18409   3.18694   1.96367