91
charge 0 multiplicity 1
Fe          -4.62014   2.21992   2.59633
C           -1.92400   1.11168  -3.53294
Pd          -3.50943   1.80825  -1.27902
C           -5.35329   3.74438  -0.15448
H           -5.87126   3.53588   4.77553
H           -4.38745   5.00646   3.05119
H           -2.15968   3.57671   2.44228
C           -1.28740   0.59916   0.00006
O           -1.49150   1.01524  -4.66232
C           -5.39420   2.56104   0.75695
O           -1.77221   1.12040   1.05854
C           -4.80098   0.46100   1.50011
C           -6.05117   0.80152   2.09076
C           -6.43637   2.08955   1.60601
H           -4.22752  -0.44187   1.70352
H           -6.60766   0.19817   2.80637
H           -7.34655   2.62878   1.86530
H           -2.99680   1.53117   0.77584
C           -4.35907   1.54434   0.66101
C           -1.41847   0.15740  -2.42257
O           -2.85885   1.96783  -3.18047
C           -2.94266   3.28633   3.13986
C           -4.12021   4.03025   3.45292
C           -4.90373   3.25456   4.36346
C           -4.20603   2.03392   4.61518
C           -2.99704   2.05069   3.85596
H           -2.26186   1.25236   3.79238
N           -1.94745   0.59537  -1.13744
H           -0.31903   0.21637  -2.41501
H           -4.53219   4.42256   0.11807
H           -6.29456   4.32302  -0.14427
P           -4.78873   0.66443   5.67998
O           -4.73710  -0.33877   4.48627
C           -6.39803   1.18040   6.19499
C           -7.07990   0.68020   7.29607
C           -8.32686   1.16293   7.64011
C           -8.94004   2.15531   6.90658
C           -8.27909   2.65570   5.81897
C           -7.03630   2.16487   5.48758
C           -3.39256   0.60071   6.76490
C           -3.46858   0.63857   8.14803
C           -2.33874   0.62470   8.94687
C           -1.08208   0.57146   8.39210
C           -0.98452   0.53213   7.02903
C           -2.10951   0.54578   6.22041
H           -6.63903  -0.11186   7.91295
H           -8.82960   0.73766   8.52181
H           -9.93346   2.53999   7.18617
H           -8.73091   3.44375   5.21370
H           -6.55576   2.61048   4.59240
H           -4.46088   0.67669   8.57989
H           -2.44752   0.65883  10.03642
H           -0.22970   0.56672   9.05143
H           -0.00214   0.49334   6.58112
H           -2.01856   0.51428   5.13309
N           -5.06563   3.25502  -1.51045
C           -4.14786   3.99767  -2.29416
C           -6.17999   2.70322  -2.21685
H           -4.53978   4.29721  -3.30101
H           -3.77747   4.89167  -1.72569
H           -3.22660   3.39242  -2.49719
H           -7.00595   3.44732  -2.22240
H           -5.94244   2.32403  -3.21223
H           -6.57426   1.84935  -1.59130
C           -1.81256  -1.26659  -2.77942
C           -1.50660  -2.05225  -1.58645
C           -1.01661  -1.49762  -3.99069
C           -1.50679  -0.65174  -5.13708
H           -0.87206  -1.47466  -0.95135
H           -1.09919  -3.06766  -1.84092
H           -2.44256  -2.26726  -0.97649
H           -2.77535  -0.82560  -2.87841
H           -0.79752  -2.53011  -4.27148
H           -0.02930  -1.04073  -3.65639
H           -0.79237   0.08873  -5.50211
H           -1.75506  -1.31364  -6.00883
H           -2.45152  -0.11098  -4.86685
O            0.00000   0.00000   0.00000
C            2.36872  -0.00000  -0.00000
C            1.12642   0.84102  -0.00000
C            1.00441   1.75909  -1.16378
C            1.12229   1.64378   1.29321
H            2.10051  -0.97094   0.50206
H            2.78672  -0.18178  -0.99856
H            3.15081   0.44913   0.66874
H            1.45006   1.40106  -2.09795
H            1.37178   2.79703  -0.92930
H           -0.09254   1.91007  -1.39223
H            0.27333   1.32712   1.93948
H            2.04218   1.47692   1.89145
H            1.10345   2.72534   1.05436