91
charge 0 multiplicity 1
Fe           0.56153  -0.47952  -0.14992
C           -4.05738   0.25561   1.62969
Pd          -2.02267  -0.95188   0.09419
C           -0.02758  -3.09207   0.26215
H            2.26050  -1.67974   1.45609
H           -0.18480  -1.14888   2.43893
H           -0.90708   1.23009   1.59542
C           -2.29221   1.79082  -0.65539
O           -4.79186   0.71584   2.48589
C            0.20656  -2.20754  -0.89087
O           -1.04945   1.73467  -0.83259
C            0.02525  -0.29131  -2.01773
C            1.37479  -0.58111  -1.90626
C            1.50113  -1.77579  -1.18221
H           -0.31096   0.64493  -2.39282
H            2.12380   0.07780  -2.25747
H            2.38342  -2.23486  -0.81370
H           -0.76751   0.14930  -0.26684
C           -0.76475  -1.30814  -1.40751
C           -4.28124   0.60701   0.12292
O           -3.05801  -0.50616   1.85020
C            0.00296   0.73243   1.33918
C            0.40322  -0.53453   1.80080
C            1.70305  -0.78040   1.34943
C            2.10348   0.33877   0.59972
C            1.04302   1.24819   0.55720
H            0.98405   2.03260  -0.15876
N           -2.95598   0.69389  -0.44063
H           -4.81957   1.55772   0.04250
H            0.67321  -2.73436   1.01173
H            0.16452  -4.15546   0.05385
P            3.49668   0.71825  -0.40925
O            3.22442   1.69391  -1.47261
C            4.28782  -0.83178  -0.92680
C            4.58240  -1.05079  -2.26225
C            5.23356  -2.20975  -2.64754
C            5.59602  -3.14698  -1.69450
C            5.32533  -2.91842  -0.35335
C            4.68046  -1.75794   0.03107
C            4.70285   1.33875   0.81600
C            4.39405   1.46316   2.16179
C            5.33985   1.95876   3.04303
C            6.59228   2.32934   2.58246
C            6.90137   2.21096   1.23638
C            5.95666   1.71663   0.35615
H            4.29794  -0.30449  -2.98837
H            5.46032  -2.38287  -3.68853
H            6.10101  -4.05333  -1.99300
H            5.62517  -3.64364   0.38881
H            4.48385  -1.55439   1.07326
H            3.41289   1.17881   2.51261
H            5.09925   2.05870   4.09132
H            7.32794   2.71559   3.27236
H            7.87661   2.50516   0.87765
H            6.17410   1.62428  -0.69916
N           -1.39758  -2.88673   0.72835
C           -1.56865  -3.28555   2.12210
C           -2.32758  -3.67271  -0.08551
H           -1.65830  -4.37518   2.21681
H           -0.71461  -2.97479   2.71998
H           -2.46598  -2.81764   2.52729
H           -2.15711  -4.75113   0.05796
H           -3.35483  -3.44595   0.21190
H           -2.18817  -3.43921  -1.14173
C           -5.05314  -0.51174  -0.60835
C           -5.39370  -0.04283  -2.02223
C           -6.30245  -0.95716   0.16531
C           -6.03508  -2.18123   1.03630
H           -6.10201   0.78267  -1.98635
H           -5.83326  -0.85292  -2.60203
H           -4.49028   0.29652  -2.52688
H           -4.35518  -1.37638  -0.70261
H           -7.10253  -1.19309  -0.54109
H           -6.64495  -0.13791   0.79979
H           -6.91691  -2.43422   1.62088
H           -5.77783  -3.04350   0.41871
H           -5.22242  -1.98138   1.73156
O           -2.99096   2.93850  -0.69400
C           -3.40354   5.23976  -0.82587
C           -2.29080   4.19051  -0.83352
C           -1.35250   4.39770   0.35730
C           -1.51731   4.23802  -2.15241
H           -4.07947   5.07003  -1.65973
H           -3.97206   5.16780   0.09745
H           -2.97834   6.23571  -0.90761
H           -1.91117   4.30743   1.28661
H           -0.90644   5.38682   0.30696
H           -0.56544   3.64870   0.34303
H           -2.18909   4.03530  -2.98361
H           -1.07868   5.22319  -2.28287
H           -0.72821   3.49019  -2.14524