65
charge 0 multiplicity 1
Fe          -2.24136   0.52726  -0.74374
C            0.81045   0.88993   2.60877
Pd          -0.35385  -0.63798   0.53355
C           -2.70173  -2.16568  -0.55118
H           -4.16143   2.10787  -1.60059
H           -4.80274   0.08599  -0.04700
H           -2.95759  -0.02562   1.94430
C            2.28452  -0.37077  -0.25693
O            0.95958   1.59356   3.59198
C           -2.09664  -1.23108  -1.53311
O            1.94640  -1.31990  -1.12144
C           -0.80413   0.54835  -2.04723
C           -2.05752   0.73948  -2.65615
C           -2.87106  -0.36080  -2.32797
H           -0.02398   1.28047  -2.05473
H           -2.37713   1.62333  -3.15948
H           -3.91717  -0.44159  -2.52108
H            0.90072  -1.22793  -1.25181
C           -0.77065  -0.71880  -1.39843
C            1.56089   1.34271   1.28168
O            0.12251  -0.16899   2.54391
C           -2.02633   1.64479   0.88128
C           -2.43614   2.38404  -0.24558
C           -3.64575   1.83212  -0.70985
C           -3.96956   0.73481   0.11104
C           -2.97590   0.62217   1.09804
H           -1.23538   1.87680   1.56033
N            1.36232   0.31794   0.30106
H            2.62023   1.46714   1.53691
H           -3.64063  -1.69080  -0.26702
H           -2.90858  -3.17461  -0.93634
H           -1.88881   3.15686  -0.73715
N           -1.82784  -2.23406   0.63204
C           -0.82698  -3.29839   0.46305
C           -2.58699  -2.52086   1.84291
H           -1.30060  -4.29063   0.52968
H           -0.34893  -3.21687  -0.51533
H           -0.07001  -3.22196   1.25439
H           -2.89809  -3.57378   1.87911
H           -1.96904  -2.30448   2.71498
H           -3.48429  -1.90897   1.87949
C            0.97845   2.65720   0.73780
C            1.99496   3.54810   0.02202
C            2.50084   2.95955  -1.28899
H            0.57080   3.22320   1.57809
H            0.16782   2.39007   0.04385
H            1.51816   4.51021  -0.18287
H            2.84109   3.73583   0.68585
H            1.67027   2.75196  -1.96152
H            3.17275   3.65794  -1.78403
H            3.04233   2.03609  -1.11018
O            3.56396  -0.08966  -0.04847
C            5.89400  -0.21960  -0.02696
C            4.64152  -0.86812  -0.61792
C            4.53443  -2.32598  -0.17307
C            4.64653  -0.74499  -2.14154
H            5.94063   0.82774  -0.31337
H            5.86587  -0.27775   1.05777
H            6.78317  -0.72715  -0.38816
H            4.44293  -2.37600   0.91002
H            5.42773  -2.86533  -0.47486
H            3.66842  -2.80334  -0.62383
H            4.67016   0.30340  -2.43137
H            5.52813  -1.23849  -2.54053
H            3.76147  -1.20775  -2.56919