      -----------------------------------------------------------      
     |                   =====================                   |     
     |                           x T B                           |     
     |                   =====================                   |     
     |                         S. Grimme                         |     
     |          Mulliken Center for Theoretical Chemistry        |     
     |                    University of Bonn                     |     
      -----------------------------------------------------------      

   * xtb version 6.6.1 (8d0f1dd) compiled by 'stahn@M-Bot' on 2023-08-01

   xtb is free software: you can redistribute it and/or modify it under
   the terms of the GNU Lesser General Public License as published by
   the Free Software Foundation, either version 3 of the License, or
   (at your option) any later version.
   
   xtb is distributed in the hope that it will be useful,
   but WITHOUT ANY WARRANTY; without even the implied warranty of
   MERCHANTABILITY or FITNESS FOR A PARTICULAR PURPOSE.  See the
   GNU Lesser General Public License for more details.
   
   Cite this work as:
   * C. Bannwarth, E. Caldeweyher, S. Ehlert, A. Hansen, P. Pracht,
     J. Seibert, S. Spicher, S. Grimme, WIREs Comput. Mol. Sci., 2020, 11,
     e01493. DOI: 10.1002/wcms.1493
   
   for GFN2-xTB:
   * C. Bannwarth, S. Ehlert and S. Grimme., J. Chem. Theory Comput., 2019,
     15, 1652-1671. DOI: 10.1021/acs.jctc.8b01176
   for GFN1-xTB:
   * S. Grimme, C. Bannwarth, P. Shushkov, J. Chem. Theory Comput., 2017,
     13, 1989-2009. DOI: 10.1021/acs.jctc.7b00118
   for GFN0-xTB:
   * P. Pracht, E. Caldeweyher, S. Ehlert, S. Grimme, ChemRxiv, 2019, preprint.
     DOI: 10.26434/chemrxiv.8326202.v1
   for GFN-FF:
   * S. Spicher and S. Grimme, Angew. Chem. Int. Ed., 2020, 59, 15665-15673.
     DOI: 10.1002/anie.202004239
   
   for ALPB and GBSA implicit solvation:
   * S. Ehlert, M. Stahn, S. Spicher, S. Grimme, J. Chem. Theory Comput.,
     2021, 17, 4250-4261. DOI: 10.1021/acs.jctc.1c00471
   
   for DFT-D4:
   * E. Caldeweyher, C. Bannwarth and S. Grimme, J. Chem. Phys., 2017,
     147, 034112. DOI: 10.1063/1.4993215
   * E. Caldeweyher, S. Ehlert, A. Hansen, H. Neugebauer, S. Spicher,
     C. Bannwarth and S. Grimme, J. Chem. Phys., 2019, 150, 154122.
     DOI: 10.1063/1.5090222
   * E. Caldeweyher, J.-M. Mewes, S. Ehlert and S. Grimme, Phys. Chem. Chem. Phys.
     2020, 22, 8499-8512. DOI: 10.1039/D0CP00502A
   
   for sTDA-xTB:
   * S. Grimme and C. Bannwarth, J. Chem. Phys., 2016, 145, 054103.
     DOI: 10.1063/1.4959605
   
   in the mass-spec context:
   * V. Asgeirsson, C. Bauer and S. Grimme, Chem. Sci., 2017, 8, 4879.
     DOI: 10.1039/c7sc00601b
   * J. Koopman and S. Grimme, ACS Omega 2019, 4, 12, 15120-15133.
     DOI: 10.1021/acsomega.9b02011
   
   for metadynamics refer to:
   * S. Grimme, J. Chem. Theory Comput., 2019, 155, 2847-2862
     DOI: 10.1021/acs.jctc.9b00143
   
   for SPH calculations refer to:
   * S. Spicher and S. Grimme, J. Chem. Theory Comput., 2021, 17, 1701-1714
     DOI: 10.1021/acs.jctc.0c01306
   
   with help from (in alphabetical order)
   P. Atkinson, C. Bannwarth, F. Bohle, G. Brandenburg, E. Caldeweyher
   M. Checinski, S. Dohm, S. Ehlert, S. Ehrlich, I. Gerasimov, C. Hölzer
   A. Katbashev, J. Koopman, C. Lavigne, S. Lehtola, F. März, M. Müller,
   F. Musil, H. Neugebauer, J. Pisarek, C. Plett, P. Pracht, F. Pultar,
   J. Seibert, P. Shushkov, S. Spicher, M. Stahn, M. Steiner, T. Strunk,
   J. Stückrath, T. Rose, and J. Unsleber
   
 * started run on 2024/10/14 at 19:21:01.641     

           -------------------------------------------------
          |                Calculation Setup                |
           -------------------------------------------------

          program call               : xtb tsopted.xyz --gfn 2 --charge 0 --vfukui
          coordinate file            : tsopted.xyz
          omp threads                :                    12

   ID    Z sym.   atoms
    1   26 Fe     1
    2    6 C      2, 4, 8, 10, 12-14, 19, 20, 22-26, 34, 35, 42-44, 53-56
    3   46 Pd     3
    4    1 H      5-7, 15-18, 27, 29-32, 36-41, 45-51, 57-65
    5    8 O      9, 11, 21, 52
    6    7 N      28, 33

molecular fragmentation (1/2 indicates fragments):
11111111111111111111111111111111111112111111111111111111111111111
# atoms in fragment 1/2:    64     1
 fragment masses (1/2) :      563.78        1.01
CMA distance (Bohr)    :   6.510
constraining FC (au)   :  0.0500

           -------------------------------------------------
          |                 G F N 2 - x T B                 |
           -------------------------------------------------

        Reference                      10.1021/acs.jctc.8b01176
      * Hamiltonian:
        H0-scaling (s, p, d)           1.850000    2.230000    2.230000
        zeta-weighting                 0.500000
      * Dispersion:
        s8                             2.700000
        a1                             0.520000
        a2                             5.000000
        s9                             5.000000
      * Repulsion:
        kExp                           1.500000    1.000000
        rExp                           1.000000
      * Coulomb:
        alpha                          2.000000
        third order                    shell-resolved
        anisotropic                    true
        a3                             3.000000
        a5                             4.000000
        cn-shift                       1.200000
        cn-exp                         4.000000
        max-rad                        5.000000


          ...................................................
          :                      SETUP                      :
          :.................................................:
          :  # basis functions                 170          :
          :  # atomic orbitals                 168          :
          :  # shells                           98          :
          :  # electrons                       178          :
          :  max. iterations                   250          :
          :  Hamiltonian                  GFN2-xTB          :
          :  restarted?                      false          :
          :  GBSA solvation                  false          :
          :  PC potential                    false          :
          :  electronic temp.          300.0000000     K    :
          :  accuracy                    1.0000000          :
          :  -> integral cutoff          0.2500000E+02      :
          :  -> integral neglect         0.1000000E-07      :
          :  -> SCF convergence          0.1000000E-05 Eh   :
          :  -> wf. convergence          0.1000000E-03 e    :
          :  Broyden damping             0.4000000          :
          ...................................................

 iter      E             dE          RMSdq      gap      omega  full diag
   1    -97.3676201 -0.973676E+02  0.733E+00    1.38       0.0  T
   2    -97.7153740 -0.347754E+00  0.388E+00    1.40       1.0  T
   3    -97.7548532 -0.394792E-01  0.243E+00    1.68       1.0  T
   4    -97.7620241 -0.717094E-02  0.136E+00    1.61       1.0  T
   5    -97.7650827 -0.305859E-02  0.830E-01    1.76       1.0  T
   6    -97.7718381 -0.675538E-02  0.602E-01    1.68       1.0  T
   7    -97.7763063 -0.446821E-02  0.334E-01    1.73       1.0  T
   8    -97.7766648 -0.358445E-03  0.128E-01    1.74       1.0  T
   9    -97.7767563 -0.914797E-04  0.836E-02    1.73       1.0  T
  10    -97.7767903 -0.340445E-04  0.376E-02    1.73       1.0  T
  11    -97.7767914 -0.105582E-05  0.199E-02    1.73       1.0  T
  12    -97.7767963 -0.497184E-05  0.888E-03    1.73       1.4  T
  13    -97.7767976 -0.128732E-05  0.321E-03    1.73       3.9  T
  14    -97.7767977 -0.112498E-06  0.102E-03    1.73      12.2  T
  15    -97.7767977 -0.639560E-08  0.610E-04    1.73      20.3  T
  16    -97.7767977 -0.245579E-08  0.323E-04    1.73      38.4  T

   *** convergence criteria satisfied after 16 iterations ***

         #    Occupation            Energy/Eh            Energy/eV
      -------------------------------------------------------------
         1        2.0000           -0.7896115             -21.4864
       ...           ...                  ...                  ...
        83        2.0000           -0.3537298              -9.6255
        84        2.0000           -0.3474116              -9.4536
        85        2.0000           -0.3428623              -9.3298
        86        2.0000           -0.3399694              -9.2510
        87        2.0000           -0.3371528              -9.1744
        88        2.0000           -0.3284282              -8.9370
        89        2.0000           -0.3131383              -8.5209 (HOMO)
        90                         -0.2495010              -6.7893 (LUMO)
        91                         -0.2302647              -6.2658
        92                         -0.2237371              -6.0882
        93                         -0.1992865              -5.4229
        94                         -0.1661064              -4.5200
       ...                                ...                  ...
       168                          6.3875829             173.8150
      -------------------------------------------------------------
                  HL-Gap            0.0636374 Eh            1.7317 eV
             Fermi-level           -0.2813196 Eh           -7.6551 eV

 SCC (total)                   0 d,  0 h,  0 min,  0.124 sec
 SCC setup                      ...        0 min,  0.003 sec (  2.782%)
 Dispersion                     ...        0 min,  0.001 sec (  0.864%)
 classical contributions        ...        0 min,  0.000 sec (  0.280%)
 integral evaluation            ...        0 min,  0.009 sec (  7.325%)
 iterations                     ...        0 min,  0.093 sec ( 75.314%)
 molecular gradient             ...        0 min,  0.012 sec (  9.483%)
 printout                       ...        0 min,  0.005 sec (  3.912%)

         :::::::::::::::::::::::::::::::::::::::::::::::::::::
         ::                     SUMMARY                     ::
         :::::::::::::::::::::::::::::::::::::::::::::::::::::
         :: total energy             -96.544858585352 Eh    ::
         :: gradient norm              0.000042332571 Eh/a0 ::
         :: HOMO-LUMO gap              1.731660908426 eV    ::
         ::.................................................::
         :: SCC energy               -97.776797737408 Eh    ::
         :: -> isotropic ES           -0.032077674796 Eh    ::
         :: -> anisotropic ES         -0.010350256954 Eh    ::
         :: -> anisotropic XC          0.030881948058 Eh    ::
         :: -> dispersion             -0.093483074101 Eh    ::
         :: repulsion energy           1.228423606512 Eh    ::
         :: add. restraining           0.000000000000 Eh    ::
         :: total charge              -0.000000000000 e     ::
         :::::::::::::::::::::::::::::::::::::::::::::::::::::


Fukui index Calculation

 iter      E             dE          RMSdq      gap      omega  full diag
   1    -97.9198964 -0.979199E+02  0.689E-01    0.52       0.0  T
   2    -97.9392571 -0.193607E-01  0.689E-01    0.36       1.0  T
   3    -97.9475794 -0.832235E-02  0.388E-01    0.41       1.0  T
   4    -97.9473929  0.186529E-03  0.330E-01    0.41       1.0  T
   5    -97.9475670 -0.174079E-03  0.188E-01    0.38       1.0  T
   6    -97.9477277 -0.160703E-03  0.177E-01    0.44       1.0  T
   7    -97.9485024 -0.774725E-03  0.698E-02    0.41       1.0  T
   8    -97.9485202 -0.178163E-04  0.312E-02    0.41       1.0  T
   9    -97.9485283 -0.809063E-05  0.165E-02    0.41       1.0  T
  10    -97.9485353 -0.696037E-05  0.786E-03    0.41       1.6  T
  11    -97.9485358 -0.504185E-06  0.535E-03    0.42       2.3  T
  12    -97.9485360 -0.239211E-06  0.384E-03    0.41       3.2  T
  13    -97.9485362 -0.162133E-06  0.195E-03    0.41       6.4  T
  14    -97.9485362 -0.474207E-07  0.534E-04    0.41      23.2  T
  15    -97.9485362 -0.522638E-08  0.231E-04    0.41      53.6  T
     SCC iter.                  ...        0 min,  0.057 sec
     gradient                   ...        0 min,  0.009 sec

 iter      E             dE          RMSdq      gap      omega  full diag
   1    -97.3395080 -0.973395E+02  0.951E-01    1.73       0.0  T
   2    -97.2060676  0.133440E+00  0.166E+00    1.18       1.0  T
   3    -97.3740650 -0.167997E+00  0.630E-01    1.83       1.0  T
   4    -97.3786334 -0.456837E-02  0.547E-01    1.83       1.0  T
   5    -97.3816209 -0.298753E-02  0.411E-01    1.84       1.0  T
   6    -97.3634627  0.181582E-01  0.502E-01    1.78       1.0  T
   7    -97.3775673 -0.141046E-01  0.333E-01    1.79       1.0  T
   8    -97.3843487 -0.678145E-02  0.163E-01    1.82       1.0  T
   9    -97.3849738 -0.625043E-03  0.701E-02    1.82       1.0  T
  10    -97.3847664  0.207395E-03  0.605E-02    1.81       1.0  T
  11    -97.3849639 -0.197556E-03  0.322E-02    1.81       1.0  T
  12    -97.3850288 -0.648577E-04  0.110E-02    1.81       1.1  T
  13    -97.3850296 -0.802881E-06  0.769E-03    1.81       1.6  T
  14    -97.3850262  0.338297E-05  0.845E-03    1.81       1.5  T
  15    -97.3850309 -0.468256E-05  0.330E-03    1.81       3.8  T
  16    -97.3850313 -0.351654E-06  0.116E-03    1.81      10.7  T
  17    -97.3850313 -0.872554E-08  0.625E-04    1.81      19.9  T
  18    -97.3850312  0.326475E-07  0.775E-04    1.81      16.0  T
     SCC iter.                  ...        0 min,  0.101 sec
     gradient                   ...        0 min,  0.011 sec

     #        f(+)     f(-)     f(0)
     1Fe     -0.080   -0.098   -0.089
     2C       0.003   -0.002    0.001
     3Pd     -0.310   -0.217   -0.264
     4C       0.018    0.018    0.018
     5H      -0.038   -0.039   -0.038
     6H      -0.036   -0.038   -0.037
     7H      -0.024   -0.028   -0.026
     8C      -0.011   -0.007   -0.009
     9O      -0.053   -0.081   -0.067
    10C      -0.008   -0.008   -0.008
    11O      -0.028   -0.028   -0.028
    12C      -0.001    0.003    0.001
    13C      -0.005   -0.006   -0.006
    14C      -0.003   -0.005   -0.004
    15H      -0.031   -0.030   -0.031
    16H      -0.041   -0.040   -0.041
    17H      -0.041   -0.040   -0.040
    18H      -0.006   -0.001   -0.004
    19C      -0.002   -0.004   -0.003
    20C       0.011   -0.004    0.003
    21O       0.009   -0.012   -0.002
    22C       0.008    0.004    0.006
    23C      -0.005   -0.005   -0.005
    24C      -0.008   -0.007   -0.007
    25C      -0.004   -0.005   -0.005
    26C       0.006    0.004    0.005
    27H      -0.022   -0.021   -0.022
    28N       0.011    0.016    0.014
    29H      -0.034   -0.035   -0.035
    30H      -0.020   -0.019   -0.020
    31H      -0.039   -0.040   -0.040
    32H      -0.033   -0.034   -0.034
    33N       0.014    0.004    0.009
    34C       0.020    0.017    0.018
    35C       0.017    0.018    0.017
    36H      -0.035   -0.034   -0.035
    37H      -0.005   -0.008   -0.007
    38H      -0.012   -0.009   -0.011
    39H      -0.032   -0.032   -0.032
    40H      -0.012   -0.012   -0.012
    41H      -0.013   -0.013   -0.013
    42C       0.006    0.005    0.005
    43C       0.008    0.006    0.007
    44C       0.006    0.007    0.007
    45H      -0.016   -0.016   -0.016
    46H       0.011    0.005    0.008
    47H      -0.018   -0.020   -0.019
    48H      -0.016   -0.017   -0.016
    49H       0.004    0.001    0.002
    50H      -0.020   -0.021   -0.021
    51H       0.003    0.001    0.002
    52O      -0.030   -0.024   -0.027
    53C       0.008    0.006    0.007
    54C       0.001    0.002    0.002
    55C       0.007    0.005    0.006
    56C       0.006    0.006    0.006
    57H      -0.008   -0.007   -0.008
    58H      -0.007   -0.005   -0.006
    59H      -0.018   -0.016   -0.017
    60H      -0.005   -0.003   -0.004
    61H      -0.020   -0.018   -0.019
    62H       0.004    0.003    0.003
    63H      -0.007   -0.006   -0.007
    64H      -0.019   -0.018   -0.018
    65H       0.003    0.002    0.002
           -------------------------------------------------
          |                Property Printout                |
           -------------------------------------------------

    * Orbital Energies and Occupations

         #    Occupation            Energy/Eh            Energy/eV
      -------------------------------------------------------------
         1        2.0000           -0.7896115             -21.4864
       ...           ...                  ...                  ...
        77        2.0000           -0.3884518             -10.5703
        78        2.0000           -0.3878978             -10.5552
        79        2.0000           -0.3843389             -10.4584
        80        2.0000           -0.3802935             -10.3483
        81        2.0000           -0.3644203              -9.9164
        82        2.0000           -0.3585164              -9.7557
        83        2.0000           -0.3537298              -9.6255
        84        2.0000           -0.3474116              -9.4536
        85        2.0000           -0.3428623              -9.3298
        86        2.0000           -0.3399694              -9.2510
        87        2.0000           -0.3371528              -9.1744
        88        2.0000           -0.3284282              -8.9370
        89        2.0000           -0.3131383              -8.5209 (HOMO)
        90                         -0.2495010              -6.7893 (LUMO)
        91                         -0.2302647              -6.2658
        92                         -0.2237371              -6.0882
        93                         -0.1992865              -5.4229
        94                         -0.1661064              -4.5200
        95                         -0.1532366              -4.1698
        96                         -0.1485414              -4.0420
        97                         -0.1401251              -3.8130
        98                         -0.1324748              -3.6048
        99                         -0.0204357              -0.5561
       100                         -0.0055291              -0.1505
       ...                                ...                  ...
       168                          6.3875829             173.8150
      -------------------------------------------------------------
                  HL-Gap            0.0636374 Eh            1.7317 eV
             Fermi-level           -0.2813196 Eh           -7.6551 eV

     #   Z          covCN         q      C6AA      α(0)
     1  26 Fe       9.370     1.352   110.295    18.520
     2   6 C        2.724     0.368    20.766     7.460
     3  46 Pd       4.292    -0.305   381.971    35.693
     4   6 C        3.820    -0.036    21.198     6.552
     5   1 H        0.927     0.042     2.416     2.431
     6   1 H        0.927     0.028     2.617     2.530
     7   1 H        0.927     0.076     2.021     2.223
     8   6 C        2.715     0.383    20.522     7.416
     9   8 O        0.856    -0.494    23.662     6.522
    10   6 C        4.034    -0.097    22.262     6.702
    11   8 O        1.636    -0.422    21.295     6.229
    12   6 C        3.925    -0.138    23.090     6.829
    13   6 C        3.868    -0.140    23.137     6.840
    14   6 C        3.863    -0.151    23.377     6.876
    15   1 H        0.927     0.043     2.410     2.428
    16   1 H        0.927     0.040     2.445     2.445
    17   1 H        0.927     0.033     2.539     2.492
    18   1 H        0.797     0.353     0.583     1.200
    19   6 C        3.792    -0.193    24.308     7.021
    20   6 C        3.821     0.021    20.199     6.396
    21   8 O        1.482    -0.430    21.598     6.266
    22   6 C        3.904    -0.119    22.710     6.774
    23   6 C        3.881    -0.143    23.197     6.848
    24   6 C        3.888    -0.143    23.195     6.847
    25   6 C        3.880    -0.145    23.241     6.854
    26   6 C        3.881    -0.127    22.888     6.802
    27   1 H        0.927     0.105     1.738     2.062
    28   7 N        2.664    -0.190    25.123     7.444
    29   1 H        0.924     0.030     2.593     2.518
    30   1 H        0.925     0.046     2.370     2.407
    31   1 H        0.923     0.042     2.420     2.433
    32   1 H        0.927     0.046     2.373     2.409
    33   7 N        3.438    -0.052    22.244     7.005
    34   6 C        3.833    -0.043    21.315     6.569
    35   6 C        3.718    -0.057    21.716     6.657
    36   1 H        0.923     0.030     2.583     2.514
    37   1 H        0.924     0.089     1.893     2.152
    38   1 H        0.924     0.104     1.753     2.071
    39   1 H        0.923     0.034     2.532     2.489
    40   1 H        0.924     0.081     1.970     2.195
    41   1 H        0.925     0.056     2.251     2.346
    42   6 C        3.804    -0.075    21.939     6.668
    43   6 C        3.799    -0.056    21.591     6.616
    44   6 C        3.751    -0.104    22.551     6.772
    45   1 H        0.924     0.051     2.307     2.375
    46   1 H        0.923     0.056     2.249     2.345
    47   1 H        0.924     0.031     2.579     2.511
    48   1 H        0.924     0.036     2.504     2.475
    49   1 H        0.925     0.028     2.613     2.528
    50   1 H        0.925     0.029     2.607     2.525
    51   1 H        0.925     0.037     2.486     2.466
    52   8 O        1.704    -0.278    18.613     5.825
    53   6 C        3.758    -0.119    22.840     6.814
    54   6 C        3.780     0.158    18.067     6.055
    55   6 C        3.755    -0.120    22.861     6.817
    56   6 C        3.755    -0.123    22.916     6.826
    57   1 H        0.925     0.056     2.252     2.347
    58   1 H        0.925     0.058     2.225     2.333
    59   1 H        0.925     0.049     2.336     2.390
    60   1 H        0.925     0.051     2.311     2.377
    61   1 H        0.925     0.044     2.397     2.421
    62   1 H        0.925     0.064     2.156     2.296
    63   1 H        0.925     0.048     2.351     2.398
    64   1 H        0.925     0.046     2.373     2.409
    65   1 H        0.925     0.063     2.160     2.298

 Mol. C6AA /au·bohr⁶  :      47022.347829
 Mol. C8AA /au·bohr⁸  :    1375081.071319
 Mol. α(0) /au        :        329.349091


Wiberg/Mayer (AO) data.
largest (>0.10) Wiberg bond orders for each atom

 ---------------------------------------------------------------------------
     #   Z sym  total        # sym  WBO       # sym  WBO       # sym  WBO
 ---------------------------------------------------------------------------
     1  26 Fe   1.095 --    14 C    0.234    10 C    0.233    24 C    0.233
                            12 C    0.227    13 C    0.224    23 C    0.206
                            25 C    0.205    26 C    0.173    19 C    0.165
                            22 C    0.164
     2   6 C    3.941 --     9 O    1.630    21 O    1.378    20 C    0.846
     3  46 Pd   3.530 --    19 C    0.811    28 N    0.571    21 O    0.453
                            33 N    0.409    22 C    0.194    26 C    0.151
                            12 C    0.125    10 C    0.110
     4   6 C    3.973 --    10 C    1.007    30 H    0.971    33 N    0.971
                            31 H    0.958
     5   1 H    0.996 --    24 C    0.989
     6   1 H    0.996 --    25 C    0.982
     7   1 H    0.993 --    26 C    0.944
     8   6 C    3.932 --    28 N    1.531    11 O    1.123    52 O    1.111
     9   8 O    1.958 --     2 C    1.630    21 O    0.205
    10   6 C    3.960 --    14 C    1.269    19 C    1.204     4 C    1.007
                             1 Fe   0.233     3 Pd   0.110
    11   8 O    2.129 --     8 C    1.123    18 H    0.651    28 N    0.125
    12   6 C    3.978 --    13 C    1.299    19 C    1.233    15 H    0.962
                             1 Fe   0.227     3 Pd   0.125
    13   6 C    3.973 --    14 C    1.299    12 C    1.299    16 H    0.986
                             1 Fe   0.224
    14   6 C    3.971 --    13 C    1.299    10 C    1.269    17 H    0.987
                             1 Fe   0.234
    15   1 H    0.996 --    12 C    0.962
    16   1 H    0.995 --    13 C    0.986
    17   1 H    0.997 --    14 C    0.987
    18   1 H    0.873 --    11 O    0.651    19 C    0.120
    19   6 C    3.807 --    12 C    1.233    10 C    1.204     3 Pd   0.811
                             1 Fe   0.165    18 H    0.120
    20   6 C    3.955 --    28 N    0.984    42 C    0.973    29 H    0.952
                             2 C    0.846
    21   8 O    2.179 --     2 C    1.378     3 Pd   0.453     9 O    0.205
    22   6 C    3.980 --    23 C    1.295    26 C    1.264    27 H    0.926
                             3 Pd   0.194     1 Fe   0.164
    23   6 C    3.972 --    24 C    1.299    22 C    1.295    32 H    0.980
                             1 Fe   0.206
    24   6 C    3.973 --    23 C    1.299    25 C    1.297     5 H    0.989
                             1 Fe   0.233
    25   6 C    3.972 --    26 C    1.310    24 C    1.297     6 H    0.982
                             1 Fe   0.205
    26   6 C    3.978 --    25 C    1.310    22 C    1.264     7 H    0.944
                             1 Fe   0.173     3 Pd   0.151
    27   1 H    0.987 --    22 C    0.926
    28   7 N    3.418 --     8 C    1.531    20 C    0.984     3 Pd   0.571
                            11 O    0.125    52 O    0.100
    29   1 H    0.998 --    20 C    0.952
    30   1 H    0.997 --     4 C    0.971
    31   1 H    0.996 --     4 C    0.958
    32   1 H    0.996 --    23 C    0.980
    33   7 N    3.447 --    35 C    0.999    34 C    0.986     4 C    0.971
                             3 Pd   0.409
    34   6 C    3.974 --    33 N    0.986    36 H    0.970    37 H    0.949
                            38 H    0.931
    35   6 C    3.974 --    33 N    0.999    41 H    0.973    39 H    0.972
                            40 H    0.967
    36   1 H    0.998 --    34 C    0.970
    37   1 H    0.991 --    34 C    0.949
    38   1 H    0.988 --    34 C    0.931
    39   1 H    0.997 --    35 C    0.972
    40   1 H    0.992 --    35 C    0.967
    41   1 H    0.996 --    35 C    0.973
    42   6 C    3.992 --    43 C    1.006    20 C    0.973    45 H    0.971
                            46 H    0.953
    43   6 C    3.997 --    44 C    1.020    42 C    1.006    47 H    0.977
                            48 H    0.977
    44   6 C    3.997 --    43 C    1.020    50 H    0.988    49 H    0.984
                            51 H    0.984
    45   1 H    0.997 --    42 C    0.971
    46   1 H    0.994 --    42 C    0.953
    47   1 H    0.999 --    43 C    0.977
    48   1 H    0.998 --    43 C    0.977
    49   1 H    0.999 --    44 C    0.984
    50   1 H    0.999 --    44 C    0.988
    51   1 H    0.999 --    44 C    0.984
    52   8 O    2.275 --     8 C    1.111    54 C    0.896    28 N    0.100
    53   6 C    3.991 --    54 C    0.994    59 H    0.984    57 H    0.984
                            58 H    0.984
    54   6 C    3.915 --    55 C    0.995    56 C    0.995    53 C    0.994
                            52 O    0.896
    55   6 C    3.992 --    54 C    0.995    60 H    0.984    61 H    0.984
                            62 H    0.979
    56   6 C    3.992 --    54 C    0.995    63 H    0.984    64 H    0.984
                            65 H    0.979
    57   1 H    0.997 --    53 C    0.984
    58   1 H    0.997 --    53 C    0.984
    59   1 H    0.997 --    53 C    0.984
    60   1 H    0.997 --    55 C    0.984
    61   1 H    0.998 --    55 C    0.984
    62   1 H    0.996 --    55 C    0.979
    63   1 H    0.998 --    56 C    0.984
    64   1 H    0.998 --    56 C    0.984
    65   1 H    0.996 --    56 C    0.979
 ---------------------------------------------------------------------------

Topologies differ in total number of bonds
Writing topology from bond orders to xtbtopo.mol

molecular dipole:
                 x           y           z       tot (Debye)
 q only:       -1.471      -1.587      -3.345
   full:       -0.804      -2.215      -2.833       9.365
molecular quadrupole (traceless):
                xx          xy          yy          xz          yz          zz
 q only:       27.507      -0.480       9.059      -8.734     -15.581     -36.566
  q+dip:       29.654       4.158      10.871      -6.025     -22.697     -40.525
   full:       28.398       5.428       9.739      -8.287     -19.963     -38.137


           -------------------------------------------------
          | TOTAL ENERGY              -96.544858585352 Eh   |
          | GRADIENT NORM               0.000042332571 Eh/α |
          | HOMO-LUMO GAP               1.731660908426 eV   |
           -------------------------------------------------

------------------------------------------------------------------------
 * finished run on 2024/10/14 at 19:21:02.149     
------------------------------------------------------------------------
 total:
 * wall-time:     0 d,  0 h,  0 min,  0.507 sec
 *  cpu-time:     0 d,  0 h,  0 min,  5.669 sec
 * ratio c/w:    11.190 speedup
 SCF:
 * wall-time:     0 d,  0 h,  0 min,  0.129 sec
 *  cpu-time:     0 d,  0 h,  0 min,  1.513 sec
 * ratio c/w:    11.741 speedup

