      -----------------------------------------------------------      
     |                   =====================                   |     
     |                           x T B                           |     
     |                   =====================                   |     
     |                         S. Grimme                         |     
     |          Mulliken Center for Theoretical Chemistry        |     
     |                    University of Bonn                     |     
      -----------------------------------------------------------      

   * xtb version 6.6.1 (8d0f1dd) compiled by 'stahn@M-Bot' on 2023-08-01

   xtb is free software: you can redistribute it and/or modify it under
   the terms of the GNU Lesser General Public License as published by
   the Free Software Foundation, either version 3 of the License, or
   (at your option) any later version.
   
   xtb is distributed in the hope that it will be useful,
   but WITHOUT ANY WARRANTY; without even the implied warranty of
   MERCHANTABILITY or FITNESS FOR A PARTICULAR PURPOSE.  See the
   GNU Lesser General Public License for more details.
   
   Cite this work as:
   * C. Bannwarth, E. Caldeweyher, S. Ehlert, A. Hansen, P. Pracht,
     J. Seibert, S. Spicher, S. Grimme, WIREs Comput. Mol. Sci., 2020, 11,
     e01493. DOI: 10.1002/wcms.1493
   
   for GFN2-xTB:
   * C. Bannwarth, S. Ehlert and S. Grimme., J. Chem. Theory Comput., 2019,
     15, 1652-1671. DOI: 10.1021/acs.jctc.8b01176
   for GFN1-xTB:
   * S. Grimme, C. Bannwarth, P. Shushkov, J. Chem. Theory Comput., 2017,
     13, 1989-2009. DOI: 10.1021/acs.jctc.7b00118
   for GFN0-xTB:
   * P. Pracht, E. Caldeweyher, S. Ehlert, S. Grimme, ChemRxiv, 2019, preprint.
     DOI: 10.26434/chemrxiv.8326202.v1
   for GFN-FF:
   * S. Spicher and S. Grimme, Angew. Chem. Int. Ed., 2020, 59, 15665-15673.
     DOI: 10.1002/anie.202004239
   
   for ALPB and GBSA implicit solvation:
   * S. Ehlert, M. Stahn, S. Spicher, S. Grimme, J. Chem. Theory Comput.,
     2021, 17, 4250-4261. DOI: 10.1021/acs.jctc.1c00471
   
   for DFT-D4:
   * E. Caldeweyher, C. Bannwarth and S. Grimme, J. Chem. Phys., 2017,
     147, 034112. DOI: 10.1063/1.4993215
   * E. Caldeweyher, S. Ehlert, A. Hansen, H. Neugebauer, S. Spicher,
     C. Bannwarth and S. Grimme, J. Chem. Phys., 2019, 150, 154122.
     DOI: 10.1063/1.5090222
   * E. Caldeweyher, J.-M. Mewes, S. Ehlert and S. Grimme, Phys. Chem. Chem. Phys.
     2020, 22, 8499-8512. DOI: 10.1039/D0CP00502A
   
   for sTDA-xTB:
   * S. Grimme and C. Bannwarth, J. Chem. Phys., 2016, 145, 054103.
     DOI: 10.1063/1.4959605
   
   in the mass-spec context:
   * V. Asgeirsson, C. Bauer and S. Grimme, Chem. Sci., 2017, 8, 4879.
     DOI: 10.1039/c7sc00601b
   * J. Koopman and S. Grimme, ACS Omega 2019, 4, 12, 15120-15133.
     DOI: 10.1021/acsomega.9b02011
   
   for metadynamics refer to:
   * S. Grimme, J. Chem. Theory Comput., 2019, 155, 2847-2862
     DOI: 10.1021/acs.jctc.9b00143
   
   for SPH calculations refer to:
   * S. Spicher and S. Grimme, J. Chem. Theory Comput., 2021, 17, 1701-1714
     DOI: 10.1021/acs.jctc.0c01306
   
   with help from (in alphabetical order)
   P. Atkinson, C. Bannwarth, F. Bohle, G. Brandenburg, E. Caldeweyher
   M. Checinski, S. Dohm, S. Ehlert, S. Ehrlich, I. Gerasimov, C. Hölzer
   A. Katbashev, J. Koopman, C. Lavigne, S. Lehtola, F. März, M. Müller,
   F. Musil, H. Neugebauer, J. Pisarek, C. Plett, P. Pracht, F. Pultar,
   J. Seibert, P. Shushkov, S. Spicher, M. Stahn, M. Steiner, T. Strunk,
   J. Stückrath, T. Rose, and J. Unsleber
   
 * started run on 2024/10/14 at 19:21:02.211     

           -------------------------------------------------
          |                Calculation Setup                |
           -------------------------------------------------

          program call               : xtb tsopted.xyz --gfn 2 --charge 0 --vipea
          coordinate file            : tsopted.xyz
          omp threads                :                    12

   ID    Z sym.   atoms
    1   26 Fe     1
    2    6 C      2, 4, 8, 10, 12-14, 19, 20, 22-26, 34, 35, 42-44, 53-56
    3   46 Pd     3
    4    1 H      5-7, 15-18, 27, 29-32, 36-41, 45-51, 57-65
    5    8 O      9, 11, 21, 52
    6    7 N      28, 33

molecular fragmentation (1/2 indicates fragments):
11111111111111111111111111111111111112111111111111111111111111111
# atoms in fragment 1/2:    64     1
 fragment masses (1/2) :      563.78        1.01
CMA distance (Bohr)    :   6.510
constraining FC (au)   :  0.0500

           -------------------------------------------------
          |                 G F N 2 - x T B                 |
           -------------------------------------------------

        Reference                      10.1021/acs.jctc.8b01176
      * Hamiltonian:
        H0-scaling (s, p, d)           1.850000    2.230000    2.230000
        zeta-weighting                 0.500000
      * Dispersion:
        s8                             2.700000
        a1                             0.520000
        a2                             5.000000
        s9                             5.000000
      * Repulsion:
        kExp                           1.500000    1.000000
        rExp                           1.000000
      * Coulomb:
        alpha                          2.000000
        third order                    shell-resolved
        anisotropic                    true
        a3                             3.000000
        a5                             4.000000
        cn-shift                       1.200000
        cn-exp                         4.000000
        max-rad                        5.000000

q/qsh data taken from xtbrestart
CAMM data taken from xtbrestart

          ...................................................
          :                      SETUP                      :
          :.................................................:
          :  # basis functions                 170          :
          :  # atomic orbitals                 168          :
          :  # shells                           98          :
          :  # electrons                       178          :
          :  max. iterations                   250          :
          :  Hamiltonian                  GFN2-xTB          :
          :  restarted?                       true          :
          :  GBSA solvation                  false          :
          :  PC potential                    false          :
          :  electronic temp.          300.0000000     K    :
          :  accuracy                    1.0000000          :
          :  -> integral cutoff          0.2500000E+02      :
          :  -> integral neglect         0.1000000E-07      :
          :  -> SCF convergence          0.1000000E-05 Eh   :
          :  -> wf. convergence          0.1000000E-03 e    :
          :  Broyden damping             0.4000000          :
          ...................................................

 iter      E             dE          RMSdq      gap      omega  full diag
   1    -97.7767977 -0.977768E+02  0.197E-04    1.73       0.0  T
   2    -97.7767977 -0.936495E-10  0.126E-04    1.73      98.6  T
   3    -97.7767977 -0.213660E-09  0.114E-04    1.73     108.8  T

   *** convergence criteria satisfied after 3 iterations ***

         #    Occupation            Energy/Eh            Energy/eV
      -------------------------------------------------------------
         1        2.0000           -0.7896163             -21.4866
       ...           ...                  ...                  ...
        83        2.0000           -0.3537318              -9.6255
        84        2.0000           -0.3474135              -9.4536
        85        2.0000           -0.3428634              -9.3298
        86        2.0000           -0.3399722              -9.2511
        87        2.0000           -0.3371553              -9.1745
        88        2.0000           -0.3284289              -8.9370
        89        2.0000           -0.3131410              -8.5210 (HOMO)
        90                         -0.2495032              -6.7893 (LUMO)
        91                         -0.2302668              -6.2659
        92                         -0.2237394              -6.0883
        93                         -0.1992876              -5.4229
        94                         -0.1661085              -4.5200
       ...                                ...                  ...
       168                          6.3875800             173.8149
      -------------------------------------------------------------
                  HL-Gap            0.0636377 Eh            1.7317 eV
             Fermi-level           -0.2813221 Eh           -7.6552 eV

 SCC (total)                   0 d,  0 h,  0 min,  0.033 sec
 SCC setup                      ...        0 min,  0.003 sec (  8.072%)
 Dispersion                     ...        0 min,  0.001 sec (  2.230%)
 classical contributions        ...        0 min,  0.000 sec (  0.126%)
 integral evaluation            ...        0 min,  0.005 sec ( 14.689%)
 iterations                     ...        0 min,  0.013 sec ( 39.080%)
 molecular gradient             ...        0 min,  0.009 sec ( 26.560%)
 printout                       ...        0 min,  0.003 sec (  9.142%)

         :::::::::::::::::::::::::::::::::::::::::::::::::::::
         ::                     SUMMARY                     ::
         :::::::::::::::::::::::::::::::::::::::::::::::::::::
         :: total energy             -96.544858585717 Eh    ::
         :: gradient norm              0.000042437196 Eh/a0 ::
         :: HOMO-LUMO gap              1.731670878478 eV    ::
         ::.................................................::
         :: SCC energy               -97.776797737773 Eh    ::
         :: -> isotropic ES           -0.032079912736 Eh    ::
         :: -> anisotropic ES         -0.010349760467 Eh    ::
         :: -> anisotropic XC          0.030882033973 Eh    ::
         :: -> dispersion             -0.093483021195 Eh    ::
         :: repulsion energy           1.228423606512 Eh    ::
         :: add. restraining           0.000000000000 Eh    ::
         :: total charge              -0.000000000000 e     ::
         :::::::::::::::::::::::::::::::::::::::::::::::::::::

           ------------------------------------------------- 
          |        vertical delta SCC IP calculation        |
           ------------------------------------------------- 

 iter      E             dE          RMSdq      gap      omega  full diag
   1    -97.3395047 -0.973395E+02  0.951E-01    1.73       0.0  T
   2    -97.2060601  0.133445E+00  0.166E+00    1.18       1.0  T
   3    -97.3740651 -0.168005E+00  0.630E-01    1.83       1.0  T
   4    -97.3786326 -0.456752E-02  0.547E-01    1.83       1.0  T
   5    -97.3816205 -0.298792E-02  0.411E-01    1.84       1.0  T
   6    -97.3634545  0.181660E-01  0.502E-01    1.78       1.0  T
   7    -97.3775663 -0.141118E-01  0.333E-01    1.79       1.0  T
   8    -97.3843490 -0.678268E-02  0.163E-01    1.82       1.0  T
   9    -97.3849737 -0.624659E-03  0.701E-02    1.82       1.0  T
  10    -97.3847666  0.207068E-03  0.605E-02    1.81       1.0  T
  11    -97.3849640 -0.197430E-03  0.322E-02    1.81       1.0  T
  12    -97.3850288 -0.647664E-04  0.110E-02    1.81       1.1  T
  13    -97.3850296 -0.808101E-06  0.769E-03    1.81       1.6  T
  14    -97.3850262  0.338117E-05  0.845E-03    1.81       1.5  T
  15    -97.3850309 -0.467902E-05  0.330E-03    1.81       3.8  T
  16    -97.3850313 -0.351479E-06  0.116E-03    1.81      10.7  T
  17    -97.3850313 -0.871331E-08  0.625E-04    1.81      19.8  T
  18    -97.3850312  0.325989E-07  0.775E-04    1.81      16.0  T
     SCC iter.                  ...        0 min,  0.064 sec
     gradient                   ...        0 min,  0.009 sec
------------------------------------------------------------------------
empirical IP shift (eV):    4.8455
delta SCC IP (eV):    5.8150
------------------------------------------------------------------------
           ------------------------------------------------- 
          |        vertical delta SCC EA calculation        |
           ------------------------------------------------- 

 iter      E             dE          RMSdq      gap      omega  full diag
   1    -97.8422459 -0.978422E+02  0.123E+00    0.53       0.0  T
   2    -97.9050610 -0.628151E-01  0.144E+00    0.54       1.0  T
   3    -97.9435570 -0.384960E-01  0.773E-01    0.39       1.0  T
   4    -97.9396378  0.391915E-02  0.706E-01    0.55       1.0  T
   5    -97.9398140 -0.176119E-03  0.503E-01    0.33       1.0  T
   6    -97.9478036 -0.798968E-02  0.279E-01    0.43       1.0  T
   7    -97.9484512 -0.647591E-03  0.120E-01    0.41       1.0  T
   8    -97.9484699 -0.186797E-04  0.685E-02    0.41       1.0  T
   9    -97.9485187 -0.488196E-04  0.242E-02    0.41       1.0  T
  10    -97.9485305 -0.117611E-04  0.181E-02    0.42       1.0  T
  11    -97.9485351 -0.463447E-05  0.881E-03    0.41       1.4  T
  12    -97.9485360 -0.854896E-06  0.535E-03    0.41       2.3  T
  13    -97.9485361 -0.167642E-06  0.313E-03    0.41       4.0  T
  14    -97.9485362 -0.387908E-07  0.129E-03    0.41       9.6  T
  15    -97.9485362 -0.495415E-07  0.547E-04    0.41      22.7  T
  16    -97.9485362 -0.270981E-08  0.240E-04    0.41      51.7  T
     SCC iter.                  ...        0 min,  0.052 sec
     gradient                   ...        0 min,  0.008 sec
------------------------------------------------------------------------
empirical EA shift (eV):    4.8455
delta SCC EA (eV):   -0.1723
------------------------------------------------------------------------
           -------------------------------------------------
          |                Property Printout                |
           -------------------------------------------------

    * Orbital Energies and Occupations

         #    Occupation            Energy/Eh            Energy/eV
      -------------------------------------------------------------
         1        2.0000           -0.6460652             -17.5803
       ...           ...                  ...                  ...
        78        2.0000           -0.2418718              -6.5817
        79        2.0000           -0.2379906              -6.4761
        80        2.0000           -0.2307206              -6.2782
        81        2.0000           -0.2178017              -5.9267
        82        2.0000           -0.2079676              -5.6591
        83        2.0000           -0.1992561              -5.4220
        84        2.0000           -0.1919576              -5.2234
        85        2.0000           -0.1878308              -5.1111
        86        2.0000           -0.1839995              -5.0069
        87        2.0000           -0.1800040              -4.8982
        88        2.0000           -0.1750356              -4.7630
        89        2.0000           -0.1565131              -4.2589
        90        0.9997           -0.0940466              -2.5591 (HOMO)
        91        0.0003           -0.0788079              -2.1445 (LUMO)
        92        0.0000           -0.0728585              -1.9826
        93                         -0.0581646              -1.5827
        94                         -0.0208822              -0.5682
        95                         -0.0174692              -0.4754
        96                         -0.0103505              -0.2817
        97                          0.0036308               0.0988
        98                          0.0201716               0.5489
        99                          0.0866102               2.3568
       100                          0.1290001               3.5103
       101                          0.1637732               4.4565
       ...                                ...                  ...
       168                          6.5148708             177.2787
      -------------------------------------------------------------
                  HL-Gap            0.0152387 Eh            0.4147 eV
             Fermi-level           -0.1058540 Eh           -2.8804 eV

     #   Z          covCN         q      C6AA      α(0)
     1  26 Fe       9.370     1.272   111.222    18.598
     2   6 C        2.724     0.371    20.715     7.451
     3  46 Pd       4.292    -0.615   401.585    36.598
     4   6 C        3.820    -0.018    20.886     6.504
     5   1 H        0.927     0.004     2.986     2.702
     6   1 H        0.927    -0.008     3.197     2.796
     7   1 H        0.927     0.052     2.301     2.372
     8   6 C        2.715     0.371    20.705     7.449
     9   8 O        0.856    -0.548    24.865     6.686
    10   6 C        4.034    -0.105    22.423     6.727
    11   8 O        1.636    -0.451    21.867     6.312
    12   6 C        3.925    -0.139    23.100     6.831
    13   6 C        3.868    -0.144    23.232     6.854
    14   6 C        3.863    -0.155    23.442     6.885
    15   1 H        0.927     0.012     2.858     2.644
    16   1 H        0.927    -0.001     3.076     2.743
    17   1 H        0.927    -0.007     3.185     2.791
    18   1 H        0.797     0.346     0.598     1.215
    19   6 C        3.792    -0.196    24.360     7.029
    20   6 C        3.821     0.032    20.021     6.368
    21   8 O        1.482    -0.422    21.427     6.241
    22   6 C        3.904    -0.111    22.559     6.751
    23   6 C        3.881    -0.148    23.297     6.862
    24   6 C        3.888    -0.151    23.354     6.870
    25   6 C        3.880    -0.150    23.331     6.868
    26   6 C        3.881    -0.122    22.779     6.786
    27   1 H        0.927     0.083     1.947     2.182
    28   7 N        2.664    -0.179    24.875     7.407
    29   1 H        0.924    -0.005     3.145     2.773
    30   1 H        0.925     0.026     2.650     2.546
    31   1 H        0.923     0.003     3.003     2.710
    32   1 H        0.927     0.012     2.852     2.641
    33   7 N        3.438    -0.039    21.982     6.963
    34   6 C        3.833    -0.023    20.965     6.514
    35   6 C        3.718    -0.040    21.408     6.609
    36   1 H        0.923    -0.005     3.144     2.773
    37   1 H        0.924     0.083     1.947     2.182
    38   1 H        0.924     0.092     1.861     2.133
    39   1 H        0.923     0.001     3.034     2.724
    40   1 H        0.924     0.069     2.099     2.266
    41   1 H        0.925     0.043     2.414     2.430
    42   6 C        3.804    -0.070    21.828     6.651
    43   6 C        3.799    -0.049    21.453     6.595
    44   6 C        3.751    -0.098    22.434     6.755
    45   1 H        0.924     0.035     2.519     2.482
    46   1 H        0.923     0.067     2.124     2.279
    47   1 H        0.924     0.013     2.845     2.638
    48   1 H        0.924     0.020     2.739     2.588
    49   1 H        0.925     0.032     2.563     2.504
    50   1 H        0.925     0.008     2.920     2.672
    51   1 H        0.925     0.041     2.440     2.443
    52   8 O        1.704    -0.308    19.132     5.906
    53   6 C        3.758    -0.112    22.691     6.791
    54   6 C        3.780     0.160    18.046     6.052
    55   6 C        3.755    -0.113    22.726     6.797
    56   6 C        3.755    -0.117    22.789     6.807
    57   1 H        0.925     0.047     2.353     2.399
    58   1 H        0.925     0.051     2.313     2.378
    59   1 H        0.925     0.031     2.571     2.508
    60   1 H        0.925     0.046     2.372     2.408
    61   1 H        0.925     0.024     2.673     2.557
    62   1 H        0.925     0.067     2.116     2.275
    63   1 H        0.925     0.041     2.441     2.443
    64   1 H        0.925     0.027     2.631     2.537
    65   1 H        0.925     0.066     2.125     2.280

 Mol. C6AA /au·bohr⁶  :      48430.873456
 Mol. C8AA /au·bohr⁸  :    1408978.642582
 Mol. α(0) /au        :        334.528441


Wiberg/Mayer (AO) data.
largest (>0.10) Wiberg bond orders for each atom

 ---------------------------------------------------------------------------
     #   Z sym  total        # sym  WBO       # sym  WBO       # sym  WBO
 ---------------------------------------------------------------------------
     1  26 Fe   1.211 --    10 C    0.259    12 C    0.253    14 C    0.241
                            13 C    0.223    23 C    0.210    25 C    0.204
                            24 C    0.198    26 C    0.153    22 C    0.144
                            19 C    0.113
     2   6 C    3.941 --     9 O    1.582    21 O    1.421    20 C    0.843
     3  46 Pd   3.447 --    19 C    0.773    28 N    0.476    21 O    0.410
                            33 N    0.333    22 C    0.203    26 C    0.161
                            12 C    0.126    10 C    0.106
     4   6 C    3.976 --    10 C    1.001    30 H    0.974    33 N    0.973
                            31 H    0.960
     5   1 H    0.998 --    24 C    0.993
     6   1 H    0.997 --    25 C    0.983
     7   1 H    0.996 --    26 C    0.948
     8   6 C    3.921 --    28 N    1.559    11 O    1.111    52 O    1.054
     9   8 O    1.901 --     2 C    1.582    21 O    0.210
    10   6 C    3.947 --    14 C    1.262    19 C    1.184     4 C    1.001
                             1 Fe   0.259     3 Pd   0.106
    11   8 O    2.096 --     8 C    1.111    18 H    0.623    28 N    0.124
    12   6 C    3.971 --    13 C    1.297    19 C    1.206    15 H    0.962
                             1 Fe   0.253     3 Pd   0.126
    13   6 C    3.969 --    12 C    1.297    14 C    1.295    16 H    0.989
                             1 Fe   0.223
    14   6 C    3.967 --    13 C    1.295    10 C    1.262    17 H    0.988
                             1 Fe   0.241
    15   1 H    0.998 --    12 C    0.962
    16   1 H    0.997 --    13 C    0.989
    17   1 H    0.997 --    14 C    0.988
    18   1 H    0.878 --    11 O    0.623    19 C    0.150
    19   6 C    3.703 --    12 C    1.206    10 C    1.184     3 Pd   0.773
                            18 H    0.150     1 Fe   0.113
    20   6 C    3.962 --    28 N    0.994    42 C    0.975    29 H    0.955
                             2 C    0.843
    21   8 O    2.174 --     2 C    1.421     3 Pd   0.410     9 O    0.210
    22   6 C    3.979 --    23 C    1.282    26 C    1.277    27 H    0.931
                             3 Pd   0.203     1 Fe   0.144
    23   6 C    3.968 --    24 C    1.302    22 C    1.282    32 H    0.982
                             1 Fe   0.210
    24   6 C    3.964 --    23 C    1.302    25 C    1.301     5 H    0.993
                             1 Fe   0.198
    25   6 C    3.965 --    24 C    1.301    26 C    1.297     6 H    0.983
                             1 Fe   0.204
    26   6 C    3.975 --    25 C    1.297    22 C    1.277     7 H    0.948
                             3 Pd   0.161     1 Fe   0.153
    27   1 H    0.991 --    22 C    0.931
    28   7 N    3.368 --     8 C    1.559    20 C    0.994     3 Pd   0.476
                            11 O    0.124
    29   1 H    0.999 --    20 C    0.955
    30   1 H    0.998 --     4 C    0.974
    31   1 H    0.998 --     4 C    0.960
    32   1 H    0.998 --    23 C    0.982
    33   7 N    3.396 --    35 C    1.006    34 C    0.992     4 C    0.973
                             3 Pd   0.333
    34   6 C    3.981 --    33 N    0.992    36 H    0.970    37 H    0.951
                            38 H    0.935
    35   6 C    3.985 --    33 N    1.006    41 H    0.975    39 H    0.972
                            40 H    0.970
    36   1 H    0.999 --    34 C    0.970
    37   1 H    0.992 --    34 C    0.951
    38   1 H    0.990 --    34 C    0.935
    39   1 H    0.999 --    35 C    0.972
    40   1 H    0.994 --    35 C    0.970
    41   1 H    0.997 --    35 C    0.975
    42   6 C    3.991 --    43 C    1.005    20 C    0.975    45 H    0.972
                            46 H    0.953
    43   6 C    3.998 --    44 C    1.019    42 C    1.005    47 H    0.979
                            48 H    0.978
    44   6 C    3.997 --    43 C    1.019    50 H    0.989    49 H    0.984
                            51 H    0.983
    45   1 H    0.998 --    42 C    0.972
    46   1 H    0.993 --    42 C    0.953
    47   1 H    0.999 --    43 C    0.979
    48   1 H    0.999 --    43 C    0.978
    49   1 H    0.999 --    44 C    0.984
    50   1 H    1.000 --    44 C    0.989
    51   1 H    0.999 --    44 C    0.983
    52   8 O    2.227 --     8 C    1.054    54 C    0.917
    53   6 C    3.995 --    54 C    0.994    59 H    0.986    57 H    0.985
                            58 H    0.985
    54   6 C    3.934 --    55 C    0.994    53 C    0.994    56 C    0.994
                            52 O    0.917
    55   6 C    3.993 --    54 C    0.994    61 H    0.986    60 H    0.985
                            62 H    0.978
    56   6 C    3.993 --    54 C    0.994    64 H    0.986    63 H    0.985
                            65 H    0.979
    57   1 H    0.998 --    53 C    0.985
    58   1 H    0.997 --    53 C    0.985
    59   1 H    0.998 --    53 C    0.986
    60   1 H    0.998 --    55 C    0.985
    61   1 H    0.999 --    55 C    0.986
    62   1 H    0.995 --    55 C    0.978
    63   1 H    0.998 --    56 C    0.985
    64   1 H    0.999 --    56 C    0.986
    65   1 H    0.996 --    56 C    0.979
 ---------------------------------------------------------------------------

Topologies differ in total number of bonds
Writing topology from bond orders to xtbtopo.mol

molecular dipole:
                 x           y           z       tot (Debye)
 q only:       -0.263      -1.545      -3.218
   full:        0.326      -2.019      -2.728       8.667
molecular quadrupole (traceless):
                xx          xy          yy          xz          yz          zz
 q only:       11.734      -1.585      14.305     -12.940     -13.944     -26.039
  q+dip:       16.148       3.388      15.834      -9.516     -21.889     -31.981
   full:       15.035       4.822      14.984     -11.638     -19.312     -30.019


           -------------------------------------------------
          | TOTAL ENERGY              -96.716597078506 Eh   |
          | GRADIENT NORM               0.098012867827 Eh/α |
          | HOMO-LUMO GAP               0.414666628637 eV   |
           -------------------------------------------------

------------------------------------------------------------------------
 * finished run on 2024/10/14 at 19:21:02.590     
------------------------------------------------------------------------
 total:
 * wall-time:     0 d,  0 h,  0 min,  0.379 sec
 *  cpu-time:     0 d,  0 h,  0 min,  4.108 sec
 * ratio c/w:    10.841 speedup
 SCF:
 * wall-time:     0 d,  0 h,  0 min,  0.181 sec
 *  cpu-time:     0 d,  0 h,  0 min,  2.138 sec
 * ratio c/w:    11.834 speedup

