      -----------------------------------------------------------      
     |                   =====================                   |     
     |                           x T B                           |     
     |                   =====================                   |     
     |                         S. Grimme                         |     
     |          Mulliken Center for Theoretical Chemistry        |     
     |                    University of Bonn                     |     
      -----------------------------------------------------------      

   * xtb version 6.6.1 (8d0f1dd) compiled by 'stahn@M-Bot' on 2023-08-01

   xtb is free software: you can redistribute it and/or modify it under
   the terms of the GNU Lesser General Public License as published by
   the Free Software Foundation, either version 3 of the License, or
   (at your option) any later version.
   
   xtb is distributed in the hope that it will be useful,
   but WITHOUT ANY WARRANTY; without even the implied warranty of
   MERCHANTABILITY or FITNESS FOR A PARTICULAR PURPOSE.  See the
   GNU Lesser General Public License for more details.
   
   Cite this work as:
   * C. Bannwarth, E. Caldeweyher, S. Ehlert, A. Hansen, P. Pracht,
     J. Seibert, S. Spicher, S. Grimme, WIREs Comput. Mol. Sci., 2020, 11,
     e01493. DOI: 10.1002/wcms.1493
   
   for GFN2-xTB:
   * C. Bannwarth, S. Ehlert and S. Grimme., J. Chem. Theory Comput., 2019,
     15, 1652-1671. DOI: 10.1021/acs.jctc.8b01176
   for GFN1-xTB:
   * S. Grimme, C. Bannwarth, P. Shushkov, J. Chem. Theory Comput., 2017,
     13, 1989-2009. DOI: 10.1021/acs.jctc.7b00118
   for GFN0-xTB:
   * P. Pracht, E. Caldeweyher, S. Ehlert, S. Grimme, ChemRxiv, 2019, preprint.
     DOI: 10.26434/chemrxiv.8326202.v1
   for GFN-FF:
   * S. Spicher and S. Grimme, Angew. Chem. Int. Ed., 2020, 59, 15665-15673.
     DOI: 10.1002/anie.202004239
   
   for ALPB and GBSA implicit solvation:
   * S. Ehlert, M. Stahn, S. Spicher, S. Grimme, J. Chem. Theory Comput.,
     2021, 17, 4250-4261. DOI: 10.1021/acs.jctc.1c00471
   
   for DFT-D4:
   * E. Caldeweyher, C. Bannwarth and S. Grimme, J. Chem. Phys., 2017,
     147, 034112. DOI: 10.1063/1.4993215
   * E. Caldeweyher, S. Ehlert, A. Hansen, H. Neugebauer, S. Spicher,
     C. Bannwarth and S. Grimme, J. Chem. Phys., 2019, 150, 154122.
     DOI: 10.1063/1.5090222
   * E. Caldeweyher, J.-M. Mewes, S. Ehlert and S. Grimme, Phys. Chem. Chem. Phys.
     2020, 22, 8499-8512. DOI: 10.1039/D0CP00502A
   
   for sTDA-xTB:
   * S. Grimme and C. Bannwarth, J. Chem. Phys., 2016, 145, 054103.
     DOI: 10.1063/1.4959605
   
   in the mass-spec context:
   * V. Asgeirsson, C. Bauer and S. Grimme, Chem. Sci., 2017, 8, 4879.
     DOI: 10.1039/c7sc00601b
   * J. Koopman and S. Grimme, ACS Omega 2019, 4, 12, 15120-15133.
     DOI: 10.1021/acsomega.9b02011
   
   for metadynamics refer to:
   * S. Grimme, J. Chem. Theory Comput., 2019, 155, 2847-2862
     DOI: 10.1021/acs.jctc.9b00143
   
   for SPH calculations refer to:
   * S. Spicher and S. Grimme, J. Chem. Theory Comput., 2021, 17, 1701-1714
     DOI: 10.1021/acs.jctc.0c01306
   
   with help from (in alphabetical order)
   P. Atkinson, C. Bannwarth, F. Bohle, G. Brandenburg, E. Caldeweyher
   M. Checinski, S. Dohm, S. Ehlert, S. Ehrlich, I. Gerasimov, C. Hölzer
   A. Katbashev, J. Koopman, C. Lavigne, S. Lehtola, F. März, M. Müller,
   F. Musil, H. Neugebauer, J. Pisarek, C. Plett, P. Pracht, F. Pultar,
   J. Seibert, P. Shushkov, S. Spicher, M. Stahn, M. Steiner, T. Strunk,
   J. Stückrath, T. Rose, and J. Unsleber
   
 * started run on 2024/10/14 at 22:10:10.243     

           -------------------------------------------------
          |                Calculation Setup                |
           -------------------------------------------------

          program call               : xtb tsopted.xyz --gfn 2 --charge 0
          coordinate file            : tsopted.xyz
          omp threads                :                    12

   ID    Z sym.   atoms
    1   26 Fe     1
    2    6 C      2, 4, 8, 10, 12-14, 19, 20, 22-26, 32, 37, 38, 45-47, 56-59
    3   46 Pd     3
    4    1 H      5-7, 15-18, 27, 29-31, 33-35, 39-44, 48-54, 60-68
    5    8 O      9, 11, 21, 55
    6    7 N      28, 36

           -------------------------------------------------
          |                 G F N 2 - x T B                 |
           -------------------------------------------------

        Reference                      10.1021/acs.jctc.8b01176
      * Hamiltonian:
        H0-scaling (s, p, d)           1.850000    2.230000    2.230000
        zeta-weighting                 0.500000
      * Dispersion:
        s8                             2.700000
        a1                             0.520000
        a2                             5.000000
        s9                             5.000000
      * Repulsion:
        kExp                           1.500000    1.000000
        rExp                           1.000000
      * Coulomb:
        alpha                          2.000000
        third order                    shell-resolved
        anisotropic                    true
        a3                             3.000000
        a5                             4.000000
        cn-shift                       1.200000
        cn-exp                         4.000000
        max-rad                        5.000000

q/qsh data taken from xtbrestart
CAMM data taken from xtbrestart

          ...................................................
          :                      SETUP                      :
          :.................................................:
          :  # basis functions                 176          :
          :  # atomic orbitals                 174          :
          :  # shells                          102          :
          :  # electrons                       184          :
          :  max. iterations                   250          :
          :  Hamiltonian                  GFN2-xTB          :
          :  restarted?                       true          :
          :  GBSA solvation                  false          :
          :  PC potential                    false          :
          :  electronic temp.          300.0000000     K    :
          :  accuracy                    1.0000000          :
          :  -> integral cutoff          0.2500000E+02      :
          :  -> integral neglect         0.1000000E-07      :
          :  -> SCF convergence          0.1000000E-05 Eh   :
          :  -> wf. convergence          0.1000000E-03 e    :
          :  Broyden damping             0.4000000          :
          ...................................................

 iter      E             dE          RMSdq      gap      omega  full diag
   1   -101.0244815 -0.101024E+03  0.708E-01    2.09       0.0  T
   2   -101.0528105 -0.283290E-01  0.805E-01    1.27       1.0  T
   3   -101.0664956 -0.136851E-01  0.427E-01    1.47       1.0  T
   4   -101.0668763 -0.380704E-03  0.344E-01    1.46       1.0  T
   5   -101.0674506 -0.574277E-03  0.195E-01    1.46       1.0  T
   6   -101.0676371 -0.186470E-03  0.131E-01    1.47       1.0  T
   7   -101.0678414 -0.204349E-03  0.626E-02    1.47       1.0  T
   8   -101.0678503 -0.888227E-05  0.264E-02    1.48       1.0  T
   9   -101.0678658 -0.155179E-04  0.978E-03    1.49       1.2  T
  10   -101.0678674 -0.153068E-05  0.489E-03    1.49       2.5  T
  11   -101.0678676 -0.240463E-06  0.267E-03    1.49       4.5  T
  12   -101.0678676 -0.541661E-07  0.173E-03    1.49       7.0  T
  13   -101.0678677 -0.186741E-07  0.102E-03    1.49      11.9  T
  14   -101.0678677 -0.131458E-07  0.428E-04    1.49      28.4  T
  15   -101.0678677 -0.207210E-08  0.252E-04    1.49      48.2  T

   *** convergence criteria satisfied after 15 iterations ***

         #    Occupation            Energy/Eh            Energy/eV
      -------------------------------------------------------------
         1        2.0000           -0.8810859             -23.9756
       ...           ...                  ...                  ...
        86        2.0000           -0.3679065             -10.0112
        87        2.0000           -0.3634916              -9.8911
        88        2.0000           -0.3504494              -9.5362
        89        2.0000           -0.3474846              -9.4555
        90        2.0000           -0.3397264              -9.2444
        91        2.0000           -0.3289811              -8.9520
        92        2.0000           -0.3153585              -8.5813 (HOMO)
        93                         -0.2607398              -7.0951 (LUMO)
        94                         -0.2509453              -6.8286
        95                         -0.2313876              -6.2964
        96                         -0.1830186              -4.9802
        97                         -0.1731638              -4.7120
       ...                                ...                  ...
       174                          6.8153574             185.4553
      -------------------------------------------------------------
                  HL-Gap            0.0546188 Eh            1.4863 eV
             Fermi-level           -0.2880492 Eh           -7.8382 eV

 SCC (total)                   0 d,  0 h,  0 min,  0.081 sec
 SCC setup                      ...        0 min,  0.003 sec (  3.341%)
 Dispersion                     ...        0 min,  0.001 sec (  1.072%)
 classical contributions        ...        0 min,  0.000 sec (  0.054%)
 integral evaluation            ...        0 min,  0.005 sec (  6.187%)
 iterations                     ...        0 min,  0.060 sec ( 73.622%)
 molecular gradient             ...        0 min,  0.010 sec ( 12.074%)
 printout                       ...        0 min,  0.003 sec (  3.607%)

         :::::::::::::::::::::::::::::::::::::::::::::::::::::
         ::                     SUMMARY                     ::
         :::::::::::::::::::::::::::::::::::::::::::::::::::::
         :: total energy             -99.760996211432 Eh    ::
         :: gradient norm              0.000086099383 Eh/a0 ::
         :: HOMO-LUMO gap              1.486252087961 eV    ::
         ::.................................................::
         :: SCC energy              -101.067867680088 Eh    ::
         :: -> isotropic ES           -0.061446890605 Eh    ::
         :: -> anisotropic ES         -0.030650876714 Eh    ::
         :: -> anisotropic XC          0.019151023576 Eh    ::
         :: -> dispersion             -0.100595789031 Eh    ::
         :: repulsion energy           1.303303538473 Eh    ::
         :: add. restraining           0.000000000000 Eh    ::
         :: total charge               0.000051858435 e     ::
         :::::::::::::::::::::::::::::::::::::::::::::::::::::

           -------------------------------------------------
          |                Property Printout                |
           -------------------------------------------------

    * Orbital Energies and Occupations

         #    Occupation            Energy/Eh            Energy/eV
      -------------------------------------------------------------
         1        2.0000           -0.8810859             -23.9756
       ...           ...                  ...                  ...
        80        2.0000           -0.3962276             -10.7819
        81        2.0000           -0.3876772             -10.5492
        82        2.0000           -0.3824932             -10.4082
        83        2.0000           -0.3804668             -10.3530
        84        2.0000           -0.3746075             -10.1936
        85        2.0000           -0.3739855             -10.1767
        86        2.0000           -0.3679065             -10.0112
        87        2.0000           -0.3634916              -9.8911
        88        2.0000           -0.3504494              -9.5362
        89        2.0000           -0.3474846              -9.4555
        90        2.0000           -0.3397264              -9.2444
        91        2.0000           -0.3289811              -8.9520
        92        2.0000           -0.3153585              -8.5813 (HOMO)
        93                         -0.2607398              -7.0951 (LUMO)
        94                         -0.2509453              -6.8286
        95                         -0.2313876              -6.2964
        96                         -0.1830186              -4.9802
        97                         -0.1731638              -4.7120
        98                         -0.1626855              -4.4269
        99                         -0.1597567              -4.3472
       100                         -0.1491528              -4.0587
       101                         -0.1411426              -3.8407
       102                         -0.0990556              -2.6954
       103                         -0.0039747              -0.1082
       ...                                ...                  ...
       174                          6.8153574             185.4553
      -------------------------------------------------------------
                  HL-Gap            0.0546188 Eh            1.4863 eV
             Fermi-level           -0.2880492 Eh           -7.8382 eV

     #   Z          covCN         q      C6AA      α(0)
     1  26 Fe      10.238     1.648   106.953    18.237
     2   6 C        2.734     0.368    20.759     7.460
     3  46 Pd       4.913    -0.303   381.858    35.688
     4   6 C        3.843    -0.043    21.306     6.566
     5   1 H        0.927     0.044     2.401     2.423
     6   1 H        0.927     0.094     1.844     2.123
     7   1 H        0.927     0.109     1.706     2.042
     8   6 C        2.671     0.384    20.498     7.408
     9   8 O        0.856    -0.502    23.833     6.545
    10   6 C        4.086    -0.110    22.509     6.739
    11   8 O        0.862    -0.569    25.375     6.754
    12   6 C        3.937    -0.143    23.184     6.842
    13   6 C        3.881    -0.159    23.515     6.895
    14   6 C        3.881    -0.166    23.658     6.915
    15   1 H        0.927     0.092     1.859     2.132
    16   1 H        0.927     0.068     2.105     2.269
    17   1 H        0.927     0.045     2.378     2.411
    18   1 H        1.590     0.153     1.360     1.821
    19   6 C        3.788    -0.179    24.017     6.980
    20   6 C        3.895     0.039    19.864     6.336
    21   8 O        1.498    -0.456    22.094     6.338
    22   6 C        3.892    -0.106    22.459     6.737
    23   6 C        3.892    -0.149    23.317     6.865
    24   6 C        3.903    -0.169    23.725     6.924
    25   6 C        3.945    -0.088    22.097     6.680
    26   6 C        3.899    -0.167    23.686     6.918
    27   1 H        0.927     0.083     1.943     2.180
    28   7 N        2.673    -0.239    26.254     7.610
    29   1 H        0.924     0.029     2.601     2.522
    30   1 H        0.925     0.045     2.377     2.411
    31   1 H        0.923     0.042     2.419     2.432
    32   6 C        3.761    -0.155    23.544     6.917
    33   1 H        0.925     0.078     2.001     2.212
    34   1 H        0.925     0.062     2.181     2.309
    35   1 H        0.925     0.062     2.178     2.308
    36   7 N        3.490    -0.053    22.254     7.006
    37   6 C        3.719    -0.048    21.550     6.631
    38   6 C        3.800    -0.035    21.206     6.556
    39   1 H        0.924     0.029     2.600     2.521
    40   1 H        0.925     0.049     2.335     2.389
    41   1 H        0.924     0.087     1.913     2.163
    42   1 H        0.923     0.023     2.694     2.567
    43   1 H        0.924     0.084     1.941     2.179
    44   1 H        0.924     0.081     1.967     2.193
    45   6 C        3.854     0.000    20.539     6.446
    46   6 C        3.755    -0.107    22.597     6.778
    47   6 C        3.753    -0.104    22.538     6.770
    48   1 H        0.925     0.035     2.520     2.482
    49   1 H        0.925     0.028     2.620     2.531
    50   1 H        0.925     0.050     2.325     2.385
    51   1 H        0.922     0.083     1.953     2.185
    52   1 H        0.925     0.036     2.508     2.476
    53   1 H        0.924     0.072     2.064     2.247
    54   1 H        0.925     0.032     2.563     2.504
    55   8 O        1.705    -0.314    19.231     5.921
    56   6 C        3.758    -0.118    22.814     6.810
    57   6 C        3.785     0.161    18.030     6.048
    58   6 C        3.756    -0.125    22.952     6.831
    59   6 C        3.755    -0.124    22.930     6.828
    60   1 H        0.925     0.050     2.324     2.384
    61   1 H        0.925     0.055     2.261     2.351
    62   1 H        0.925     0.042     2.420     2.433
    63   1 H        0.925     0.044     2.391     2.418
    64   1 H        0.925     0.038     2.475     2.460
    65   1 H        0.925     0.064     2.155     2.296
    66   1 H        0.925     0.042     2.427     2.436
    67   1 H        0.925     0.037     2.487     2.466
    68   1 H        0.925     0.066     2.129     2.282

 Mol. C6AA /au·bohr⁶  :      50537.147844
 Mol. C8AA /au·bohr⁸  :    1462067.278395
 Mol. α(0) /au        :        340.922758


Wiberg/Mayer (AO) data.
largest (>0.10) Wiberg bond orders for each atom

 ---------------------------------------------------------------------------
     #   Z sym  total        # sym  WBO       # sym  WBO       # sym  WBO
 ---------------------------------------------------------------------------
     1  26 Fe   0.355 --    14 C    0.218    13 C    0.186    10 C    0.180
                            25 C    0.180    12 C    0.170    26 C    0.167
                            24 C    0.162    23 C    0.143    19 C    0.135
     2   6 C    3.936 --     9 O    1.634    21 O    1.346    20 C    0.875
     3  46 Pd   3.852 --    19 C    0.829    28 N    0.621    21 O    0.467
                            18 H    0.450    36 N    0.399    22 C    0.163
                            23 C    0.151    10 C    0.117    12 C    0.102
     4   6 C    3.974 --    10 C    1.012    36 N    0.976    30 H    0.968
                            31 H    0.957
     5   1 H    0.996 --    24 C    0.984
     6   1 H    0.988 --    23 C    0.942
     7   1 H    0.985 --    22 C    0.945
     8   6 C    3.938 --    28 N    1.407    11 O    1.353    55 O    1.054
     9   8 O    1.946 --     2 C    1.634    21 O    0.197
    10   6 C    3.959 --    14 C    1.283    19 C    1.217     4 C    1.012
                             1 Fe   0.180     3 Pd   0.117
    11   8 O    1.906 --     8 C    1.353    28 N    0.165
    12   6 C    3.967 --    13 C    1.354    19 C    1.179    15 H    0.968
                             1 Fe   0.170     3 Pd   0.102
    13   6 C    3.969 --    12 C    1.354    14 C    1.273    16 H    0.979
                             1 Fe   0.186
    14   6 C    3.972 --    10 C    1.283    13 C    1.273    17 H    0.983
                             1 Fe   0.218
    15   1 H    0.991 --    12 C    0.968
    16   1 H    0.992 --    13 C    0.979
    17   1 H    0.996 --    14 C    0.983
    18   1 H    0.976 --     3 Pd   0.450    22 C    0.131
    19   6 C    3.700 --    10 C    1.217    12 C    1.179     3 Pd   0.829
                             1 Fe   0.135
    20   6 C    3.969 --    28 N    0.976    29 H    0.956    45 C    0.953
                             2 C    0.875
    21   8 O    2.161 --     2 C    1.346     3 Pd   0.467     9 O    0.197
    22   6 C    3.975 --    26 C    1.263    23 C    1.252     7 H    0.945
                             3 Pd   0.163    18 H    0.131
    23   6 C    3.975 --    24 C    1.327    22 C    1.252     6 H    0.942
                             3 Pd   0.151     1 Fe   0.143
    24   6 C    3.972 --    23 C    1.327    25 C    1.262     5 H    0.984
                             1 Fe   0.162
    25   6 C    3.978 --    26 C    1.309    24 C    1.262    32 C    1.052
                             1 Fe   0.180
    26   6 C    3.961 --    25 C    1.309    22 C    1.263    27 H    0.981
                             1 Fe   0.167
    27   1 H    0.992 --    26 C    0.981
    28   7 N    3.398 --     8 C    1.407    20 C    0.976     3 Pd   0.621
                            11 O    0.165
    29   1 H    0.997 --    20 C    0.956
    30   1 H    0.997 --     4 C    0.968
    31   1 H    0.995 --     4 C    0.957
    32   6 C    3.983 --    25 C    1.052    35 H    0.981    34 H    0.974
                            33 H    0.959
    33   1 H    0.991 --    32 C    0.959
    34   1 H    0.988 --    32 C    0.974
    35   1 H    0.989 --    32 C    0.981
    36   7 N    3.451 --    37 C    0.995    38 C    0.991     4 C    0.976
                             3 Pd   0.399
    37   6 C    3.973 --    36 N    0.995    39 H    0.973    40 H    0.971
                            41 H    0.965
    38   6 C    3.974 --    36 N    0.991    42 H    0.970    44 H    0.957
                            43 H    0.947
    39   1 H    0.997 --    37 C    0.973
    40   1 H    0.996 --    37 C    0.971
    41   1 H    0.991 --    37 C    0.965
    42   1 H    0.998 --    38 C    0.970
    43   1 H    0.992 --    38 C    0.947
    44   1 H    0.992 --    38 C    0.957
    45   6 C    3.989 --    46 C    1.011    47 C    0.999    20 C    0.953
                            51 H    0.887
    46   6 C    3.995 --    45 C    1.011    49 H    0.987    48 H    0.985
                            50 H    0.984
    47   6 C    3.994 --    45 C    0.999    52 H    0.987    54 H    0.986
                            53 H    0.944
    48   1 H    0.998 --    46 C    0.985
    49   1 H    0.999 --    46 C    0.987
    50   1 H    0.997 --    46 C    0.984
    51   1 H    0.992 --    45 C    0.887
    52   1 H    0.998 --    47 C    0.987
    53   1 H    0.994 --    47 C    0.944
    54   1 H    0.998 --    47 C    0.986
    55   8 O    2.226 --     8 C    1.054    57 C    0.918
    56   6 C    3.992 --    57 C    0.994    62 H    0.985    60 H    0.985
                            61 H    0.984
    57   6 C    3.927 --    56 C    0.994    58 C    0.993    59 C    0.993
                            55 O    0.918
    58   6 C    3.993 --    57 C    0.993    63 H    0.985    64 H    0.985
                            65 H    0.978
    59   6 C    3.993 --    57 C    0.993    66 H    0.986    67 H    0.985
                            68 H    0.978
    60   1 H    0.997 --    56 C    0.985
    61   1 H    0.997 --    56 C    0.984
    62   1 H    0.997 --    56 C    0.985
    63   1 H    0.998 --    58 C    0.985
    64   1 H    0.998 --    58 C    0.985
    65   1 H    0.995 --    58 C    0.978
    66   1 H    0.998 --    59 C    0.986
    67   1 H    0.998 --    59 C    0.985
    68   1 H    0.995 --    59 C    0.978
 ---------------------------------------------------------------------------

Topologies differ in total number of bonds
Writing topology from bond orders to xtbtopo.mol

molecular dipole:
                 x           y           z       tot (Debye)
 q only:        4.896       1.808      -1.748
   full:        4.148       0.509      -1.346      11.159
molecular quadrupole (traceless):
                xx          xy          yy          xz          yz          zz
 q only:        6.408      -7.994      15.006      18.328      11.279     -21.413
  q+dip:        9.962     -14.602      18.709      22.893       9.362     -28.671
   full:        8.291     -17.778      15.836      20.469      10.013     -24.127


           -------------------------------------------------
          | TOTAL ENERGY              -99.760996211432 Eh   |
          | GRADIENT NORM               0.000086099383 Eh/α |
          | HOMO-LUMO GAP               1.486252087961 eV   |
           -------------------------------------------------
########################################################################
[WARNING] Runtime exception occurred
-1- restart_readRestart: Multiplicity missmatch in restart file.
########################################################################

------------------------------------------------------------------------
 * finished run on 2024/10/14 at 22:10:10.512     
------------------------------------------------------------------------
 total:
 * wall-time:     0 d,  0 h,  0 min,  0.269 sec
 *  cpu-time:     0 d,  0 h,  0 min,  2.830 sec
 * ratio c/w:    10.536 speedup
 SCF:
 * wall-time:     0 d,  0 h,  0 min,  0.085 sec
 *  cpu-time:     0 d,  0 h,  0 min,  0.998 sec
 * ratio c/w:    11.730 speedup

