68
charge 0 multiplicity 1
Fe           1.87395   0.87641  -0.07951
C           -2.08668  -1.63748   1.54420
Pd           0.16187  -1.12264  -0.09847
C            3.05442  -1.57483  -0.20238
H            4.04457   0.67414   1.44265
H            1.78767  -0.53450   2.31292
H           -0.22197   1.08763   1.82580
C           -1.79372   0.97310  -0.34459
O           -2.90094  -1.83060   2.43001
C            2.63148  -0.52716  -1.14975
O           -0.81938   1.75850  -0.46918
C            1.22165   1.02634  -1.91886
C            2.45996   1.63172  -1.76487
C            3.35269   0.66618  -1.26866
H            0.34562   1.57927  -2.16051
H            2.62917   2.66922  -1.90235
H            4.35412   0.80250  -0.93686
H            0.43438   0.63457  -0.12933
C            1.28278  -0.35428  -1.56142
C           -2.54878  -1.29484   0.08944
O           -0.82113  -1.69546   1.67260
C            0.79375   1.26009   1.54429
C            1.87879   0.40546   1.82208
C            3.05147   1.05865   1.42737
C            2.70013   2.31500   0.90125
C            1.30943   2.42069   0.93635
H            0.74212   3.13150   0.38577
N           -1.60195  -0.31117  -0.37385
H           -3.57212  -0.90586   0.07674
H            3.42857  -1.02366   0.65712
H            3.84398  -2.23717  -0.58864
C            3.59932   3.28525   0.27472
H            4.11937   3.87471   1.02778
H            4.33504   2.77185  -0.33044
H            3.01117   3.95592  -0.34057
N            1.87138  -2.34236   0.18836
C            2.05428  -3.00289   1.47638
C            1.58732  -3.36776  -0.81718
H            2.69063  -3.89256   1.38185
H            2.53026  -2.33042   2.18683
H            1.08407  -3.29798   1.87683
H            2.39810  -4.11201  -0.85641
H            0.65959  -3.88819  -0.56495
H            1.49040  -2.90838  -1.80133
C           -2.44271  -2.58933  -0.74423
C           -3.61569  -3.50725  -0.41810
C           -2.36681  -2.28549  -2.24216
H           -4.54434  -3.07461  -0.78577
H           -3.48338  -4.48402  -0.88158
H           -3.70483  -3.63700   0.65832
H           -1.50141  -3.10093  -0.45181
H           -3.23873  -1.71427  -2.55491
H           -1.46957  -1.69886  -2.46340
H           -2.33437  -3.21184  -2.81410
O           -3.06478   1.39826  -0.19558
C           -4.85226   2.86978   0.15238
C           -3.33580   2.80148  -0.03537
C           -2.62185   3.33591   1.20861
C           -2.91471   3.57978  -1.28381
H           -5.35315   2.46300  -0.72208
H           -5.14226   2.28155   1.01876
H           -5.16543   3.89969   0.29696
H           -2.89103   2.73306   2.07328
H           -2.91638   4.36586   1.38964
H           -1.54554   3.28822   1.06694
H           -3.41313   3.17233  -2.16049
H           -3.18712   4.62580  -1.17405
H           -1.83951   3.49694  -1.42013