      -----------------------------------------------------------      
     |                   =====================                   |     
     |                           x T B                           |     
     |                   =====================                   |     
     |                         S. Grimme                         |     
     |          Mulliken Center for Theoretical Chemistry        |     
     |                    University of Bonn                     |     
      -----------------------------------------------------------      

   * xtb version 6.6.1 (8d0f1dd) compiled by 'stahn@M-Bot' on 2023-08-01

   xtb is free software: you can redistribute it and/or modify it under
   the terms of the GNU Lesser General Public License as published by
   the Free Software Foundation, either version 3 of the License, or
   (at your option) any later version.
   
   xtb is distributed in the hope that it will be useful,
   but WITHOUT ANY WARRANTY; without even the implied warranty of
   MERCHANTABILITY or FITNESS FOR A PARTICULAR PURPOSE.  See the
   GNU Lesser General Public License for more details.
   
   Cite this work as:
   * C. Bannwarth, E. Caldeweyher, S. Ehlert, A. Hansen, P. Pracht,
     J. Seibert, S. Spicher, S. Grimme, WIREs Comput. Mol. Sci., 2020, 11,
     e01493. DOI: 10.1002/wcms.1493
   
   for GFN2-xTB:
   * C. Bannwarth, S. Ehlert and S. Grimme., J. Chem. Theory Comput., 2019,
     15, 1652-1671. DOI: 10.1021/acs.jctc.8b01176
   for GFN1-xTB:
   * S. Grimme, C. Bannwarth, P. Shushkov, J. Chem. Theory Comput., 2017,
     13, 1989-2009. DOI: 10.1021/acs.jctc.7b00118
   for GFN0-xTB:
   * P. Pracht, E. Caldeweyher, S. Ehlert, S. Grimme, ChemRxiv, 2019, preprint.
     DOI: 10.26434/chemrxiv.8326202.v1
   for GFN-FF:
   * S. Spicher and S. Grimme, Angew. Chem. Int. Ed., 2020, 59, 15665-15673.
     DOI: 10.1002/anie.202004239
   
   for ALPB and GBSA implicit solvation:
   * S. Ehlert, M. Stahn, S. Spicher, S. Grimme, J. Chem. Theory Comput.,
     2021, 17, 4250-4261. DOI: 10.1021/acs.jctc.1c00471
   
   for DFT-D4:
   * E. Caldeweyher, C. Bannwarth and S. Grimme, J. Chem. Phys., 2017,
     147, 034112. DOI: 10.1063/1.4993215
   * E. Caldeweyher, S. Ehlert, A. Hansen, H. Neugebauer, S. Spicher,
     C. Bannwarth and S. Grimme, J. Chem. Phys., 2019, 150, 154122.
     DOI: 10.1063/1.5090222
   * E. Caldeweyher, J.-M. Mewes, S. Ehlert and S. Grimme, Phys. Chem. Chem. Phys.
     2020, 22, 8499-8512. DOI: 10.1039/D0CP00502A
   
   for sTDA-xTB:
   * S. Grimme and C. Bannwarth, J. Chem. Phys., 2016, 145, 054103.
     DOI: 10.1063/1.4959605
   
   in the mass-spec context:
   * V. Asgeirsson, C. Bauer and S. Grimme, Chem. Sci., 2017, 8, 4879.
     DOI: 10.1039/c7sc00601b
   * J. Koopman and S. Grimme, ACS Omega 2019, 4, 12, 15120-15133.
     DOI: 10.1021/acsomega.9b02011
   
   for metadynamics refer to:
   * S. Grimme, J. Chem. Theory Comput., 2019, 155, 2847-2862
     DOI: 10.1021/acs.jctc.9b00143
   
   for SPH calculations refer to:
   * S. Spicher and S. Grimme, J. Chem. Theory Comput., 2021, 17, 1701-1714
     DOI: 10.1021/acs.jctc.0c01306
   
   with help from (in alphabetical order)
   P. Atkinson, C. Bannwarth, F. Bohle, G. Brandenburg, E. Caldeweyher
   M. Checinski, S. Dohm, S. Ehlert, S. Ehrlich, I. Gerasimov, C. Hölzer
   A. Katbashev, J. Koopman, C. Lavigne, S. Lehtola, F. März, M. Müller,
   F. Musil, H. Neugebauer, J. Pisarek, C. Plett, P. Pracht, F. Pultar,
   J. Seibert, P. Shushkov, S. Spicher, M. Stahn, M. Steiner, T. Strunk,
   J. Stückrath, T. Rose, and J. Unsleber
   
 * started run on 2024/10/14 at 22:10:08.698     

           -------------------------------------------------
          |                Calculation Setup                |
           -------------------------------------------------

          program call               : xtb tsopted.xyz --gfn 2 --charge 0 --vfukui
          coordinate file            : tsopted.xyz
          omp threads                :                    12

   ID    Z sym.   atoms
    1   26 Fe     1
    2    6 C      2, 4, 8, 10, 12-14, 19, 20, 22-26, 32, 37, 38, 45-47, 56-59
    3   46 Pd     3
    4    1 H      5-7, 15-18, 27, 29-31, 33-35, 39-44, 48-54, 60-68
    5    8 O      9, 11, 21, 55
    6    7 N      28, 36

           -------------------------------------------------
          |                 G F N 2 - x T B                 |
           -------------------------------------------------

        Reference                      10.1021/acs.jctc.8b01176
      * Hamiltonian:
        H0-scaling (s, p, d)           1.850000    2.230000    2.230000
        zeta-weighting                 0.500000
      * Dispersion:
        s8                             2.700000
        a1                             0.520000
        a2                             5.000000
        s9                             5.000000
      * Repulsion:
        kExp                           1.500000    1.000000
        rExp                           1.000000
      * Coulomb:
        alpha                          2.000000
        third order                    shell-resolved
        anisotropic                    true
        a3                             3.000000
        a5                             4.000000
        cn-shift                       1.200000
        cn-exp                         4.000000
        max-rad                        5.000000


          ...................................................
          :                      SETUP                      :
          :.................................................:
          :  # basis functions                 176          :
          :  # atomic orbitals                 174          :
          :  # shells                          102          :
          :  # electrons                       184          :
          :  max. iterations                   250          :
          :  Hamiltonian                  GFN2-xTB          :
          :  restarted?                      false          :
          :  GBSA solvation                  false          :
          :  PC potential                    false          :
          :  electronic temp.          300.0000000     K    :
          :  accuracy                    1.0000000          :
          :  -> integral cutoff          0.2500000E+02      :
          :  -> integral neglect         0.1000000E-07      :
          :  -> SCF convergence          0.1000000E-05 Eh   :
          :  -> wf. convergence          0.1000000E-03 e    :
          :  Broyden damping             0.4000000          :
          ...................................................

 iter      E             dE          RMSdq      gap      omega  full diag
   1   -100.6614566 -0.100661E+03  0.728E+00    1.69       0.0  T
   2   -100.9995477 -0.338091E+00  0.440E+00    1.54       1.0  T
   3   -101.0395605 -0.400129E-01  0.293E+00    1.73       1.0  T
   4   -101.0580664 -0.185058E-01  0.171E+00    1.56       1.0  T
   5   -101.0617641 -0.369771E-02  0.982E-01    1.51       1.0  T
   6   -101.0651665 -0.340236E-02  0.565E-01    1.49       1.0  T
   7   -101.0664478 -0.128138E-02  0.229E-01    1.49       1.0  T
   8   -101.0671457 -0.697859E-03  0.162E-01    1.50       1.0  T
   9   -101.0678197 -0.673966E-03  0.894E-02    1.49       1.0  T
  10   -101.0678364 -0.167531E-04  0.516E-02    1.48       1.0  T
  11   -101.0678643 -0.278900E-04  0.206E-02    1.49       1.0  T
  12   -101.0678648 -0.536416E-06  0.116E-02    1.48       1.0  T
  13   -101.0678674 -0.256457E-05  0.402E-03    1.49       3.0  T
  14   -101.0678676 -0.223952E-06  0.170E-03    1.49       7.1  T
  15   -101.0678677 -0.417823E-07  0.749E-04    1.49      16.2  T
  16   -101.0678677 -0.547021E-08  0.393E-04    1.49      30.9  T

   *** convergence criteria satisfied after 16 iterations ***

         #    Occupation            Energy/Eh            Energy/eV
      -------------------------------------------------------------
         1        2.0000           -0.8810807             -23.9754
       ...           ...                  ...                  ...
        86        2.0000           -0.3679103             -10.0113
        87        2.0000           -0.3634960              -9.8912
        88        2.0000           -0.3504528              -9.5363
        89        2.0000           -0.3474874              -9.4556
        90        2.0000           -0.3397292              -9.2445
        91        2.0000           -0.3289844              -8.9521
        92        2.0000           -0.3153625              -8.5815 (HOMO)
        93                         -0.2607432              -7.0952 (LUMO)
        94                         -0.2509494              -6.8287
        95                         -0.2313899              -6.2964
        96                         -0.1830224              -4.9803
        97                         -0.1731678              -4.7121
       ...                                ...                  ...
       174                          6.8153471             185.4550
      -------------------------------------------------------------
                  HL-Gap            0.0546193 Eh            1.4863 eV
             Fermi-level           -0.2880529 Eh           -7.8383 eV

 SCC (total)                   0 d,  0 h,  0 min,  0.092 sec
 SCC setup                      ...        0 min,  0.003 sec (  2.937%)
 Dispersion                     ...        0 min,  0.001 sec (  0.941%)
 classical contributions        ...        0 min,  0.000 sec (  0.044%)
 integral evaluation            ...        0 min,  0.006 sec (  6.365%)
 iterations                     ...        0 min,  0.070 sec ( 75.518%)
 molecular gradient             ...        0 min,  0.009 sec ( 10.179%)
 printout                       ...        0 min,  0.004 sec (  3.975%)

         :::::::::::::::::::::::::::::::::::::::::::::::::::::
         ::                     SUMMARY                     ::
         :::::::::::::::::::::::::::::::::::::::::::::::::::::
         :: total energy             -99.760996210439 Eh    ::
         :: gradient norm              0.000087088356 Eh/a0 ::
         :: HOMO-LUMO gap              1.486267018411 eV    ::
         ::.................................................::
         :: SCC energy              -101.067867679095 Eh    ::
         :: -> isotropic ES           -0.061443132206 Eh    ::
         :: -> anisotropic ES         -0.030650425011 Eh    ::
         :: -> anisotropic XC          0.019150520711 Eh    ::
         :: -> dispersion             -0.100595676629 Eh    ::
         :: repulsion energy           1.303303538473 Eh    ::
         :: add. restraining           0.000000000000 Eh    ::
         :: total charge              -0.000000000000 e     ::
         :::::::::::::::::::::::::::::::::::::::::::::::::::::


Fukui index Calculation

 iter      E             dE          RMSdq      gap      omega  full diag
   1   -101.1908646 -0.101191E+03  0.744E-01    0.27       0.0  T
   2   -101.1403804  0.504843E-01  0.150E+00    0.50       1.0  T
   3   -101.2403833 -0.100003E+00  0.463E-01    0.28       1.0  T
   4   -101.2433007 -0.291746E-02  0.393E-01    0.30       1.0  T
   5   -101.2409849  0.231583E-02  0.368E-01    0.28       1.0  T
   6   -101.2439409 -0.295598E-02  0.163E-01    0.30       1.0  T
   7   -101.2440738 -0.132883E-03  0.104E-01    0.30       1.0  T
   8   -101.2441752 -0.101432E-03  0.517E-02    0.30       1.0  T
   9   -101.2442670 -0.917812E-04  0.149E-02    0.31       1.0  T
  10   -101.2442710 -0.405082E-05  0.727E-03    0.31       1.7  T
  11   -101.2442714 -0.415478E-06  0.427E-03    0.31       2.8  T
  12   -101.2442718 -0.362400E-06  0.222E-03    0.31       5.5  T
  13   -101.2442718 -0.345400E-07  0.131E-03    0.31       9.3  T
  14   -101.2442719 -0.331182E-07  0.808E-04    0.31      15.0  T
  15   -101.2442719 -0.834493E-08  0.506E-04    0.31      24.0  T
     SCC iter.                  ...        0 min,  0.124 sec
     gradient                   ...        0 min,  0.011 sec

 iter      E             dE          RMSdq      gap      omega  full diag
   1   -100.6406390 -0.100641E+03  0.624E-01    1.49       0.0  T
   2   -100.6183453  0.222937E-01  0.948E-01    2.17       1.0  T
   3   -100.6674781 -0.491328E-01  0.502E-01    1.94       1.0  T
   4   -100.6729857 -0.550763E-02  0.300E-01    2.02       1.0  T
   5   -100.6716348  0.135093E-02  0.261E-01    2.11       1.0  T
   6   -100.6735477 -0.191297E-02  0.107E-01    2.05       1.0  T
   7   -100.6735979 -0.501349E-04  0.835E-02    2.05       1.0  T
   8   -100.6737457 -0.147867E-03  0.549E-02    2.07       1.0  T
   9   -100.6738552 -0.109421E-03  0.275E-02    2.05       1.0  T
  10   -100.6738621 -0.694070E-05  0.212E-02    2.06       1.0  T
  11   -100.6738840 -0.218945E-04  0.849E-03    2.05       1.4  T
  12   -100.6738870 -0.300494E-05  0.461E-03    2.05       2.6  T
  13   -100.6738871 -0.822934E-07  0.313E-03    2.05       3.9  T
  14   -100.6738871  0.312363E-07  0.289E-03    2.05       4.2  T
  15   -100.6738874 -0.324408E-06  0.995E-04    2.05      12.2  T
  16   -100.6738874 -0.168389E-07  0.648E-04    2.05      18.7  T
     SCC iter.                  ...        0 min,  0.065 sec
     gradient                   ...        0 min,  0.011 sec

     #        f(+)     f(-)     f(0)
     1Fe     -0.121   -0.066   -0.094
     2C       0.001   -0.013   -0.006
     3Pd     -0.169   -0.222   -0.196
     4C       0.015    0.017    0.016
     5H      -0.041   -0.028   -0.034
     6H      -0.037   -0.013   -0.025
     7H      -0.038   -0.004   -0.021
     8C      -0.002   -0.012   -0.007
     9O      -0.045   -0.110   -0.078
    10C      -0.014   -0.004   -0.009
    11O       0.003   -0.045   -0.021
    12C      -0.006   -0.001   -0.003
    13C      -0.011   -0.005   -0.008
    14C      -0.008   -0.003   -0.005
    15H      -0.039   -0.016   -0.027
    16H      -0.043   -0.031   -0.037
    17H      -0.043   -0.031   -0.037
    18H       0.003    0.023    0.013
    19C      -0.019    0.003   -0.008
    20C       0.010   -0.014   -0.002
    21O       0.003   -0.024   -0.011
    22C      -0.005    0.004   -0.001
    23C      -0.004    0.006    0.001
    24C      -0.004   -0.002   -0.003
    25C      -0.025   -0.012   -0.018
    26C      -0.007   -0.002   -0.005
    27H      -0.038   -0.019   -0.028
    28N      -0.005   -0.006   -0.005
    29H      -0.031   -0.040   -0.035
    30H      -0.011   -0.016   -0.013
    31H      -0.041   -0.034   -0.038
    32C       0.023    0.017    0.020
    33H      -0.046   -0.032   -0.039
    34H      -0.021   -0.017   -0.019
    35H      -0.024   -0.017   -0.020
    36N       0.010    0.008    0.009
    37C       0.016    0.015    0.016
    38C       0.016    0.015    0.016
    39H      -0.029   -0.030   -0.029
    40H      -0.007   -0.014   -0.011
    41H      -0.015   -0.005   -0.010
    42H      -0.028   -0.031   -0.029
    43H      -0.017   -0.007   -0.012
    44H      -0.003   -0.007   -0.005
    45C       0.001   -0.001   -0.000
    46C       0.009    0.011    0.010
    47C       0.007    0.008    0.008
    48H      -0.014   -0.019   -0.017
    49H      -0.017   -0.027   -0.022
    50H      -0.008   -0.008   -0.008
    51H       0.002   -0.004   -0.001
    52H      -0.015   -0.018   -0.017
    53H       0.010    0.001    0.006
    54H      -0.019   -0.029   -0.024
    55O      -0.022   -0.030   -0.026
    56C       0.007    0.008    0.008
    57C       0.002    0.002    0.002
    58C       0.005    0.007    0.006
    59C       0.005    0.007    0.006
    60H      -0.010   -0.010   -0.010
    61H      -0.007   -0.006   -0.006
    62H      -0.015   -0.019   -0.017
    63H      -0.005   -0.005   -0.005
    64H      -0.017   -0.023   -0.020
    65H       0.012    0.004    0.008
    66H      -0.009   -0.011   -0.010
    67H      -0.016   -0.021   -0.019
    68H       0.009    0.002    0.005
           -------------------------------------------------
          |                Property Printout                |
           -------------------------------------------------

    * Orbital Energies and Occupations

         #    Occupation            Energy/Eh            Energy/eV
      -------------------------------------------------------------
         1        2.0000           -0.8810807             -23.9754
       ...           ...                  ...                  ...
        80        2.0000           -0.3962304             -10.7820
        81        2.0000           -0.3876806             -10.5493
        82        2.0000           -0.3824971             -10.4083
        83        2.0000           -0.3804714             -10.3532
        84        2.0000           -0.3746114             -10.1937
        85        2.0000           -0.3739897             -10.1768
        86        2.0000           -0.3679103             -10.0113
        87        2.0000           -0.3634960              -9.8912
        88        2.0000           -0.3504528              -9.5363
        89        2.0000           -0.3474874              -9.4556
        90        2.0000           -0.3397292              -9.2445
        91        2.0000           -0.3289844              -8.9521
        92        2.0000           -0.3153625              -8.5815 (HOMO)
        93                         -0.2607432              -7.0952 (LUMO)
        94                         -0.2509494              -6.8287
        95                         -0.2313899              -6.2964
        96                         -0.1830224              -4.9803
        97                         -0.1731678              -4.7121
        98                         -0.1626894              -4.4270
        99                         -0.1597595              -4.3473
       100                         -0.1491565              -4.0588
       101                         -0.1411454              -3.8408
       102                         -0.0990583              -2.6955
       103                         -0.0039784              -0.1083
       ...                                ...                  ...
       174                          6.8153471             185.4550
      -------------------------------------------------------------
                  HL-Gap            0.0546193 Eh            1.4863 eV
             Fermi-level           -0.2880529 Eh           -7.8383 eV

     #   Z          covCN         q      C6AA      α(0)
     1  26 Fe      10.238     1.647   106.954    18.238
     2   6 C        2.734     0.368    20.759     7.460
     3  46 Pd       4.913    -0.304   381.859    35.688
     4   6 C        3.843    -0.043    21.306     6.566
     5   1 H        0.927     0.044     2.401     2.423
     6   1 H        0.927     0.094     1.844     2.123
     7   1 H        0.927     0.109     1.706     2.042
     8   6 C        2.671     0.384    20.497     7.408
     9   8 O        0.856    -0.502    23.833     6.545
    10   6 C        4.086    -0.110    22.509     6.739
    11   8 O        0.862    -0.569    25.375     6.754
    12   6 C        3.937    -0.143    23.184     6.842
    13   6 C        3.881    -0.159    23.515     6.894
    14   6 C        3.881    -0.166    23.658     6.915
    15   1 H        0.927     0.092     1.859     2.132
    16   1 H        0.927     0.068     2.105     2.269
    17   1 H        0.927     0.045     2.378     2.411
    18   1 H        1.590     0.153     1.360     1.820
    19   6 C        3.788    -0.179    24.017     6.980
    20   6 C        3.895     0.039    19.864     6.336
    21   8 O        1.498    -0.456    22.094     6.338
    22   6 C        3.892    -0.106    22.459     6.737
    23   6 C        3.892    -0.149    23.317     6.865
    24   6 C        3.903    -0.169    23.725     6.924
    25   6 C        3.945    -0.088    22.097     6.680
    26   6 C        3.899    -0.167    23.686     6.918
    27   1 H        0.927     0.083     1.943     2.180
    28   7 N        2.673    -0.239    26.254     7.610
    29   1 H        0.924     0.029     2.601     2.522
    30   1 H        0.925     0.045     2.377     2.411
    31   1 H        0.923     0.042     2.419     2.432
    32   6 C        3.761    -0.155    23.543     6.917
    33   1 H        0.925     0.078     2.001     2.212
    34   1 H        0.925     0.062     2.181     2.309
    35   1 H        0.925     0.062     2.178     2.308
    36   7 N        3.490    -0.053    22.254     7.006
    37   6 C        3.719    -0.048    21.550     6.631
    38   6 C        3.800    -0.035    21.205     6.556
    39   1 H        0.924     0.029     2.600     2.521
    40   1 H        0.925     0.049     2.335     2.389
    41   1 H        0.924     0.087     1.913     2.163
    42   1 H        0.923     0.023     2.694     2.567
    43   1 H        0.924     0.084     1.941     2.179
    44   1 H        0.924     0.081     1.967     2.193
    45   6 C        3.854     0.000    20.539     6.446
    46   6 C        3.755    -0.107    22.597     6.778
    47   6 C        3.753    -0.104    22.538     6.770
    48   1 H        0.925     0.035     2.520     2.482
    49   1 H        0.925     0.028     2.620     2.531
    50   1 H        0.925     0.050     2.325     2.385
    51   1 H        0.922     0.083     1.952     2.185
    52   1 H        0.925     0.036     2.508     2.476
    53   1 H        0.924     0.072     2.064     2.247
    54   1 H        0.925     0.032     2.563     2.504
    55   8 O        1.705    -0.314    19.231     5.921
    56   6 C        3.758    -0.118    22.814     6.810
    57   6 C        3.785     0.161    18.030     6.048
    58   6 C        3.756    -0.125    22.952     6.831
    59   6 C        3.755    -0.124    22.930     6.828
    60   1 H        0.925     0.050     2.324     2.384
    61   1 H        0.925     0.055     2.261     2.351
    62   1 H        0.925     0.042     2.420     2.433
    63   1 H        0.925     0.044     2.391     2.418
    64   1 H        0.925     0.038     2.475     2.460
    65   1 H        0.925     0.064     2.155     2.296
    66   1 H        0.925     0.042     2.427     2.436
    67   1 H        0.925     0.037     2.487     2.466
    68   1 H        0.925     0.066     2.129     2.282

 Mol. C6AA /au·bohr⁶  :      50537.186696
 Mol. C8AA /au·bohr⁸  :    1462068.120778
 Mol. α(0) /au        :        340.922923


Wiberg/Mayer (AO) data.
largest (>0.10) Wiberg bond orders for each atom

 ---------------------------------------------------------------------------
     #   Z sym  total        # sym  WBO       # sym  WBO       # sym  WBO
 ---------------------------------------------------------------------------
     1  26 Fe   0.355 --    14 C    0.218    13 C    0.186    10 C    0.180
                            25 C    0.180    12 C    0.170    26 C    0.167
                            24 C    0.162    23 C    0.143    19 C    0.135
     2   6 C    3.936 --     9 O    1.634    21 O    1.346    20 C    0.875
     3  46 Pd   3.852 --    19 C    0.829    28 N    0.621    21 O    0.467
                            18 H    0.450    36 N    0.399    22 C    0.163
                            23 C    0.151    10 C    0.117    12 C    0.102
     4   6 C    3.974 --    10 C    1.012    36 N    0.976    30 H    0.968
                            31 H    0.957
     5   1 H    0.996 --    24 C    0.984
     6   1 H    0.988 --    23 C    0.942
     7   1 H    0.985 --    22 C    0.945
     8   6 C    3.938 --    28 N    1.407    11 O    1.353    55 O    1.054
     9   8 O    1.946 --     2 C    1.634    21 O    0.197
    10   6 C    3.959 --    14 C    1.283    19 C    1.217     4 C    1.012
                             1 Fe   0.180     3 Pd   0.117
    11   8 O    1.906 --     8 C    1.353    28 N    0.165
    12   6 C    3.967 --    13 C    1.354    19 C    1.179    15 H    0.968
                             1 Fe   0.170     3 Pd   0.102
    13   6 C    3.969 --    12 C    1.354    14 C    1.273    16 H    0.979
                             1 Fe   0.186
    14   6 C    3.972 --    10 C    1.283    13 C    1.273    17 H    0.983
                             1 Fe   0.218
    15   1 H    0.991 --    12 C    0.968
    16   1 H    0.992 --    13 C    0.979
    17   1 H    0.996 --    14 C    0.983
    18   1 H    0.976 --     3 Pd   0.450    22 C    0.131
    19   6 C    3.700 --    10 C    1.217    12 C    1.179     3 Pd   0.829
                             1 Fe   0.135
    20   6 C    3.969 --    28 N    0.976    29 H    0.956    45 C    0.953
                             2 C    0.875
    21   8 O    2.161 --     2 C    1.346     3 Pd   0.467     9 O    0.197
    22   6 C    3.975 --    26 C    1.263    23 C    1.252     7 H    0.945
                             3 Pd   0.163    18 H    0.131
    23   6 C    3.975 --    24 C    1.327    22 C    1.252     6 H    0.942
                             3 Pd   0.151     1 Fe   0.143
    24   6 C    3.972 --    23 C    1.327    25 C    1.262     5 H    0.984
                             1 Fe   0.162
    25   6 C    3.978 --    26 C    1.309    24 C    1.262    32 C    1.052
                             1 Fe   0.180
    26   6 C    3.961 --    25 C    1.309    22 C    1.263    27 H    0.981
                             1 Fe   0.167
    27   1 H    0.992 --    26 C    0.981
    28   7 N    3.398 --     8 C    1.407    20 C    0.976     3 Pd   0.621
                            11 O    0.165
    29   1 H    0.997 --    20 C    0.956
    30   1 H    0.997 --     4 C    0.968
    31   1 H    0.995 --     4 C    0.957
    32   6 C    3.983 --    25 C    1.052    35 H    0.981    34 H    0.974
                            33 H    0.959
    33   1 H    0.991 --    32 C    0.959
    34   1 H    0.988 --    32 C    0.974
    35   1 H    0.989 --    32 C    0.981
    36   7 N    3.451 --    37 C    0.995    38 C    0.991     4 C    0.976
                             3 Pd   0.399
    37   6 C    3.973 --    36 N    0.995    39 H    0.973    40 H    0.971
                            41 H    0.965
    38   6 C    3.974 --    36 N    0.991    42 H    0.970    44 H    0.957
                            43 H    0.947
    39   1 H    0.997 --    37 C    0.973
    40   1 H    0.996 --    37 C    0.971
    41   1 H    0.991 --    37 C    0.965
    42   1 H    0.998 --    38 C    0.970
    43   1 H    0.992 --    38 C    0.947
    44   1 H    0.992 --    38 C    0.957
    45   6 C    3.989 --    46 C    1.011    47 C    0.999    20 C    0.953
                            51 H    0.887
    46   6 C    3.995 --    45 C    1.011    49 H    0.987    48 H    0.985
                            50 H    0.984
    47   6 C    3.994 --    45 C    0.999    52 H    0.987    54 H    0.986
                            53 H    0.944
    48   1 H    0.998 --    46 C    0.985
    49   1 H    0.999 --    46 C    0.987
    50   1 H    0.997 --    46 C    0.984
    51   1 H    0.992 --    45 C    0.887
    52   1 H    0.998 --    47 C    0.987
    53   1 H    0.994 --    47 C    0.944
    54   1 H    0.998 --    47 C    0.986
    55   8 O    2.226 --     8 C    1.054    57 C    0.918
    56   6 C    3.992 --    57 C    0.994    62 H    0.985    60 H    0.985
                            61 H    0.984
    57   6 C    3.927 --    56 C    0.994    58 C    0.993    59 C    0.993
                            55 O    0.918
    58   6 C    3.993 --    57 C    0.993    63 H    0.985    64 H    0.985
                            65 H    0.978
    59   6 C    3.993 --    57 C    0.993    66 H    0.986    67 H    0.985
                            68 H    0.978
    60   1 H    0.997 --    56 C    0.985
    61   1 H    0.997 --    56 C    0.984
    62   1 H    0.997 --    56 C    0.985
    63   1 H    0.998 --    58 C    0.985
    64   1 H    0.998 --    58 C    0.985
    65   1 H    0.995 --    58 C    0.978
    66   1 H    0.998 --    59 C    0.986
    67   1 H    0.998 --    59 C    0.985
    68   1 H    0.995 --    59 C    0.978
 ---------------------------------------------------------------------------

Topologies differ in total number of bonds
Writing topology from bond orders to xtbtopo.mol

molecular dipole:
                 x           y           z       tot (Debye)
 q only:        4.896       1.808      -1.748
   full:        4.148       0.509      -1.346      11.159
molecular quadrupole (traceless):
                xx          xy          yy          xz          yz          zz
 q only:        6.406      -7.994      15.006      18.328      11.279     -21.412
  q+dip:        9.961     -14.602      18.708      22.893       9.363     -28.669
   full:        8.290     -17.778      15.836      20.469      10.014     -24.126


           -------------------------------------------------
          | TOTAL ENERGY              -99.760996210439 Eh   |
          | GRADIENT NORM               0.000087088356 Eh/α |
          | HOMO-LUMO GAP               1.486267018411 eV   |
           -------------------------------------------------

------------------------------------------------------------------------
 * finished run on 2024/10/14 at 22:10:09.203     
------------------------------------------------------------------------
 total:
 * wall-time:     0 d,  0 h,  0 min,  0.504 sec
 *  cpu-time:     0 d,  0 h,  0 min,  5.655 sec
 * ratio c/w:    11.210 speedup
 SCF:
 * wall-time:     0 d,  0 h,  0 min,  0.097 sec
 *  cpu-time:     0 d,  0 h,  0 min,  1.142 sec
 * ratio c/w:    11.739 speedup

