      -----------------------------------------------------------      
     |                   =====================                   |     
     |                           x T B                           |     
     |                   =====================                   |     
     |                         S. Grimme                         |     
     |          Mulliken Center for Theoretical Chemistry        |     
     |                    University of Bonn                     |     
      -----------------------------------------------------------      

   * xtb version 6.6.1 (8d0f1dd) compiled by 'stahn@M-Bot' on 2023-08-01

   xtb is free software: you can redistribute it and/or modify it under
   the terms of the GNU Lesser General Public License as published by
   the Free Software Foundation, either version 3 of the License, or
   (at your option) any later version.
   
   xtb is distributed in the hope that it will be useful,
   but WITHOUT ANY WARRANTY; without even the implied warranty of
   MERCHANTABILITY or FITNESS FOR A PARTICULAR PURPOSE.  See the
   GNU Lesser General Public License for more details.
   
   Cite this work as:
   * C. Bannwarth, E. Caldeweyher, S. Ehlert, A. Hansen, P. Pracht,
     J. Seibert, S. Spicher, S. Grimme, WIREs Comput. Mol. Sci., 2020, 11,
     e01493. DOI: 10.1002/wcms.1493
   
   for GFN2-xTB:
   * C. Bannwarth, S. Ehlert and S. Grimme., J. Chem. Theory Comput., 2019,
     15, 1652-1671. DOI: 10.1021/acs.jctc.8b01176
   for GFN1-xTB:
   * S. Grimme, C. Bannwarth, P. Shushkov, J. Chem. Theory Comput., 2017,
     13, 1989-2009. DOI: 10.1021/acs.jctc.7b00118
   for GFN0-xTB:
   * P. Pracht, E. Caldeweyher, S. Ehlert, S. Grimme, ChemRxiv, 2019, preprint.
     DOI: 10.26434/chemrxiv.8326202.v1
   for GFN-FF:
   * S. Spicher and S. Grimme, Angew. Chem. Int. Ed., 2020, 59, 15665-15673.
     DOI: 10.1002/anie.202004239
   
   for ALPB and GBSA implicit solvation:
   * S. Ehlert, M. Stahn, S. Spicher, S. Grimme, J. Chem. Theory Comput.,
     2021, 17, 4250-4261. DOI: 10.1021/acs.jctc.1c00471
   
   for DFT-D4:
   * E. Caldeweyher, C. Bannwarth and S. Grimme, J. Chem. Phys., 2017,
     147, 034112. DOI: 10.1063/1.4993215
   * E. Caldeweyher, S. Ehlert, A. Hansen, H. Neugebauer, S. Spicher,
     C. Bannwarth and S. Grimme, J. Chem. Phys., 2019, 150, 154122.
     DOI: 10.1063/1.5090222
   * E. Caldeweyher, J.-M. Mewes, S. Ehlert and S. Grimme, Phys. Chem. Chem. Phys.
     2020, 22, 8499-8512. DOI: 10.1039/D0CP00502A
   
   for sTDA-xTB:
   * S. Grimme and C. Bannwarth, J. Chem. Phys., 2016, 145, 054103.
     DOI: 10.1063/1.4959605
   
   in the mass-spec context:
   * V. Asgeirsson, C. Bauer and S. Grimme, Chem. Sci., 2017, 8, 4879.
     DOI: 10.1039/c7sc00601b
   * J. Koopman and S. Grimme, ACS Omega 2019, 4, 12, 15120-15133.
     DOI: 10.1021/acsomega.9b02011
   
   for metadynamics refer to:
   * S. Grimme, J. Chem. Theory Comput., 2019, 155, 2847-2862
     DOI: 10.1021/acs.jctc.9b00143
   
   for SPH calculations refer to:
   * S. Spicher and S. Grimme, J. Chem. Theory Comput., 2021, 17, 1701-1714
     DOI: 10.1021/acs.jctc.0c01306
   
   with help from (in alphabetical order)
   P. Atkinson, C. Bannwarth, F. Bohle, G. Brandenburg, E. Caldeweyher
   M. Checinski, S. Dohm, S. Ehlert, S. Ehrlich, I. Gerasimov, C. Hölzer
   A. Katbashev, J. Koopman, C. Lavigne, S. Lehtola, F. März, M. Müller,
   F. Musil, H. Neugebauer, J. Pisarek, C. Plett, P. Pracht, F. Pultar,
   J. Seibert, P. Shushkov, S. Spicher, M. Stahn, M. Steiner, T. Strunk,
   J. Stückrath, T. Rose, and J. Unsleber
   
 * started run on 2024/10/14 at 22:10:09.266     

           -------------------------------------------------
          |                Calculation Setup                |
           -------------------------------------------------

          program call               : xtb tsopted.xyz --gfn 2 --charge 0 --vipea
          coordinate file            : tsopted.xyz
          omp threads                :                    12

   ID    Z sym.   atoms
    1   26 Fe     1
    2    6 C      2, 4, 8, 10, 12-14, 19, 20, 22-26, 32, 37, 38, 45-47, 56-59
    3   46 Pd     3
    4    1 H      5-7, 15-18, 27, 29-31, 33-35, 39-44, 48-54, 60-68
    5    8 O      9, 11, 21, 55
    6    7 N      28, 36

           -------------------------------------------------
          |                 G F N 2 - x T B                 |
           -------------------------------------------------

        Reference                      10.1021/acs.jctc.8b01176
      * Hamiltonian:
        H0-scaling (s, p, d)           1.850000    2.230000    2.230000
        zeta-weighting                 0.500000
      * Dispersion:
        s8                             2.700000
        a1                             0.520000
        a2                             5.000000
        s9                             5.000000
      * Repulsion:
        kExp                           1.500000    1.000000
        rExp                           1.000000
      * Coulomb:
        alpha                          2.000000
        third order                    shell-resolved
        anisotropic                    true
        a3                             3.000000
        a5                             4.000000
        cn-shift                       1.200000
        cn-exp                         4.000000
        max-rad                        5.000000

q/qsh data taken from xtbrestart
CAMM data taken from xtbrestart

          ...................................................
          :                      SETUP                      :
          :.................................................:
          :  # basis functions                 176          :
          :  # atomic orbitals                 174          :
          :  # shells                          102          :
          :  # electrons                       184          :
          :  max. iterations                   250          :
          :  Hamiltonian                  GFN2-xTB          :
          :  restarted?                       true          :
          :  GBSA solvation                  false          :
          :  PC potential                    false          :
          :  electronic temp.          300.0000000     K    :
          :  accuracy                    1.0000000          :
          :  -> integral cutoff          0.2500000E+02      :
          :  -> integral neglect         0.1000000E-07      :
          :  -> SCF convergence          0.1000000E-05 Eh   :
          :  -> wf. convergence          0.1000000E-03 e    :
          :  Broyden damping             0.4000000          :
          ...................................................

 iter      E             dE          RMSdq      gap      omega  full diag
   1   -101.0678677 -0.101068E+03  0.216E-04    1.49       0.0  T
   2   -101.0678677 -0.260570E-09  0.159E-04    1.49      76.1  T
   3   -101.0678677 -0.150763E-09  0.123E-04    1.49      98.5  T

   *** convergence criteria satisfied after 3 iterations ***

         #    Occupation            Energy/Eh            Energy/eV
      -------------------------------------------------------------
         1        2.0000           -0.8810893             -23.9757
       ...           ...                  ...                  ...
        86        2.0000           -0.3679084             -10.0113
        87        2.0000           -0.3634945              -9.8912
        88        2.0000           -0.3504517              -9.5363
        89        2.0000           -0.3474865              -9.4556
        90        2.0000           -0.3397283              -9.2445
        91        2.0000           -0.3289831              -8.9521
        92        2.0000           -0.3153611              -8.5814 (HOMO)
        93                         -0.2607417              -7.0951 (LUMO)
        94                         -0.2509474              -6.8286
        95                         -0.2313895              -6.2964
        96                         -0.1830212              -4.9803
        97                         -0.1731668              -4.7121
       ...                                ...                  ...
       174                          6.8153642             185.4555
      -------------------------------------------------------------
                  HL-Gap            0.0546194 Eh            1.4863 eV
             Fermi-level           -0.2880514 Eh           -7.8383 eV

 SCC (total)                   0 d,  0 h,  0 min,  0.041 sec
 SCC setup                      ...        0 min,  0.005 sec ( 11.507%)
 Dispersion                     ...        0 min,  0.001 sec (  2.280%)
 classical contributions        ...        0 min,  0.000 sec (  0.136%)
 integral evaluation            ...        0 min,  0.006 sec ( 13.869%)
 iterations                     ...        0 min,  0.016 sec ( 39.135%)
 molecular gradient             ...        0 min,  0.010 sec ( 24.470%)
 printout                       ...        0 min,  0.003 sec (  8.479%)

         :::::::::::::::::::::::::::::::::::::::::::::::::::::
         ::                     SUMMARY                     ::
         :::::::::::::::::::::::::::::::::::::::::::::::::::::
         :: total energy             -99.760996212253 Eh    ::
         :: gradient norm              0.000085892394 Eh/a0 ::
         :: HOMO-LUMO gap              1.486269295241 eV    ::
         ::.................................................::
         :: SCC energy              -101.067867680908 Eh    ::
         :: -> isotropic ES           -0.061453671593 Eh    ::
         :: -> anisotropic ES         -0.030652225045 Eh    ::
         :: -> anisotropic XC          0.019150157729 Eh    ::
         :: -> dispersion             -0.100595930348 Eh    ::
         :: repulsion energy           1.303303538473 Eh    ::
         :: add. restraining           0.000000000000 Eh    ::
         :: total charge              -0.000000000000 e     ::
         :::::::::::::::::::::::::::::::::::::::::::::::::::::

           ------------------------------------------------- 
          |        vertical delta SCC IP calculation        |
           ------------------------------------------------- 

 iter      E             dE          RMSdq      gap      omega  full diag
   1   -100.6406401 -0.100641E+03  0.624E-01    1.49       0.0  T
   2   -100.6183464  0.222937E-01  0.948E-01    2.17       1.0  T
   3   -100.6674772 -0.491308E-01  0.502E-01    1.94       1.0  T
   4   -100.6729861 -0.550887E-02  0.300E-01    2.02       1.0  T
   5   -100.6716369  0.134912E-02  0.261E-01    2.11       1.0  T
   6   -100.6735472 -0.191027E-02  0.108E-01    2.05       1.0  T
   7   -100.6735971 -0.499136E-04  0.835E-02    2.05       1.0  T
   8   -100.6737455 -0.148376E-03  0.549E-02    2.07       1.0  T
   9   -100.6738552 -0.109720E-03  0.275E-02    2.05       1.0  T
  10   -100.6738621 -0.690677E-05  0.212E-02    2.06       1.0  T
  11   -100.6738840 -0.218646E-04  0.848E-03    2.05       1.4  T
  12   -100.6738870 -0.299900E-05  0.461E-03    2.05       2.6  T
  13   -100.6738871 -0.830101E-07  0.312E-03    2.05       3.9  T
  14   -100.6738871  0.321338E-07  0.288E-03    2.05       4.2  T
  15   -100.6738874 -0.323905E-06  0.995E-04    2.05      12.2  T
  16   -100.6738874 -0.169037E-07  0.647E-04    2.05      18.7  T
     SCC iter.                  ...        0 min,  0.059 sec
     gradient                   ...        0 min,  0.010 sec
------------------------------------------------------------------------
empirical IP shift (eV):    4.8455
delta SCC IP (eV):    5.8752
------------------------------------------------------------------------
           ------------------------------------------------- 
          |        vertical delta SCC EA calculation        |
           ------------------------------------------------- 

 iter      E             dE          RMSdq      gap      omega  full diag
   1   -101.1531999 -0.101153E+03  0.980E-01    0.33       0.0  T
   2   -101.1814859 -0.282859E-01  0.143E+00    0.24       1.0  T
   3   -101.2279900 -0.465041E-01  0.748E-01    0.25       1.0  T
   4   -101.2228569  0.513311E-02  0.789E-01    0.29       1.0  T
   5   -101.2391499 -0.162931E-01  0.494E-01    0.28       1.0  T
   6   -101.2436153 -0.446539E-02  0.258E-01    0.30       1.0  T
   7   -101.2439695 -0.354211E-03  0.144E-01    0.30       1.0  T
   8   -101.2441861 -0.216613E-03  0.580E-02    0.30       1.0  T
   9   -101.2442477 -0.615837E-04  0.263E-02    0.30       1.0  T
  10   -101.2442660 -0.183200E-04  0.139E-02    0.31       1.0  T
  11   -101.2442706 -0.458958E-05  0.833E-03    0.31       1.5  T
  12   -101.2442708 -0.166471E-06  0.678E-03    0.31       1.8  T
  13   -101.2442717 -0.941022E-06  0.314E-03    0.31       3.9  T
  14   -101.2442718 -0.111744E-06  0.148E-03    0.31       8.2  T
  15   -101.2442719 -0.352488E-07  0.804E-04    0.31      15.1  T
  16   -101.2442719 -0.109287E-07  0.439E-04    0.31      27.6  T
     SCC iter.                  ...        0 min,  0.060 sec
     gradient                   ...        0 min,  0.009 sec
------------------------------------------------------------------------
empirical EA shift (eV):    4.8455
delta SCC EA (eV):   -0.0453
------------------------------------------------------------------------
           -------------------------------------------------
          |                Property Printout                |
           -------------------------------------------------

    * Orbital Energies and Occupations

         #    Occupation            Energy/Eh            Energy/eV
      -------------------------------------------------------------
         1        2.0000           -0.7368103             -20.0496
       ...           ...                  ...                  ...
        81        2.0000           -0.2459039              -6.6914
        82        2.0000           -0.2408754              -6.5546
        83        2.0000           -0.2392280              -6.5097
        84        2.0000           -0.2276679              -6.1952
        85        2.0000           -0.2218421              -6.0366
        86        2.0000           -0.2133209              -5.8048
        87        2.0000           -0.2077566              -5.6533
        88        2.0000           -0.2008259              -5.4648
        89        2.0000           -0.1951504              -5.3103
        90        2.0000           -0.1937318              -5.2717
        91        2.0000           -0.1824027              -4.9634
        92        2.0000           -0.1712987              -4.6613
        93        0.9966           -0.0945014              -2.5715 (HOMO)
        94        0.0020           -0.0832113              -2.2643 (LUMO)
        95        0.0014           -0.0828898              -2.2555
        96                         -0.0333809              -0.9083
        97                         -0.0258491              -0.7034
        98                         -0.0226651              -0.6167
        99                         -0.0154608              -0.4207
       100                         -0.0045924              -0.1250
       101                          0.0110113               0.2996
       102                          0.0585994               1.5946
       103                          0.1238168               3.3692
       104                          0.1265973               3.4449
       ...                                ...                  ...
       174                          6.9567410             189.3026
      -------------------------------------------------------------
                  HL-Gap            0.0112901 Eh            0.3072 eV
             Fermi-level           -0.1110064 Eh           -3.0206 eV

     #   Z          covCN         q      C6AA      α(0)
     1  26 Fe      10.238     1.526   108.307    18.352
     2   6 C        2.734     0.369    20.749     7.458
     3  46 Pd       4.913    -0.473   392.383    36.177
     4   6 C        3.843    -0.027    21.030     6.523
     5   1 H        0.927     0.003     3.013     2.714
     6   1 H        0.927     0.056     2.242     2.341
     7   1 H        0.927     0.071     2.071     2.250
     8   6 C        2.671     0.382    20.534     7.415
     9   8 O        0.856    -0.547    24.858     6.685
    10   6 C        4.086    -0.124    22.779     6.779
    11   8 O        0.862    -0.566    25.306     6.745
    12   6 C        3.937    -0.149    23.296     6.859
    13   6 C        3.881    -0.170    23.750     6.929
    14   6 C        3.881    -0.173    23.819     6.939
    15   1 H        0.927     0.053     2.279     2.361
    16   1 H        0.927     0.025     2.661     2.551
    17   1 H        0.927     0.003     3.010     2.713
    18   1 H        1.590     0.156     1.341     1.808
    19   6 C        3.788    -0.199    24.420     7.038
    20   6 C        3.895     0.049    19.700     6.309
    21   8 O        1.498    -0.453    22.034     6.330
    22   6 C        3.892    -0.111    22.558     6.752
    23   6 C        3.892    -0.153    23.388     6.875
    24   6 C        3.903    -0.174    23.812     6.936
    25   6 C        3.945    -0.112    22.570     6.751
    26   6 C        3.899    -0.174    23.830     6.939
    27   1 H        0.927     0.046     2.374     2.409
    28   7 N        2.673    -0.244    26.366     7.626
    29   1 H        0.924    -0.002     3.092     2.750
    30   1 H        0.925     0.035     2.519     2.482
    31   1 H        0.923     0.001     3.040     2.727
    32   6 C        3.761    -0.132    23.088     6.850
    33   1 H        0.925     0.032     2.554     2.499
    34   1 H        0.925     0.040     2.443     2.444
    35   1 H        0.925     0.038     2.482     2.464
    36   7 N        3.490    -0.043    22.056     6.975
    37   6 C        3.719    -0.032    21.255     6.585
    38   6 C        3.800    -0.020    20.924     6.513
    39   1 H        0.924     0.000     3.053     2.732
    40   1 H        0.925     0.041     2.430     2.438
    41   1 H        0.924     0.072     2.065     2.247
    42   1 H        0.923    -0.005     3.148     2.774
    43   1 H        0.924     0.066     2.125     2.280
    44   1 H        0.924     0.078     1.997     2.210
    45   6 C        3.854     0.001    20.528     6.444
    46   6 C        3.755    -0.098    22.418     6.751
    47   6 C        3.753    -0.097    22.404     6.750
    48   1 H        0.925     0.020     2.726     2.582
    49   1 H        0.925     0.011     2.873     2.651
    50   1 H        0.925     0.042     2.427     2.436
    51   1 H        0.922     0.085     1.932     2.174
    52   1 H        0.925     0.021     2.722     2.580
    53   1 H        0.924     0.082     1.954     2.186
    54   1 H        0.925     0.013     2.841     2.636
    55   8 O        1.705    -0.336    19.630     5.982
    56   6 C        3.758    -0.111    22.671     6.788
    57   6 C        3.785     0.162    18.004     6.044
    58   6 C        3.756    -0.120    22.850     6.816
    59   6 C        3.755    -0.119    22.825     6.812
    60   1 H        0.925     0.040     2.447     2.446
    61   1 H        0.925     0.048     2.349     2.397
    62   1 H        0.925     0.027     2.626     2.534
    63   1 H        0.925     0.039     2.457     2.451
    64   1 H        0.925     0.021     2.720     2.579
    65   1 H        0.925     0.076     2.019     2.222
    66   1 H        0.925     0.032     2.554     2.499
    67   1 H        0.925     0.021     2.711     2.575
    68   1 H        0.925     0.075     2.035     2.231

 Mol. C6AA /au·bohr⁶  :      52015.055022
 Mol. C8AA /au·bohr⁸  :    1494804.836402
 Mol. α(0) /au        :        346.100107


Wiberg/Mayer (AO) data.
largest (>0.10) Wiberg bond orders for each atom

 ---------------------------------------------------------------------------
     #   Z sym  total        # sym  WBO       # sym  WBO       # sym  WBO
 ---------------------------------------------------------------------------
     1  26 Fe   0.188 --    10 C    0.181    12 C    0.180    14 C    0.176
                            26 C    0.176    24 C    0.159    13 C    0.131
                            25 C    0.118    23 C    0.117    18 H    0.104
     2   6 C    3.936 --     9 O    1.592    21 O    1.386    20 C    0.873
     3  46 Pd   3.835 --    19 C    0.850    28 N    0.546    18 H    0.436
                            21 O    0.412    36 N    0.363    22 C    0.179
                            23 C    0.162    10 C    0.121    12 C    0.103
     4   6 C    3.971 --    10 C    1.005    36 N    0.973    30 H    0.970
                            31 H    0.961
     5   1 H    0.998 --    24 C    0.987
     6   1 H    0.993 --    23 C    0.948
     7   1 H    0.992 --    22 C    0.952
     8   6 C    3.932 --    28 N    1.422    11 O    1.370    55 O    1.015
     9   8 O    1.900 --     2 C    1.592    21 O    0.203
    10   6 C    3.948 --    14 C    1.275    19 C    1.230     4 C    1.005
                             1 Fe   0.181     3 Pd   0.121
    11   8 O    1.900 --     8 C    1.370    28 N    0.174
    12   6 C    3.972 --    13 C    1.350    19 C    1.179    15 H    0.974
                             1 Fe   0.180     3 Pd   0.103
    13   6 C    3.963 --    12 C    1.350    14 C    1.307    16 H    0.986
                             1 Fe   0.131
    14   6 C    3.965 --    13 C    1.307    10 C    1.275    17 H    0.986
                             1 Fe   0.176
    15   1 H    0.996 --    12 C    0.974
    16   1 H    0.996 --    13 C    0.986
    17   1 H    0.998 --    14 C    0.986
    18   1 H    0.975 --     3 Pd   0.436    22 C    0.136     1 Fe   0.104
    19   6 C    3.663 --    10 C    1.230    12 C    1.179     3 Pd   0.850
    20   6 C    3.973 --    28 N    0.985    29 H    0.959    45 C    0.955
                             2 C    0.873
    21   8 O    2.146 --     2 C    1.386     3 Pd   0.412     9 O    0.203
    22   6 C    3.977 --    23 C    1.279    26 C    1.246     7 H    0.952
                             3 Pd   0.179    18 H    0.136
    23   6 C    3.971 --    24 C    1.305    22 C    1.279     6 H    0.948
                             3 Pd   0.162     1 Fe   0.117
    24   6 C    3.966 --    23 C    1.305    25 C    1.287     5 H    0.987
                             1 Fe   0.159
    25   6 C    3.965 --    26 C    1.327    24 C    1.287    32 C    1.045
                             1 Fe   0.118
    26   6 C    3.961 --    25 C    1.327    22 C    1.246    27 H    0.987
                             1 Fe   0.176
    27   1 H    0.997 --    26 C    0.987
    28   7 N    3.362 --     8 C    1.422    20 C    0.985     3 Pd   0.546
                            11 O    0.174
    29   1 H    0.997 --    20 C    0.959
    30   1 H    0.998 --     4 C    0.970
    31   1 H    0.997 --     4 C    0.961
    32   6 C    3.990 --    25 C    1.045    35 H    0.985    34 H    0.979
                            33 H    0.971
    33   1 H    0.995 --    32 C    0.971
    34   1 H    0.989 --    32 C    0.979
    35   1 H    0.991 --    32 C    0.985
    36   7 N    3.428 --    37 C    1.002    38 C    0.997     4 C    0.973
                             3 Pd   0.363
    37   6 C    3.982 --    36 N    1.002    39 H    0.974    40 H    0.972
                            41 H    0.968
    38   6 C    3.981 --    36 N    0.997    42 H    0.969    44 H    0.957
                            43 H    0.950
    39   1 H    0.998 --    37 C    0.974
    40   1 H    0.997 --    37 C    0.972
    41   1 H    0.994 --    37 C    0.968
    42   1 H    0.999 --    38 C    0.969
    43   1 H    0.994 --    38 C    0.950
    44   1 H    0.993 --    38 C    0.957
    45   6 C    3.987 --    46 C    1.010    47 C    1.000    20 C    0.955
                            51 H    0.891
    46   6 C    3.996 --    45 C    1.010    49 H    0.988    48 H    0.986
                            50 H    0.984
    47   6 C    3.994 --    45 C    1.000    52 H    0.988    54 H    0.987
                            53 H    0.945
    48   1 H    0.999 --    46 C    0.986
    49   1 H    0.999 --    46 C    0.988
    50   1 H    0.998 --    46 C    0.984
    51   1 H    0.992 --    45 C    0.891
    52   1 H    0.999 --    47 C    0.988
    53   1 H    0.992 --    47 C    0.945
    54   1 H    0.999 --    47 C    0.987
    55   8 O    2.193 --     8 C    1.015    57 C    0.932
    56   6 C    3.996 --    57 C    0.993    62 H    0.987    60 H    0.986
                            61 H    0.985
    57   6 C    3.939 --    56 C    0.993    58 C    0.993    59 C    0.992
                            55 O    0.932
    58   6 C    3.992 --    57 C    0.993    64 H    0.987    63 H    0.986
                            65 H    0.975
    59   6 C    3.993 --    57 C    0.992    67 H    0.987    66 H    0.987
                            68 H    0.976
    60   1 H    0.998 --    56 C    0.986
    61   1 H    0.998 --    56 C    0.985
    62   1 H    0.998 --    56 C    0.987
    63   1 H    0.999 --    58 C    0.986
    64   1 H    0.999 --    58 C    0.987
    65   1 H    0.994 --    58 C    0.975
    66   1 H    0.999 --    59 C    0.987
    67   1 H    0.999 --    59 C    0.987
    68   1 H    0.994 --    59 C    0.976
 ---------------------------------------------------------------------------

Topologies differ in total number of bonds
Writing topology from bond orders to xtbtopo.mol

molecular dipole:
                 x           y           z       tot (Debye)
 q only:        3.184       1.309      -1.816
   full:        2.254      -0.026      -1.276       6.584
molecular quadrupole (traceless):
                xx          xy          yy          xz          yz          zz
 q only:       -8.229     -14.744      13.323      18.608      11.993      -5.094
  q+dip:       -3.054     -21.020      18.178      23.938       9.176     -15.124
   full:       -4.249     -24.468      15.466      21.711       9.697     -11.217


           -------------------------------------------------
          | TOTAL ENERGY              -99.937400418023 Eh   |
          | GRADIENT NORM               0.097395184475 Eh/α |
          | HOMO-LUMO GAP               0.307218412969 eV   |
           -------------------------------------------------

------------------------------------------------------------------------
 * finished run on 2024/10/14 at 22:10:09.636     
------------------------------------------------------------------------
 total:
 * wall-time:     0 d,  0 h,  0 min,  0.370 sec
 *  cpu-time:     0 d,  0 h,  0 min,  4.048 sec
 * ratio c/w:    10.949 speedup
 SCF:
 * wall-time:     0 d,  0 h,  0 min,  0.196 sec
 *  cpu-time:     0 d,  0 h,  0 min,  2.320 sec
 * ratio c/w:    11.822 speedup

