%chk=rp_3_1.chk
%mem=32GB
%nprocshared=16
#p opt=modredundant freq b3lyp def2svp em=gd3bj  

Freeze index  [11, 18]  [18, 19]  [3, 19]  [3, 33]  [3, 28]  [3, 21] // Local index  3  18  20  33  (20,)  [11, 18]  [18, 19]

0 1
Fe          -4.06467   3.37720   2.29358
C           -2.86027  -0.45159  -3.19639
Pd          -3.83551   1.24992  -1.15031
C           -6.21368   2.29541   0.11895
H           -5.49181   4.44897   4.50024
H           -6.05623   1.92573   3.69184
H           -3.71028   0.70075   3.08744
C           -1.28740   0.59916   0.00006
O           -2.72015  -0.94110  -4.29806
C           -5.10699   3.18944   0.57019
O           -1.69216   1.28269   0.99522
C           -2.94125   3.97122   0.64657
C           -3.80514   5.02651   1.05717
C           -5.15027   4.55454   0.97884
H           -1.85355   4.00504   0.64271
H           -3.49404   6.01403   1.39447
H           -6.04838   5.12331   1.21618
H           -2.86234   1.80420   0.67050
C           -3.72491   2.80208   0.34139
C           -1.74724  -0.54910  -2.13069
O           -3.98067   0.11446  -2.79759
C           -2.76817   2.63825   3.71387
C           -3.34670   3.86058   4.17260
C           -4.76452   3.69136   4.21365
C           -5.06202   2.35968   3.78647
C           -3.82849   1.70954   3.47818
H           -1.71298   2.45177   3.52938
N           -2.02632   0.42348  -1.07387
H           -0.78573  -0.32045  -2.61796
H           -6.27945   1.39313   0.74364
H           -7.19824   2.79697   0.13360
C           -2.59028   5.13411   4.51372
H           -3.24924   6.00509   4.33980
H           -2.34001   5.09182   5.60625
H           -1.66691   5.19377   3.90896
N           -5.88652   1.84545  -1.24171
C           -6.06906   2.77058  -2.29947
C           -6.22236   0.48775  -1.54031
H           -6.70636   2.38914  -3.13936
H           -6.46392   3.74504  -1.90692
H           -5.08364   3.03361  -2.76429
H           -7.29711   0.32409  -1.30789
H           -5.95091   0.16496  -2.54684
H           -5.67144  -0.15764  -0.79477
C           -1.68647  -1.97375  -1.60429
C           -2.60030  -2.90246  -2.26732
C           -0.25257  -2.23454  -1.54065
H           -2.63070  -2.24055  -3.08256
H           -2.34881  -3.80980  -2.81066
H           -3.61315  -2.96038  -1.84516
H           -2.08629  -1.76112  -0.63657
H            0.36896  -2.32945  -2.41229
H            0.21094  -1.57609  -0.77990
H           -0.23977  -3.23843  -1.17904
O            0.00000   0.00000   0.00000
C            2.36872  -0.00000   0.00000
C            1.12642   0.84102   0.00000
C            1.00441   1.75909  -1.16378
C            1.12229   1.64378   1.29321
H            2.10051  -0.97094   0.50206
H            2.78672  -0.18178  -0.99856
H            3.15081   0.44913   0.66874
H            1.45006   1.40106  -2.09795
H            1.37178   2.79703  -0.92930
H           -0.09254   1.91007  -1.39223
H            0.27333   1.32712   1.93948
H            2.04218   1.47692   1.89145
H            1.10345   2.72534   1.05436

B 11 18 F
B 18 19 F

--link1--
%oldchk=rp_3_1.chk
%nproc=16
%mem=32GB
# p opt=(ts,readfc,noeigen,nofreeze,notrust,maxcycle=250) freq b3lyp def2svp em=gd3bj geom=(allcheck,PrintInputOrient) guess=tcheck





