%chk=rp_7_1.chk
%mem=32GB
%nprocshared=16
#p opt=modredundant freq b3lyp def2svp em=gd3bj  

Freeze index  [11, 18]  [18, 19]  [3, 19]  [3, 33]  [3, 28]  [3, 21] // Local index  3  18  20  33  (20,)  [11, 18]  [18, 19]

0 1
Fe          -3.78127   3.98620   1.73195
C           -3.26120  -1.31321  -2.49837
Pd          -3.98202   0.93508  -0.93046
C           -6.18503   2.35695   0.28804
H           -4.91454   5.68944   3.69903
H           -5.53194   3.05230   3.75459
H           -3.26604   1.65533   3.22217
C           -1.28740   0.59916   0.00006
O           -3.26321  -2.10814  -3.41543
C           -5.04573   3.32105   0.30002
O           -1.56608   1.55360   0.79552
C           -2.90664   4.04563  -0.15460
C           -3.72781   5.19270   0.04143
C           -5.06094   4.74656   0.29059
H           -1.83065   4.05427  -0.31720
H           -3.39400   6.22907   0.02712
H           -5.92964   5.37846   0.47068
H           -2.78028   1.98055   0.49518
C           -3.70030   2.85496   0.00830
C           -2.01089  -1.11571  -1.61419
O           -4.32789  -0.63175  -2.13434
C           -2.28738   3.67144   3.11520
C           -2.82282   4.98636   3.26848
C           -4.21782   4.86612   3.55137
C           -4.54335   3.47416   3.58013
C           -3.35050   2.73666   3.31095
H           -1.26377   3.41710   2.85103
N           -2.16267   0.13046  -0.86272
H           -1.13016  -1.06059  -2.27409
H           -6.14589   1.68012   1.15352
H           -7.16848   2.86087   0.28912
H           -2.28117   5.90257   3.15874
N           -6.03811   1.51966  -0.91124
C           -6.38297   2.09597  -2.15902
C           -6.38347   0.14149  -0.74793
H           -7.12129   1.49746  -2.75379
H           -6.74045   3.15076  -2.02054
H           -5.47620   2.19000  -2.81110
H           -7.41263   0.07582  -0.33269
H           -6.24585  -0.46887  -1.64208
H           -5.72236  -0.26708   0.07174
C           -1.84904  -2.32319  -0.70524
C           -2.90198  -2.31595   0.36560
C           -0.44640  -2.24824  -0.15883
C           -1.96407  -3.60022  -1.50441
H           -3.26787  -1.26820   0.46889
H           -2.48927  -2.71817   1.29579
H           -3.71960  -3.01561   0.05552
H           -0.12800  -3.21092   0.30198
H            0.22342  -2.10418  -1.05664
H           -0.30652  -1.44772   0.58485
H           -2.16027  -3.30764  -2.55554
H           -1.02284  -4.21330  -1.44776
H           -2.78333  -4.26448  -1.10380
O            0.00000   0.00000   0.00000
C            2.36872   0.00000  -0.00000
C            1.12642   0.84102   0.00000
C            1.00441   1.75909  -1.16378
C            1.12229   1.64378   1.29321
H            2.10051  -0.97094   0.50206
H            2.78672  -0.18178  -0.99856
H            3.15081   0.44913   0.66874
H            1.45006   1.40106  -2.09795
H            1.37178   2.79703  -0.92930
H           -0.09254   1.91007  -1.39223
H            0.27333   1.32712   1.93948
H            2.04218   1.47692   1.89145
H            1.10345   2.72534   1.05436

B 11 18 F
B 18 19 F

--link1--
%oldchk=rp_7_1.chk
%nproc=16
%mem=32GB
# p opt=(ts,readfc,noeigen,nofreeze,notrust,maxcycle=250) freq b3lyp def2svp em=gd3bj geom=(allcheck,PrintInputOrient) guess=tcheck









