%chk=rp_8_1.chk
%mem=32GB
%nprocshared=16
#p opt=modredundant freq b3lyp def2svp em=gd3bj  

Freeze index  [11, 18]  [18, 19]  [3, 19]  [3, 33]  [3, 28]  [3, 21] // Local index  3  18  20  33  (20,)  [11, 18]  [18, 19]

0 1
Fe          -3.59017   4.39685   0.98271
C           -3.54479  -1.92265  -1.52961
Pd          -4.09047   0.70201  -0.60974
C           -6.13478   2.46489   0.42600
H           -4.47834   6.62678   2.49708
H           -5.02748   4.13623   3.41054
H           -2.82741   2.59781   3.00775
C           -1.28740   0.59916   0.00006
O           -3.65594  -2.95210  -2.16270
C           -5.02483   3.36598  -0.00258
O           -1.47420   1.75104   0.50963
C           -2.98368   3.88014  -0.93894
C           -3.79387   5.05085  -0.97871
C           -5.07075   4.72554  -0.42906
H           -1.94054   3.81824  -1.24270
H           -3.48673   6.02994  -1.34306
H           -5.91950   5.40032  -0.32573
H           -2.72669   2.09570   0.26623
C           -3.72267   2.80690  -0.32562
C           -2.18950  -1.49956  -0.92279
O           -4.56546  -1.14227  -1.23976
C           -1.91465   4.47235   2.17900
C           -2.45120   5.78494   2.01025
C           -3.79149   5.78222   2.50433
C           -4.08108   4.46747   2.98590
C           -2.92131   3.65887   2.78498
H           -0.93183   4.13038   1.86378
N           -2.26270  -0.08452  -0.55808
H           -1.40882  -1.65941  -1.68382
H           -5.96340   2.07219   1.43846
H           -7.11905   2.96706   0.41342
H           -1.94881   6.61682   1.56254
N           -6.13622   1.30881  -0.48194
C           -6.66066   1.49926  -1.78453
C           -6.42729   0.04725   0.12553
H           -7.46094   0.76762  -2.06973
H           -7.01759   2.55526  -1.91508
H           -5.85392   1.37837  -2.55318
H           -7.38827   0.12807   0.67861
H           -6.40084  -0.80200  -0.55934
H           -5.65178  -0.11552   0.93048
C           -1.87965  -2.38903   0.27020
C           -1.86924  -3.62206  -0.48005
C           -0.86506  -3.65799  -1.62328
H           -1.95600  -1.44870   0.08213
H           -0.99599  -2.24244   0.91842
H           -1.78912  -4.49953   0.17339
H           -2.87517  -3.62035  -0.93188
H            0.12592  -3.95765  -1.27939
H           -1.27883  -4.39207  -2.35409
H           -0.88911  -2.67302  -2.12758
O            0.00000   0.00000   0.00000
C            2.36872  -0.00000   0.00000
C            1.12642   0.84102   0.00000
C            1.00441   1.75909  -1.16378
C            1.12229   1.64378   1.29321
H            2.10051  -0.97094   0.50206
H            2.78672  -0.18178  -0.99856
H            3.15081   0.44913   0.66874
H            1.45006   1.40106  -2.09795
H            1.37178   2.79703  -0.92930
H           -0.09254   1.91007  -1.39223
H            0.27333   1.32712   1.93948
H            2.04218   1.47692   1.89145
H            1.10345   2.72534   1.05436

B 11 18 F
B 18 19 F

--link1--
%oldchk=rp_8_1.chk
%nproc=16
%mem=32GB
# p opt=(ts,readfc,noeigen,nofreeze,notrust,maxcycle=250) freq b3lyp def2svp em=gd3bj geom=(allcheck,PrintInputOrient) guess=tcheck






