%chk=sp_1_1.chk
%mem=32GB
%nprocshared=16
#p opt=modredundant freq b3lyp def2svp em=gd3bj  

Freeze index  [11, 18]  [18, 19]  [3, 19]  [3, 33]  [3, 28]  [3, 21] // Local index  3  18  20  33  (20,)  [11, 18]  [18, 19]

0 1
Fe          -3.71523   4.16442   1.36726
C           -3.20946  -1.65047  -2.09636
Pd          -3.99161   0.77217  -0.83222
C           -5.62518   3.16032  -1.03529
H           -4.32382   6.86114   2.00232
H           -3.82372   6.21816  -0.58110
H           -1.74285   4.47266  -0.61597
C           -1.28740   0.59916   0.00006
O           -3.19405  -2.64314  -2.79366
C           -5.13569   3.11652   0.37580
O           -1.44960   1.81368   0.35464
C           -3.96376   2.25981   2.16658
C           -4.96349   3.13844   2.67285
C           -5.71214   3.64563   1.56619
H           -3.20818   1.74819   2.76053
H           -5.11774   3.39939   3.71875
H           -6.55081   4.33859   1.62028
H           -2.74646   2.06911   0.32086
C           -4.04169   2.22627   0.72930
C           -2.18705  -1.49419  -0.94337
O           -4.09282  -0.68362  -2.22315
C           -2.16594   4.95557   0.26255
C           -3.26689   5.86411   0.28515
C           -3.53110   6.20416   1.64867
C           -2.58916   5.50826   2.46632
C           -1.74877   4.73303   1.61125
H           -0.95696   4.05636   1.92269
N           -2.29535  -0.15223  -0.38603
H           -1.18386  -1.64194  -1.37238
H           -4.89159   3.65054  -1.69103
H           -6.58722   3.69431  -1.13637
H           -2.54365   5.53730   3.53496
N           -5.75485   1.77415  -1.50713
C           -5.71667   1.55186  -2.90610
C           -6.66997   0.95558  -0.77378
H           -6.58939   0.97095  -3.30357
H           -5.59706   2.52276  -3.45623
H           -4.80761   0.95785  -3.18372
H           -7.65775   1.46444  -0.73788
H           -6.73543  -0.07601  -1.12381
H           -6.31695   0.94965   0.29916
C           -2.42854  -2.59043   0.08149
C           -1.98415  -2.02273   1.35204
C           -1.66265  -3.70343  -0.49186
C           -2.29487  -4.20443  -1.76438
H           -1.39457  -1.15592   1.15048
H           -1.47315  -2.78429   2.00065
H           -2.86262  -1.66119   1.97804
H           -3.43913  -2.45712  -0.22209
H           -1.33767  -4.50186   0.17878
H           -0.72162  -3.14349  -0.80206
H           -1.68672  -4.07790  -2.66220
H           -2.50127  -5.30362  -1.67007
H           -3.28361  -3.70800  -1.94853
O            0.00000   0.00000   0.00000
C            2.36872  -0.00000   0.00000
C            1.12642   0.84102   0.00000
C            1.00441   1.75909  -1.16378
C            1.12229   1.64378   1.29321
H            2.10051  -0.97094   0.50206
H            2.78672  -0.18178  -0.99856
H            3.15081   0.44913   0.66874
H            1.45006   1.40106  -2.09795
H            1.37178   2.79703  -0.92930
H           -0.09254   1.91007  -1.39223
H            0.27333   1.32712   1.93948
H            2.04218   1.47692   1.89145
H            1.10345   2.72534   1.05436

B 11 18 F
B 18 19 F

--link1--
%oldchk=sp_1_1.chk
%nproc=16
%mem=32GB
# p opt=(ts,readfc,noeigen,nofreeze,notrust,maxcycle=250) freq b3lyp def2svp em=gd3bj geom=(allcheck,PrintInputOrient) guess=tcheck





