%chk=sp_2_2.chk
%mem=32GB
%nprocshared=16
#p opt=modredundant freq b3lyp def2svp em=gd3bj  

Freeze index  [11, 18]  [18, 19]  [3, 19]  [3, 33]  [3, 28]  [3, 21] // Local index  3  18  20  33  (20,)  [11, 18]  [18, 19]

0 1
Fe          -0.30588  -5.03829  -2.74533
C           -2.67582  -1.73737   2.69089
Pd          -2.03310  -3.56570   0.61169
C           -1.56244  -6.34472  -0.07276
H            0.82644  -7.07781  -4.35908
H            1.54127  -6.94166  -1.74983
H            1.87189  -4.32176  -1.11364
C           -0.50995  -1.31211  -0.18630
O           -3.09778  -1.25091   3.71907
C           -1.67679  -5.61562  -1.37199
O            0.05734  -2.13362  -0.98029
C           -1.95726  -3.77303  -2.72866
C           -2.23848  -4.93635  -3.50030
C           -2.09664  -6.07794  -2.65236
H           -1.94177  -2.75091  -3.10342
H           -2.49381  -4.95739  -4.55868
H           -2.24888  -7.11703  -2.94148
H           -0.67194  -3.23630  -1.00100
C           -1.59787  -4.16380  -1.39033
C           -2.21016  -0.82199   1.53141
O           -2.62673  -3.03229   2.46298
C            1.62363  -4.72165  -2.09468
C            1.43775  -6.09700  -2.42925
C            1.06072  -6.16949  -3.80667
C            1.01895  -4.83813  -4.32223
C            1.36174  -3.94299  -3.26413
H            1.38105  -2.85725  -3.31593
N           -1.58401  -1.63785   0.49920
H           -1.47575  -0.11458   1.94676
H           -0.93840  -7.21071   0.00161
H            0.74098  -4.55431  -5.33575
O           -2.28193  -5.88835   1.06323
C           -3.40052  -0.02387   1.02502
C           -4.50562  -0.94729   0.59901
C           -2.87873   0.83502  -0.09821
C           -3.91372   0.89634   2.10787
H           -4.04874  -1.94172   0.38761
H           -5.03053  -0.52602  -0.26374
H           -5.25567  -0.99979   1.42898
H           -3.59175   1.64783  -0.36546
H           -1.96507   1.35497   0.31451
H           -2.64470   0.26781  -1.01307
H           -3.28504   0.72330   3.00442
H           -3.85187   1.97647   1.80051
H           -5.00367   0.70557   2.32817
O            0.00000   0.00000   0.00000
C            1.40864   0.00000   0.00000
C            1.88527   1.45546  -0.00000
C            1.38905   2.16470  -1.19663
C            1.60723   1.93218  -2.53701
C            1.03296   2.75650  -3.50573
C            0.23840   3.82251  -3.10224
C            0.04392   4.00841  -1.76434
C            0.60051   3.21680  -0.78013
C            0.55944   3.22338   0.68482
C           -0.05552   4.05284   1.59425
C            0.04540   3.87443   2.96478
C            0.81400   2.83663   3.41740
C            1.42679   1.99253   2.52782
C            1.31819   2.17671   1.16328
H            1.79595  -0.51236  -0.90047
H            1.70402  -0.48149   0.95154
H            3.00634   1.41746   0.02723
H            2.21601   1.10465  -2.90665
H            1.17675   2.58741  -4.56721
H           -0.26927   4.37800  -3.87868
H           -0.59914   4.81270  -1.44519
H           -0.65465   4.87098   1.19583
H           -0.53025   4.47110   3.67160
H            0.92329   2.65226   4.47084
H            2.03270   1.18066   2.91381

B 11 18 F
B 18 19 F

--link1--
%oldchk=sp_2_2.chk
%nproc=16
%mem=32GB
# p opt=(ts,readfc,noeigen,nofreeze,notrust,maxcycle=250) freq b3lyp def2svp em=gd3bj geom=(allcheck,PrintInputOrient) guess=tcheck






