%chk=sp_5_1.chk
%mem=32GB
%nprocshared=16
#p opt=modredundant freq b3lyp def2svp em=gd3bj  

Freeze index  [11, 18]  [18, 19]  [3, 19]  [3, 33]  [3, 28]  [3, 21] // Local index  3  18  20  33  (20,)  [11, 18]  [18, 19]

0 1
Fe          -3.73465  -0.58104  -4.44575
C            2.13641  -3.01077  -2.05987
Pd          -0.23331  -2.38927  -3.50110
C           -1.43395  -2.10182  -6.12575
H           -5.66853   0.48171  -6.22805
H           -3.05474   1.04195  -6.66597
H           -1.89685   1.54184  -4.26026
C           -0.49864  -0.64348  -1.28362
O            3.22065  -3.45525  -1.74567
C           -2.56639  -2.07643  -5.15127
O           -1.41356  -0.09585  -1.98371
C           -3.54146  -2.12331  -3.06289
C           -4.54055  -2.44865  -4.02401
C           -3.93062  -2.45183  -5.31642
H           -3.70475  -2.00256  -1.99322
H           -5.59244  -2.63870  -3.81614
H           -4.42682  -2.66880  -6.26150
H           -1.68559  -0.90866  -2.99048
C           -2.29256  -1.88015  -3.73676
C            1.20391  -2.40208  -0.98328
O            1.65841  -3.05182  -3.28503
C           -2.94792   1.32359  -4.43810
C           -3.55690   1.04894  -5.69975
C           -4.93683   0.75348  -5.46922
C           -5.17917   0.85083  -4.06498
C           -3.95008   1.19812  -3.42692
H           -3.78438   1.30776  -2.35810
N            0.05949  -1.78067  -1.63702
H            1.78404  -1.64040  -0.43962
H           -1.00246  -1.09885  -6.25351
H           -1.73619  -2.47510  -7.12085
H           -6.11142   0.66321  -3.57448
N           -0.37487  -2.94916  -5.55900
C            0.94790  -2.74352  -6.02380
C           -0.74002  -4.30909  -5.30892
H            1.45218  -3.67098  -6.40142
H            0.97187  -1.93065  -6.79725
H            1.59942  -2.36224  -5.19529
H           -1.15217  -4.74804  -6.24347
H            0.05145  -4.91653  -4.86669
H           -1.61692  -4.28736  -4.59728
C            0.81297  -3.49078   0.00277
C            1.69179  -4.65901  -0.00712
C            0.55927  -2.74157   1.22852
H            2.43527  -4.05633  -0.44033
H            2.27525  -5.06004   0.81779
H            1.43451  -5.44515  -0.73047
H           -0.09932  -3.76746  -0.47965
H            1.33237  -2.24872   1.78930
H           -0.32204  -2.08557   1.08677
H            0.29748  -3.52703   1.90176
C            0.00000   0.00000   0.00000
H            1.10593   0.00000  -0.00000
H           -0.35424   1.06420  -0.00000
H           -0.40808  -0.54191   0.87279

B 11 18 F
B 18 19 F

--link1--
%oldchk=sp_5_1.chk
%nproc=16
%mem=32GB
# p opt=(ts,readfc,noeigen,nofreeze,notrust,maxcycle=250) freq b3lyp def2svp em=gd3bj geom=(allcheck,PrintInputOrient) guess=tcheck







