%chk=sp_7_1.chk
%mem=32GB
%nprocshared=16
#p opt=modredundant freq b3lyp def2svp em=gd3bj  

Freeze index  [11, 18]  [18, 19]  [3, 19]  [3, 33]  [3, 28]  [3, 21] // Local index  3  18  20  33  (20,)  [11, 18]  [18, 19]

0 1
Fe          -3.95300   3.65353   2.01008
C           -2.85709  -0.89328  -2.90835
Pd          -3.85509   1.06555  -1.10669
C           -5.49454   3.44099  -0.81955
H           -4.69858   6.05581   3.32121
H           -3.83604   6.19160   0.75699
H           -1.73430   4.49094   0.49527
C           -1.28740   0.59916   0.00006
O           -2.72573  -1.63681  -3.85796
C           -5.20219   2.97362   0.56925
O           -1.52177   1.65857   0.67074
C           -4.26918   1.60359   2.17137
C           -5.34684   2.31481   2.77189
C           -5.94715   3.14069   1.77193
H           -3.59167   0.92424   2.68605
H           -5.64829   2.25943   3.81681
H           -6.79948   3.80426   1.91217
H           -2.80680   1.93947   0.53630
C           -4.14874   1.99626   0.79142
C           -2.00576  -1.10459  -1.63174
O           -3.73459   0.08614  -2.86466
C           -2.28368   4.70250   1.41038
C           -3.39593   5.58677   1.54837
C           -3.85144   5.51577   2.90192
C           -3.01620   4.59063   3.59947
C           -2.05071   4.08420   2.67765
H           -1.29518   3.32956   2.88151
N           -2.21717   0.01579  -0.72440
H           -0.95040  -1.14027  -1.94355
H           -4.68835   4.08721  -1.19495
H           -6.44452   4.00093  -0.88976
H           -3.11813   4.30285   4.62498
N           -5.52961   2.25815  -1.69164
C           -5.29551   2.45679  -3.07503
C           -6.51942   1.27913  -1.36438
H           -6.09333   2.03685  -3.74153
H           -5.12180   3.54391  -3.29314
H           -4.34490   1.95210  -3.38792
H           -7.51313   1.77525  -1.31594
H           -6.51491   0.39788  -2.00808
H           -6.31668   0.95031  -0.30295
C           -2.36262  -2.44869  -1.01820
C           -3.68607  -2.36633  -0.31312
C           -1.22175  -2.80324  -0.09935
C           -2.43762  -3.51095  -2.08997
H           -3.87408  -1.29331  -0.07731
H           -3.67397  -3.00362   0.57630
H           -4.46998  -2.78863  -0.99234
H           -1.24500  -3.87664   0.19688
H           -0.28358  -2.67764  -0.71540
H           -1.19011  -2.19367   0.81765
H           -2.22877  -3.01045  -3.05685
H           -1.68940  -4.33235  -1.91545
H           -3.44628  -4.01635  -2.09916
O            0.00000   0.00000   0.00000
C            2.36872  -0.00000  -0.00000
C            1.12642   0.84102   0.00000
C            1.00441   1.75909  -1.16378
C            1.12229   1.64378   1.29321
H            2.10051  -0.97094   0.50206
H            2.78672  -0.18178  -0.99856
H            3.15081   0.44913   0.66874
H            1.45006   1.40106  -2.09795
H            1.37178   2.79703  -0.92930
H           -0.09254   1.91007  -1.39223
H            0.27333   1.32712   1.93948
H            2.04218   1.47692   1.89145
H            1.10345   2.72534   1.05436

B 11 18 F
B 18 19 F

--link1--
%oldchk=sp_7_1.chk
%nproc=16
%mem=32GB
# p opt=(ts,readfc,noeigen,nofreeze,notrust,maxcycle=250) freq b3lyp def2svp em=gd3bj geom=(allcheck,PrintInputOrient) guess=tcheck











