%chk=sp_8_1.chk
%mem=32GB
%nprocshared=16
#p opt=modredundant freq b3lyp def2svp em=gd3bj  

Freeze index  [11, 18]  [18, 19]  [3, 19]  [3, 33]  [3, 28]  [3, 21] // Local index  3  18  20  33  (20,)  [11, 18]  [18, 19]

0 1
Fe          -3.57844   4.45841   0.57625
C           -3.43147  -2.12761  -1.05720
Pd          -4.08314   0.57548  -0.46758
C           -5.77827   2.83133  -1.13888
H           -4.15006   7.23458   0.46641
H           -3.99538   5.84937  -1.85628
H           -1.90317   4.12824  -1.66049
C           -1.28740   0.59916   0.00006
O           -3.49116  -3.28166  -1.42660
C           -5.09929   3.19474   0.14158
O           -1.42463   1.86734   0.00012
C           -3.67556   2.87908   1.92698
C           -4.61452   3.88834   2.28413
C           -5.51806   4.06267   1.19070
H           -2.83530   2.54944   2.53585
H           -4.62939   4.44875   3.21769
H           -6.35561   4.75806   1.15275
H           -2.71893   2.12832   0.07065
C           -3.94896   2.42554   0.58814
C           -2.26421  -1.66005  -0.15276
O           -4.34373  -1.22284  -1.34071
C           -2.21183   4.85701  -0.91376
C           -3.31791   5.75456  -1.00902
C           -3.39982   6.48634   0.21673
C           -2.34052   6.04262   1.06588
C           -1.60930   5.03279   0.37023
H           -0.76842   4.46153   0.75551
N           -2.32294  -0.21154  -0.00583
H           -1.32640  -1.94829  -0.65246
H           -5.15177   3.09149  -2.00390
H           -6.75596   3.33173  -1.25988
H           -2.14964   6.38401   2.06183
N           -5.94260   1.37069  -1.15931
C           -6.09183   0.74567  -2.42229
C           -6.73146   0.82342  -0.09937
H           -6.99854   0.09171  -2.50764
H           -6.06887   1.50890  -3.24481
H           -5.21727   0.07756  -2.63453
H           -7.71533   1.34065  -0.07988
H           -6.82284  -0.26391  -0.11778
H           -6.23473   1.12629   0.86882
C           -2.34024  -2.40076   1.17237
C           -2.29005  -3.72126   0.59178
C           -1.05709  -3.99142  -0.25879
H           -2.26735  -1.49165   0.86636
H           -1.62151  -2.23763   1.99660
H           -2.46094  -4.50532   1.33971
H           -3.15650  -3.70158  -0.09007
H           -0.21249  -4.31884   0.34911
H           -1.36675  -4.78305  -0.98100
H           -0.85505  -3.08535  -0.86152
O            0.00000   0.00000   0.00000
C            2.36872   0.00000  -0.00000
C            1.12642   0.84102   0.00000
C            1.00441   1.75909  -1.16378
C            1.12229   1.64378   1.29321
H            2.10051  -0.97094   0.50206
H            2.78672  -0.18178  -0.99856
H            3.15081   0.44913   0.66874
H            1.45006   1.40106  -2.09795
H            1.37178   2.79703  -0.92930
H           -0.09254   1.91007  -1.39223
H            0.27333   1.32712   1.93948
H            2.04218   1.47692   1.89145
H            1.10345   2.72534   1.05436

B 11 18 F
B 18 19 F

--link1--
%oldchk=sp_8_1.chk
%nproc=16
%mem=32GB
# p opt=(ts,readfc,noeigen,nofreeze,notrust,maxcycle=250) freq b3lyp def2svp em=gd3bj geom=(allcheck,PrintInputOrient) guess=tcheck




