%chk=Boc_L_Ala_OH_TS-Sp.chk
%mem=300GB
%nprocshared=96
#p opt=(calcfc,ts,noeigen,maxstep=5) freq b3lyp def2svp em=gd3bj

Title Card Required

0 1
 C                 -2.13834300    0.15720400    1.91321400
 C                 -2.98291100    1.63989700   -0.07423500
 C                 -3.10415300    0.51682900    0.91253000
 C                 -2.55843600   -1.05735000    2.52401500
 C                 -3.80308300   -1.44318600    1.93652900
 C                 -4.15066400   -0.46506500    0.95780500
 H                 -2.02221100   -1.59714000    3.30202200
 H                 -4.38234300   -2.33020900    2.18627200
 H                 -5.03295700   -0.48137700    0.31932100
 H                 -3.97074000    1.86148200   -0.51710800
 N                 -2.01464800    1.40336000   -1.19769400
 H                 -2.62718800    2.54652600    0.43359100
 C                 -0.76981300   -2.45046000   -0.16063400
 C                 -1.98940800   -3.10464300   -0.49945200
 C                 -2.75025300   -2.22135100   -1.32493100
 C                 -1.98180600   -1.02887100   -1.51082300
 C                 -0.71927600   -1.16287900   -0.81948700
 H                  0.03570000   -2.86340500    0.44212800
 H                 -2.29919100   -4.09470600   -0.16925300
 H                 -3.75423900   -2.40348600   -1.70541100
 Fe                -2.35758900   -1.30075600    0.45609400
 H                 -1.22322800    0.70420800    2.12949200
 C                 -2.40913800    0.27641700   -2.09955800
 H                 -3.49570800    0.30563700   -2.29331100
 H                 -1.89366900    0.45104800   -3.05629800
 C                 -1.88285200    2.65991000   -1.96616100
 H                 -1.16003400    2.51628700   -2.77897800
 H                 -2.85802500    2.95676700   -2.39315800
 H                 -1.50598300    3.44543800   -1.30094500
 Pd                -0.09557800    0.88908800   -0.40660600
 O                  0.19346100    2.76667400    0.23372500
 N                  1.77918000    0.67096300    0.22628900
 C                  1.30359600    2.97906800    0.91073400
 C                  2.36559900    1.85420500    0.85268900
 C                  2.42794300   -0.43083400   -0.09438000
 O                  1.53015900    4.00666200    1.51162100
 O                  1.89357200   -1.34591000   -0.79517700
 H                  2.65193100    1.63041700    1.89559600
 H                  0.60098700   -1.01098800   -0.95638700
 H                  3.21853109    2.24353198    0.33710064
 H                  3.51029193   -0.53631079    0.30848416

