%chk=Boc_L_Ala_OH_TS-Rp.chk
%mem=300GB
%nprocshared=68
#p opt=(readfc,ts,noeigen,nofreeze,maxcyc=300) freq b3lyp guess=tcheck
chkbas em=gd3bj

Title Card Required

0 1
 C                  0.67325400   -1.27235500   -0.66913800
 C                  2.33486000   -0.04891000   -2.18524300
 C                  1.92079000   -1.25306700   -1.40082800
 C                  0.73235600   -2.44614100    0.17496900
 C                  1.93847800   -3.15537000   -0.09214700
 C                  2.68537400   -2.41191500   -1.05785100
 H                 -0.06040900   -2.75790300    0.85176800
 H                  2.25061200   -4.08859900    0.37362800
 H                  3.67860500   -2.65996500   -1.42918300
 H                  3.41528900   -0.05540700   -2.41241700
 N                  1.97012600    1.20135500   -1.44607000
 H                  1.79163900   -0.01229700   -3.14181400
 C                  2.61611500   -0.69047000    2.57864100
 C                  3.83695400   -1.17469300    2.01449900
 C                  4.15993400   -0.35450400    0.89274300
 C                  3.12108000    0.62398000    0.73687500
 C                  2.18662700    0.42723900    1.81047400
 H                  2.10151100   -1.10309500    3.44413900
 H                  4.41682400   -2.02326600    2.37281700
 H                  5.01969100   -0.47637100    0.23522600
 H                  1.28371100    1.01094900    1.97552900
 Fe                 2.34525700   -1.23246400    0.57548500
 C                  2.97635600    1.59076000   -0.40143900
 H                  3.95125100    1.73295300   -0.90202700
 H                  2.64549800    2.56731400   -0.02262800
 C                  1.81026400    2.33397600   -2.38285600
 H                  1.44436000    3.20552000   -1.82731200
 H                  2.77111000    2.56968800   -2.87548300
 H                  1.06587400    2.07341700   -3.14550100
 Pd                 0.09059600    0.80946600   -0.50722900
 O                 -0.27527600    2.76557100   -0.20224700
 N                 -1.73037300    0.63043600    0.25356200
 C                 -1.33992300    3.03869600    0.52364200
 C                 -2.27519600    1.84674400    0.84432600
 C                 -2.45553100   -0.40454300   -0.12068900
 O                 -1.59974000    4.14747300    0.93961500
 O                 -1.95963000   -1.37630300   -0.77298700
 H                 -0.63894200   -1.13285200   -0.87235300
 H                 -3.24625900    2.08032300    0.37447400
 H                 -2.42107210    1.76459821    1.90114776
 H                 -3.57502394   -0.38043751    0.18107013

