%chk=1-modopt.chk
#p opt=(modredundant,nomicro) external='./xtb.sh'

Generate automatically by rxnb

0 1
Fe          -3.953000        3.653530        2.010080
C           -2.857090       -0.893280       -2.908350
Pd          -3.855090        1.065550       -1.106690
C           -5.494540        3.440990       -0.819550
H           -4.698580        6.055810        3.321210
H           -3.836040        6.191600        0.756990
H           -1.734300        4.490940        0.495270
C           -1.287400        0.599160        0.000060
O           -2.725730       -1.636810       -3.857960
C           -5.202190        2.973620        0.569250
O           -1.521770        1.658570        0.670740
C           -4.269180        1.603590        2.171370
C           -5.346840        2.314810        2.771890
C           -5.947150        3.140690        1.771930
H           -3.591670        0.924240        2.686050
H           -5.648290        2.259430        3.816810
H           -6.799480        3.804260        1.912170
H           -2.806800        1.939470        0.536300
C           -4.148740        1.996260        0.791420
C           -2.005760       -1.104590       -1.631740
O           -3.734590        0.086140       -2.864660
C           -2.283680        4.702500        1.410380
C           -3.395930        5.586770        1.548370
C           -3.851440        5.515770        2.901920
C           -3.016200        4.590630        3.599470
C           -2.050710        4.084200        2.677650
H           -1.295180        3.329560        2.881510
N           -2.217170        0.015790       -0.724400
H           -0.950400       -1.140270       -1.943550
H           -4.688350        4.087210       -1.194950
H           -6.444520        4.000930       -0.889760
H           -3.118130        4.302850        4.624980
N           -5.529610        2.258150       -1.691640
C           -5.295510        2.456790       -3.075030
C           -6.519420        1.279130       -1.364380
H           -6.093330        2.036850       -3.741530
H           -5.121800        3.543910       -3.293140
H           -4.344900        1.952100       -3.387920
H           -7.513130        1.775250       -1.315940
H           -6.514910        0.397880       -2.008080
H           -6.316680        0.950310       -0.302950
C           -2.362620       -2.448690       -1.018200
C           -3.686070       -2.366330       -0.313120
C           -1.221750       -2.803240       -0.099350
C           -2.437620       -3.510950       -2.089970
H           -3.874080       -1.293310       -0.077310
H           -3.673970       -3.003620        0.576300
H           -4.469980       -2.788630       -0.992340
H           -1.245000       -3.876640        0.196880
H           -0.283580       -2.677640       -0.715400
H           -1.190110       -2.193670        0.817650
H           -2.228770       -3.010450       -3.056850
H           -1.689400       -4.332350       -1.915450
H           -3.446280       -4.016350       -2.099160
O            0.000000        0.000000        0.000000
C            2.368720       -0.000000       -0.000000
C            1.126420        0.841020        0.000000
C            1.004410        1.759090       -1.163780
C            1.122290        1.643780        1.293210
H            2.100510       -0.970940        0.502060
H            2.786720       -0.181780       -0.998560
H            3.150810        0.449130        0.668740
H            1.450060        1.401060       -2.097950
H            1.371780        2.797030       -0.929300
H           -0.092540        1.910070       -1.392230
H            0.273330        1.327120        1.939480
H            2.042180        1.476920        1.891450
H            1.103450        2.725340        1.054360

B 11 18 F
B 18 19 F
B 3 19 F
B 3 33 F
B 3 28 F
B 3 21 F

