%chk=2-modfreq.chk
#p freq external='./xtb.sh'

Generate automatically by rxnb

0 1
Fe          -1.884670        1.196330       -0.082090
C            1.526630       -2.053690       -1.604520
Pd          -0.406540       -1.016550        0.165540
C           -3.223280       -1.196720        0.468240
H           -3.346720        3.199970       -0.927800
H           -4.024590        0.757230       -1.603630
H           -1.780490       -0.594900       -2.223550
C            1.549250        0.982180        0.047820
O            2.090240       -2.630940       -2.518900
C           -2.706680        0.011240        1.150520
O            0.529310        1.662600        0.414870
C           -1.407850        1.723010        1.796400
C           -2.618850        2.253370        1.385530
C           -3.455700        1.187920        1.026150
H           -0.584860        2.349060        2.055530
H           -2.823710        3.292730        1.283520
H           -4.428720        1.270880        0.601730
H           -0.526300        0.900290        0.644750
C           -1.343770        0.298820        1.560760
C            2.354860       -1.240970       -0.558700
O            0.265390       -2.053150       -1.427630
C           -1.850240        0.417090       -1.882680
C           -3.030280        1.139810       -1.624100
C           -2.679140        2.456750       -1.291440
C           -1.283120        2.548620       -1.331510
C           -0.773850        1.308530       -1.744100
H            0.249090        1.077750       -1.937650
N            1.432180       -0.292680        0.004120
H            3.180150       -0.727960       -1.068980
H           -3.502970       -0.848310       -0.526340
H           -4.114010       -1.612630        0.967610
H           -0.728010        3.369870       -0.953180
N           -2.178460       -2.199570        0.336600
C           -2.456500       -3.121850       -0.752320
C           -2.014140       -2.940530        1.582560
H           -3.351070       -3.724690       -0.543340
H           -2.614480       -2.569720       -1.676830
H           -1.605620       -3.784340       -0.901560
H           -2.914790       -3.531650        1.807860
H           -1.165680       -3.622040        1.500780
H           -1.842990       -2.242820        2.403000
C            2.940320       -2.170070        0.537650
C            1.826440       -3.015770        1.169540
C            3.589010       -1.304880        1.623760
C            3.992700       -3.080290       -0.095820
H            1.069260       -2.355480        1.631600
H            2.242170       -3.657200        1.946100
H            1.362500       -3.650960        0.411240
H            4.057540       -1.934810        2.377720
H            4.350020       -0.659380        1.190200
H            2.842460       -0.676580        2.108570
H            3.578160       -3.600690       -0.955300
H            4.843270       -2.495000       -0.438460
H            4.346160       -3.813280        0.627330
O            2.705970        1.560540       -0.308150
C            4.365200        3.203990       -0.489400
C            2.975060        2.922460        0.081490
C            1.947020        3.889500       -0.506090
C            2.986600        3.015390        1.608260
H            5.075130        2.472290       -0.113530
H            4.341780        3.134070       -1.573380
H            4.693420        4.198460       -0.202120
H            1.814770        3.691970       -1.567010
H            2.293140        4.911160       -0.375610
H            0.994300        3.755290        0.000130
H            3.729270        2.335480        2.019460
H            3.224140        4.029350        1.917170
H            2.009040        2.743390        1.998840


