 Entering Gaussian System, Link 0=g16
 Input=2-modfreq.gjf
 Output=2-modfreq.log
 Initial command:
 /home/echo/g16/l1.exe "/home/echo/scratch/Gau-7002.inp" -scrdir="/home/echo/scratch/"
 Entering Link 1 = /home/echo/g16/l1.exe PID=      7004.
  
 Copyright (c) 1988-2019, Gaussian, Inc.  All Rights Reserved.
  
 This is part of the Gaussian(R) 16 program.  It is based on
 the Gaussian(R) 09 system (copyright 2009, Gaussian, Inc.),
 the Gaussian(R) 03 system (copyright 2003, Gaussian, Inc.),
 the Gaussian(R) 98 system (copyright 1998, Gaussian, Inc.),
 the Gaussian(R) 94 system (copyright 1995, Gaussian, Inc.),
 the Gaussian 92(TM) system (copyright 1992, Gaussian, Inc.),
 the Gaussian 90(TM) system (copyright 1990, Gaussian, Inc.),
 the Gaussian 88(TM) system (copyright 1988, Gaussian, Inc.),
 the Gaussian 86(TM) system (copyright 1986, Carnegie Mellon
 University), and the Gaussian 82(TM) system (copyright 1983,
 Carnegie Mellon University). Gaussian is a federally registered
 trademark of Gaussian, Inc.
  
 This software contains proprietary and confidential information,
 including trade secrets, belonging to Gaussian, Inc.
  
 This software is provided under written license and may be
 used, copied, transmitted, or stored only in accord with that
 written license.
  
 The following legend is applicable only to US Government
 contracts under FAR:
  
                    RESTRICTED RIGHTS LEGEND
  
 Use, reproduction and disclosure by the US Government is
 subject to restrictions as set forth in subparagraphs (a)
 and (c) of the Commercial Computer Software - Restricted
 Rights clause in FAR 52.227-19.
  
 Gaussian, Inc.
 340 Quinnipiac St., Bldg. 40, Wallingford CT 06492
  
  
 ---------------------------------------------------------------
 Warning -- This program may not be used in any manner that
 competes with the business of Gaussian, Inc. or will provide
 assistance to any competitor of Gaussian, Inc.  The licensee
 of this program is prohibited from giving any competitor of
 Gaussian, Inc. access to this program.  By using this program,
 the user acknowledges that Gaussian, Inc. is engaged in the
 business of creating and licensing software in the field of
 computational chemistry and represents and warrants to the
 licensee that it is not a competitor of Gaussian, Inc. and that
 it will not use this program in any manner prohibited above.
 ---------------------------------------------------------------
  

 Cite this work as:
 Gaussian 16, Revision C.01,
 M. J. Frisch, G. W. Trucks, H. B. Schlegel, G. E. Scuseria, 
 M. A. Robb, J. R. Cheeseman, G. Scalmani, V. Barone, 
 G. A. Petersson, H. Nakatsuji, X. Li, M. Caricato, A. V. Marenich, 
 J. Bloino, B. G. Janesko, R. Gomperts, B. Mennucci, H. P. Hratchian, 
 J. V. Ortiz, A. F. Izmaylov, J. L. Sonnenberg, D. Williams-Young, 
 F. Ding, F. Lipparini, F. Egidi, J. Goings, B. Peng, A. Petrone, 
 T. Henderson, D. Ranasinghe, V. G. Zakrzewski, J. Gao, N. Rega, 
 G. Zheng, W. Liang, M. Hada, M. Ehara, K. Toyota, R. Fukuda, 
 J. Hasegawa, M. Ishida, T. Nakajima, Y. Honda, O. Kitao, H. Nakai, 
 T. Vreven, K. Throssell, J. A. Montgomery, Jr., J. E. Peralta, 
 F. Ogliaro, M. J. Bearpark, J. J. Heyd, E. N. Brothers, K. N. Kudin, 
 V. N. Staroverov, T. A. Keith, R. Kobayashi, J. Normand, 
 K. Raghavachari, A. P. Rendell, J. C. Burant, S. S. Iyengar, 
 J. Tomasi, M. Cossi, J. M. Millam, M. Klene, C. Adamo, R. Cammi, 
 J. W. Ochterski, R. L. Martin, K. Morokuma, O. Farkas, 
 J. B. Foresman, and D. J. Fox, Gaussian, Inc., Wallingford CT, 2019.
 
 ******************************************
 Gaussian 16:  ES64L-G16RevC.01  3-Jul-2019
                15-Oct-2024 
 ******************************************
 %chk=2-modfreq.chk
 ---------------------------
 #p freq external='./xtb.sh'
 ---------------------------
 1/10=4,18=10,30=1,38=1/1,3;
 2/12=2,17=6,18=5,40=1/2;
 3/11=9,25=1,30=1,41=9900000,43=2,71=2,140=1/1;
 4/20=17,22=2,24=3,113=1,114=1/2;
 6/7=2,8=2,9=2,10=2/1;
 7/8=1,25=1,44=-1/16;
 1/10=4,18=10,30=1/3;
 99//99;
 Leave Link    1 at Tue Oct 15 00:13:25 2024, MaxMem=           0 cpu:               0.0 elap:               0.1
 (Enter /home/echo/g16/l101.exe)
 ------------------------------
 Generate automatically by rxnb
 ------------------------------
 Symbolic Z-matrix:
 Charge =  0 Multiplicity = 1
 Fe                   -1.88467   1.19633  -0.08209 
 C                     1.52663  -2.05369  -1.60452 
 Pd                   -0.40654  -1.01655   0.16554 
 C                    -3.22328  -1.19672   0.46824 
 H                    -3.34672   3.19997  -0.9278 
 H                    -4.02459   0.75723  -1.60363 
 H                    -1.78049  -0.5949   -2.22355 
 C                     1.54925   0.98218   0.04782 
 O                     2.09024  -2.63094  -2.5189 
 C                    -2.70668   0.01124   1.15052 
 O                     0.52931   1.6626    0.41487 
 C                    -1.40785   1.72301   1.7964 
 C                    -2.61885   2.25337   1.38553 
 C                    -3.4557    1.18792   1.02615 
 H                    -0.58486   2.34906   2.05553 
 H                    -2.82371   3.29273   1.28352 
 H                    -4.42872   1.27088   0.60173 
 H                    -0.5263    0.90029   0.64475 
 C                    -1.34377   0.29882   1.56076 
 C                     2.35486  -1.24097  -0.5587 
 O                     0.26539  -2.05315  -1.42763 
 C                    -1.85024   0.41709  -1.88268 
 C                    -3.03028   1.13981  -1.6241 
 C                    -2.67914   2.45675  -1.29144 
 C                    -1.28312   2.54862  -1.33151 
 C                    -0.77385   1.30853  -1.7441 
 H                     0.24909   1.07775  -1.93765 
 N                     1.43218  -0.29268   0.00412 
 H                     3.18015  -0.72796  -1.06898 
 H                    -3.50297  -0.84831  -0.52634 
 H                    -4.11401  -1.61263   0.96761 
 H                    -0.72801   3.36987  -0.95318 
 N                    -2.17846  -2.19957   0.3366 
 C                    -2.4565   -3.12185  -0.75232 
 C                    -2.01414  -2.94053   1.58256 
 H                    -3.35107  -3.72469  -0.54334 
 H                    -2.61448  -2.56972  -1.67683 
 H                    -1.60562  -3.78434  -0.90156 
 H                    -2.91479  -3.53165   1.80786 
 H                    -1.16568  -3.62204   1.50078 
 H                    -1.84299  -2.24282   2.403 
 C                     2.94032  -2.17007   0.53765 
 C                     1.82644  -3.01577   1.16954 
 C                     3.58901  -1.30488   1.62376 
 C                     3.9927   -3.08029  -0.09582 
 H                     1.06926  -2.35548   1.6316 
 H                     2.24217  -3.6572    1.9461 
 H                     1.3625   -3.65096   0.41124 
 H                     4.05754  -1.93481   2.37772 
 H                     4.35002  -0.65938   1.1902 
 H                     2.84246  -0.67658   2.10857 
 H                     3.57816  -3.60069  -0.9553 
 H                     4.84327  -2.495    -0.43846 
 H                     4.34616  -3.81328   0.62733 
 O                     2.70597   1.56054  -0.30815 
 C                     4.3652    3.20399  -0.4894 
 C                     2.97506   2.92246   0.08149 
 C                     1.94702   3.8895   -0.50609 
 C                     2.9866    3.01539   1.60826 
 H                     5.07513   2.47229  -0.11353 
 H                     4.34178   3.13407  -1.57338 
 H                     4.69342   4.19846  -0.20212 
 H                     1.81477   3.69197  -1.56701 
 H                     2.29314   4.91116  -0.37561 
 H                     0.9943    3.75529   0.00013 
 H                     3.72927   2.33548   2.01946 
 H                     3.22414   4.02935   1.91717 
 H                     2.00904   2.74339   1.99884 
 
 ITRead=  0  0  0  0  0  0  0  0  0  0  0  0  0  0  0  0  0  0  0  0
 ITRead=  0  0  0  0  0  0  0  0  0  0  0  0  0  0  0  0  0  0  0  0
 ITRead=  0  0  0  0  0  0  0  0  0  0  0  0  0  0  0  0  0  0  0  0
 ITRead=  0  0  0  0  0  0  0  0
 MicOpt= -1 -1 -1 -1 -1 -1 -1 -1 -1 -1 -1 -1 -1 -1 -1 -1 -1 -1 -1 -1
 MicOpt= -1 -1 -1 -1 -1 -1 -1 -1 -1 -1 -1 -1 -1 -1 -1 -1 -1 -1 -1 -1
 MicOpt= -1 -1 -1 -1 -1 -1 -1 -1 -1 -1 -1 -1 -1 -1 -1 -1 -1 -1 -1 -1
 MicOpt= -1 -1 -1 -1 -1 -1 -1 -1
 NAtoms=     68 NQM=       68 NQMF=       0 NMMI=      0 NMMIF=      0
                NMic=       0 NMicF=      0.
                    Isotopes and Nuclear Properties:
 (Nuclear quadrupole moments (NQMom) in fm**2, nuclear magnetic moments (NMagM)
  in nuclear magnetons)

  Atom         1           2           3           4           5           6           7           8           9          10
 IAtWgt=          56          12         106          12           1           1           1          12          16          12
 AtmWgt=  55.9349393  12.0000000 105.9032000  12.0000000   1.0078250   1.0078250   1.0078250  12.0000000  15.9949146  12.0000000
 NucSpn=           0           0           0           0           1           1           1           0           0           0
 AtZEff=  -0.0000000  -0.0000000  -0.0000000  -0.0000000  -0.0000000  -0.0000000  -0.0000000  -0.0000000  -0.0000000  -0.0000000
 NQMom=    0.0000000   0.0000000   0.0000000   0.0000000   0.0000000   0.0000000   0.0000000   0.0000000   0.0000000   0.0000000
 NMagM=    0.0000000   0.0000000   0.0000000   0.0000000   2.7928460   2.7928460   2.7928460   0.0000000   0.0000000   0.0000000
 AtZNuc=  26.0000000   6.0000000  46.0000000   6.0000000   1.0000000   1.0000000   1.0000000   6.0000000   8.0000000   6.0000000

  Atom        11          12          13          14          15          16          17          18          19          20
 IAtWgt=          16          12          12          12           1           1           1           1          12          12
 AtmWgt=  15.9949146  12.0000000  12.0000000  12.0000000   1.0078250   1.0078250   1.0078250   1.0078250  12.0000000  12.0000000
 NucSpn=           0           0           0           0           1           1           1           1           0           0
 AtZEff=  -0.0000000  -0.0000000  -0.0000000  -0.0000000  -0.0000000  -0.0000000  -0.0000000  -0.0000000  -0.0000000  -0.0000000
 NQMom=    0.0000000   0.0000000   0.0000000   0.0000000   0.0000000   0.0000000   0.0000000   0.0000000   0.0000000   0.0000000
 NMagM=    0.0000000   0.0000000   0.0000000   0.0000000   2.7928460   2.7928460   2.7928460   2.7928460   0.0000000   0.0000000
 AtZNuc=   8.0000000   6.0000000   6.0000000   6.0000000   1.0000000   1.0000000   1.0000000   1.0000000   6.0000000   6.0000000

  Atom        21          22          23          24          25          26          27          28          29          30
 IAtWgt=          16          12          12          12          12          12           1          14           1           1
 AtmWgt=  15.9949146  12.0000000  12.0000000  12.0000000  12.0000000  12.0000000   1.0078250  14.0030740   1.0078250   1.0078250
 NucSpn=           0           0           0           0           0           0           1           2           1           1
 AtZEff=  -0.0000000  -0.0000000  -0.0000000  -0.0000000  -0.0000000  -0.0000000  -0.0000000  -0.0000000  -0.0000000  -0.0000000
 NQMom=    0.0000000   0.0000000   0.0000000   0.0000000   0.0000000   0.0000000   0.0000000   2.0440000   0.0000000   0.0000000
 NMagM=    0.0000000   0.0000000   0.0000000   0.0000000   0.0000000   0.0000000   2.7928460   0.4037610   2.7928460   2.7928460
 AtZNuc=   8.0000000   6.0000000   6.0000000   6.0000000   6.0000000   6.0000000   1.0000000   7.0000000   1.0000000   1.0000000

  Atom        31          32          33          34          35          36          37          38          39          40
 IAtWgt=           1           1          14          12          12           1           1           1           1           1
 AtmWgt=   1.0078250   1.0078250  14.0030740  12.0000000  12.0000000   1.0078250   1.0078250   1.0078250   1.0078250   1.0078250
 NucSpn=           1           1           2           0           0           1           1           1           1           1
 AtZEff=  -0.0000000  -0.0000000  -0.0000000  -0.0000000  -0.0000000  -0.0000000  -0.0000000  -0.0000000  -0.0000000  -0.0000000
 NQMom=    0.0000000   0.0000000   2.0440000   0.0000000   0.0000000   0.0000000   0.0000000   0.0000000   0.0000000   0.0000000
 NMagM=    2.7928460   2.7928460   0.4037610   0.0000000   0.0000000   2.7928460   2.7928460   2.7928460   2.7928460   2.7928460
 AtZNuc=   1.0000000   1.0000000   7.0000000   6.0000000   6.0000000   1.0000000   1.0000000   1.0000000   1.0000000   1.0000000

  Atom        41          42          43          44          45          46          47          48          49          50
 IAtWgt=           1          12          12          12          12           1           1           1           1           1
 AtmWgt=   1.0078250  12.0000000  12.0000000  12.0000000  12.0000000   1.0078250   1.0078250   1.0078250   1.0078250   1.0078250
 NucSpn=           1           0           0           0           0           1           1           1           1           1
 AtZEff=  -0.0000000  -0.0000000  -0.0000000  -0.0000000  -0.0000000  -0.0000000  -0.0000000  -0.0000000  -0.0000000  -0.0000000
 NQMom=    0.0000000   0.0000000   0.0000000   0.0000000   0.0000000   0.0000000   0.0000000   0.0000000   0.0000000   0.0000000
 NMagM=    2.7928460   0.0000000   0.0000000   0.0000000   0.0000000   2.7928460   2.7928460   2.7928460   2.7928460   2.7928460
 AtZNuc=   1.0000000   6.0000000   6.0000000   6.0000000   6.0000000   1.0000000   1.0000000   1.0000000   1.0000000   1.0000000

  Atom        51          52          53          54          55          56          57          58          59          60
 IAtWgt=           1           1           1           1          16          12          12          12          12           1
 AtmWgt=   1.0078250   1.0078250   1.0078250   1.0078250  15.9949146  12.0000000  12.0000000  12.0000000  12.0000000   1.0078250
 NucSpn=           1           1           1           1           0           0           0           0           0           1
 AtZEff=  -0.0000000  -0.0000000  -0.0000000  -0.0000000  -0.0000000  -0.0000000  -0.0000000  -0.0000000  -0.0000000  -0.0000000
 NQMom=    0.0000000   0.0000000   0.0000000   0.0000000   0.0000000   0.0000000   0.0000000   0.0000000   0.0000000   0.0000000
 NMagM=    2.7928460   2.7928460   2.7928460   2.7928460   0.0000000   0.0000000   0.0000000   0.0000000   0.0000000   2.7928460
 AtZNuc=   1.0000000   1.0000000   1.0000000   1.0000000   8.0000000   6.0000000   6.0000000   6.0000000   6.0000000   1.0000000

  Atom        61          62          63          64          65          66          67          68
 IAtWgt=           1           1           1           1           1           1           1           1
 AtmWgt=   1.0078250   1.0078250   1.0078250   1.0078250   1.0078250   1.0078250   1.0078250   1.0078250
 NucSpn=           1           1           1           1           1           1           1           1
 AtZEff=  -0.0000000  -0.0000000  -0.0000000  -0.0000000  -0.0000000  -0.0000000  -0.0000000  -0.0000000
 NQMom=    0.0000000   0.0000000   0.0000000   0.0000000   0.0000000   0.0000000   0.0000000   0.0000000
 NMagM=    2.7928460   2.7928460   2.7928460   2.7928460   2.7928460   2.7928460   2.7928460   2.7928460
 AtZNuc=   1.0000000   1.0000000   1.0000000   1.0000000   1.0000000   1.0000000   1.0000000   1.0000000
 Leave Link  101 at Tue Oct 15 00:13:25 2024, MaxMem=   104857600 cpu:               0.0 elap:               0.1
 (Enter /home/echo/g16/l103.exe)

 GradGradGradGradGradGradGradGradGradGradGradGradGradGradGradGradGradGrad
 Berny optimization.
 Initialization pass.
 Trust Radius=3.00D-01 FncErr=1.00D-07 GrdErr=1.00D-07 EigMax=2.50D+02 EigMin=1.00D-04
 Number of steps in this run=      2 maximum allowed number of steps=      2.
 GradGradGradGradGradGradGradGradGradGradGradGradGradGradGradGradGradGrad

 Leave Link  103 at Tue Oct 15 00:13:25 2024, MaxMem=   104857600 cpu:               0.0 elap:               0.0
 (Enter /home/echo/g16/l202.exe)
 Stoichiometry    C24H36FeN2O4Pd
 Framework group  C1[X(C24H36FeN2O4Pd)]
 Deg. of freedom   198
 Full point group                 C1      NOp   1
 Largest Abelian subgroup         C1      NOp   1
 Largest concise Abelian subgroup C1      NOp   1
                         Standard orientation:                         
 ---------------------------------------------------------------------
 Center     Atomic      Atomic             Coordinates (Angstroms)
 Number     Number       Type             X           Y           Z
 ---------------------------------------------------------------------
      1         26           0        1.884671    1.196327    0.082090
      2          6           0       -1.526633   -2.053689    1.604520
      3         46           0        0.406539   -1.016551   -0.165540
      4          6           0        3.223278   -1.196725   -0.468240
      5          1           0        3.346724    3.199965    0.927800
      6          1           0        4.024591    0.757224    1.603630
      7          1           0        1.780489   -0.594903    2.223550
      8          6           0       -1.549249    0.982181   -0.047820
      9          8           0       -2.090243   -2.630938    2.518900
     10          6           0        2.706680    0.011236   -1.150520
     11          8           0       -0.529308    1.662600   -0.414870
     12          6           0        1.407852    1.723008   -1.796400
     13          6           0        2.618853    2.253366   -1.385530
     14          6           0        3.455701    1.187915   -1.026150
     15          1           0        0.584863    2.349059   -2.055530
     16          1           0        2.823714    3.292726   -1.283520
     17          1           0        4.428721    1.270874   -0.601730
     18          1           0        0.526301    0.900289   -0.644750
     19          6           0        1.343770    0.298818   -1.560760
     20          6           0       -2.354862   -1.240968    0.558700
     21          8           0       -0.265393   -2.053150    1.427630
     22          6           0        1.850240    0.417087    1.882680
     23          6           0        3.030281    1.139805    1.624100
     24          6           0        2.679143    2.456746    1.291440
     25          6           0        1.283123    2.548618    1.331510
     26          6           0        0.773852    1.308528    1.744100
     27          1           0       -0.249089    1.077750    1.937650
     28          7           0       -1.432181   -0.292679   -0.004120
     29          1           0       -3.180151   -0.727957    1.068980
     30          1           0        3.502969   -0.848315    0.526340
     31          1           0        4.114008   -1.612636   -0.967610
     32          1           0        0.728014    3.369868    0.953180
     33          7           0        2.178457   -2.199573   -0.336600
     34          6           0        2.456496   -3.121854    0.752320
     35          6           0        2.014136   -2.940533   -1.582560
     36          1           0        3.351065   -3.724695    0.543340
     37          1           0        2.614477   -2.569724    1.676830
     38          1           0        1.605615   -3.784343    0.901560
     39          1           0        2.914785   -3.531654   -1.807860
     40          1           0        1.165675   -3.622042   -1.500780
     41          1           0        1.842987   -2.242823   -2.403000
     42          6           0       -2.940323   -2.170067   -0.537650
     43          6           0       -1.826444   -3.015768   -1.169540
     44          6           0       -3.589012   -1.304876   -1.623760
     45          6           0       -3.992704   -3.080286    0.095820
     46          1           0       -1.069263   -2.355479   -1.631600
     47          1           0       -2.242175   -3.657198   -1.946100
     48          1           0       -1.362505   -3.650959   -0.411240
     49          1           0       -4.057543   -1.934805   -2.377720
     50          1           0       -4.350021   -0.659375   -1.190200
     51          1           0       -2.842461   -0.676577   -2.108570
     52          1           0       -3.578165   -3.600686    0.955300
     53          1           0       -4.843273   -2.494994    0.438460
     54          1           0       -4.346165   -3.813275   -0.627330
     55          8           0       -2.705968    1.560543    0.308150
     56          6           0       -4.365196    3.203995    0.489400
     57          6           0       -2.975056    2.922463   -0.081490
     58          6           0       -1.947015    3.889502    0.506090
     59          6           0       -2.986596    3.015393   -1.608260
     60          1           0       -5.075127    2.472296    0.113530
     61          1           0       -4.341776    3.134075    1.573380
     62          1           0       -4.693415    4.198465    0.202120
     63          1           0       -1.814765    3.691972    1.567010
     64          1           0       -2.293134    4.911162    0.375610
     65          1           0       -0.994295    3.755291   -0.000130
     66          1           0       -3.729267    2.335484   -2.019460
     67          1           0       -3.224135    4.029353   -1.917170
     68          1           0       -2.009037    2.743392   -1.998840
 ---------------------------------------------------------------------
 Rotational constants (GHZ):           0.1740156           0.1454919           0.0995785
 Leave Link  202 at Tue Oct 15 00:13:25 2024, MaxMem=   104857600 cpu:               0.0 elap:               0.0
 (Enter /home/echo/g16/l301.exe)
 Standard basis: STO-3G (5D, 7F)
 Ernie: Thresh=  0.10000D-02 Tol=  0.10000D-05 Strict=F.
 There are   234 symmetry adapted cartesian basis functions of A   symmetry.
 There are   231 symmetry adapted basis functions of A   symmetry.
   231 basis functions,   702 primitive gaussians,   234 cartesian basis functions
   149 alpha electrons      149 beta electrons
       nuclear repulsion energy      6190.1535554207 Hartrees.
 IExCor=    0 DFT=F Ex=HF Corr=None ExCW=0 ScaHFX=  1.000000
 ScaDFX=  1.000000  1.000000  1.000000  1.000000 ScalE2=  1.000000  1.000000
 IRadAn=      5 IRanWt=     -1 IRanGd=            0 ICorTp=0 IEmpDi=  4
 NAtoms=   68 NActive=   68 NUniq=   68 SFac= 1.00D+00 NAtFMM=   60 NAOKFM=T Big=T
 Integral buffers will be    131072 words long.
 Raffenetti 1 integral format.
 Two-electron integral symmetry is turned on.
 Leave Link  301 at Tue Oct 15 00:13:25 2024, MaxMem=   104857600 cpu:               0.0 elap:               0.0
 (Enter /home/echo/g16/l402.exe)
 External calculation of energy, first and second derivatives.
 Running external command "./xtb.sh R"
         input file       "/home/echo/scratch/Gau-7004.EIn"
         output file      "/home/echo/scratch/Gau-7004.EOu"
         message file     "/home/echo/scratch/Gau-7004.EMs"
         fchk file        "/home/echo/scratch/Gau-7004.EFC"
         mat. el file     "/home/echo/scratch/Gau-7004.EUF"
Generating mol.tmp
Generating mol.xyz via genxyz
Running: xtb mol.xyz --chrg 0 --uhf 0 --gfn2 --hess --grad > xtbout
xtb running finished!
Extracting data from xtb outputs via extderi
 Recovered energy= -99.7250687168     dipole=      0.000000000000      0.000000000000      0.000000000000
 Energy=    -99.7250687     NIter=   0.
 Dipole moment=       0.000000       0.000000       0.000000
 Leave Link  402 at Tue Oct 15 00:13:33 2024, MaxMem=   104857600 cpu:               0.0 elap:               7.2
 (Enter /home/echo/g16/l601.exe)
 Leave Link  601 at Tue Oct 15 00:13:33 2024, MaxMem=   104857600 cpu:               0.0 elap:               0.0
 (Enter /home/echo/g16/l716.exe)
 Dipole        = 0.00000000D+00 0.00000000D+00 0.00000000D+00
 Full mass-weighted force constant matrix:
 Low frequencies --- -864.2110   -0.0226   -0.0194   -0.0130   -0.0038    0.0136
 Low frequencies ---    0.0255   32.8901   36.2592
 ******    1 imaginary frequencies (negative Signs) ****** 
 Diagonal vibrational polarizability:
        0.0000000       0.0000000       0.0000000
 Harmonic frequencies (cm**-1), IR intensities (KM/Mole), Raman scattering
 activities (A**4/AMU), depolarization ratios for plane and unpolarized
 incident light, reduced masses (AMU), force constants (mDyne/A),
 and normal coordinates:
                      1                      2                      3
                      A                      A                      A
 Frequencies --   -864.2110                32.8901                36.2592
 Red. masses --      1.0781                 4.3902                 4.0876
 Frc consts  --      0.4744                 0.0028                 0.0032
 IR Inten    --      0.0000                 0.0000                 0.0000
  Atom  AN      X      Y      Z        X      Y      Z        X      Y      Z
     1  26     0.00   0.00  -0.00     0.02   0.00  -0.04    -0.01  -0.00  -0.01
     2   6     0.01  -0.00   0.00    -0.05  -0.04  -0.04    -0.03   0.08  -0.01
     3  46     0.00  -0.00  -0.00    -0.01   0.01   0.04    -0.01  -0.00  -0.03
     4   6    -0.00   0.00  -0.00     0.01   0.00  -0.02     0.00  -0.01   0.06
     5   1    -0.00   0.00   0.00     0.05   0.02  -0.12     0.00  -0.01   0.00
     6   1     0.00   0.00   0.01     0.07   0.03  -0.09    -0.06  -0.01   0.05
     7   1     0.00   0.00   0.00     0.08   0.04   0.00    -0.10   0.03   0.01
     8   6    -0.03  -0.04   0.01    -0.00   0.00   0.03     0.00  -0.00  -0.05
     9   8    -0.01   0.00  -0.00    -0.08  -0.10  -0.09    -0.04   0.15   0.03
    10   6    -0.00  -0.00  -0.01    -0.02  -0.02  -0.04     0.02  -0.02   0.03
    11   8     0.02   0.01  -0.02    -0.00   0.01   0.06    -0.00  -0.00  -0.08
    12   6    -0.01  -0.03   0.00    -0.05  -0.04  -0.03     0.04  -0.02  -0.03
    13   6    -0.00  -0.01   0.01    -0.04  -0.03  -0.09     0.03  -0.02  -0.00
    14   6     0.00   0.00   0.00    -0.02  -0.02  -0.09     0.02  -0.02   0.03
    15   1     0.04   0.00  -0.09    -0.06  -0.05  -0.02     0.04  -0.03  -0.05
    16   1    -0.01  -0.00  -0.00    -0.04  -0.03  -0.11     0.03  -0.02  -0.01
    17   1    -0.00   0.01   0.01    -0.01  -0.00  -0.13     0.01  -0.01   0.06
    18   1    -0.44   0.86   0.20     0.01  -0.00   0.02     0.02  -0.02  -0.05
    19   6     0.00  -0.02   0.02    -0.04  -0.04   0.00     0.03  -0.02  -0.01
    20   6    -0.00   0.00  -0.00    -0.02  -0.01  -0.04    -0.01   0.01  -0.07
    21   8    -0.00  -0.00   0.01    -0.04   0.01   0.03    -0.03   0.06   0.00
    22   6    -0.00  -0.00  -0.00     0.07   0.04  -0.02    -0.07   0.02  -0.00
    23   6     0.00   0.00   0.00     0.07   0.03  -0.07    -0.05   0.00   0.02
    24   6     0.00   0.00   0.00     0.06   0.02  -0.09    -0.02   0.00  -0.01
    25   6     0.00  -0.00  -0.00     0.06   0.03  -0.04    -0.02   0.03  -0.05
    26   6    -0.00  -0.01   0.00     0.07   0.04  -0.01    -0.05   0.04  -0.04
    27   1     0.00  -0.00   0.04     0.08   0.04   0.02    -0.06   0.06  -0.06
    28   7     0.00   0.00  -0.00    -0.00   0.00   0.00    -0.02  -0.00  -0.09
    29   1    -0.00  -0.00  -0.00    -0.03  -0.02  -0.05    -0.04   0.02  -0.12
    30   1     0.00  -0.00  -0.00     0.07   0.04  -0.06    -0.03  -0.00   0.06
    31   1    -0.00  -0.00  -0.00    -0.03  -0.03  -0.06     0.02  -0.01   0.09
    32   1     0.02   0.02   0.02     0.05   0.02  -0.05     0.01   0.03  -0.08
    33   7    -0.00   0.00  -0.00     0.01   0.01   0.09     0.00  -0.01   0.03
    34   6    -0.00   0.00  -0.00     0.05   0.09   0.14    -0.03  -0.00   0.05
    35   6    -0.00   0.00   0.00    -0.04  -0.08   0.15     0.05  -0.03   0.03
    36   1    -0.00   0.00  -0.00     0.01   0.04   0.13    -0.02   0.01   0.09
    37   1    -0.00   0.00  -0.00     0.14   0.15   0.09    -0.08   0.01   0.05
    38   1    -0.00  -0.00  -0.00     0.04   0.13   0.25    -0.03  -0.01   0.02
    39   1     0.00   0.00   0.00    -0.04  -0.08   0.15     0.06  -0.02   0.07
    40   1    -0.00   0.00  -0.00    -0.03  -0.08   0.24     0.05  -0.03   0.01
    41   1     0.00   0.00   0.00    -0.08  -0.14   0.11     0.07  -0.03   0.02
    42   6     0.00   0.00  -0.00     0.01   0.01  -0.08     0.03  -0.06  -0.04
    43   6     0.00   0.00   0.00     0.02  -0.01  -0.03     0.07  -0.05   0.01
    44   6    -0.00   0.00  -0.00     0.09   0.04  -0.11     0.03  -0.12  -0.09
    45   6     0.00   0.00   0.00    -0.04   0.03  -0.14     0.05  -0.06  -0.02
    46   1     0.00  -0.00   0.00     0.06  -0.02   0.01     0.04  -0.05  -0.02
    47   1    -0.00   0.00   0.00     0.05   0.01  -0.06     0.09  -0.11   0.05
    48   1     0.00  -0.00  -0.00    -0.03  -0.02  -0.02     0.09   0.00   0.05
    49   1    -0.00  -0.00   0.00     0.10   0.05  -0.13     0.08  -0.17  -0.08
    50   1    -0.00   0.00  -0.00     0.09   0.06  -0.14    -0.01  -0.14  -0.13
    51   1    -0.00  -0.00  -0.01     0.13   0.02  -0.07     0.01  -0.11  -0.08
    52   1     0.00   0.00   0.00    -0.09   0.02  -0.12     0.05  -0.02   0.00
    53   1    -0.00   0.00   0.00    -0.05   0.04  -0.19     0.03  -0.07  -0.05
    54   1     0.00   0.00  -0.00    -0.01   0.04  -0.16     0.08  -0.10   0.00
    55   8     0.01   0.00   0.00    -0.02  -0.02   0.02     0.03   0.00   0.02
    56   6     0.00  -0.00   0.00    -0.04  -0.05   0.04     0.07   0.02   0.24
    57   6     0.00   0.01  -0.00    -0.02  -0.01   0.07     0.02   0.02   0.10
    58   6    -0.00   0.00   0.00    -0.05  -0.02   0.13     0.08  -0.01   0.04
    59   6    -0.00  -0.00  -0.00     0.02   0.06   0.07    -0.12   0.07   0.10
    60   1     0.00  -0.00   0.00    -0.02  -0.04  -0.02     0.03   0.04   0.28
    61   1     0.00  -0.00   0.00    -0.07  -0.09   0.03     0.18  -0.01   0.23
    62   1    -0.00  -0.00   0.00    -0.04  -0.04   0.07     0.06   0.03   0.30
    63   1     0.00  -0.00  -0.00    -0.07  -0.06   0.13     0.19  -0.06   0.02
    64   1    -0.00  -0.00   0.01    -0.05  -0.02   0.17     0.07  -0.01   0.12
    65   1     0.00   0.03  -0.00    -0.03   0.01   0.15     0.03   0.00  -0.07
    66   1    -0.00   0.00   0.00     0.04   0.06   0.02    -0.17   0.10   0.15
    67   1    -0.00  -0.00   0.00     0.02   0.07   0.10    -0.12   0.09   0.16
    68   1    -0.00   0.01  -0.01     0.04   0.09   0.09    -0.16   0.06   0.01
                      4                      5                      6
                      A                      A                      A
 Frequencies --     42.5505                54.0705                57.8120
 Red. masses --      3.3514                 3.3264                 3.3049
 Frc consts  --      0.0036                 0.0057                 0.0065
 IR Inten    --      0.0000                 0.0000                 0.0000
  Atom  AN      X      Y      Z        X      Y      Z        X      Y      Z
     1  26     0.01  -0.01   0.00    -0.01   0.01  -0.01     0.00  -0.01   0.01
     2   6     0.00   0.06   0.03     0.03  -0.03  -0.01    -0.02   0.03   0.01
     3  46    -0.01   0.00  -0.01     0.02  -0.01  -0.01    -0.02   0.01  -0.01
     4   6    -0.01  -0.01  -0.02     0.01  -0.01   0.05    -0.01   0.02  -0.05
     5   1     0.04  -0.03   0.01     0.00   0.00   0.00    -0.03   0.01   0.02
     6   1     0.00  -0.05  -0.00    -0.05   0.00   0.05     0.04   0.01  -0.05
     7   1    -0.02  -0.02  -0.01    -0.08   0.05   0.02     0.09  -0.06  -0.03
     8   6    -0.02   0.01  -0.03     0.01  -0.01  -0.05     0.00   0.01   0.05
     9   8     0.01   0.13   0.08     0.04  -0.08  -0.04    -0.02   0.06   0.02
    10   6    -0.01  -0.00  -0.01     0.02  -0.01   0.03    -0.02   0.02  -0.03
    11   8    -0.01   0.02   0.02    -0.02   0.00  -0.08     0.01   0.01   0.08
    12   6    -0.00   0.01   0.01     0.04  -0.01  -0.02    -0.04   0.03   0.03
    13   6     0.01  -0.00   0.01     0.03  -0.01  -0.00    -0.03   0.03   0.02
    14   6     0.00  -0.01  -0.01     0.02  -0.01   0.03    -0.02   0.02  -0.02
    15   1     0.00   0.02   0.03     0.04  -0.02  -0.04    -0.04   0.03   0.05
    16   1     0.02  -0.00   0.01     0.03  -0.01  -0.01    -0.03   0.03   0.04
    17   1     0.00  -0.02  -0.01     0.01  -0.00   0.05    -0.01   0.02  -0.03
    18   1     0.01   0.02   0.01     0.02  -0.01  -0.04    -0.01   0.01   0.03
    19   6    -0.01   0.01  -0.00     0.03  -0.01  -0.00    -0.03   0.03   0.00
    20   6    -0.00   0.01  -0.01     0.03   0.01   0.03    -0.02  -0.00  -0.02
    21   8    -0.00   0.04   0.01     0.03  -0.01  -0.00    -0.02   0.03   0.01
    22   6    -0.00  -0.02  -0.00    -0.06   0.04   0.01     0.06  -0.05  -0.01
    23   6     0.01  -0.03  -0.00    -0.05   0.02   0.02     0.04  -0.01  -0.02
    24   6     0.03  -0.03   0.01    -0.02   0.02  -0.01    -0.00  -0.02   0.02
    25   6     0.03  -0.01   0.01    -0.02   0.04  -0.04    -0.00  -0.05   0.06
    26   6     0.01  -0.00  -0.00    -0.05   0.06  -0.04     0.04  -0.07   0.04
    27   1     0.01   0.01  -0.01    -0.05   0.07  -0.06     0.04  -0.10   0.06
    28   7    -0.01   0.01  -0.02     0.03  -0.00   0.01    -0.02   0.00  -0.02
    29   1    -0.02   0.01  -0.04     0.06   0.03   0.06    -0.04  -0.00  -0.05
    30   1    -0.01  -0.02  -0.02    -0.05  -0.01   0.07     0.01   0.01  -0.05
    31   1    -0.01  -0.01  -0.02     0.04   0.01   0.09    -0.02   0.02  -0.07
    32   1     0.05   0.00   0.01     0.01   0.04  -0.08    -0.03  -0.05   0.10
    33   7    -0.01  -0.01  -0.03     0.01  -0.02  -0.02    -0.00   0.01  -0.04
    34   6    -0.02  -0.02  -0.03    -0.02  -0.04  -0.02     0.01   0.00  -0.05
    35   6    -0.01  -0.00  -0.03     0.06   0.01  -0.04    -0.01   0.02  -0.04
    36   1    -0.01  -0.01  -0.03     0.01  -0.00   0.01     0.00  -0.00  -0.07
    37   1    -0.02  -0.03  -0.03    -0.10  -0.06  -0.00     0.04  -0.00  -0.05
    38   1    -0.01  -0.02  -0.04    -0.01  -0.07  -0.09     0.01   0.01  -0.04
    39   1    -0.01   0.01  -0.04     0.07   0.02  -0.02     0.00   0.05  -0.07
    40   1    -0.01  -0.01  -0.04     0.06   0.00  -0.09     0.01  -0.01  -0.03
    41   1    -0.02   0.01  -0.03     0.09   0.03  -0.03    -0.05   0.02  -0.03
    42   6     0.03  -0.04   0.02    -0.03   0.04   0.04     0.03  -0.05  -0.00
    43   6     0.05  -0.03   0.03    -0.09  -0.09   0.12     0.03  -0.16   0.15
    44   6    -0.00  -0.09  -0.00     0.10   0.07  -0.01     0.17  -0.09  -0.13
    45   6     0.06  -0.06   0.05    -0.14   0.17   0.05    -0.08   0.07  -0.01
    46   1     0.01  -0.02  -0.01     0.03  -0.18   0.19     0.11  -0.23   0.19
    47   1     0.05  -0.08   0.07    -0.11  -0.03   0.07     0.06  -0.17   0.14
    48   1     0.08   0.02   0.05    -0.22  -0.16   0.14    -0.09  -0.15   0.22
    49   1     0.03  -0.13   0.01     0.01   0.09   0.03     0.18  -0.13  -0.11
    50   1    -0.03  -0.11  -0.02     0.19   0.20  -0.05     0.19   0.00  -0.24
    51   1    -0.03  -0.07  -0.01     0.19  -0.07  -0.05     0.26  -0.20  -0.13
    52   1     0.08  -0.03   0.05    -0.23   0.20   0.11    -0.18   0.14   0.08
    53   1     0.04  -0.07   0.04    -0.11   0.27  -0.05    -0.09   0.14  -0.16
    54   1     0.07  -0.08   0.07    -0.16   0.15   0.08    -0.04   0.00   0.03
    55   8    -0.05  -0.02  -0.09    -0.01  -0.03  -0.06     0.01   0.02   0.07
    56   6    -0.08  -0.05  -0.13    -0.03  -0.07   0.03     0.01   0.04  -0.02
    57   6    -0.02   0.01   0.00    -0.03  -0.02   0.02     0.01   0.00  -0.01
    58   6    -0.08  -0.05   0.20    -0.04  -0.05   0.08     0.01   0.04  -0.06
    59   6     0.15   0.16   0.01    -0.02   0.08   0.02     0.01  -0.08  -0.01
    60   1    -0.04  -0.01  -0.28    -0.02  -0.05  -0.02     0.01   0.01   0.02
    61   1    -0.20  -0.16  -0.13    -0.04  -0.14   0.02     0.01   0.10  -0.02
    62   1    -0.05  -0.02  -0.06    -0.04  -0.05   0.10     0.01   0.02  -0.08
    63   1    -0.18  -0.15   0.20    -0.04  -0.11   0.07     0.00   0.10  -0.05
    64   1    -0.06  -0.03   0.27    -0.04  -0.04   0.13     0.00   0.03  -0.12
    65   1    -0.03  -0.00   0.28    -0.04  -0.01   0.07     0.01   0.02  -0.04
    66   1     0.20   0.19  -0.14    -0.01   0.09  -0.02     0.02  -0.11   0.03
    67   1     0.17   0.19   0.08    -0.03   0.09   0.08     0.00  -0.10  -0.07
    68   1     0.19   0.21   0.09    -0.02   0.11   0.01     0.01  -0.09   0.00
                      7                      8                      9
                      A                      A                      A
 Frequencies --     66.1640                70.7603                94.6446
 Red. masses --      3.8059                 4.3374                 4.3225
 Frc consts  --      0.0098                 0.0128                 0.0228
 IR Inten    --      0.0000                 0.0000                 0.0000
  Atom  AN      X      Y      Z        X      Y      Z        X      Y      Z
     1  26    -0.02   0.00   0.00     0.04  -0.03   0.01    -0.05  -0.01  -0.01
     2   6     0.01  -0.04  -0.03    -0.01   0.07  -0.02    -0.01   0.02   0.04
     3  46     0.00   0.01  -0.03     0.02   0.00  -0.04     0.02  -0.05   0.02
     4   6     0.04   0.05  -0.06     0.05  -0.00  -0.04     0.03   0.03   0.01
     5   1    -0.00  -0.03   0.06    -0.03   0.00   0.07    -0.24   0.14  -0.03
     6   1    -0.03  -0.05   0.03     0.04   0.00   0.02     0.04   0.19  -0.09
     7   1    -0.06  -0.03  -0.02     0.07  -0.07  -0.03     0.20  -0.05  -0.05
     8   6    -0.02  -0.05  -0.03     0.03   0.01  -0.02     0.01   0.01  -0.01
     9   8     0.03  -0.07  -0.03    -0.01   0.16   0.04    -0.03   0.14   0.10
    10   6     0.01   0.05  -0.03     0.04   0.01  -0.02    -0.01   0.01   0.00
    11   8    -0.01  -0.05  -0.01     0.02   0.03  -0.00     0.01   0.01   0.00
    12   6    -0.02   0.04   0.01     0.05   0.03   0.02    -0.06  -0.05  -0.04
    13   6    -0.04   0.06   0.03     0.05   0.01   0.04    -0.09   0.00  -0.03
    14   6    -0.02   0.07   0.01     0.05   0.00   0.02    -0.05   0.04  -0.01
    15   1    -0.03   0.03   0.01     0.06   0.03   0.03    -0.08  -0.08  -0.08
    16   1    -0.07   0.06   0.06     0.05   0.01   0.06    -0.13   0.01  -0.04
    17   1    -0.02   0.08   0.02     0.04  -0.01   0.02    -0.05   0.08  -0.03
    18   1    -0.03  -0.00  -0.00     0.04   0.02  -0.01    -0.01  -0.04  -0.03
    19   6     0.01   0.03  -0.02     0.05   0.02  -0.02    -0.02  -0.04  -0.00
    20   6    -0.02  -0.04  -0.00    -0.00   0.05  -0.04     0.02   0.02   0.01
    21   8     0.00  -0.03  -0.05    -0.02  -0.01  -0.07    -0.02  -0.08  -0.01
    22   6    -0.04  -0.03  -0.01     0.05  -0.07  -0.01     0.09  -0.03  -0.02
    23   6    -0.03  -0.04   0.02     0.03  -0.03   0.02     0.00   0.09  -0.05
    24   6    -0.01  -0.03   0.04    -0.01  -0.03   0.04    -0.15   0.06  -0.02
    25   6    -0.01  -0.02   0.03    -0.01  -0.07   0.03    -0.15  -0.09   0.04
    26   6    -0.03  -0.02  -0.00     0.02  -0.10  -0.00    -0.01  -0.15   0.03
    27   1    -0.04  -0.01  -0.01     0.03  -0.13  -0.01     0.02  -0.26   0.05
    28   7    -0.04  -0.05  -0.04     0.02   0.01  -0.08     0.04   0.01   0.04
    29   1    -0.00  -0.03   0.02     0.03   0.10  -0.03     0.01   0.03  -0.00
    30   1     0.12   0.07  -0.09     0.13   0.01  -0.07     0.03   0.04   0.01
    31   1    -0.00   0.03  -0.12     0.01  -0.04  -0.09     0.04   0.05   0.01
    32   1     0.01   0.00   0.04    -0.04  -0.08   0.05    -0.24  -0.13   0.09
    33   7     0.04   0.07   0.05     0.04   0.03   0.05     0.05  -0.00   0.01
    34   6     0.09   0.14   0.09     0.06   0.08   0.09     0.10  -0.02  -0.02
    35   6    -0.03  -0.01   0.10    -0.04  -0.04   0.10     0.07   0.02  -0.01
    36   1     0.04   0.07   0.05     0.00   0.01   0.05     0.12   0.02  -0.04
    37   1     0.21   0.20   0.03     0.19   0.13   0.04     0.09  -0.03  -0.01
    38   1     0.07   0.19   0.22     0.03   0.15   0.21     0.12  -0.05  -0.02
    39   1    -0.04  -0.03   0.09    -0.06  -0.08   0.10     0.08   0.04  -0.02
    40   1    -0.02  -0.01   0.20    -0.05  -0.01   0.18     0.08  -0.00  -0.02
    41   1    -0.07  -0.06   0.07    -0.05  -0.08   0.07     0.05   0.03   0.01
    42   6    -0.07  -0.05   0.03    -0.06   0.04   0.01     0.02   0.06  -0.02
    43   6    -0.09  -0.08   0.04    -0.10   0.02  -0.02     0.01   0.05  -0.04
    44   6    -0.08  -0.07   0.03    -0.09   0.04   0.02     0.05   0.10  -0.00
    45   6    -0.07  -0.02   0.08    -0.06   0.08   0.06    -0.00   0.06  -0.06
    46   1    -0.05  -0.09   0.08    -0.08  -0.00  -0.02     0.01   0.05  -0.05
    47   1    -0.09  -0.04   0.01    -0.12   0.04  -0.02    -0.01   0.06  -0.03
    48   1    -0.13  -0.11   0.03    -0.11  -0.00  -0.03     0.02   0.05  -0.04
    49   1    -0.12  -0.08   0.07    -0.13   0.04   0.04     0.04   0.14  -0.03
    50   1    -0.04  -0.03   0.04    -0.06   0.06   0.04     0.06   0.11   0.01
    51   1    -0.08  -0.10  -0.02    -0.10   0.02  -0.02     0.07   0.10   0.02
    52   1    -0.06   0.01   0.09    -0.04   0.08   0.06    -0.02   0.02  -0.08
    53   1    -0.06  -0.00   0.06    -0.03   0.11   0.09     0.01   0.07  -0.04
    54   1    -0.08  -0.04   0.11    -0.11   0.08   0.09    -0.02   0.10  -0.08
    55   8    -0.01  -0.01  -0.05     0.03  -0.03   0.03    -0.01  -0.01  -0.08
    56   6     0.10   0.10  -0.02    -0.09  -0.15   0.02     0.04   0.03   0.02
    57   6     0.09   0.02  -0.01    -0.08  -0.05   0.02     0.03   0.02  -0.01
    58   6     0.14  -0.06   0.02    -0.14   0.02  -0.00     0.05  -0.03   0.02
    59   6     0.11   0.07  -0.01    -0.10  -0.07   0.01     0.02   0.10  -0.01
    60   1     0.06   0.15  -0.02    -0.05  -0.20   0.01     0.03   0.04   0.03
    61   1     0.09   0.09  -0.02    -0.09  -0.17   0.02     0.06   0.03   0.02
    62   1     0.16   0.13  -0.01    -0.16  -0.17   0.04     0.05   0.04   0.03
    63   1     0.18  -0.15   0.00    -0.18   0.09   0.02     0.18  -0.18  -0.03
    64   1     0.16  -0.04   0.13    -0.16   0.00  -0.09    -0.01  -0.02   0.21
    65   1     0.12  -0.04  -0.03    -0.11   0.01   0.05     0.00   0.10  -0.11
    66   1     0.05   0.15  -0.04    -0.03  -0.15   0.03    -0.04   0.18  -0.04
    67   1     0.20   0.10   0.02    -0.20  -0.10   0.00     0.10   0.13   0.05
    68   1     0.08  -0.00  -0.01    -0.07   0.02   0.01    -0.01   0.04  -0.03
                     10                     11                     12
                      A                      A                      A
 Frequencies --     97.3501               101.3315               114.1264
 Red. masses --      4.5250                 4.0414                 5.9587
 Frc consts  --      0.0253                 0.0244                 0.0457
 IR Inten    --      0.0000                 0.0000                 0.0000
  Atom  AN      X      Y      Z        X      Y      Z        X      Y      Z
     1  26     0.06   0.01   0.01    -0.01   0.02  -0.01     0.04   0.03   0.01
     2   6    -0.03  -0.01  -0.03    -0.04   0.01  -0.04    -0.11   0.00   0.01
     3  46    -0.01   0.04   0.02    -0.00  -0.01  -0.03     0.03  -0.01   0.06
     4   6     0.01  -0.02   0.04     0.01   0.03   0.11     0.04   0.05  -0.01
     5   1    -0.13   0.16  -0.01    -0.09   0.11  -0.07     0.21  -0.07  -0.02
     6   1     0.14   0.21  -0.06     0.03   0.15  -0.03     0.01  -0.11   0.01
     7   1     0.30  -0.02  -0.04     0.09   0.06   0.00    -0.09   0.07   0.04
     8   6    -0.03  -0.01  -0.05     0.03  -0.02   0.05    -0.01  -0.07  -0.01
     9   8    -0.03  -0.11  -0.09    -0.04   0.01  -0.04    -0.14   0.16   0.09
    10   6     0.03  -0.02   0.02     0.03  -0.00   0.05     0.02   0.04  -0.00
    11   8    -0.01  -0.01   0.00     0.03  -0.02   0.04     0.01  -0.06   0.06
    12   6     0.05  -0.00   0.03    -0.01  -0.06  -0.04    -0.03   0.01   0.02
    13   6     0.07  -0.02  -0.00    -0.02  -0.02  -0.05    -0.03   0.04  -0.02
    14   6     0.06  -0.03  -0.01     0.00   0.02  -0.00     0.00   0.05  -0.04
    15   1     0.05   0.01   0.05    -0.02  -0.08  -0.06    -0.05  -0.01   0.04
    16   1     0.10  -0.02  -0.03    -0.05  -0.01  -0.09    -0.05   0.04  -0.03
    17   1     0.07  -0.04  -0.04    -0.00   0.06  -0.01     0.01   0.07  -0.06
    18   1     0.03   0.01   0.05     0.01  -0.04  -0.00     0.01  -0.02   0.07
    19   6     0.03   0.00   0.04     0.02  -0.04   0.02     0.00   0.01   0.04
    20   6    -0.04  -0.01  -0.02    -0.04  -0.00  -0.04    -0.07  -0.03  -0.04
    21   8    -0.02   0.09   0.04    -0.03   0.02  -0.02    -0.11  -0.11  -0.02
    22   6     0.19  -0.00  -0.00     0.05   0.06   0.00    -0.02   0.06   0.02
    23   6     0.11   0.12  -0.02     0.02   0.11  -0.02     0.04  -0.04   0.01
    24   6    -0.04   0.09  -0.01    -0.05   0.09  -0.04     0.15  -0.01  -0.01
    25   6    -0.05  -0.06   0.03    -0.05   0.03  -0.02     0.15   0.10  -0.02
    26   6     0.09  -0.12   0.02     0.01   0.01   0.01     0.06   0.15   0.01
    27   1     0.11  -0.24   0.02     0.02  -0.03   0.03     0.04   0.23  -0.00
    28   7    -0.05  -0.01  -0.04    -0.03  -0.03  -0.08    -0.01  -0.07  -0.02
    29   1    -0.03  -0.00  -0.02    -0.02   0.03  -0.04    -0.06   0.02  -0.07
    30   1     0.00  -0.02   0.04    -0.09   0.04   0.13     0.03   0.03  -0.00
    31   1     0.02  -0.03   0.06     0.07   0.05   0.19     0.05   0.06  -0.01
    32   1    -0.15  -0.11   0.05    -0.08   0.00  -0.01     0.21   0.13  -0.04
    33   7    -0.01  -0.00   0.01     0.02   0.00   0.01     0.04   0.04  -0.04
    34   6    -0.04  -0.07  -0.04    -0.05  -0.03   0.00     0.06  -0.02  -0.10
    35   6    -0.02   0.06  -0.03     0.13   0.04  -0.03     0.02   0.13  -0.09
    36   1    -0.05  -0.09  -0.07     0.01   0.03   0.08     0.06  -0.00  -0.15
    37   1    -0.02  -0.12  -0.01    -0.19  -0.06   0.05     0.06  -0.07  -0.08
    38   1    -0.06  -0.05  -0.07    -0.02  -0.09  -0.13     0.06  -0.03  -0.14
    39   1    -0.04   0.04  -0.05     0.15   0.03   0.05     0.00   0.13  -0.14
    40   1    -0.04   0.08  -0.06     0.11   0.05  -0.14     0.00   0.14  -0.13
    41   1     0.00   0.10   0.00     0.23   0.07  -0.02     0.02   0.18  -0.05
    42   6    -0.06  -0.05   0.02    -0.07  -0.02  -0.01    -0.09  -0.01  -0.04
    43   6    -0.04  -0.04   0.03    -0.08  -0.02  -0.02    -0.09  -0.02  -0.04
    44   6    -0.10  -0.09   0.01    -0.12  -0.04   0.00    -0.08  -0.00  -0.03
    45   6    -0.03  -0.05   0.06    -0.05  -0.01   0.04    -0.10   0.00  -0.04
    46   1    -0.04  -0.03   0.05    -0.07  -0.03  -0.01    -0.06  -0.02   0.02
    47   1    -0.03  -0.04   0.02    -0.09  -0.01  -0.03    -0.08   0.02  -0.08
    48   1    -0.05  -0.04   0.03    -0.09  -0.04  -0.03    -0.13  -0.06  -0.05
    49   1    -0.10  -0.13   0.03    -0.13  -0.05   0.02    -0.09   0.01  -0.04
    50   1    -0.11  -0.10   0.00    -0.12  -0.05   0.02    -0.08   0.00  -0.03
    51   1    -0.12  -0.09  -0.03    -0.14  -0.03  -0.02    -0.08  -0.01  -0.03
    52   1    -0.01  -0.01   0.07    -0.03   0.00   0.03    -0.11  -0.02  -0.05
    53   1    -0.04  -0.06   0.04    -0.04  -0.01   0.06    -0.09   0.01  -0.03
    54   1    -0.02  -0.08   0.09    -0.07  -0.02   0.06    -0.12   0.01  -0.05
    55   8    -0.06  -0.01  -0.12     0.08   0.01   0.17    -0.04  -0.09  -0.08
    56   6    -0.00   0.02   0.05     0.02  -0.03  -0.06     0.03  -0.05   0.03
    57   6    -0.04   0.01  -0.03     0.07  -0.02   0.07    -0.00  -0.08  -0.03
    58   6     0.00  -0.03  -0.03     0.01   0.04   0.08     0.05  -0.12  -0.04
    59   6    -0.10   0.10  -0.03     0.18  -0.10   0.06    -0.05  -0.05  -0.03
    60   1    -0.03   0.03   0.07     0.07  -0.06  -0.08    -0.01  -0.01   0.04
    61   1     0.05  -0.01   0.05    -0.06   0.03  -0.05     0.07  -0.08   0.03
    62   1    -0.01   0.03   0.09     0.02  -0.05  -0.13     0.05  -0.03   0.07
    63   1     0.11  -0.15  -0.06    -0.04   0.08   0.10     0.06  -0.15  -0.04
    64   1    -0.03  -0.03   0.12    -0.02   0.02   0.03     0.08  -0.11  -0.01
    65   1    -0.04   0.05  -0.13     0.03   0.05   0.12     0.04  -0.15  -0.05
    66   1    -0.18   0.18  -0.03     0.26  -0.17   0.04    -0.10  -0.01  -0.01
    67   1    -0.04   0.13   0.04     0.14  -0.13  -0.01    -0.01  -0.04  -0.01
    68   1    -0.14   0.04  -0.09     0.23  -0.05   0.15    -0.08  -0.10  -0.07
                     13                     14                     15
                      A                      A                      A
 Frequencies --    139.8095               141.6469               152.0051
 Red. masses --      3.8368                 4.3353                 4.1217
 Frc consts  --      0.0442                 0.0512                 0.0561
 IR Inten    --      0.0000                 0.0000                 0.0000
  Atom  AN      X      Y      Z        X      Y      Z        X      Y      Z
     1  26     0.02  -0.00   0.03    -0.03  -0.03  -0.00    -0.00   0.04   0.01
     2   6     0.03  -0.02  -0.02    -0.04   0.05  -0.00     0.01  -0.04  -0.06
     3  46    -0.03  -0.01  -0.05     0.01  -0.01   0.02    -0.00   0.01   0.02
     4   6    -0.01   0.01   0.05     0.06   0.02  -0.02    -0.03  -0.06  -0.01
     5   1     0.09  -0.03  -0.02     0.05  -0.11   0.02    -0.03   0.07   0.01
     6   1     0.05  -0.03  -0.01    -0.05  -0.13   0.02    -0.01   0.07   0.01
     7   1     0.02   0.01   0.03    -0.11  -0.06  -0.01     0.01   0.04  -0.04
     8   6    -0.04   0.03   0.03     0.01   0.04  -0.02    -0.02   0.03  -0.00
     9   8     0.07   0.02   0.02    -0.09  -0.07  -0.11     0.02   0.03  -0.00
    10   6    -0.02  -0.01   0.01     0.01   0.00  -0.01    -0.05  -0.04   0.04
    11   8    -0.01   0.03   0.12     0.02   0.03  -0.00    -0.03   0.02  -0.03
    12   6    -0.05  -0.02   0.04    -0.04  -0.05  -0.04     0.04   0.03   0.01
    13   6    -0.04  -0.02  -0.01    -0.08  -0.00  -0.01     0.08  -0.03  -0.01
    14   6    -0.02  -0.01  -0.03    -0.03   0.03  -0.01     0.01  -0.07   0.01
    15   1    -0.07  -0.03   0.06    -0.06  -0.09  -0.08     0.07   0.07   0.02
    16   1    -0.04  -0.01  -0.02    -0.13   0.01   0.00     0.14  -0.04  -0.04
    17   1    -0.01   0.00  -0.06    -0.04   0.07   0.00     0.02  -0.11   0.00
    18   1     0.00  -0.00   0.10     0.00  -0.02  -0.02    -0.02   0.04  -0.00
    19   6    -0.04  -0.02   0.05     0.00  -0.05  -0.01    -0.03   0.03   0.03
    20   6    -0.01  -0.01   0.01    -0.02   0.05  -0.02    -0.00  -0.01  -0.02
    21   8     0.02  -0.07  -0.10    -0.02   0.17   0.13    -0.00  -0.17  -0.14
    22   6     0.04   0.01   0.03    -0.07  -0.06  -0.01    -0.01   0.05  -0.00
    23   6     0.05  -0.02   0.00    -0.04  -0.11   0.00    -0.01   0.07   0.01
    24   6     0.08  -0.01  -0.00     0.02  -0.09   0.02    -0.03   0.07   0.00
    25   6     0.08   0.02   0.03     0.02  -0.03   0.02    -0.03   0.05  -0.01
    26   6     0.06   0.03   0.04    -0.03  -0.01   0.00    -0.02   0.04  -0.01
    27   1     0.06   0.05   0.04    -0.04   0.03  -0.00    -0.02   0.04  -0.01
    28   7    -0.03   0.03   0.03    -0.01   0.03  -0.04    -0.02   0.02  -0.01
    29   1    -0.01  -0.04   0.03    -0.01   0.08  -0.03    -0.01  -0.03  -0.01
    30   1    -0.09   0.03   0.07     0.06   0.01  -0.02     0.02  -0.07  -0.01
    31   1     0.04   0.06   0.11     0.07   0.06  -0.04    -0.03  -0.02  -0.06
    32   1     0.08   0.02   0.03     0.06  -0.00   0.03    -0.03   0.05   0.01
    33   7     0.03  -0.04  -0.01     0.11  -0.03  -0.01     0.03  -0.11   0.04
    34   6    -0.00   0.03   0.07     0.24  -0.05  -0.06     0.24  -0.15  -0.05
    35   6     0.24  -0.12   0.01     0.12  -0.00  -0.04    -0.09  -0.07   0.03
    36   1     0.14   0.18   0.24     0.31   0.07  -0.10     0.28  -0.04  -0.19
    37   1    -0.27   0.07   0.08     0.18  -0.07  -0.04     0.29  -0.19  -0.03
    38   1     0.09  -0.12  -0.08     0.33  -0.16  -0.08     0.32  -0.25   0.00
    39   1     0.31  -0.08   0.16     0.15   0.05  -0.07    -0.08   0.00  -0.13
    40   1     0.26  -0.15  -0.08     0.16  -0.05  -0.05    -0.03  -0.14   0.14
    41   1     0.32  -0.16  -0.04     0.07   0.02  -0.01    -0.27  -0.06   0.08
    42   6    -0.00  -0.01   0.00    -0.02   0.02   0.01    -0.01  -0.03  -0.01
    43   6    -0.02  -0.02  -0.01    -0.00   0.04   0.03    -0.01  -0.05  -0.00
    44   6    -0.01   0.00   0.02    -0.07  -0.03   0.00    -0.02  -0.06  -0.03
    45   6    -0.00  -0.01   0.01     0.01   0.01   0.05     0.00  -0.02   0.02
    46   1     0.02  -0.03   0.02    -0.03   0.04  -0.00     0.02  -0.06   0.04
    47   1    -0.03   0.03  -0.04     0.01  -0.01   0.06    -0.02  -0.01  -0.03
    48   1    -0.05  -0.06  -0.03     0.03   0.08   0.05    -0.05  -0.08  -0.01
    49   1    -0.05   0.01   0.03    -0.04  -0.06   0.01    -0.03  -0.09   0.00
    50   1     0.02   0.03   0.03    -0.11  -0.07  -0.00    -0.01  -0.05  -0.04
    51   1    -0.01  -0.02  -0.01    -0.11   0.01  -0.00    -0.02  -0.08  -0.06
    52   1     0.00   0.01   0.02     0.03   0.04   0.06     0.00   0.02   0.04
    53   1    -0.00  -0.01   0.01    -0.00   0.00   0.05    -0.01  -0.02  -0.01
    54   1     0.00  -0.02   0.02     0.01  -0.01   0.07     0.01  -0.05   0.05
    55   8    -0.08   0.03  -0.06     0.02   0.05  -0.01     0.01   0.05   0.05
    56   6    -0.03   0.08   0.01    -0.02   0.00   0.01    -0.02   0.05  -0.01
    57   6    -0.05   0.04  -0.03    -0.02   0.04  -0.01    -0.01   0.05   0.02
    58   6    -0.03   0.02  -0.04    -0.04   0.07  -0.02    -0.03   0.08   0.00
    59   6    -0.09   0.07  -0.03    -0.03   0.05  -0.01     0.01   0.03   0.02
    60   1    -0.06   0.10   0.03    -0.03   0.05  -0.07    -0.02   0.07  -0.04
    61   1    -0.01   0.09   0.01    -0.03  -0.10  -0.00    -0.04   0.03  -0.01
    62   1    -0.01   0.09   0.01    -0.01   0.04   0.10     0.00   0.06  -0.00
    63   1    -0.04   0.04  -0.04    -0.15   0.20   0.02    -0.09   0.16   0.03
    64   1    -0.00   0.03  -0.06     0.02   0.07  -0.18    -0.01   0.07  -0.09
    65   1    -0.02  -0.01  -0.03     0.00  -0.03   0.09    -0.01   0.03   0.06
    66   1    -0.15   0.12  -0.02     0.04  -0.04  -0.00     0.06  -0.03   0.01
    67   1    -0.03   0.09  -0.01    -0.16   0.02  -0.00    -0.06   0.01  -0.00
    68   1    -0.12   0.01  -0.06    -0.01   0.16  -0.01     0.03   0.09   0.03
                     16                     17                     18
                      A                      A                      A
 Frequencies --    161.4145               170.5442               173.5450
 Red. masses --      1.9747                 2.1172                 2.8930
 Frc consts  --      0.0303                 0.0363                 0.0513
 IR Inten    --      0.0000                 0.0000                 0.0000
  Atom  AN      X      Y      Z        X      Y      Z        X      Y      Z
     1  26    -0.01   0.01   0.01    -0.02  -0.00   0.00     0.04  -0.04  -0.02
     2   6     0.02   0.04   0.01    -0.01  -0.01  -0.05    -0.04  -0.03   0.04
     3  46    -0.00   0.01  -0.01     0.02  -0.02   0.01    -0.02   0.01   0.00
     4   6    -0.03  -0.03  -0.02    -0.01   0.00   0.00     0.05   0.03   0.02
     5   1     0.01   0.00   0.01     0.02  -0.02  -0.02     0.01  -0.03   0.01
     6   1    -0.01  -0.01   0.01    -0.01  -0.03  -0.01    -0.00  -0.01   0.06
     7   1    -0.02   0.01  -0.00    -0.03   0.01   0.02    -0.02  -0.02  -0.00
     8   6    -0.01  -0.02   0.00     0.05   0.04   0.00    -0.05  -0.00   0.00
     9   8     0.03   0.02   0.01    -0.05  -0.02  -0.08    -0.03  -0.02   0.05
    10   6    -0.04  -0.01   0.00    -0.00   0.01   0.01     0.06   0.00  -0.03
    11   8    -0.02   0.01   0.02     0.05   0.06   0.05    -0.06  -0.04  -0.10
    12   6     0.00   0.03   0.02    -0.03  -0.02  -0.02     0.05   0.00   0.01
    13   6     0.02  -0.01   0.01    -0.04   0.00  -0.01     0.05   0.00   0.01
    14   6    -0.01  -0.03   0.01    -0.02   0.02  -0.00     0.06   0.00  -0.01
    15   1     0.01   0.05   0.04    -0.03  -0.04  -0.04     0.05   0.01   0.03
    16   1     0.05  -0.01   0.02    -0.06   0.01  -0.01     0.05   0.00   0.02
    17   1    -0.00  -0.06   0.00    -0.03   0.04   0.00     0.05  -0.01   0.01
    18   1    -0.01   0.03   0.01     0.02  -0.01  -0.01     0.01   0.00  -0.01
    19   6    -0.03   0.02   0.01    -0.01  -0.02   0.00     0.05  -0.01  -0.02
    20   6     0.01  -0.01  -0.02     0.03   0.05  -0.03    -0.05  -0.01   0.06
    21   8     0.03   0.12   0.06    -0.01  -0.08  -0.05    -0.05  -0.06  -0.02
    22   6    -0.01   0.01   0.01    -0.02   0.01   0.01    -0.01  -0.03  -0.02
    23   6    -0.01   0.00   0.01    -0.01  -0.01  -0.00    -0.01  -0.02   0.02
    24   6     0.00   0.01   0.01     0.01  -0.01  -0.01     0.00  -0.03  -0.01
    25   6     0.00   0.02   0.01     0.01   0.01   0.01    -0.00  -0.04  -0.07
    26   6    -0.01   0.02   0.01     0.00   0.03   0.03    -0.01  -0.04  -0.08
    27   1    -0.01   0.02   0.01    -0.00   0.04   0.03    -0.02  -0.03  -0.10
    28   7    -0.00  -0.01  -0.03     0.05   0.04  -0.02    -0.05   0.00   0.07
    29   1     0.01   0.00  -0.01     0.04   0.06  -0.03    -0.07  -0.03   0.05
    30   1    -0.02  -0.03  -0.02    -0.00  -0.00   0.00     0.02   0.07   0.01
    31   1    -0.02   0.00  -0.04    -0.01  -0.00   0.00     0.07   0.01   0.06
    32   1     0.00   0.02  -0.00     0.02   0.01  -0.01     0.01  -0.05  -0.13
    33   7     0.01  -0.06  -0.01    -0.02   0.02   0.00     0.04   0.05   0.01
    34   6     0.08  -0.04  -0.01    -0.05   0.01  -0.00     0.06   0.04  -0.01
    35   6     0.00  -0.08   0.01    -0.04   0.03  -0.00     0.08   0.08  -0.01
    36   1     0.14   0.04  -0.00    -0.09  -0.05  -0.02     0.06   0.05  -0.02
    37   1     0.01  -0.04  -0.00     0.01   0.01  -0.01     0.06   0.03  -0.00
    38   1     0.14  -0.13  -0.03    -0.09   0.06   0.03     0.06   0.03  -0.01
    39   1     0.02  -0.05  -0.01    -0.06   0.01  -0.01     0.09   0.10  -0.01
    40   1     0.03  -0.11   0.04    -0.06   0.05   0.00     0.08   0.07  -0.05
    41   1    -0.05  -0.10   0.00    -0.03   0.03   0.00     0.09   0.11   0.00
    42   6    -0.01   0.01  -0.02     0.02   0.01   0.01    -0.01  -0.00   0.02
    43   6    -0.02   0.01  -0.03     0.02  -0.01   0.02     0.02   0.02   0.04
    44   6    -0.01   0.04   0.00    -0.02  -0.06  -0.02     0.03   0.01   0.01
    45   6    -0.02   0.02  -0.03     0.05   0.03   0.09    -0.02  -0.04  -0.05
    46   1    -0.01   0.01  -0.02    -0.01  -0.02  -0.04     0.02   0.03   0.06
    47   1    -0.02   0.03  -0.04     0.00  -0.06   0.07     0.05   0.01   0.03
    48   1    -0.03   0.00  -0.04     0.05   0.04   0.04     0.02   0.02   0.05
    49   1    -0.05   0.06   0.01     0.03  -0.12  -0.01     0.09   0.02  -0.04
    50   1     0.02   0.06   0.02    -0.07  -0.10  -0.05    -0.02  -0.03  -0.01
    51   1    -0.00   0.02  -0.01    -0.05  -0.03  -0.02     0.03   0.05   0.08
    52   1    -0.02   0.01  -0.03     0.08   0.06   0.10    -0.04  -0.07  -0.05
    53   1    -0.01   0.02  -0.02     0.06   0.04   0.10    -0.04  -0.06  -0.06
    54   1    -0.03   0.03  -0.03     0.02  -0.00   0.14     0.02  -0.02  -0.09
    55   8    -0.02  -0.05   0.00     0.03   0.02  -0.03    -0.02   0.04   0.06
    56   6     0.01  -0.01  -0.02    -0.01  -0.03   0.00    -0.05   0.05  -0.03
    57   6     0.01  -0.04   0.00    -0.00   0.02  -0.01    -0.03   0.03   0.03
    58   6     0.03  -0.07   0.02    -0.03   0.04  -0.00    -0.05   0.04   0.04
    59   6     0.02  -0.06  -0.00    -0.02   0.04  -0.01     0.00   0.01   0.03
    60   1     0.07  -0.21   0.25     0.11  -0.31   0.31     0.05  -0.20   0.27
    61   1     0.06   0.35   0.00     0.07   0.36   0.02    -0.02   0.47  -0.00
    62   1    -0.11  -0.14  -0.33    -0.22  -0.20  -0.34    -0.20  -0.11  -0.41
    63   1     0.20  -0.27  -0.04     0.09  -0.06  -0.04    -0.02   0.01   0.03
    64   1    -0.08  -0.08   0.28    -0.13   0.03   0.14    -0.07   0.04   0.08
    65   1    -0.03   0.11  -0.14    -0.06   0.18  -0.10    -0.05   0.08   0.02
    66   1    -0.14   0.11   0.01    -0.14   0.18  -0.01    -0.11   0.13   0.02
    67   1     0.26  -0.01  -0.01     0.16   0.09   0.01     0.18   0.05   0.01
    68   1    -0.04  -0.29   0.00    -0.07  -0.12  -0.03    -0.04  -0.16   0.04
                     19                     20                     21
                      A                      A                      A
 Frequencies --    185.9604               194.1826               202.8945
 Red. masses --      3.8917                 1.7437                 1.4527
 Frc consts  --      0.0793                 0.0387                 0.0352
 IR Inten    --      0.0000                 0.0000                 0.0000
  Atom  AN      X      Y      Z        X      Y      Z        X      Y      Z
     1  26    -0.01  -0.04   0.01    -0.01  -0.00  -0.01    -0.01   0.01   0.00
     2   6     0.10   0.01  -0.03     0.00  -0.00  -0.01     0.01   0.00  -0.00
     3  46    -0.02   0.02  -0.01     0.04   0.03   0.03     0.03   0.02   0.01
     4   6     0.04   0.02   0.12     0.02  -0.03  -0.05     0.04  -0.03  -0.02
     5   1     0.04  -0.07  -0.06    -0.02  -0.01   0.01    -0.01   0.00   0.01
     6   1    -0.00  -0.04   0.02    -0.02  -0.02  -0.01    -0.01  -0.01  -0.01
     7   1    -0.03  -0.01   0.04    -0.01  -0.02   0.00    -0.01  -0.01  -0.01
     8   6    -0.02   0.01   0.00    -0.01  -0.00  -0.00    -0.02  -0.00   0.00
     9   8     0.16   0.04   0.03     0.00   0.02   0.01     0.03   0.01   0.02
    10   6     0.04  -0.03   0.04     0.00  -0.01  -0.00     0.02  -0.01   0.02
    11   8     0.00  -0.00   0.05    -0.01  -0.01  -0.02    -0.01  -0.01  -0.00
    12   6    -0.05  -0.13  -0.03    -0.01  -0.02  -0.02    -0.02  -0.04  -0.02
    13   6    -0.09  -0.05  -0.03    -0.02  -0.00  -0.01    -0.03  -0.01  -0.02
    14   6    -0.02   0.01  -0.00    -0.01   0.00  -0.00    -0.01   0.01   0.00
    15   1    -0.08  -0.19  -0.08    -0.01  -0.03  -0.03    -0.03  -0.06  -0.04
    16   1    -0.16  -0.03  -0.05    -0.02  -0.00  -0.01    -0.04  -0.01  -0.03
    17   1    -0.03   0.09   0.00    -0.01   0.01  -0.00    -0.01   0.04  -0.00
    18   1     0.01  -0.06   0.04    -0.02  -0.02  -0.02    -0.01  -0.02   0.01
    19   6     0.02  -0.11   0.03     0.01  -0.01  -0.01     0.01  -0.03   0.01
    20   6     0.03  -0.04  -0.03    -0.01  -0.02  -0.01    -0.01  -0.01  -0.00
    21   8     0.09   0.06  -0.04    -0.00  -0.01  -0.01     0.01   0.02  -0.01
    22   6    -0.01  -0.01   0.03    -0.02  -0.02  -0.01    -0.01  -0.00  -0.00
    23   6     0.00  -0.04   0.01    -0.02  -0.02  -0.00    -0.01  -0.00  -0.00
    24   6     0.03  -0.04  -0.02    -0.02  -0.01   0.01    -0.01   0.00   0.01
    25   6     0.03  -0.01  -0.02    -0.02  -0.02   0.01    -0.01   0.00   0.02
    26   6     0.01   0.01   0.02    -0.02  -0.02   0.00    -0.01   0.00   0.01
    27   1     0.00   0.03   0.02    -0.02  -0.02   0.01    -0.01   0.00   0.01
    28   7    -0.03   0.00  -0.05    -0.01  -0.00  -0.00    -0.02  -0.01  -0.00
    29   1     0.03  -0.07   0.01    -0.01  -0.03  -0.01    -0.01  -0.02   0.00
    30   1    -0.00   0.05   0.12     0.05  -0.06  -0.05     0.07  -0.06  -0.02
    31   1     0.05  -0.02   0.18     0.01  -0.02  -0.08     0.02  -0.02  -0.06
    32   1     0.05  -0.02  -0.05    -0.02  -0.01   0.03    -0.01   0.01   0.04
    33   7     0.01   0.05   0.11     0.01  -0.03  -0.05     0.03  -0.03  -0.02
    34   6     0.04  -0.08  -0.01    -0.07  -0.00  -0.00    -0.04  -0.03  -0.00
    35   6    -0.11   0.19   0.04     0.05  -0.07  -0.03     0.02  -0.05  -0.01
    36   1    -0.05  -0.15  -0.18    -0.16  -0.13   0.01    -0.20  -0.23  -0.07
    37   1     0.22  -0.17   0.02     0.02   0.03  -0.04     0.18  -0.01  -0.05
    38   1    -0.01  -0.00   0.03    -0.16   0.12   0.06    -0.17   0.17   0.13
    39   1    -0.16   0.16  -0.07     0.05  -0.08   0.02     0.01  -0.07   0.00
    40   1    -0.15   0.24   0.02     0.04  -0.07  -0.03     0.01  -0.03  -0.00
    41   1    -0.11   0.29   0.12     0.07  -0.10  -0.06     0.04  -0.06  -0.03
    42   6     0.00  -0.02  -0.03    -0.01  -0.01  -0.01    -0.02  -0.01  -0.01
    43   6    -0.03  -0.03  -0.07    -0.01   0.00  -0.03    -0.02  -0.03   0.01
    44   6     0.02   0.03  -0.01    -0.03  -0.00   0.00    -0.00  -0.01  -0.01
    45   6    -0.01   0.00  -0.03    -0.00  -0.03  -0.01    -0.04   0.00  -0.03
    46   1     0.00  -0.04  -0.02     0.09   0.01   0.15    -0.02  -0.04  -0.01
    47   1    -0.05   0.04  -0.12     0.02   0.16  -0.18    -0.02  -0.05   0.03
    48   1    -0.07  -0.10  -0.10    -0.14  -0.15  -0.08    -0.01  -0.00   0.02
    49   1    -0.16   0.06   0.07    -0.26   0.00   0.14     0.19  -0.01  -0.13
    50   1     0.16   0.16   0.03     0.15   0.17   0.06    -0.15  -0.16  -0.06
    51   1     0.06  -0.11  -0.12     0.00  -0.18  -0.18    -0.03   0.14   0.14
    52   1    -0.04   0.08   0.03    -0.09   0.25   0.20     0.06  -0.32  -0.27
    53   1    -0.05   0.00  -0.13    -0.17  -0.09  -0.34     0.15   0.06   0.34
    54   1     0.06  -0.07   0.01     0.28  -0.27   0.10    -0.33   0.27  -0.16
    55   8    -0.02   0.01  -0.00    -0.00   0.01   0.01    -0.02   0.01   0.01
    56   6    -0.02   0.04  -0.01    -0.01   0.02  -0.00    -0.01   0.03  -0.01
    57   6    -0.02   0.01   0.00    -0.01   0.01   0.01    -0.01   0.01   0.01
    58   6    -0.01   0.01  -0.00    -0.01   0.02   0.01    -0.01   0.01   0.01
    59   6    -0.02   0.01   0.00    -0.00   0.01   0.01    -0.01   0.01   0.01
    60   1    -0.02   0.01   0.04     0.01  -0.04   0.06    -0.01   0.00   0.04
    61   1    -0.02   0.10  -0.00    -0.01   0.11   0.00    -0.01   0.11  -0.00
    62   1    -0.02   0.02  -0.06    -0.04  -0.02  -0.08    -0.02   0.01  -0.07
    63   1    -0.04   0.03   0.01    -0.06   0.07   0.02    -0.08   0.07   0.03
    64   1     0.01   0.01  -0.03     0.01   0.02  -0.05     0.03   0.01  -0.08
    65   1    -0.01  -0.02   0.02     0.00  -0.02   0.04     0.01  -0.06   0.06
    66   1    -0.05   0.05   0.00    -0.00   0.02   0.01    -0.02   0.03   0.01
    67   1     0.02   0.02   0.00     0.01   0.01   0.01     0.01   0.02   0.01
    68   1    -0.03  -0.02  -0.00    -0.00   0.00   0.01    -0.01  -0.00   0.01
                     22                     23                     24
                      A                      A                      A
 Frequencies --    209.9250               215.5153               224.8792
 Red. masses --      2.2002                 1.7486                 1.4140
 Frc consts  --      0.0571                 0.0479                 0.0421
 IR Inten    --      0.0000                 0.0000                 0.0000
  Atom  AN      X      Y      Z        X      Y      Z        X      Y      Z
     1  26    -0.01  -0.03  -0.01     0.00  -0.01  -0.00    -0.00  -0.00   0.00
     2   6     0.02  -0.01  -0.03    -0.02   0.01  -0.02     0.00   0.01  -0.01
     3  46     0.01   0.07   0.05    -0.01   0.04  -0.00     0.03  -0.01  -0.01
     4   6    -0.03   0.00   0.01     0.02  -0.00   0.02     0.02  -0.02  -0.02
     5   1    -0.02  -0.05  -0.01     0.01  -0.03  -0.01    -0.01   0.01  -0.00
     6   1    -0.01  -0.04  -0.00    -0.01  -0.02   0.01    -0.00   0.01  -0.00
     7   1    -0.01  -0.03   0.04    -0.02  -0.01  -0.00     0.01   0.01   0.02
     8   6     0.01  -0.00  -0.01    -0.00   0.02   0.02    -0.02   0.00   0.01
     9   8     0.03   0.02  -0.00    -0.02  -0.01  -0.03     0.01   0.00  -0.00
    10   6    -0.02  -0.01  -0.03     0.00  -0.02   0.00     0.03   0.00   0.01
    11   8     0.02  -0.00  -0.01    -0.02   0.03   0.01    -0.02  -0.01  -0.00
    12   6    -0.01  -0.01  -0.02    -0.01  -0.03  -0.01    -0.00  -0.02  -0.00
    13   6    -0.01  -0.01  -0.00    -0.01  -0.02  -0.01    -0.01  -0.00   0.00
    14   6    -0.01  -0.02  -0.02    -0.00  -0.01  -0.01     0.01   0.01   0.01
    15   1    -0.00  -0.00  -0.03    -0.01  -0.03  -0.02    -0.01  -0.04  -0.01
    16   1    -0.01  -0.02   0.01    -0.01  -0.02  -0.01    -0.03   0.00  -0.01
    17   1    -0.02  -0.03  -0.00    -0.00  -0.01  -0.00     0.00   0.03   0.01
    18   1    -0.04   0.01  -0.03    -0.00   0.01   0.01     0.01  -0.02   0.00
    19   6    -0.02  -0.01  -0.03     0.00  -0.02   0.00     0.02  -0.02   0.00
    20   6     0.01  -0.00  -0.02    -0.01   0.04   0.01    -0.01   0.01   0.00
    21   8     0.01  -0.04  -0.05    -0.02  -0.04  -0.06     0.00   0.01  -0.01
    22   6    -0.01  -0.04   0.00    -0.02  -0.01   0.00     0.00   0.01   0.01
    23   6    -0.02  -0.04  -0.01    -0.01  -0.02   0.00    -0.00   0.01  -0.00
    24   6    -0.02  -0.05  -0.01    -0.00  -0.02  -0.01    -0.01   0.01  -0.00
    25   6    -0.02  -0.05  -0.01    -0.00  -0.01  -0.02    -0.01   0.00  -0.00
    26   6    -0.02  -0.05  -0.00    -0.01  -0.01  -0.01    -0.00   0.00   0.00
    27   1    -0.02  -0.04   0.02    -0.01   0.00  -0.01    -0.00  -0.00   0.00
    28   7     0.00   0.00  -0.02     0.01   0.02   0.01    -0.00   0.00   0.01
    29   1     0.02  -0.01  -0.01    -0.00   0.05   0.00    -0.01   0.01   0.01
    30   1    -0.05   0.02   0.00    -0.00   0.01   0.02     0.06  -0.05  -0.02
    31   1    -0.02  -0.01   0.03     0.03   0.01   0.03    -0.00  -0.04  -0.05
    32   1    -0.01  -0.05  -0.02     0.00  -0.02  -0.04    -0.01   0.00   0.01
    33   7    -0.03   0.01   0.00     0.03  -0.01   0.01    -0.00   0.00  -0.01
    34   6    -0.01   0.03   0.01     0.01  -0.03  -0.00    -0.01   0.02  -0.00
    35   6     0.01   0.00  -0.00     0.05  -0.00  -0.00    -0.07  -0.01   0.01
    36   1     0.27   0.37   0.21    -0.14  -0.21  -0.11     0.14   0.19   0.12
    37   1    -0.48   0.01   0.10     0.25  -0.03  -0.04    -0.26   0.01   0.05
    38   1     0.19  -0.30  -0.29    -0.10   0.14   0.14     0.10  -0.16  -0.17
    39   1    -0.00  -0.04   0.06     0.08   0.04  -0.01    -0.14  -0.14   0.05
    40   1    -0.03   0.05  -0.05     0.08  -0.04  -0.01    -0.17   0.11   0.00
    41   1     0.09   0.01  -0.01     0.02   0.01   0.01     0.05  -0.00  -0.01
    42   6    -0.00  -0.01  -0.01     0.01   0.03   0.02    -0.02   0.01  -0.00
    43   6    -0.01  -0.02  -0.01     0.04   0.05   0.04     0.00   0.03   0.01
    44   6    -0.01  -0.02  -0.02     0.00  -0.01  -0.01    -0.01  -0.01  -0.02
    45   6    -0.01   0.02   0.01     0.03   0.03   0.04    -0.02   0.01  -0.00
    46   1     0.01  -0.03   0.01    -0.00   0.05  -0.01    -0.05   0.04  -0.04
    47   1    -0.01  -0.00  -0.02     0.05  -0.01   0.08     0.01  -0.04   0.06
    48   1    -0.03  -0.04  -0.02     0.08   0.10   0.06     0.05   0.09   0.04
    49   1     0.04  -0.03  -0.04     0.11  -0.04  -0.05     0.17  -0.04  -0.12
    50   1    -0.05  -0.06  -0.04    -0.08  -0.08  -0.05    -0.16  -0.15  -0.08
    51   1    -0.02   0.01   0.01    -0.02   0.07   0.05    -0.05   0.13   0.10
    52   1     0.05  -0.13  -0.10     0.01   0.13   0.11    -0.07   0.14   0.09
    53   1     0.09   0.05   0.19    -0.02   0.02  -0.05    -0.09  -0.00  -0.15
    54   1    -0.17   0.14  -0.03     0.09  -0.05   0.09     0.09  -0.09   0.04
    55   8     0.02  -0.00  -0.01    -0.02  -0.02   0.03    -0.03   0.00   0.03
    56   6     0.02  -0.05   0.01    -0.01   0.02  -0.02    -0.03   0.06  -0.01
    57   6     0.02  -0.01  -0.00    -0.01  -0.03  -0.00    -0.03  -0.00   0.01
    58   6     0.01  -0.01  -0.00     0.02  -0.07   0.02    -0.02  -0.01   0.01
    59   6     0.02  -0.01  -0.00    -0.00  -0.09  -0.00    -0.01  -0.02   0.01
    60   1     0.03  -0.06  -0.00    -0.09   0.20  -0.23    -0.09   0.17  -0.11
    61   1     0.03  -0.08   0.01    -0.07  -0.23  -0.04    -0.08  -0.04  -0.02
    62   1    -0.02  -0.05   0.03     0.15   0.13   0.19     0.08   0.12   0.06
    63   1     0.08  -0.07  -0.02     0.23  -0.31  -0.05    -0.11   0.06   0.04
    64   1    -0.03  -0.01   0.08    -0.09  -0.06   0.33     0.05   0.00  -0.09
    65   1    -0.01   0.07  -0.06    -0.06   0.14  -0.17     0.00  -0.11   0.08
    66   1     0.07  -0.06  -0.01    -0.05  -0.05   0.03    -0.23   0.21   0.02
    67   1    -0.06  -0.03  -0.00     0.07  -0.08  -0.05     0.30   0.05  -0.00
    68   1     0.04   0.06  -0.00    -0.02  -0.18   0.01    -0.10  -0.33   0.01
                     25                     26                     27
                      A                      A                      A
 Frequencies --    226.7928               231.4502               236.4859
 Red. masses --      1.2546                 1.8122                 2.0694
 Frc consts  --      0.0380                 0.0572                 0.0682
 IR Inten    --      0.0000                 0.0000                 0.0000
  Atom  AN      X      Y      Z        X      Y      Z        X      Y      Z
     1  26    -0.00   0.01   0.00     0.01  -0.02   0.00     0.01  -0.04   0.01
     2   6    -0.00  -0.00   0.01     0.00   0.01  -0.01     0.02  -0.00   0.01
     3  46    -0.00   0.01  -0.01     0.03  -0.03   0.00     0.02  -0.02   0.00
     4   6     0.01  -0.01   0.00     0.01  -0.00  -0.02    -0.01   0.01  -0.03
     5   1     0.00   0.01   0.01     0.00   0.00  -0.01    -0.00  -0.00  -0.05
     6   1     0.00  -0.00  -0.02     0.00   0.01   0.02    -0.02   0.03   0.06
     7   1     0.01  -0.01  -0.02     0.00   0.02   0.04    -0.02   0.06   0.11
     8   6     0.00  -0.01  -0.01    -0.04   0.02  -0.00     0.01  -0.00   0.03
     9   8     0.03  -0.01   0.02    -0.01   0.01  -0.02     0.05   0.00   0.03
    10   6     0.01  -0.00   0.02     0.01   0.00  -0.01    -0.01  -0.00  -0.04
    11   8     0.01  -0.02  -0.00    -0.05   0.03   0.00     0.02  -0.00   0.06
    12   6    -0.01  -0.02  -0.01    -0.00   0.00   0.03    -0.01   0.02   0.05
    13   6    -0.02  -0.00  -0.01     0.00   0.00   0.02     0.00   0.00   0.04
    14   6    -0.01   0.01   0.01     0.01   0.00   0.00    -0.00  -0.01   0.00
    15   1    -0.01  -0.04  -0.03    -0.01   0.00   0.05    -0.00   0.03   0.09
    16   1    -0.03  -0.00  -0.02    -0.00   0.00   0.02     0.01  -0.00   0.06
    17   1    -0.00   0.03  -0.00     0.01  -0.00  -0.00    -0.01  -0.04   0.02
    18   1    -0.01  -0.01   0.01     0.02  -0.01   0.02    -0.00  -0.01   0.02
    19   6     0.01  -0.02   0.01     0.01  -0.00   0.00    -0.01   0.01  -0.01
    20   6    -0.02   0.01   0.02     0.02   0.01  -0.02    -0.02  -0.03  -0.00
    21   8    -0.01   0.00  -0.03     0.01   0.01   0.02     0.02   0.03   0.02
    22   6     0.01  -0.00  -0.00     0.00   0.01   0.02    -0.02   0.04   0.06
    23   6     0.01  -0.00  -0.00     0.00   0.01   0.01    -0.02   0.03   0.03
    24   6     0.00   0.00   0.01    -0.00   0.01  -0.01    -0.01   0.01  -0.04
    25   6     0.01   0.00   0.03    -0.00   0.00  -0.04    -0.02   0.01  -0.08
    26   6     0.01   0.00   0.02    -0.00   0.00  -0.02    -0.02   0.03  -0.01
    27   1     0.01   0.00   0.02    -0.00  -0.00  -0.04    -0.02   0.04  -0.00
    28   7    -0.01  -0.01   0.02     0.01   0.02  -0.01    -0.02  -0.01   0.01
    29   1    -0.01   0.01   0.03     0.01  -0.00  -0.02    -0.01  -0.04   0.01
    30   1     0.03  -0.03   0.00     0.02  -0.00  -0.02    -0.03   0.04  -0.03
    31   1     0.00  -0.01  -0.01     0.00  -0.02  -0.03     0.01   0.01  -0.01
    32   1     0.00   0.02   0.05    -0.01  -0.02  -0.08    -0.02  -0.04  -0.18
    33   7     0.00  -0.01   0.00    -0.00   0.01  -0.01     0.00   0.01  -0.03
    34   6     0.00  -0.01   0.00    -0.01   0.02  -0.00     0.01   0.03  -0.01
    35   6    -0.01  -0.01   0.01    -0.03   0.01  -0.01    -0.01  -0.00  -0.02
    36   1     0.02   0.01   0.01     0.04   0.08   0.05    -0.02  -0.01  -0.03
    37   1    -0.02  -0.02   0.01    -0.11   0.03   0.01     0.07   0.06  -0.04
    38   1     0.02  -0.03  -0.02     0.02  -0.03  -0.06    -0.01   0.07   0.05
    39   1    -0.04  -0.05   0.02    -0.06  -0.05   0.01     0.01   0.03  -0.05
    40   1    -0.04   0.02   0.01    -0.07   0.06  -0.01     0.02  -0.03   0.00
    41   1     0.02  -0.02  -0.00     0.02   0.01  -0.01    -0.05  -0.01  -0.02
    42   6    -0.02   0.02   0.01     0.01   0.00  -0.01    -0.04  -0.02  -0.01
    43   6     0.01   0.04   0.03    -0.00  -0.01  -0.02    -0.04  -0.03  -0.01
    44   6    -0.00   0.01  -0.01    -0.01  -0.02  -0.02    -0.03  -0.01  -0.01
    45   6    -0.03   0.00  -0.02     0.01   0.02   0.02    -0.05  -0.03  -0.05
    46   1    -0.05   0.05  -0.04    -0.00  -0.01  -0.02     0.01  -0.02   0.08
    47   1     0.03  -0.04   0.09    -0.01   0.00  -0.03    -0.02   0.05  -0.08
    48   1     0.07   0.11   0.06    -0.01  -0.02  -0.03    -0.11  -0.10  -0.03
    49   1     0.26  -0.01  -0.16    -0.10  -0.03   0.05     0.18  -0.01  -0.14
    50   1    -0.21  -0.20  -0.07     0.06   0.06  -0.00    -0.20  -0.18  -0.05
    51   1    -0.04   0.21   0.20     0.00  -0.09  -0.10    -0.07   0.16   0.16
    52   1    -0.11   0.18   0.13     0.05  -0.03  -0.02    -0.10   0.01  -0.00
    53   1    -0.15  -0.04  -0.25     0.06   0.05   0.11    -0.10  -0.05  -0.14
    54   1     0.17  -0.15   0.04    -0.07   0.06   0.02     0.03  -0.07  -0.05
    55   8    -0.00  -0.01  -0.03    -0.06  -0.00   0.02     0.03   0.05   0.02
    56   6     0.02  -0.03   0.01    -0.02   0.15  -0.03    -0.00  -0.05  -0.00
    57   6     0.01  -0.01  -0.01    -0.03   0.01   0.02     0.01   0.04  -0.01
    58   6     0.03  -0.03   0.00    -0.01  -0.03   0.05    -0.03   0.11  -0.04
    59   6     0.00   0.01  -0.01    -0.04  -0.05   0.01     0.01   0.06  -0.01
    60   1     0.07  -0.16   0.16    -0.08   0.17   0.03     0.01   0.00  -0.13
    61   1     0.07   0.15   0.02    -0.06   0.28  -0.02    -0.01  -0.22  -0.01
    62   1    -0.08  -0.10  -0.14     0.06   0.14  -0.16    -0.01  -0.01   0.15
    63   1     0.01  -0.03   0.01     0.09  -0.19   0.01     0.24  -0.08  -0.11
    64   1     0.05  -0.02  -0.00    -0.06  -0.02   0.24    -0.25   0.07   0.24
    65   1     0.03  -0.05   0.02    -0.05   0.09  -0.05    -0.11   0.39  -0.27
    66   1     0.22  -0.23  -0.01     0.24  -0.37   0.05     0.03   0.04  -0.03
    67   1    -0.33  -0.06   0.00    -0.45  -0.16  -0.04    -0.02   0.06   0.01
    68   1     0.09   0.33  -0.01     0.07   0.32   0.03     0.01   0.09  -0.02
                     28                     29                     30
                      A                      A                      A
 Frequencies --    245.4511               263.7532               270.1287
 Red. masses --      2.0663                 2.8380                 2.3000
 Frc consts  --      0.0733                 0.1163                 0.0989
 IR Inten    --      0.0000                 0.0000                 0.0000
  Atom  AN      X      Y      Z        X      Y      Z        X      Y      Z
     1  26    -0.00  -0.01  -0.01     0.02   0.08  -0.02    -0.01   0.01  -0.02
     2   6     0.04   0.00  -0.02     0.02  -0.01   0.01    -0.04   0.01   0.01
     3  46     0.00  -0.02   0.03    -0.03  -0.03   0.02     0.05   0.01  -0.03
     4   6    -0.07   0.05   0.05     0.03  -0.01   0.00    -0.05   0.02   0.08
     5   1    -0.00  -0.02  -0.01     0.04  -0.02   0.14     0.00  -0.03  -0.00
     6   1     0.01   0.01   0.00    -0.00  -0.09  -0.05    -0.00  -0.03  -0.03
     7   1     0.01  -0.02  -0.00    -0.05  -0.10  -0.18    -0.02  -0.03  -0.04
     8   6    -0.01  -0.00  -0.02     0.01   0.03  -0.01     0.01   0.01   0.02
     9   8     0.04   0.02  -0.01     0.02   0.00   0.02    -0.07   0.01  -0.02
    10   6    -0.06   0.00  -0.05     0.03   0.02   0.05    -0.02  -0.00  -0.00
    11   8    -0.02   0.02  -0.02    -0.02   0.04  -0.04     0.02   0.01   0.05
    12   6     0.00   0.07   0.03     0.03  -0.00  -0.07     0.00   0.02  -0.03
    13   6     0.04   0.01   0.02     0.03   0.02  -0.08     0.01   0.00  -0.01
    14   6    -0.01  -0.03  -0.03     0.02   0.03  -0.02    -0.01  -0.01  -0.01
    15   1     0.03   0.12   0.07     0.02  -0.02  -0.09     0.01   0.03  -0.02
    16   1     0.08  -0.00   0.04     0.03   0.02  -0.11     0.02  -0.00  -0.00
    17   1    -0.01  -0.09  -0.02     0.03   0.06  -0.04    -0.01  -0.01   0.00
    18   1    -0.02   0.06  -0.02     0.05   0.02  -0.05    -0.01  -0.00  -0.03
    19   6    -0.06   0.06  -0.02     0.02   0.01   0.04    -0.00   0.02  -0.04
    20   6     0.04  -0.01  -0.04     0.03  -0.03  -0.01    -0.02   0.02   0.02
    21   8     0.05   0.01   0.02     0.03   0.00   0.04    -0.03   0.00   0.00
    22   6     0.01  -0.02  -0.02    -0.02  -0.07  -0.11    -0.01  -0.03  -0.04
    23   6     0.00  -0.02  -0.01     0.00  -0.08  -0.03    -0.01  -0.04  -0.03
    24   6    -0.00  -0.02  -0.01     0.03  -0.03   0.10     0.00  -0.03  -0.00
    25   6    -0.00  -0.02  -0.01     0.03  -0.00   0.10     0.01  -0.01   0.02
    26   6     0.00  -0.03  -0.03     0.00  -0.03  -0.03    -0.00  -0.02   0.01
    27   1     0.00  -0.03  -0.03    -0.01  -0.02  -0.05     0.00  -0.01   0.02
    28   7     0.03   0.00  -0.02     0.00   0.02   0.00     0.00   0.00   0.00
    29   1     0.04  -0.01  -0.02     0.01  -0.05  -0.01    -0.01   0.03   0.00
    30   1    -0.15   0.12   0.05     0.12  -0.07  -0.00    -0.12   0.05   0.08
    31   1    -0.02   0.07   0.13    -0.01  -0.02  -0.07    -0.01   0.02   0.15
    32   1     0.01  -0.02  -0.00     0.03   0.04   0.18     0.01  -0.00   0.05
    33   7    -0.03   0.01   0.03     0.01   0.01   0.02    -0.03  -0.01   0.06
    34   6    -0.02  -0.00   0.02    -0.03  -0.01   0.01    -0.01  -0.05   0.02
    35   6     0.07   0.04   0.00     0.01   0.01   0.02    -0.03   0.03   0.04
    36   1    -0.10  -0.10  -0.05    -0.01   0.01   0.05     0.03   0.02   0.02
    37   1     0.13  -0.00  -0.00    -0.09  -0.05   0.04    -0.10  -0.10   0.06
    38   1    -0.07   0.09   0.11    -0.02  -0.04  -0.06     0.02  -0.12  -0.06
    39   1     0.17   0.22  -0.05    -0.05  -0.11   0.10     0.07   0.25  -0.12
    40   1     0.20  -0.12  -0.01    -0.09   0.12  -0.04     0.14  -0.17   0.12
    41   1    -0.08   0.05   0.04     0.16   0.02  -0.00    -0.30   0.04   0.10
    42   6    -0.00   0.01  -0.03     0.01  -0.03  -0.02    -0.01  -0.01   0.04
    43   6    -0.03  -0.01  -0.06    -0.06  -0.07  -0.07     0.00  -0.02   0.08
    44   6    -0.03  -0.02  -0.04     0.01  -0.00   0.00     0.01   0.04   0.08
    45   6    -0.01   0.06   0.04     0.01  -0.02   0.00     0.00  -0.09  -0.05
    46   1    -0.02  -0.02  -0.05     0.03  -0.09   0.04     0.20  -0.03   0.39
    47   1    -0.06   0.02  -0.08    -0.10   0.07  -0.16     0.08   0.22  -0.16
    48   1    -0.04  -0.04  -0.09    -0.15  -0.21  -0.13    -0.25  -0.25   0.04
    49   1     0.24  -0.05  -0.18     0.15   0.02  -0.10     0.08   0.10  -0.01
    50   1    -0.25  -0.24  -0.10    -0.10  -0.13  -0.01    -0.04  -0.03   0.11
    51   1    -0.09   0.20   0.14    -0.01   0.12   0.13     0.01   0.12   0.18
    52   1    -0.03   0.19   0.13    -0.00   0.03   0.04    -0.00  -0.15  -0.09
    53   1    -0.03   0.09  -0.07    -0.02  -0.02  -0.05    -0.03  -0.16  -0.02
    54   1     0.03  -0.05   0.13     0.04  -0.06   0.03     0.05  -0.03  -0.13
    55   8    -0.01  -0.02  -0.01     0.02   0.03   0.04    -0.01   0.00  -0.01
    56   6     0.00   0.05   0.00    -0.02   0.01  -0.03    -0.01   0.03  -0.01
    57   6    -0.00  -0.01   0.01    -0.01   0.02  -0.00    -0.01   0.00  -0.00
    58   6     0.00  -0.02   0.02    -0.02   0.04  -0.00    -0.01  -0.01   0.01
    59   6     0.00  -0.02   0.01    -0.02  -0.01  -0.00    -0.03  -0.00  -0.00
    60   1    -0.02   0.05   0.05    -0.03   0.05  -0.12    -0.03   0.05  -0.02
    61   1     0.00   0.12   0.01    -0.06  -0.09  -0.03    -0.03   0.04  -0.01
    62   1     0.03   0.04  -0.06     0.01   0.04   0.04     0.01   0.04  -0.02
    63   1    -0.17   0.13   0.07     0.21  -0.18  -0.07     0.01  -0.06   0.00
    64   1     0.12  -0.01  -0.19    -0.19   0.02   0.30    -0.01  -0.01   0.06
    65   1     0.06  -0.19   0.17    -0.09   0.29  -0.20    -0.01   0.00  -0.00
    66   1    -0.03   0.01   0.02    -0.03  -0.01   0.02    -0.02  -0.02   0.01
    67   1     0.04  -0.01  -0.00    -0.02  -0.01  -0.01    -0.06  -0.01  -0.00
    68   1    -0.01  -0.06   0.01    -0.03  -0.02  -0.01    -0.03   0.02  -0.01
                     31                     32                     33
                      A                      A                      A
 Frequencies --    275.4595               285.4153               299.8852
 Red. masses --      1.9922                 1.3162                 2.2471
 Frc consts  --      0.0891                 0.0632                 0.1191
 IR Inten    --      0.0000                 0.0000                 0.0000
  Atom  AN      X      Y      Z        X      Y      Z        X      Y      Z
     1  26     0.00   0.02  -0.02    -0.01  -0.01  -0.01     0.03   0.00   0.01
     2   6     0.01  -0.00   0.00    -0.01   0.00   0.00     0.02   0.02  -0.03
     3  46     0.04  -0.01   0.01     0.00   0.01  -0.01     0.00   0.01   0.01
     4   6    -0.05   0.03   0.05    -0.01   0.01   0.01     0.00  -0.00  -0.02
     5   1     0.01  -0.03   0.04    -0.01  -0.00  -0.02    -0.01   0.00   0.03
     6   1    -0.01  -0.03  -0.01    -0.01   0.01   0.01    -0.01   0.01   0.06
     7   1    -0.04  -0.04  -0.06    -0.01   0.00  -0.00    -0.02   0.00   0.03
     8   6    -0.01  -0.01   0.01     0.00  -0.00   0.01    -0.01  -0.01  -0.04
     9   8     0.05  -0.01   0.02    -0.05   0.01  -0.01    -0.05   0.04  -0.06
    10   6    -0.05  -0.00  -0.02    -0.03  -0.01  -0.02    -0.01  -0.01  -0.01
    11   8    -0.00  -0.01   0.03     0.00   0.01   0.04    -0.01   0.01   0.00
    12   6    -0.00   0.05   0.00    -0.00   0.03   0.03    -0.03  -0.02   0.02
    13   6     0.03   0.01  -0.02     0.02  -0.00   0.01    -0.02  -0.01  -0.03
    14   6    -0.01  -0.02  -0.04    -0.01  -0.03  -0.01    -0.01  -0.00  -0.05
    15   1     0.00   0.08   0.05     0.01   0.06   0.06    -0.04  -0.02   0.03
    16   1     0.07  -0.00  -0.01     0.05  -0.01   0.03    -0.02  -0.01  -0.04
    17   1    -0.00  -0.05  -0.04    -0.01  -0.06  -0.01    -0.00   0.00  -0.06
    18   1    -0.02   0.01  -0.01    -0.02   0.02   0.01     0.01  -0.02   0.04
    19   6    -0.04   0.05  -0.01    -0.03   0.02  -0.01    -0.02  -0.01   0.04
    20   6    -0.03  -0.00   0.01     0.01  -0.00  -0.00     0.04  -0.02  -0.03
    21   8     0.01   0.00  -0.02    -0.01  -0.01   0.02     0.02  -0.03  -0.00
    22   6    -0.02  -0.04  -0.05    -0.01   0.00  -0.00    -0.01   0.00   0.02
    23   6    -0.01  -0.04  -0.01    -0.01   0.00  -0.00    -0.01   0.01   0.05
    24   6     0.00  -0.03   0.02    -0.01  -0.00  -0.02    -0.01   0.00   0.03
    25   6     0.00  -0.01   0.02    -0.01  -0.00  -0.02    -0.01  -0.01  -0.01
    26   6    -0.01  -0.02  -0.02    -0.01   0.00  -0.01    -0.02  -0.01  -0.03
    27   1    -0.01  -0.02  -0.02    -0.01   0.00   0.00    -0.02  -0.02  -0.06
    28   7    -0.02  -0.01  -0.01     0.01  -0.00  -0.01    -0.01  -0.02  -0.12
    29   1    -0.01   0.01   0.04     0.01  -0.00  -0.01     0.04  -0.01  -0.03
    30   1    -0.09   0.06   0.05    -0.03   0.04   0.00     0.01   0.00  -0.02
    31   1    -0.01   0.05   0.10     0.01   0.03   0.03    -0.00  -0.00  -0.02
    32   1     0.01  -0.00   0.04    -0.01  -0.00  -0.03    -0.01  -0.02  -0.04
    33   7    -0.00  -0.01   0.05     0.02  -0.01   0.02    -0.00   0.00  -0.02
    34   6    -0.01  -0.04   0.03     0.03  -0.03   0.00    -0.02   0.02  -0.00
    35   6     0.02   0.03   0.02     0.01   0.01   0.01     0.00  -0.01  -0.02
    36   1    -0.05  -0.08  -0.01    -0.02  -0.09  -0.07    -0.01   0.02   0.02
    37   1     0.04  -0.07   0.03     0.14  -0.05  -0.01    -0.04   0.03  -0.01
    38   1    -0.04  -0.01   0.03     0.00   0.02   0.05    -0.02   0.01  -0.01
    39   1    -0.03  -0.08   0.10    -0.19  -0.39   0.26     0.05   0.08  -0.06
    40   1    -0.07   0.13  -0.07    -0.31   0.38  -0.19     0.07  -0.09   0.03
    41   1     0.18   0.06   0.02     0.53   0.07  -0.05    -0.10  -0.02  -0.01
    42   6    -0.04   0.01   0.00     0.01  -0.01   0.01     0.02  -0.05   0.01
    43   6     0.03   0.06   0.06    -0.01  -0.03  -0.01    -0.02  -0.10   0.02
    44   6    -0.05  -0.03  -0.03     0.04   0.03   0.03     0.05   0.12   0.13
    45   6    -0.07  -0.00  -0.08     0.02  -0.02   0.02     0.00  -0.05  -0.02
    46   1    -0.18   0.08  -0.23     0.05  -0.03   0.08    -0.18  -0.17  -0.33
    47   1     0.05  -0.25   0.31    -0.02   0.06  -0.08    -0.11  -0.39   0.31
    48   1     0.27   0.36   0.17    -0.09  -0.12  -0.04     0.20   0.17   0.12
    49   1    -0.24  -0.07   0.12     0.09   0.07  -0.03     0.04   0.28   0.01
    50   1     0.09   0.13  -0.01    -0.00  -0.02   0.04     0.07   0.07   0.25
    51   1    -0.04  -0.19  -0.21     0.04   0.08   0.11     0.08   0.19   0.26
    52   1    -0.12  -0.05  -0.08     0.03  -0.00   0.02    -0.04   0.02   0.05
    53   1    -0.08  -0.00  -0.09     0.01  -0.03   0.02    -0.06  -0.08  -0.12
    54   1    -0.05   0.04  -0.13     0.03  -0.03   0.03     0.10  -0.11  -0.00
    55   8    -0.00   0.01   0.01    -0.01  -0.01  -0.01    -0.00  -0.01  -0.00
    56   6    -0.00  -0.00  -0.00     0.01   0.00   0.01     0.01   0.03   0.00
    57   6    -0.00   0.01  -0.00     0.00  -0.00  -0.00     0.00   0.00   0.01
    58   6    -0.01   0.03  -0.01     0.00  -0.00  -0.00    -0.02   0.03   0.00
    59   6    -0.00   0.02  -0.00     0.01   0.00  -0.00     0.01  -0.00   0.01
    60   1     0.00   0.00  -0.02     0.01  -0.00   0.03    -0.01   0.04   0.01
    61   1    -0.01  -0.03  -0.00     0.02   0.01   0.01     0.00   0.03   0.01
    62   1    -0.01   0.00   0.02     0.01  -0.00   0.00     0.03   0.03   0.00
    63   1     0.06  -0.02  -0.03    -0.04   0.05   0.01    -0.02   0.05   0.00
    64   1    -0.07   0.02   0.06     0.02  -0.00  -0.07    -0.05   0.02  -0.02
    65   1    -0.03   0.11  -0.07     0.02  -0.04   0.04    -0.01   0.05   0.01
    66   1     0.01   0.01  -0.01     0.01   0.00  -0.01     0.00   0.00   0.01
    67   1    -0.02   0.02   0.01     0.01   0.00   0.00     0.02  -0.00  -0.00
    68   1     0.00   0.04  -0.00     0.01   0.01   0.00     0.01  -0.02   0.01
                     34                     35                     36
                      A                      A                      A
 Frequencies --    305.0777               312.7276               317.4852
 Red. masses --      5.3841                 4.5289                 3.2076
 Frc consts  --      0.2952                 0.2610                 0.1905
 IR Inten    --      0.0000                 0.0000                 0.0000
  Atom  AN      X      Y      Z        X      Y      Z        X      Y      Z
     1  26     0.07   0.03  -0.04    -0.05  -0.01  -0.04     0.06   0.01   0.01
     2   6    -0.04  -0.05   0.07     0.04   0.01  -0.02     0.03   0.05  -0.04
     3  46     0.01   0.03  -0.03    -0.05  -0.00   0.03    -0.02  -0.03   0.02
     4   6     0.03  -0.02   0.01     0.05  -0.03  -0.05     0.01  -0.00  -0.04
     5   1    -0.09   0.00   0.09    -0.05   0.02  -0.08    -0.04   0.02   0.09
     6   1    -0.11   0.01   0.11    -0.04  -0.01  -0.10    -0.04   0.03   0.12
     7   1    -0.15  -0.02  -0.05    -0.02   0.02  -0.02    -0.05  -0.00   0.00
     8   6     0.01  -0.03   0.12     0.09   0.03   0.05     0.00   0.03  -0.03
     9   8    -0.05  -0.03   0.07     0.05   0.01  -0.01     0.07   0.01  -0.04
    10   6     0.04  -0.03  -0.03     0.04  -0.01   0.01    -0.01  -0.01  -0.02
    11   8     0.08  -0.04   0.25     0.15   0.04   0.17     0.01   0.05   0.05
    12   6     0.02  -0.04  -0.02     0.14  -0.00  -0.08    -0.04  -0.03   0.01
    13   6     0.06  -0.05  -0.11     0.12  -0.02   0.04    -0.00  -0.03  -0.08
    14   6     0.06  -0.04  -0.09     0.06  -0.04   0.10     0.01  -0.02  -0.09
    15   1     0.00  -0.03   0.04     0.17   0.03  -0.13    -0.04  -0.03   0.03
    16   1     0.09  -0.05  -0.13     0.13  -0.03   0.03     0.01  -0.03  -0.10
    17   1     0.05  -0.03  -0.07     0.05  -0.08   0.14     0.01  -0.01  -0.10
    18   1    -0.00  -0.02   0.04    -0.01   0.13  -0.15     0.05   0.02   0.06
    19   6     0.02  -0.02   0.02     0.07  -0.00  -0.08    -0.04  -0.02   0.07
    20   6    -0.01  -0.06   0.01     0.02   0.01  -0.02    -0.01   0.07   0.00
    21   8    -0.04   0.01   0.07     0.04  -0.01  -0.01     0.03   0.01  -0.05
    22   6    -0.13  -0.02  -0.04    -0.03   0.02  -0.03    -0.05   0.00   0.01
    23   6    -0.11   0.00   0.08    -0.04   0.01  -0.08    -0.05   0.02   0.10
    24   6    -0.10   0.01   0.08    -0.04   0.01  -0.07    -0.04   0.02   0.08
    25   6    -0.10  -0.01  -0.04    -0.03   0.02   0.01    -0.05  -0.01  -0.02
    26   6    -0.11  -0.02  -0.06    -0.02   0.04   0.07    -0.05  -0.02  -0.07
    27   1    -0.11  -0.03  -0.04    -0.01   0.06   0.18    -0.06  -0.04  -0.11
    28   7     0.02  -0.02   0.13     0.03   0.02  -0.02    -0.00   0.03  -0.06
    29   1    -0.04  -0.07  -0.03     0.03   0.01   0.00     0.03   0.09   0.04
    30   1     0.01   0.01   0.01     0.12  -0.07  -0.06     0.04   0.01  -0.05
    31   1     0.03  -0.03   0.04    -0.00  -0.06  -0.12    -0.00  -0.01  -0.06
    32   1    -0.08   0.01  -0.03    -0.03   0.06   0.09    -0.03  -0.00  -0.04
    33   7     0.01   0.01  -0.00     0.01   0.03  -0.03    -0.00   0.02  -0.02
    34   6     0.01   0.01   0.00     0.03   0.08  -0.00    -0.00   0.04  -0.01
    35   6    -0.02   0.01  -0.00     0.04   0.03  -0.04    -0.01   0.01  -0.02
    36   1     0.04   0.06   0.03     0.01   0.05  -0.00     0.00   0.04   0.02
    37   1    -0.05   0.02   0.01     0.08   0.13  -0.04    -0.01   0.07  -0.02
    38   1     0.03  -0.03  -0.03     0.03   0.10   0.08    -0.00   0.04   0.01
    39   1     0.04   0.15  -0.12     0.05   0.03  -0.01    -0.03  -0.02  -0.00
    40   1     0.09  -0.12   0.09     0.03   0.04  -0.08    -0.04   0.04  -0.04
    41   1    -0.22  -0.00   0.03     0.08   0.05  -0.03     0.03   0.01  -0.03
    42   6     0.02  -0.01  -0.04    -0.02  -0.01   0.01    -0.02   0.05   0.03
    43   6    -0.03  -0.01  -0.14    -0.02  -0.05   0.06     0.05   0.08   0.12
    44   6     0.03  -0.03  -0.06    -0.06   0.00   0.04    -0.04  -0.02  -0.01
    45   6     0.03   0.08   0.10    -0.05  -0.06  -0.10    -0.00  -0.03  -0.06
    46   1    -0.14  -0.01  -0.31    -0.04  -0.09  -0.04     0.24   0.10   0.45
    47   1    -0.13  -0.08  -0.03    -0.02  -0.16   0.15     0.19   0.29  -0.13
    48   1     0.13   0.06  -0.18     0.02   0.05   0.12    -0.22  -0.13   0.11
    49   1     0.03  -0.05  -0.04    -0.09   0.02   0.05    -0.02  -0.07   0.02
    50   1     0.04  -0.00  -0.09    -0.04  -0.01   0.10    -0.07  -0.03  -0.04
    51   1     0.05  -0.06  -0.07    -0.08   0.02   0.02    -0.07  -0.01  -0.04
    52   1     0.06   0.17   0.14    -0.10  -0.10  -0.09     0.00  -0.12  -0.12
    53   1     0.08   0.16   0.09    -0.10  -0.11  -0.14    -0.02  -0.09   0.00
    54   1    -0.06   0.00   0.22     0.04  -0.03  -0.17     0.02   0.05  -0.15
    55   8    -0.04  -0.03  -0.04     0.04  -0.01  -0.04    -0.03  -0.03  -0.06
    56   6     0.01   0.03   0.03    -0.02   0.08  -0.04     0.04  -0.00   0.07
    57   6    -0.01  -0.01  -0.00    -0.02  -0.01  -0.00     0.01  -0.02  -0.01
    58   6    -0.02  -0.00  -0.01    -0.01  -0.07   0.07    -0.02  -0.01   0.02
    59   6     0.00   0.03  -0.00    -0.09  -0.03  -0.00     0.07  -0.07  -0.01
    60   1    -0.02   0.03   0.07    -0.07   0.13  -0.03     0.01  -0.00   0.14
    61   1     0.04   0.05   0.03    -0.07   0.13  -0.03     0.14   0.01   0.07
    62   1     0.02   0.03   0.01     0.08   0.10  -0.09     0.03  -0.00   0.09
    63   1    -0.07   0.08   0.01    -0.13  -0.09   0.08    -0.12   0.07   0.04
    64   1     0.00  -0.01  -0.11     0.09  -0.04   0.05     0.01  -0.01  -0.10
    65   1     0.00  -0.05   0.04     0.03  -0.15   0.16     0.03  -0.06   0.11
    66   1     0.04   0.01  -0.04    -0.12  -0.03   0.07     0.07  -0.08  -0.01
    67   1    -0.03   0.03   0.02    -0.11  -0.04  -0.02     0.11  -0.08  -0.09
    68   1     0.03   0.08   0.01    -0.12  -0.04  -0.06     0.08  -0.11   0.06
                     37                     38                     39
                      A                      A                      A
 Frequencies --    334.2481               347.9834               353.5806
 Red. masses --      2.9859                 3.0966                 4.5160
 Frc consts  --      0.1965                 0.2209                 0.3326
 IR Inten    --      0.0000                 0.0000                 0.0000
  Atom  AN      X      Y      Z        X      Y      Z        X      Y      Z
     1  26    -0.04  -0.00  -0.01    -0.04   0.01  -0.00     0.01   0.00  -0.04
     2   6    -0.01  -0.01   0.01    -0.02   0.03  -0.04     0.00   0.03  -0.06
     3  46     0.00   0.01  -0.00     0.02  -0.02   0.00    -0.02  -0.02   0.04
     4   6     0.04  -0.02  -0.00     0.08  -0.06  -0.08     0.02   0.02   0.03
     5   1     0.02  -0.01  -0.04    -0.01   0.00  -0.03     0.02   0.01   0.01
     6   1     0.01  -0.03  -0.09    -0.02  -0.03  -0.09    -0.01   0.00  -0.05
     7   1     0.01  -0.01  -0.06    -0.01  -0.01  -0.05    -0.01  -0.02  -0.13
     8   6    -0.04   0.00  -0.02    -0.06  -0.01   0.03    -0.04  -0.02   0.05
     9   8    -0.01  -0.00   0.01     0.02   0.01  -0.03     0.05   0.01  -0.04
    10   6     0.03   0.00   0.04    -0.05  -0.06   0.03     0.11   0.07   0.00
    11   8    -0.07   0.06   0.03    -0.07  -0.01   0.03    -0.00  -0.02   0.15
    12   6     0.03   0.01   0.01     0.02   0.00   0.05     0.01   0.04   0.06
    13   6     0.02   0.01   0.05     0.08  -0.07  -0.01    -0.03   0.11   0.11
    14   6     0.02   0.01   0.07     0.01  -0.11   0.00     0.04   0.13   0.07
    15   1     0.04   0.01  -0.01     0.05   0.06   0.10    -0.03  -0.00   0.07
    16   1     0.01   0.01   0.06     0.16  -0.09  -0.05    -0.12   0.12   0.20
    17   1     0.02   0.01   0.07     0.04  -0.17  -0.05     0.01   0.19   0.11
    18   1     0.01   0.04  -0.03    -0.04  -0.01   0.02     0.00   0.09  -0.01
    19   6     0.04  -0.00  -0.03    -0.05  -0.00   0.03     0.10   0.01  -0.02
    20   6     0.01  -0.01  -0.00    -0.04   0.01  -0.01    -0.04   0.01  -0.02
    21   8    -0.01  -0.01   0.01    -0.02   0.04  -0.06    -0.00   0.02  -0.06
    22   6     0.02  -0.01  -0.04    -0.01  -0.00  -0.03    -0.01  -0.02  -0.12
    23   6     0.02  -0.02  -0.08    -0.01  -0.01  -0.05    -0.01  -0.01  -0.06
    24   6     0.02  -0.01  -0.05    -0.01   0.00  -0.02    -0.00  -0.00  -0.05
    25   6     0.02   0.01  -0.01    -0.00   0.02   0.04    -0.00  -0.01  -0.12
    26   6     0.02   0.01   0.00    -0.01   0.02   0.04    -0.01  -0.02  -0.14
    27   1     0.02   0.02   0.01    -0.00   0.03   0.06    -0.01  -0.01  -0.12
    28   7     0.01   0.01   0.03    -0.06  -0.02  -0.05    -0.07  -0.03  -0.10
    29   1    -0.00  -0.02  -0.01    -0.04   0.01  -0.01    -0.03   0.01  -0.01
    30   1     0.10  -0.06  -0.00     0.28  -0.10  -0.12    -0.03   0.01   0.05
    31   1     0.01  -0.03  -0.05    -0.02  -0.06  -0.27     0.04   0.01   0.08
    32   1     0.01  -0.00  -0.00    -0.01   0.05   0.11     0.01  -0.02  -0.16
    33   7     0.03  -0.00   0.02     0.06   0.01   0.02     0.01  -0.01   0.01
    34   6    -0.02  -0.02   0.01    -0.02   0.05   0.08    -0.05  -0.11  -0.05
    35   6     0.01   0.01   0.01     0.04   0.14  -0.05    -0.02  -0.11   0.07
    36   1    -0.00  -0.01   0.05     0.02   0.06   0.20    -0.05  -0.11  -0.07
    37   1    -0.07  -0.04   0.04    -0.12   0.12   0.06    -0.09  -0.23   0.03
    38   1    -0.02  -0.03  -0.05    -0.02   0.05   0.03    -0.07  -0.11  -0.18
    39   1     0.03   0.06  -0.04     0.06   0.23  -0.18    -0.02  -0.13   0.10
    40   1     0.04  -0.03   0.03     0.08   0.08  -0.11    -0.00  -0.12   0.17
    41   1    -0.06   0.02   0.03    -0.04   0.25   0.06    -0.06  -0.20   0.00
    42   6     0.00  -0.01  -0.00    -0.01   0.00   0.00    -0.01   0.01  -0.00
    43   6    -0.01  -0.02  -0.01     0.01   0.03   0.01     0.04   0.05   0.03
    44   6    -0.01  -0.00   0.01     0.05   0.05  -0.00     0.05   0.06   0.00
    45   6    -0.01  -0.00  -0.00     0.04  -0.00   0.06     0.03   0.01   0.07
    46   1    -0.04  -0.03  -0.08     0.02   0.05   0.05     0.04   0.09   0.09
    47   1    -0.03  -0.07   0.04     0.04   0.05  -0.02     0.10   0.06  -0.01
    48   1     0.04   0.03  -0.00    -0.00   0.01   0.00     0.02   0.04   0.04
    49   1    -0.01   0.01   0.00     0.06   0.09  -0.05     0.06   0.12  -0.05
    50   1    -0.00  -0.01   0.02     0.07   0.08  -0.02     0.06   0.08  -0.01
    51   1    -0.01   0.01   0.01     0.11   0.02   0.05     0.11   0.05   0.07
    52   1    -0.02   0.01   0.01     0.11   0.03   0.05     0.11   0.04   0.05
    53   1    -0.01   0.01  -0.02     0.05  -0.01   0.11     0.06   0.01   0.12
    54   1    -0.00  -0.01   0.00    -0.00  -0.03   0.10    -0.01  -0.02   0.12
    55   8    -0.09  -0.04  -0.11    -0.05  -0.01   0.06    -0.04  -0.02   0.05
    56   6     0.07   0.03   0.17    -0.03  -0.06  -0.02    -0.03  -0.04  -0.02
    57   6    -0.02  -0.01  -0.02    -0.01  -0.01   0.02    -0.01  -0.02   0.02
    58   6    -0.12   0.10  -0.01     0.06  -0.02  -0.08     0.05  -0.03  -0.07
    59   6     0.16  -0.08  -0.03     0.03   0.06   0.02     0.01   0.07   0.02
    60   1    -0.04   0.06   0.31     0.03  -0.10  -0.05     0.01  -0.07  -0.05
    61   1     0.29   0.01   0.16    -0.06  -0.07  -0.02    -0.07  -0.03  -0.02
    62   1     0.04   0.04   0.26    -0.08  -0.07  -0.02    -0.06  -0.05  -0.04
    63   1    -0.10   0.13  -0.01     0.16   0.03  -0.09     0.11   0.05  -0.07
    64   1    -0.28   0.04  -0.02     0.07  -0.01  -0.10     0.10  -0.02  -0.14
    65   1    -0.08   0.26   0.01     0.01  -0.06  -0.16     0.02  -0.11  -0.12
    66   1     0.24  -0.13  -0.09     0.06   0.08  -0.07     0.05   0.08  -0.06
    67   1     0.23  -0.11  -0.17     0.01   0.08   0.10    -0.01   0.09   0.11
    68   1     0.24  -0.13   0.18     0.05   0.13   0.03     0.03   0.14   0.02
                     40                     41                     42
                      A                      A                      A
 Frequencies --    362.5998               368.8291               387.1650
 Red. masses --      3.6336                 3.6830                 2.8610
 Frc consts  --      0.2815                 0.2952                 0.2527
 IR Inten    --      0.0000                 0.0000                 0.0000
  Atom  AN      X      Y      Z        X      Y      Z        X      Y      Z
     1  26    -0.00  -0.00   0.00     0.01  -0.01   0.00    -0.00  -0.01   0.01
     2   6     0.08  -0.05   0.03    -0.02   0.05  -0.04    -0.01  -0.01   0.02
     3  46    -0.01   0.02  -0.02     0.01  -0.01   0.00    -0.01   0.00  -0.01
     4   6     0.06  -0.03  -0.02    -0.01   0.01   0.02     0.11  -0.03  -0.08
     5   1     0.00   0.00  -0.00    -0.00   0.00   0.01     0.00   0.02   0.01
     6   1    -0.00  -0.00  -0.01     0.00   0.01   0.03    -0.01   0.01  -0.01
     7   1    -0.00  -0.01  -0.06     0.00  -0.01  -0.00     0.01  -0.01  -0.10
     8   6    -0.02   0.02   0.03    -0.00   0.09   0.08     0.05   0.01  -0.01
     9   8    -0.11   0.05  -0.02     0.03   0.02  -0.03     0.01  -0.02   0.03
    10   6     0.01  -0.01   0.03     0.01   0.01  -0.00    -0.04  -0.01  -0.00
    11   8    -0.07   0.07   0.02    -0.07   0.12  -0.03     0.03   0.02  -0.01
    12   6    -0.02  -0.01   0.05    -0.00  -0.01   0.01    -0.06   0.05   0.09
    13   6    -0.01  -0.01   0.02    -0.01   0.00   0.01    -0.05   0.03   0.06
    14   6     0.00  -0.00   0.01     0.01   0.01   0.00    -0.04   0.00  -0.03
    15   1    -0.02  -0.02   0.06    -0.01  -0.02  -0.01    -0.06   0.07   0.14
    16   1    -0.02  -0.01   0.02    -0.03   0.00   0.02    -0.04   0.02   0.10
    17   1     0.01   0.01  -0.01     0.00   0.02   0.01    -0.04  -0.01  -0.04
    18   1     0.03  -0.01   0.04     0.04   0.05   0.00    -0.02   0.01   0.04
    19   6     0.01  -0.01   0.02     0.01  -0.01   0.01    -0.05   0.03   0.04
    20   6     0.13  -0.04  -0.01    -0.01   0.06  -0.00    -0.00   0.02   0.01
    21   8     0.10  -0.10   0.13    -0.02   0.07  -0.06    -0.02   0.00   0.00
    22   6    -0.00  -0.01  -0.03     0.00  -0.01  -0.00    -0.01   0.00  -0.05
    23   6    -0.00   0.00  -0.01    -0.00   0.00   0.01    -0.01   0.02  -0.01
    24   6    -0.00   0.00  -0.01    -0.01  -0.00   0.00    -0.00   0.02  -0.02
    25   6    -0.00   0.00  -0.03    -0.01  -0.01  -0.03    -0.01   0.01  -0.06
    26   6    -0.00  -0.01  -0.05    -0.00  -0.02  -0.06    -0.01   0.00  -0.07
    27   1    -0.00  -0.01  -0.06    -0.00  -0.04  -0.07    -0.01  -0.00  -0.09
    28   7     0.06   0.02  -0.01     0.08   0.10   0.21     0.03   0.01   0.03
    29   1     0.14  -0.06   0.03    -0.05   0.02  -0.02    -0.00   0.03  -0.00
    30   1     0.13  -0.05  -0.03    -0.05   0.02   0.03     0.30  -0.03  -0.13
    31   1     0.01  -0.03  -0.09     0.01   0.01   0.06     0.01  -0.01  -0.27
    32   1    -0.00  -0.00  -0.04     0.01  -0.01  -0.03     0.01   0.00  -0.10
    33   7     0.03   0.00   0.02    -0.01   0.00  -0.01     0.11  -0.02   0.07
    34   6    -0.02  -0.03   0.01     0.01   0.01  -0.01    -0.07  -0.12   0.05
    35   6     0.00   0.02   0.01    -0.01  -0.01   0.00     0.02   0.05   0.05
    36   1    -0.01  -0.03   0.05     0.01   0.01  -0.03    -0.05  -0.13   0.17
    37   1    -0.09  -0.05   0.04     0.04   0.01  -0.01    -0.26  -0.21   0.13
    38   1    -0.04  -0.03  -0.06     0.02   0.01   0.02    -0.13  -0.11  -0.20
    39   1     0.00   0.04  -0.03    -0.02  -0.03   0.02     0.02   0.09  -0.08
    40   1     0.02  -0.00   0.04    -0.02   0.00   0.01     0.05   0.02   0.08
    41   1    -0.04   0.03   0.03     0.00  -0.02  -0.01    -0.07   0.10   0.11
    42   6     0.06  -0.02   0.00    -0.01   0.04  -0.03    -0.00   0.02  -0.00
    43   6     0.09  -0.00   0.02    -0.13  -0.15   0.01    -0.04  -0.02  -0.01
    44   6    -0.12  -0.08   0.07    -0.06   0.00  -0.03    -0.01  -0.00  -0.02
    45   6    -0.09   0.09  -0.10     0.06  -0.08  -0.07     0.02  -0.02  -0.02
    46   1     0.12   0.03   0.12    -0.10  -0.33  -0.19    -0.03  -0.06  -0.06
    47   1     0.16   0.03  -0.04    -0.27  -0.27   0.19    -0.09  -0.04   0.03
    48   1     0.03  -0.03   0.04    -0.12  -0.04   0.10    -0.03  -0.01   0.00
    49   1    -0.14  -0.15   0.13    -0.10  -0.01   0.01    -0.00  -0.03  -0.00
    50   1    -0.16  -0.20   0.17    -0.03   0.02  -0.00    -0.01   0.01  -0.04
    51   1    -0.29   0.04  -0.04    -0.08  -0.01  -0.08    -0.00  -0.02  -0.04
    52   1    -0.28   0.02  -0.04     0.12  -0.08  -0.10     0.04  -0.02  -0.03
    53   1    -0.05   0.21  -0.21    -0.03  -0.22  -0.05    -0.01  -0.06  -0.01
    54   1    -0.09   0.15  -0.16     0.17  -0.09  -0.12     0.05  -0.02  -0.03
    55   8    -0.04  -0.03   0.06    -0.05   0.01   0.03     0.06   0.03  -0.04
    56   6    -0.02  -0.03  -0.03    -0.02  -0.08   0.01     0.06  -0.01  -0.03
    57   6    -0.00  -0.03   0.03    -0.01  -0.01   0.00     0.06   0.03  -0.03
    58   6     0.06  -0.03  -0.08     0.10  -0.09  -0.05     0.00   0.01   0.11
    59   6     0.02   0.06   0.03     0.04   0.01   0.00    -0.08  -0.04  -0.04
    60   1     0.02  -0.05  -0.06     0.05  -0.14   0.00     0.08  -0.02  -0.05
    61   1    -0.08  -0.02  -0.03    -0.00  -0.10   0.01     0.05  -0.02  -0.04
    62   1    -0.03  -0.04  -0.05    -0.11  -0.10   0.03     0.04  -0.01  -0.02
    63   1     0.12   0.07  -0.07     0.08  -0.03  -0.04    -0.17  -0.04   0.12
    64   1     0.09  -0.03  -0.16     0.23  -0.05  -0.13     0.03   0.02   0.10
    65   1     0.02  -0.11  -0.13     0.07  -0.25  -0.06     0.07   0.02   0.23
    66   1     0.04   0.09  -0.06     0.08   0.01  -0.06    -0.16  -0.06   0.12
    67   1     0.00   0.09   0.13     0.04   0.02   0.02    -0.10  -0.06  -0.09
    68   1     0.03   0.13   0.02     0.07   0.04   0.04    -0.14  -0.11  -0.16
                     43                     44                     45
                      A                      A                      A
 Frequencies --    413.6506               415.9952               422.3674
 Red. masses --      2.9847                 3.0522                 3.2625
 Frc consts  --      0.3009                 0.3112                 0.3429
 IR Inten    --      0.0000                 0.0000                 0.0000
  Atom  AN      X      Y      Z        X      Y      Z        X      Y      Z
     1  26    -0.01   0.01   0.00     0.00  -0.00  -0.01     0.01  -0.02  -0.01
     2   6     0.00   0.02  -0.02    -0.05   0.02  -0.06     0.02   0.04  -0.01
     3  46     0.02  -0.00   0.00    -0.00  -0.01   0.01    -0.00  -0.02   0.01
     4   6    -0.05  -0.02   0.05     0.01   0.01  -0.02     0.05   0.03  -0.04
     5   1     0.01   0.02   0.02    -0.01  -0.00  -0.00    -0.03  -0.02  -0.04
     6   1     0.01   0.00  -0.07    -0.01  -0.00   0.01    -0.02   0.00   0.08
     7   1    -0.01  -0.03  -0.14    -0.00   0.01   0.04     0.00   0.05   0.19
     8   6    -0.05   0.04   0.01    -0.01  -0.03   0.03    -0.04   0.06   0.01
     9   8    -0.01   0.02  -0.03     0.04   0.01  -0.01    -0.02   0.02  -0.05
    10   6     0.00  -0.01   0.06     0.00   0.01  -0.03     0.02   0.02  -0.08
    11   8    -0.01   0.00   0.03     0.02  -0.08  -0.03    -0.01   0.03  -0.00
    12   6    -0.02  -0.04   0.07     0.00   0.02  -0.01     0.03   0.05  -0.07
    13   6    -0.01  -0.03   0.04     0.01   0.01  -0.02     0.03   0.04  -0.05
    14   6     0.01  -0.02   0.05     0.00   0.01  -0.03     0.01   0.03  -0.07
    15   1    -0.02  -0.04   0.11     0.00   0.02   0.00     0.04   0.05  -0.11
    16   1    -0.04  -0.03   0.06     0.02   0.01  -0.03     0.06   0.03  -0.08
    17   1     0.01  -0.01   0.05     0.01   0.00  -0.03     0.02   0.02  -0.07
    18   1    -0.01  -0.07   0.07    -0.03  -0.00  -0.01    -0.01   0.07  -0.06
    19   6     0.00  -0.04   0.06     0.00   0.02  -0.02     0.02   0.04  -0.07
    20   6    -0.02  -0.02   0.00    -0.04  -0.05  -0.06    -0.01   0.01   0.03
    21   8     0.00   0.01  -0.02    -0.06   0.09  -0.09     0.02   0.00  -0.02
    22   6     0.00  -0.02  -0.11    -0.01   0.01   0.03    -0.01   0.03   0.13
    23   6     0.01  -0.00  -0.05    -0.01  -0.00   0.01    -0.02   0.00   0.05
    24   6     0.00   0.01  -0.01    -0.00  -0.00   0.00    -0.02  -0.01  -0.01
    25   6     0.00   0.01  -0.02    -0.01  -0.00   0.02    -0.02  -0.01   0.03
    26   6    -0.00  -0.02  -0.10    -0.00   0.01   0.05    -0.01   0.02   0.12
    27   1     0.00  -0.04  -0.13    -0.00   0.02   0.08    -0.01   0.03   0.15
    28   7    -0.06   0.04   0.02    -0.01  -0.01   0.10    -0.06   0.05  -0.00
    29   1    -0.05  -0.07  -0.00    -0.12  -0.10  -0.13    -0.03  -0.03   0.04
    30   1    -0.11  -0.04   0.08     0.04   0.02  -0.03     0.07   0.07  -0.06
    31   1    -0.01  -0.00   0.11    -0.00  -0.00  -0.04     0.03   0.01  -0.06
    32   1     0.02   0.02  -0.02    -0.01   0.00   0.04    -0.02   0.01   0.08
    33   7    -0.05  -0.02  -0.05     0.01   0.01   0.02     0.05   0.02   0.04
    34   6     0.04   0.09   0.02    -0.01  -0.04  -0.00    -0.04  -0.09  -0.02
    35   6    -0.02  -0.00  -0.07    -0.00   0.01   0.03     0.02  -0.01   0.07
    36   1     0.05   0.10   0.01    -0.01  -0.04  -0.01    -0.05  -0.10  -0.02
    37   1     0.11   0.21  -0.06    -0.04  -0.08   0.03    -0.11  -0.20   0.06
    38   1     0.08   0.08   0.18    -0.02  -0.04  -0.06    -0.08  -0.07  -0.18
    39   1    -0.03  -0.01  -0.06    -0.02  -0.02   0.04     0.02   0.00   0.06
    40   1    -0.04   0.01  -0.10    -0.02   0.03   0.02     0.04  -0.02   0.12
    41   1     0.00   0.02  -0.05     0.03   0.01   0.02    -0.03  -0.05   0.04
    42   6     0.03  -0.07   0.03     0.10  -0.04  -0.11     0.01  -0.07   0.08
    43   6     0.06   0.00  -0.06     0.16  -0.11   0.03     0.00   0.04  -0.09
    44   6     0.03  -0.04   0.08    -0.11   0.05   0.09     0.08  -0.07   0.07
    45   6    -0.07   0.03   0.01     0.03   0.13  -0.01    -0.10  -0.02   0.01
    46   1    -0.02   0.10  -0.04     0.24  -0.14   0.12    -0.12   0.15  -0.13
    47   1     0.06   0.04  -0.09     0.25  -0.13  -0.00    -0.05   0.08  -0.10
    48   1     0.14  -0.03  -0.13     0.01  -0.08   0.14     0.17  -0.01  -0.23
    49   1     0.01   0.00   0.05    -0.21   0.14   0.07     0.09  -0.06   0.05
    50   1     0.05  -0.05   0.12    -0.08  -0.11   0.37     0.09  -0.03   0.02
    51   1     0.02  -0.02   0.09    -0.28   0.22   0.05     0.13  -0.11   0.10
    52   1    -0.18   0.00   0.05    -0.03   0.18   0.05    -0.23  -0.08   0.03
    53   1    -0.01   0.15  -0.06     0.13   0.30  -0.05    -0.07   0.06  -0.06
    54   1    -0.13   0.06   0.01    -0.11   0.10   0.10    -0.11   0.03  -0.04
    55   8    -0.01   0.10  -0.03     0.01   0.02  -0.00    -0.04   0.07  -0.00
    56   6     0.02  -0.07   0.00     0.01   0.00   0.01    -0.04  -0.05   0.04
    57   6     0.03   0.10  -0.04    -0.00   0.01  -0.02    -0.04   0.07  -0.02
    58   6     0.06  -0.00   0.09    -0.02   0.01   0.02     0.06  -0.05   0.01
    59   6    -0.04  -0.07  -0.06    -0.00  -0.00  -0.02     0.03  -0.04  -0.03
    60   1     0.14  -0.18  -0.01    -0.00   0.01   0.03     0.03  -0.12   0.04
    61   1     0.08  -0.16  -0.00     0.04  -0.00   0.01     0.02  -0.10   0.03
    62   1    -0.16  -0.11   0.09    -0.00   0.01   0.03    -0.17  -0.07   0.10
    63   1    -0.08  -0.12   0.09    -0.03  -0.04   0.01     0.03  -0.12  -0.00
    64   1     0.19   0.05   0.15    -0.04   0.01   0.06     0.21   0.00   0.05
    65   1     0.10  -0.08   0.18    -0.01   0.04   0.02     0.04  -0.18   0.01
    66   1    -0.08  -0.13   0.12    -0.00  -0.01  -0.01     0.06  -0.08  -0.01
    67   1    -0.04  -0.12  -0.22    -0.01  -0.01  -0.03     0.06  -0.07  -0.15
    68   1    -0.07  -0.16  -0.08    -0.00  -0.00  -0.01     0.05  -0.08   0.06
                     46                     47                     48
                      A                      A                      A
 Frequencies --    433.4585               443.5373               449.8642
 Red. masses --      3.4793                 3.9197                 3.4972
 Frc consts  --      0.3852                 0.4543                 0.4170
 IR Inten    --      0.0000                 0.0000                 0.0000
  Atom  AN      X      Y      Z        X      Y      Z        X      Y      Z
     1  26    -0.00  -0.00  -0.01    -0.01  -0.01  -0.01    -0.01  -0.00  -0.01
     2   6     0.09  -0.07  -0.02    -0.06  -0.03   0.06     0.03   0.03  -0.08
     3  46     0.00   0.00  -0.01     0.00  -0.00   0.00    -0.01  -0.00   0.00
     4   6     0.02   0.01   0.02     0.01   0.02   0.03     0.03   0.03   0.05
     5   1    -0.03  -0.01  -0.06    -0.02  -0.03  -0.06    -0.04  -0.04  -0.10
     6   1    -0.02  -0.01  -0.06    -0.01  -0.01   0.01    -0.03  -0.03  -0.11
     7   1    -0.02   0.01   0.03    -0.01   0.02   0.12    -0.03  -0.00   0.03
     8   6    -0.08   0.00   0.00    -0.05   0.00  -0.06    -0.00  -0.04   0.08
     9   8    -0.05   0.05  -0.03     0.04  -0.08   0.09    -0.03   0.08  -0.09
    10   6     0.03   0.00  -0.02     0.04   0.01  -0.01     0.05   0.01   0.00
    11   8     0.00  -0.10   0.00    -0.13   0.15   0.05    -0.11   0.02  -0.03
    12   6     0.01   0.01   0.04     0.03   0.00  -0.02     0.00  -0.00   0.09
    13   6     0.03  -0.00  -0.03     0.04  -0.00  -0.05     0.05  -0.01  -0.05
    14   6     0.03   0.00  -0.03     0.03   0.01  -0.02     0.05   0.00  -0.05
    15   1    -0.00   0.02   0.10     0.02  -0.00  -0.02    -0.01   0.01   0.17
    16   1     0.05  -0.00  -0.06     0.06  -0.00  -0.10     0.08  -0.01  -0.12
    17   1     0.05  -0.00  -0.07     0.05   0.01  -0.05     0.09   0.00  -0.13
    18   1    -0.07  -0.09   0.06     0.07   0.07  -0.03     0.00  -0.02   0.05
    19   6     0.02   0.00   0.01     0.03  -0.00  -0.02     0.02  -0.01   0.06
    20   6     0.02  -0.05  -0.02    -0.01   0.00  -0.02     0.01  -0.02   0.00
    21   8     0.11  -0.08   0.12    -0.07  -0.01   0.01     0.04   0.04  -0.03
    22   6    -0.02   0.01   0.01    -0.00   0.01   0.07    -0.03  -0.01   0.01
    23   6    -0.02  -0.01  -0.03    -0.01  -0.02  -0.00    -0.02  -0.03  -0.06
    24   6    -0.02  -0.01  -0.03    -0.01  -0.02  -0.03    -0.02  -0.02  -0.05
    25   6    -0.02  -0.00   0.03    -0.01  -0.01   0.02    -0.02  -0.01   0.03
    26   6    -0.01   0.02   0.08    -0.00  -0.00   0.05    -0.02   0.02   0.08
    27   1    -0.01   0.04   0.12    -0.00  -0.00   0.05    -0.02   0.04   0.13
    28   7    -0.08   0.01   0.00     0.01  -0.01  -0.09     0.05  -0.03   0.09
    29   1     0.05  -0.12   0.11    -0.01   0.05  -0.08     0.03  -0.03   0.05
    30   1    -0.03   0.02   0.03    -0.06   0.02   0.04    -0.07   0.02   0.08
    31   1     0.04   0.00   0.06     0.05   0.02   0.09     0.08   0.03   0.14
    32   1    -0.02   0.03   0.10    -0.02  -0.01   0.04    -0.04   0.00   0.08
    33   7     0.01   0.02  -0.00     0.00   0.02  -0.02     0.01   0.04  -0.03
    34   6    -0.01  -0.00  -0.03     0.00   0.01  -0.03    -0.01   0.02  -0.06
    35   6    -0.00  -0.02   0.02    -0.01  -0.02   0.01    -0.02  -0.04   0.03
    36   1    -0.02  -0.01  -0.05    -0.00   0.01  -0.05    -0.01   0.01  -0.08
    37   1     0.00  -0.04  -0.01     0.01  -0.01  -0.02     0.00  -0.02  -0.03
    38   1    -0.02   0.00  -0.05    -0.00   0.01  -0.04    -0.01   0.02  -0.08
    39   1    -0.01  -0.03   0.04    -0.02  -0.04   0.03    -0.02  -0.06   0.05
    40   1    -0.00  -0.02   0.07    -0.01  -0.01   0.06    -0.01  -0.04   0.13
    41   1    -0.02  -0.06  -0.01    -0.02  -0.07  -0.03    -0.06  -0.12  -0.04
    42   6    -0.06   0.09  -0.09     0.02   0.01  -0.03    -0.04  -0.02   0.03
    43   6    -0.03  -0.00   0.10     0.02  -0.02   0.01    -0.01   0.05   0.01
    44   6    -0.07   0.09  -0.12    -0.02   0.03  -0.00     0.03  -0.02   0.00
    45   6     0.10  -0.00   0.02     0.03   0.03  -0.00    -0.04  -0.04   0.02
    46   1     0.07  -0.11   0.12     0.05  -0.05   0.02    -0.05   0.12   0.02
    47   1     0.05  -0.11   0.14     0.03  -0.03   0.01     0.03   0.06  -0.02
    48   1    -0.17   0.09   0.26    -0.03  -0.01   0.04     0.04   0.04  -0.03
    49   1    -0.05   0.08  -0.11    -0.04   0.04  -0.01     0.04  -0.01  -0.01
    50   1    -0.07   0.08  -0.12    -0.02  -0.01   0.05     0.05   0.04  -0.05
    51   1    -0.06   0.09  -0.11    -0.05   0.06  -0.01     0.09  -0.07   0.02
    52   1     0.30   0.07  -0.03     0.04   0.05   0.01    -0.04  -0.06   0.01
    53   1     0.07  -0.13   0.14     0.03   0.04  -0.00    -0.05  -0.05   0.03
    54   1     0.11  -0.08   0.09     0.01   0.00   0.03    -0.04  -0.02   0.00
    55   8    -0.03   0.10  -0.02    -0.08  -0.06  -0.10     0.01  -0.05   0.08
    56   6    -0.03  -0.05   0.03     0.06  -0.07  -0.10     0.16  -0.01  -0.04
    57   6    -0.02   0.11  -0.03     0.14   0.03   0.09     0.10  -0.09  -0.07
    58   6     0.05   0.00   0.05     0.12   0.13   0.05    -0.07   0.02   0.05
    59   6     0.00  -0.05  -0.04    -0.07  -0.06   0.10    -0.06   0.05  -0.08
    60   1     0.07  -0.14   0.02     0.23  -0.14  -0.28     0.08   0.03   0.02
    61   1     0.04  -0.13   0.02    -0.18  -0.10  -0.10     0.22   0.01  -0.04
    62   1    -0.19  -0.08   0.11    -0.00  -0.10  -0.15     0.21   0.01  -0.04
    63   1     0.01  -0.12   0.03     0.11   0.30   0.08    -0.23   0.03   0.07
    64   1     0.16   0.05   0.14     0.02   0.08  -0.11    -0.22  -0.03   0.01
    65   1     0.04  -0.07   0.06     0.13   0.15   0.07     0.03   0.19   0.20
    66   1     0.01  -0.11   0.06    -0.17  -0.09   0.35    -0.14   0.13  -0.06
    67   1     0.01  -0.10  -0.21    -0.11  -0.09   0.02    -0.12   0.10   0.14
    68   1     0.01  -0.12   0.02    -0.16  -0.14  -0.08    -0.13   0.12  -0.29
                     49                     50                     51
                      A                      A                      A
 Frequencies --    456.5363               462.7661               468.0208
 Red. masses --      4.5596                 3.5832                 2.4730
 Frc consts  --      0.5599                 0.4521                 0.3192
 IR Inten    --      0.0000                 0.0000                 0.0000
  Atom  AN      X      Y      Z        X      Y      Z        X      Y      Z
     1  26     0.00   0.00   0.00    -0.00  -0.01   0.00     0.00   0.00  -0.01
     2   6     0.06   0.03  -0.11    -0.03   0.04   0.05     0.01   0.00  -0.01
     3  46    -0.01   0.00  -0.00     0.00   0.00   0.00    -0.02  -0.00   0.00
     4   6    -0.00  -0.01  -0.03     0.04   0.04   0.04     0.04   0.04   0.09
     5   1     0.01   0.02   0.04    -0.06  -0.02  -0.13    -0.01  -0.04  -0.06
     6   1    -0.00   0.00  -0.01    -0.04  -0.03  -0.24     0.00  -0.01  -0.01
     7   1     0.01  -0.01  -0.08    -0.06  -0.02  -0.11    -0.01   0.01   0.09
     8   6     0.01  -0.06  -0.02     0.03   0.01  -0.08     0.01   0.00  -0.01
     9   8    -0.05   0.12  -0.13     0.03  -0.05   0.03    -0.00   0.01  -0.01
    10   6    -0.02  -0.01   0.00     0.03  -0.01  -0.01     0.00   0.01   0.01
    11   8     0.07  -0.12  -0.02     0.08  -0.03  -0.05     0.02  -0.01  -0.01
    12   6    -0.01  -0.01   0.01    -0.04  -0.01   0.20     0.00   0.04  -0.01
    13   6    -0.02  -0.00   0.02     0.03  -0.02   0.01     0.00   0.04  -0.01
    14   6    -0.01  -0.01   0.01     0.04  -0.02  -0.08    -0.00   0.03  -0.03
    15   1    -0.01  -0.00   0.01    -0.03   0.04   0.31     0.01   0.04  -0.02
    16   1    -0.03  -0.00   0.05     0.04  -0.02  -0.03     0.02   0.04  -0.03
    17   1    -0.02  -0.01   0.03     0.10  -0.04  -0.20    -0.00   0.03  -0.03
    18   1    -0.05  -0.03   0.02    -0.07  -0.09   0.16    -0.02   0.05  -0.01
    19   6    -0.01  -0.00   0.00    -0.01  -0.03   0.14    -0.01   0.04   0.03
    20   6     0.00  -0.03   0.01     0.01   0.08   0.03     0.00  -0.00   0.00
    21   8     0.07   0.05  -0.04    -0.04   0.01  -0.03     0.01   0.00  -0.00
    22   6    -0.00  -0.00  -0.04    -0.05  -0.01  -0.08    -0.00  -0.01   0.03
    23   6     0.00   0.01  -0.00    -0.04  -0.02  -0.11    -0.00  -0.02  -0.01
    24   6     0.01   0.01   0.02    -0.04  -0.01  -0.07    -0.00  -0.03  -0.03
    25   6     0.00   0.01  -0.00    -0.04   0.01   0.04    -0.00  -0.03  -0.01
    26   6     0.00   0.01  -0.01    -0.03   0.05   0.10     0.00  -0.01   0.03
    27   1     0.00   0.02  -0.00    -0.03   0.08   0.14     0.00  -0.01   0.06
    28   7     0.06  -0.02   0.21     0.02   0.01  -0.05     0.00   0.00   0.02
    29   1     0.02  -0.07   0.08    -0.01   0.12  -0.04    -0.00  -0.01   0.01
    30   1     0.08  -0.02  -0.04    -0.05   0.04   0.06    -0.25   0.09   0.15
    31   1    -0.05  -0.04  -0.09     0.07   0.03   0.12     0.24   0.23   0.28
    32   1     0.00   0.00  -0.02    -0.05   0.05   0.14    -0.00  -0.04  -0.04
    33   7    -0.02   0.01   0.02     0.00   0.07  -0.02     0.18  -0.13  -0.07
    34   6    -0.00  -0.02   0.00    -0.01   0.02  -0.08    -0.00   0.01   0.11
    35   6     0.02   0.01   0.02    -0.01  -0.04   0.05    -0.09  -0.03  -0.12
    36   1    -0.00  -0.00  -0.04    -0.01   0.03  -0.13    -0.00  -0.09   0.40
    37   1     0.01  -0.05   0.02     0.00  -0.05  -0.04    -0.13   0.20   0.02
    38   1     0.01  -0.03  -0.01    -0.01   0.01  -0.13    -0.07   0.10   0.12
    39   1     0.05   0.04   0.05    -0.01  -0.06   0.10    -0.23  -0.13  -0.39
    40   1     0.04  -0.01  -0.02     0.01  -0.04   0.16    -0.18   0.09   0.01
    41   1     0.03   0.02   0.02    -0.04  -0.15  -0.04    -0.19   0.10   0.01
    42   6    -0.04  -0.02   0.03     0.07   0.03   0.04     0.00  -0.00   0.00
    43   6    -0.01   0.05   0.00    -0.02  -0.03  -0.04     0.00  -0.00  -0.00
    44   6     0.03  -0.02   0.00     0.00  -0.05   0.04     0.00  -0.00   0.00
    45   6    -0.05  -0.05   0.02     0.02   0.03  -0.06    -0.00  -0.00  -0.00
    46   1    -0.06   0.12   0.02    -0.01  -0.10  -0.11    -0.00   0.00   0.00
    47   1     0.03   0.05  -0.02    -0.16   0.02  -0.01    -0.00  -0.00  -0.00
    48   1     0.05   0.05  -0.03    -0.01  -0.09  -0.10    -0.00  -0.00  -0.00
    49   1     0.04  -0.01  -0.01     0.02  -0.12   0.09     0.00  -0.00   0.00
    50   1     0.05   0.03  -0.05    -0.03  -0.08   0.03    -0.00  -0.00   0.00
    51   1     0.09  -0.08   0.03    -0.06  -0.02  -0.03    -0.00  -0.00   0.00
    52   1    -0.05  -0.06   0.01    -0.07  -0.02  -0.04    -0.00  -0.00  -0.00
    53   1    -0.05  -0.05   0.03    -0.00   0.03  -0.11    -0.00   0.00  -0.00
    54   1    -0.04  -0.02  -0.00     0.07   0.07  -0.12     0.00   0.00  -0.00
    55   8    -0.03  -0.07  -0.17     0.04   0.00  -0.04     0.01  -0.01  -0.02
    56   6    -0.07   0.01  -0.05    -0.08   0.03   0.02    -0.02   0.01   0.00
    57   6     0.03   0.04   0.15    -0.06   0.01   0.04    -0.01   0.00   0.02
    58   6     0.06   0.13  -0.01     0.00  -0.01  -0.04     0.00  -0.00  -0.01
    59   6    -0.01  -0.06   0.18     0.04  -0.01   0.05     0.01  -0.01   0.02
    60   1     0.04  -0.01  -0.23    -0.10   0.05   0.00    -0.02   0.02  -0.01
    61   1    -0.34   0.02  -0.04    -0.13   0.06   0.02    -0.05   0.02   0.00
    62   1    -0.02  -0.01  -0.14    -0.04   0.04  -0.01    -0.00   0.01  -0.01
    63   1     0.27   0.28  -0.01     0.12  -0.01  -0.05     0.04   0.02  -0.01
    64   1    -0.06   0.08  -0.08     0.03  -0.00  -0.02     0.01  -0.00  -0.02
    65   1    -0.01   0.16  -0.17    -0.05  -0.06  -0.14    -0.01  -0.01  -0.04
    66   1    -0.02  -0.13   0.30     0.09  -0.03  -0.01     0.02  -0.01   0.01
    67   1    -0.01  -0.11   0.02     0.07  -0.02  -0.01     0.02  -0.01   0.00
    68   1    -0.02  -0.14   0.19     0.08  -0.03   0.16     0.02  -0.01   0.05
                     52                     53                     54
                      A                      A                      A
 Frequencies --    494.1946               496.2810               511.9211
 Red. masses --      3.4650                 3.2999                 3.5059
 Frc consts  --      0.4986                 0.4789                 0.5413
 IR Inten    --      0.0000                 0.0000                 0.0000
  Atom  AN      X      Y      Z        X      Y      Z        X      Y      Z
     1  26    -0.02   0.03   0.03    -0.04  -0.01   0.02     0.02  -0.01   0.01
     2   6    -0.00  -0.00   0.00    -0.01  -0.03  -0.01    -0.03  -0.09  -0.03
     3  46     0.00  -0.00  -0.01     0.00   0.00   0.00    -0.00   0.00  -0.01
     4   6     0.01   0.01  -0.00     0.10   0.12   0.05    -0.02  -0.04  -0.01
     5   1    -0.02  -0.16  -0.32     0.05   0.03   0.11    -0.04  -0.02  -0.08
     6   1     0.00  -0.09   0.03     0.05   0.07   0.15    -0.03  -0.03  -0.14
     7   1     0.03  -0.02   0.15     0.02  -0.03  -0.11    -0.04  -0.00  -0.01
     8   6     0.01  -0.00   0.00     0.03   0.02  -0.00     0.09   0.06  -0.02
     9   8    -0.00  -0.00   0.00     0.01   0.00   0.02     0.03  -0.01   0.07
    10   6    -0.06   0.06   0.19    -0.09  -0.03   0.00     0.04   0.01  -0.00
    11   8     0.03  -0.01   0.01     0.02   0.04   0.00     0.02   0.14  -0.06
    12   6     0.02   0.05  -0.03     0.03  -0.04  -0.04    -0.03   0.01   0.07
    13   6     0.06   0.01  -0.16     0.04  -0.09   0.00    -0.03   0.03   0.01
    14   6    -0.02   0.04   0.10    -0.03  -0.11   0.03     0.02   0.03  -0.05
    15   1     0.03   0.07  -0.04     0.07   0.02  -0.06    -0.03  -0.01   0.06
    16   1     0.16   0.02  -0.41     0.07  -0.10   0.02    -0.04   0.03   0.00
    17   1    -0.03   0.06   0.10    -0.04  -0.20   0.08     0.04   0.06  -0.12
    18   1    -0.05  -0.01   0.03     0.00   0.01  -0.05     0.07   0.02   0.04
    19   6    -0.06   0.09   0.16    -0.09  -0.03  -0.03     0.02  -0.01   0.05
    20   6    -0.01  -0.00  -0.00    -0.01  -0.04  -0.04     0.00  -0.09  -0.12
    21   8    -0.00   0.01   0.00    -0.00   0.00   0.01    -0.03   0.00   0.04
    22   6     0.02  -0.03   0.09     0.03  -0.01  -0.05    -0.03   0.00  -0.01
    23   6     0.01  -0.07  -0.00     0.03   0.03   0.05    -0.02  -0.01  -0.05
    24   6     0.01  -0.09  -0.12     0.03   0.02   0.06    -0.03  -0.00  -0.04
    25   6    -0.01  -0.10  -0.16     0.04   0.04   0.04    -0.03  -0.00   0.00
    26   6     0.00  -0.08  -0.02     0.02  -0.01  -0.11    -0.02   0.02   0.04
    27   1     0.01  -0.10  -0.01     0.02  -0.03  -0.17    -0.02   0.02   0.05
    28   7    -0.00  -0.00   0.01     0.01   0.00   0.02     0.08   0.04   0.04
    29   1    -0.01  -0.01  -0.00    -0.01  -0.05  -0.03     0.01  -0.08  -0.12
    30   1     0.18  -0.13  -0.00    -0.07   0.16   0.08     0.02  -0.05  -0.02
    31   1    -0.09   0.05  -0.21     0.20   0.24   0.13    -0.05  -0.09  -0.02
    32   1     0.02  -0.22  -0.45     0.06   0.04   0.03    -0.04   0.01   0.05
    33   7    -0.02   0.04  -0.01     0.13   0.12  -0.06    -0.05  -0.02   0.02
    34   6    -0.00   0.02  -0.05    -0.04   0.05  -0.13     0.01  -0.01   0.03
    35   6     0.01  -0.01   0.03    -0.03  -0.05   0.07     0.01   0.01  -0.01
    36   1    -0.01   0.03  -0.09    -0.06  -0.01  -0.09     0.02   0.01   0.00
    37   1     0.02  -0.02  -0.03    -0.10  -0.07  -0.05     0.04   0.01   0.01
    38   1     0.00   0.01  -0.05    -0.10   0.09  -0.30     0.03  -0.03   0.08
    39   1     0.03  -0.01   0.08    -0.09  -0.14   0.06     0.03   0.04   0.00
    40   1     0.02  -0.02   0.06    -0.04  -0.00   0.37     0.02  -0.01  -0.10
    41   1     0.01  -0.07  -0.02    -0.14  -0.24  -0.06     0.04   0.05   0.02
    42   6    -0.00  -0.00  -0.00    -0.04  -0.04  -0.03    -0.12  -0.12  -0.08
    43   6     0.01   0.00  -0.00     0.03   0.01   0.01     0.07   0.04   0.02
    44   6    -0.00   0.00  -0.00    -0.00   0.03  -0.01     0.00   0.06  -0.03
    45   6    -0.00  -0.00   0.00    -0.04  -0.03   0.04    -0.12  -0.10   0.10
    46   1     0.00   0.01   0.01     0.00   0.08   0.06    -0.01   0.23   0.18
    47   1     0.02  -0.00  -0.00     0.14  -0.02  -0.02     0.36  -0.05  -0.07
    48   1     0.00   0.00   0.00     0.03   0.06   0.04     0.09   0.14   0.10
    49   1    -0.00   0.01  -0.01    -0.02   0.11  -0.06    -0.06   0.28  -0.18
    50   1     0.00   0.00   0.00     0.03   0.05   0.02     0.10   0.13   0.03
    51   1     0.00   0.00   0.00     0.05   0.01   0.05     0.15   0.02   0.13
    52   1     0.00   0.00   0.00     0.00   0.00   0.04    -0.01  -0.02   0.09
    53   1     0.00   0.00   0.01    -0.01  -0.00   0.06    -0.06  -0.04   0.15
    54   1    -0.01  -0.00   0.01    -0.08  -0.05   0.09    -0.22  -0.16   0.21
    55   8     0.02   0.01  -0.01     0.02   0.01  -0.01     0.06   0.01  -0.02
    56   6    -0.02   0.01   0.01    -0.03   0.01   0.01    -0.05   0.02   0.02
    57   6    -0.01   0.01   0.00    -0.02   0.01   0.00    -0.04   0.00   0.01
    58   6     0.00  -0.01  -0.00     0.00  -0.01  -0.01     0.01  -0.04  -0.02
    59   6     0.00  -0.00   0.00     0.01  -0.00   0.00     0.02  -0.01   0.01
    60   1    -0.02   0.01   0.01    -0.03   0.01   0.01    -0.07   0.03   0.02
    61   1    -0.02   0.01   0.01    -0.02   0.01   0.01    -0.06   0.04   0.02
    62   1    -0.02   0.01   0.00    -0.02   0.01   0.01    -0.02   0.02  -0.00
    63   1     0.00  -0.00   0.00     0.02  -0.03  -0.01     0.03  -0.04  -0.02
    64   1     0.05   0.00  -0.02     0.03  -0.00   0.01     0.09  -0.01  -0.03
    65   1    -0.00  -0.06   0.00    -0.01  -0.04  -0.03    -0.01  -0.11  -0.05
    66   1     0.01  -0.01  -0.00     0.02  -0.01  -0.02     0.05  -0.01  -0.03
    67   1     0.01  -0.01  -0.02     0.02  -0.00  -0.02     0.05  -0.01  -0.02
    68   1     0.01  -0.01   0.03     0.02  -0.01   0.04     0.05  -0.02   0.09
                     55                     56                     57
                      A                      A                      A
 Frequencies --    574.5354               583.7962               601.0194
 Red. masses --      4.3111                 4.3895                 5.3272
 Frc consts  --      0.8384                 0.8814                 1.1338
 IR Inten    --      0.0000                 0.0000                 0.0000
  Atom  AN      X      Y      Z        X      Y      Z        X      Y      Z
     1  26    -0.05   0.09  -0.03     0.06   0.07  -0.04    -0.12   0.08  -0.07
     2   6    -0.00  -0.00  -0.00    -0.00   0.00   0.01    -0.02  -0.01  -0.00
     3  46    -0.00  -0.00  -0.00     0.00  -0.01  -0.00    -0.01   0.00   0.00
     4   6     0.03  -0.04   0.02     0.03  -0.00   0.01     0.01  -0.04  -0.01
     5   1     0.04  -0.05   0.06     0.03   0.01   0.13     0.09  -0.06   0.10
     6   1    -0.02  -0.07  -0.19    -0.00  -0.02  -0.02     0.09   0.06   0.55
     7   1     0.03   0.10   0.48    -0.01  -0.03  -0.07     0.10  -0.02  -0.04
     8   6     0.02  -0.01   0.00    -0.01   0.03   0.01     0.03  -0.02   0.04
     9   8    -0.01   0.00  -0.00    -0.00  -0.00   0.00     0.01  -0.01   0.01
    10   6     0.03  -0.01   0.05    -0.03  -0.08  -0.06     0.08  -0.03  -0.10
    11   8     0.02  -0.02   0.02    -0.02   0.02  -0.03    -0.01  -0.01  -0.01
    12   6     0.01  -0.03  -0.01     0.01  -0.02  -0.13    -0.05  -0.01   0.22
    13   6    -0.03  -0.04   0.20    -0.09  -0.03   0.19     0.06  -0.01  -0.08
    14   6     0.10  -0.07  -0.19    -0.05  -0.10   0.06     0.02  -0.00  -0.02
    15   1     0.01  -0.01   0.04     0.00  -0.05  -0.16    -0.06  -0.00   0.31
    16   1    -0.10  -0.04   0.40    -0.15  -0.05   0.44     0.07  -0.01  -0.08
    17   1     0.19  -0.10  -0.38    -0.10  -0.14   0.17    -0.03   0.00   0.10
    18   1    -0.00   0.01  -0.11     0.07  -0.08   0.03    -0.09  -0.07   0.05
    19   6     0.01  -0.01   0.02    -0.06   0.01   0.11     0.10  -0.10  -0.06
    20   6     0.00  -0.00   0.00    -0.01   0.00  -0.00     0.05   0.01  -0.03
    21   8     0.00   0.00  -0.01     0.00  -0.01   0.01    -0.02   0.01  -0.01
    22   6     0.04   0.03   0.29    -0.03  -0.02  -0.07     0.07  -0.02  -0.03
    23   6    -0.02  -0.08  -0.10    -0.00  -0.02  -0.04     0.07   0.04   0.27
    24   6    -0.00  -0.03   0.03     0.01  -0.00   0.08     0.07  -0.07   0.06
    25   6     0.01  -0.00  -0.01    -0.03  -0.11  -0.19     0.03  -0.09  -0.11
    26   6     0.01  -0.10  -0.15     0.01   0.03   0.27     0.05  -0.02   0.11
    27   1     0.02  -0.13  -0.17     0.01   0.05   0.32     0.06  -0.05   0.15
    28   7     0.01  -0.01   0.01    -0.02   0.02  -0.01     0.09  -0.02  -0.02
    29   1     0.01   0.00   0.00    -0.01  -0.01   0.00     0.08   0.09  -0.07
    30   1     0.05  -0.09   0.04    -0.04   0.05   0.01    -0.04   0.06  -0.02
    31   1     0.01  -0.05   0.00     0.06   0.00   0.07     0.03  -0.11   0.09
    32   1     0.01  -0.01  -0.01    -0.03  -0.23  -0.44     0.08  -0.15  -0.31
    33   7    -0.01   0.02  -0.00     0.02   0.04  -0.01    -0.02  -0.01   0.00
    34   6     0.01   0.01  -0.02    -0.01   0.03  -0.04     0.00  -0.01   0.02
    35   6     0.00   0.00   0.01     0.00   0.01   0.02    -0.00  -0.00  -0.02
    36   1     0.00   0.02  -0.05    -0.01   0.03  -0.05     0.01   0.01   0.01
    37   1     0.03   0.01  -0.02    -0.01  -0.00  -0.02     0.01   0.01   0.01
    38   1     0.01   0.01  -0.00    -0.01   0.03  -0.06     0.02  -0.02   0.04
    39   1     0.01   0.01   0.03    -0.00  -0.01   0.04     0.01   0.02  -0.01
    40   1     0.01  -0.01   0.02     0.01   0.01   0.08     0.00  -0.01  -0.05
    41   1     0.00  -0.02  -0.01    -0.02  -0.04  -0.02     0.01   0.02  -0.00
    42   6     0.00   0.00   0.00    -0.00  -0.01  -0.01    -0.01  -0.00   0.01
    43   6    -0.00   0.00   0.00     0.01  -0.00  -0.00    -0.01   0.01   0.01
    44   6     0.00  -0.00   0.00    -0.00   0.00  -0.00     0.00  -0.00   0.00
    45   6     0.00   0.00  -0.00    -0.00  -0.00   0.00    -0.01  -0.01   0.00
    46   1     0.00  -0.00   0.00     0.01   0.00   0.01    -0.01   0.03   0.02
    47   1    -0.00   0.01   0.00     0.02  -0.00  -0.01     0.01   0.01  -0.00
    48   1    -0.00  -0.00   0.00     0.00  -0.00   0.00     0.00   0.01   0.01
    49   1     0.00  -0.01   0.00    -0.01   0.02  -0.01     0.01  -0.00  -0.00
    50   1    -0.00  -0.00  -0.00     0.00   0.01   0.01     0.01   0.01  -0.01
    51   1    -0.00  -0.00  -0.00     0.00   0.00   0.00     0.02  -0.01   0.01
    52   1     0.00   0.00  -0.00     0.00   0.00   0.01    -0.02  -0.02  -0.00
    53   1     0.00   0.00  -0.00     0.00   0.00   0.01    -0.02  -0.03  -0.00
    54   1     0.01   0.00  -0.00    -0.01  -0.01   0.01     0.01  -0.01  -0.02
    55   8     0.02   0.01  -0.01    -0.03  -0.01   0.01     0.03   0.01  -0.02
    56   6    -0.02   0.01   0.01     0.02  -0.01  -0.01    -0.04   0.01   0.01
    57   6    -0.01   0.01  -0.00     0.01  -0.01  -0.00    -0.02   0.04  -0.01
    58   6    -0.00   0.00  -0.00     0.00  -0.00   0.01     0.01   0.01   0.00
    59   6    -0.00  -0.00  -0.00    -0.00  -0.00  -0.00     0.00   0.00  -0.02
    60   1    -0.02   0.01   0.01     0.03  -0.01  -0.01    -0.03   0.00   0.01
    61   1    -0.01   0.01   0.01     0.02  -0.01  -0.01    -0.03   0.00   0.01
    62   1    -0.01   0.01   0.00     0.01  -0.01  -0.01    -0.06   0.01   0.03
    63   1     0.01  -0.01  -0.00    -0.02   0.03   0.01     0.01  -0.02  -0.00
    64   1     0.01   0.01   0.01    -0.00  -0.01  -0.03     0.07   0.03   0.02
    65   1    -0.01  -0.01  -0.01     0.01  -0.00   0.02     0.00  -0.04   0.00
    66   1     0.01  -0.01  -0.00    -0.01   0.00   0.01     0.02  -0.02  -0.00
    67   1     0.01  -0.00  -0.02    -0.01   0.00   0.02     0.01  -0.01  -0.07
    68   1     0.01  -0.01   0.02    -0.01   0.00  -0.02     0.01  -0.02   0.03
                     58                     59                     60
                      A                      A                      A
 Frequencies --    616.4627               627.9580               643.9240
 Red. masses --      4.0701                 5.4079                 5.4438
 Frc consts  --      0.9113                 1.2564                 1.3299
 IR Inten    --      0.0000                 0.0000                 0.0000
  Atom  AN      X      Y      Z        X      Y      Z        X      Y      Z
     1  26    -0.08  -0.08   0.05     0.04  -0.02   0.02    -0.01  -0.02  -0.05
     2   6     0.01   0.01   0.01    -0.06  -0.10  -0.05     0.01   0.02   0.02
     3  46     0.01   0.00   0.00    -0.02   0.00   0.01    -0.00   0.00  -0.00
     4   6     0.03  -0.04   0.05     0.01   0.00   0.02    -0.01   0.01  -0.04
     5   1     0.05   0.12   0.31    -0.02   0.05   0.07    -0.03   0.17   0.41
     6   1     0.03   0.06  -0.22    -0.02  -0.01  -0.17     0.01  -0.05  -0.20
     7   1     0.02  -0.03  -0.18    -0.03   0.00  -0.00     0.03   0.11   0.23
     8   6     0.01   0.01   0.05     0.00  -0.15   0.09    -0.04   0.00  -0.16
     9   8     0.00  -0.00  -0.00    -0.02   0.01   0.05     0.00  -0.01  -0.00
    10   6     0.06   0.01   0.07    -0.03  -0.00   0.04     0.06  -0.01  -0.14
    11   8     0.01   0.00  -0.01    -0.13  -0.05   0.03     0.02   0.01   0.04
    12   6     0.04   0.08  -0.08     0.00   0.01  -0.05    -0.06   0.01   0.10
    13   6     0.01   0.04  -0.03    -0.01  -0.00  -0.02     0.05  -0.05  -0.19
    14   6     0.04   0.02  -0.21    -0.02  -0.00   0.03    -0.04   0.02   0.23
    15   1     0.04   0.02  -0.22    -0.01  -0.00  -0.06    -0.04   0.08   0.22
    16   1     0.17   0.02  -0.12     0.01  -0.01   0.00     0.00  -0.05  -0.04
    17   1     0.15   0.07  -0.45    -0.01   0.02   0.01    -0.09   0.11   0.32
    18   1    -0.10   0.03  -0.12     0.08   0.06  -0.07    -0.05  -0.08   0.19
    19   6     0.04   0.08   0.06    -0.02   0.02  -0.03    -0.02  -0.00   0.05
    20   6    -0.02   0.00   0.00     0.18  -0.05  -0.06    -0.01   0.01   0.00
    21   8     0.00  -0.01   0.01    -0.07   0.11  -0.09     0.01  -0.01   0.00
    22   6     0.01  -0.00  -0.10    -0.02   0.00   0.00     0.02   0.09   0.16
    23   6     0.03   0.05  -0.05    -0.01  -0.02  -0.10     0.01  -0.06  -0.27
    24   6     0.04   0.08   0.23    -0.02   0.03   0.06     0.00   0.07   0.30
    25   6     0.03  -0.01  -0.14    -0.01   0.01  -0.02     0.01  -0.01  -0.05
    26   6     0.01   0.04   0.05    -0.00   0.01   0.01    -0.01  -0.00  -0.04
    27   1     0.00   0.05   0.05    -0.00   0.04   0.04     0.00  -0.03  -0.04
    28   7    -0.03   0.01  -0.01     0.27  -0.15  -0.07     0.01   0.02   0.05
    29   1    -0.03  -0.02   0.01     0.31   0.20  -0.11    -0.02   0.00  -0.01
    30   1     0.05  -0.11   0.06     0.00  -0.03   0.03    -0.12   0.08  -0.04
    31   1     0.00  -0.09   0.04     0.01   0.03   0.00     0.05  -0.02   0.08
    32   1     0.09  -0.10  -0.42    -0.01   0.00  -0.02     0.09  -0.01  -0.15
    33   7    -0.03  -0.00  -0.00     0.01   0.00  -0.01     0.02  -0.00   0.01
    34   6     0.01   0.01   0.00     0.00   0.01  -0.01     0.00  -0.02   0.01
    35   6    -0.00  -0.01  -0.01    -0.00  -0.01  -0.00     0.00   0.01   0.01
    36   1     0.02   0.04  -0.03    -0.00  -0.00   0.01    -0.01  -0.04   0.02
    37   1     0.03   0.03  -0.01    -0.00   0.01  -0.01    -0.01  -0.03   0.02
    38   1     0.03  -0.01   0.05    -0.00   0.01  -0.01    -0.02  -0.00  -0.02
    39   1     0.01   0.00   0.01    -0.01  -0.01  -0.01    -0.00   0.01  -0.00
    40   1     0.01  -0.02  -0.03    -0.00   0.00   0.02    -0.00   0.01   0.00
    41   1     0.01  -0.01  -0.01    -0.01  -0.01  -0.01     0.01   0.02   0.02
    42   6     0.00  -0.00  -0.00     0.00   0.05   0.06    -0.01  -0.01  -0.01
    43   6     0.00  -0.00  -0.00    -0.05   0.06   0.05     0.01  -0.01  -0.01
    44   6    -0.00   0.00  -0.00     0.02  -0.03   0.03    -0.00   0.01  -0.01
    45   6     0.00   0.00  -0.00     0.02   0.00  -0.01    -0.01  -0.01   0.01
    46   1     0.00  -0.01  -0.00    -0.04   0.05   0.04     0.01   0.00   0.00
    47   1    -0.00  -0.01   0.00    -0.07   0.08   0.04     0.03  -0.01  -0.01
    48   1     0.00  -0.00  -0.00    -0.04   0.04   0.02     0.01   0.00  -0.00
    49   1    -0.00   0.00  -0.00     0.07  -0.12   0.07    -0.01   0.03  -0.02
    50   1     0.00  -0.00   0.00    -0.01  -0.01  -0.06     0.00   0.01   0.00
    51   1    -0.00   0.00   0.00     0.02  -0.06  -0.01     0.00   0.01   0.00
    52   1     0.00   0.01   0.00    -0.03  -0.05  -0.03    -0.00  -0.00   0.01
    53   1     0.01   0.01   0.00    -0.04  -0.07  -0.04    -0.00  -0.00   0.01
    54   1    -0.01  -0.00   0.01     0.12   0.05  -0.11    -0.02  -0.02   0.02
    55   8    -0.02  -0.01  -0.02     0.01   0.02   0.03     0.03   0.02   0.03
    56   6     0.01  -0.00  -0.00    -0.12   0.03   0.04     0.01  -0.00  -0.00
    57   6     0.01  -0.01   0.00    -0.06   0.17  -0.05     0.00  -0.02   0.00
    58   6     0.00  -0.00   0.00     0.06   0.06   0.03    -0.01  -0.02  -0.01
    59   6    -0.00  -0.00   0.01    -0.00   0.02  -0.10     0.00  -0.00   0.01
    60   1     0.01  -0.00  -0.01    -0.03  -0.05   0.04    -0.01   0.01   0.00
    61   1     0.00  -0.00  -0.00    -0.04  -0.05   0.04     0.01   0.01  -0.00
    62   1     0.01  -0.00  -0.01    -0.28   0.00   0.13     0.04   0.00  -0.02
    63   1     0.00   0.03   0.01     0.02  -0.09   0.01    -0.01  -0.01  -0.01
    64   1    -0.01  -0.01  -0.03     0.27   0.14   0.14    -0.01  -0.02  -0.02
    65   1     0.00   0.00   0.00     0.04  -0.09   0.03    -0.01  -0.01   0.00
    66   1    -0.00  -0.00   0.01     0.03  -0.06  -0.03    -0.00   0.02  -0.02
    67   1    -0.01  -0.00   0.01     0.02  -0.04  -0.30     0.01   0.01   0.05
    68   1    -0.00  -0.00  -0.00     0.02  -0.06   0.03     0.00   0.02  -0.01
                     61                     62                     63
                      A                      A                      A
 Frequencies --    648.4743               667.2056               678.0144
 Red. masses --      9.7400                 6.0638                 4.6341
 Frc consts  --      2.4132                 1.5904                 1.2551
 IR Inten    --      0.0000                 0.0000                 0.0000
  Atom  AN      X      Y      Z        X      Y      Z        X      Y      Z
     1  26     0.01  -0.01  -0.03     0.03  -0.01  -0.01     0.05  -0.02  -0.07
     2   6    -0.00   0.04   0.02     0.01   0.36   0.18    -0.01  -0.11  -0.08
     3  46     0.00   0.00  -0.00    -0.01   0.01  -0.00     0.00  -0.01   0.00
     4   6    -0.03   0.03  -0.03     0.03  -0.02   0.06     0.08  -0.08   0.13
     5   1    -0.02   0.05   0.11    -0.00   0.01   0.06     0.01   0.06   0.25
     6   1    -0.00  -0.02  -0.05     0.00   0.01  -0.01     0.03   0.04   0.12
     7   1     0.01   0.06   0.17    -0.01   0.01   0.05    -0.03   0.06   0.20
     8   6     0.23   0.10   0.68    -0.07  -0.04   0.00     0.04   0.02   0.01
     9   8     0.02  -0.02   0.00     0.09  -0.09  -0.07    -0.01   0.03   0.01
    10   6     0.00   0.01  -0.07    -0.07  -0.01   0.16    -0.10  -0.05   0.27
    11   8     0.02  -0.06  -0.22    -0.00  -0.13   0.01    -0.00   0.06  -0.02
    12   6    -0.02  -0.02   0.05    -0.04   0.02   0.04    -0.10   0.08   0.13
    13   6     0.01  -0.02  -0.06    -0.01   0.01  -0.01    -0.02   0.04  -0.04
    14   6    -0.02   0.02   0.12    -0.02  -0.00  -0.03    -0.07   0.00  -0.03
    15   1    -0.02   0.02   0.15    -0.04   0.02   0.03    -0.08   0.09   0.09
    16   1    -0.05  -0.01   0.00     0.01  -0.00   0.04     0.01   0.01   0.14
    17   1    -0.05   0.03   0.18    -0.05   0.02   0.04    -0.17   0.08   0.18
    18   1    -0.09  -0.10   0.07    -0.05   0.05  -0.05     0.01   0.12  -0.12
    19   6    -0.03  -0.00   0.07     0.01   0.00  -0.15    -0.00  -0.01  -0.22
    20   6    -0.01   0.04  -0.03     0.02   0.17  -0.08    -0.05  -0.05   0.04
    21   8     0.00  -0.05   0.03     0.00  -0.16   0.07     0.00   0.03  -0.00
    22   6     0.01   0.03   0.08    -0.00  -0.01   0.01     0.01   0.00   0.02
    23   6    -0.00  -0.03  -0.09    -0.01  -0.01  -0.02     0.00  -0.02  -0.01
    24   6    -0.01   0.02   0.07    -0.02   0.00   0.02    -0.03  -0.00   0.08
    25   6     0.00   0.02   0.03    -0.01   0.00  -0.03    -0.02  -0.01  -0.08
    26   6    -0.01  -0.01  -0.09     0.01   0.01   0.02     0.04   0.03   0.06
    27   1     0.02   0.02   0.11     0.02   0.04   0.07     0.04   0.03   0.11
    28   7    -0.10   0.03  -0.20     0.16   0.01   0.03    -0.09   0.00  -0.01
    29   1    -0.03   0.05  -0.06    -0.05   0.37  -0.40    -0.03  -0.14   0.15
    30   1    -0.06   0.06  -0.04     0.12  -0.12   0.07     0.22  -0.24   0.14
    31   1    -0.00   0.03  -0.00    -0.01   0.04  -0.06    -0.01  -0.04  -0.06
    32   1     0.03   0.10   0.16    -0.03   0.05   0.10    -0.05   0.18   0.36
    33   7     0.01  -0.00   0.01     0.01   0.01  -0.01    -0.01   0.02  -0.02
    34   6    -0.00  -0.01   0.01     0.00   0.02  -0.02     0.00   0.06  -0.05
    35   6     0.00   0.00   0.01    -0.00  -0.01  -0.01    -0.00  -0.01  -0.01
    36   1    -0.01  -0.03   0.02     0.01   0.03  -0.01     0.01   0.08  -0.09
    37   1    -0.02  -0.02   0.01     0.01   0.04  -0.03     0.04   0.09  -0.08
    38   1    -0.02   0.00  -0.02     0.01   0.02   0.01     0.04   0.03   0.02
    39   1     0.00   0.00   0.00    -0.01  -0.02  -0.01    -0.00  -0.02   0.03
    40   1    -0.00   0.01  -0.00    -0.01   0.00   0.04     0.00  -0.01   0.06
    41   1     0.00   0.01   0.01    -0.02  -0.03  -0.02    -0.02  -0.07  -0.05
    42   6    -0.00  -0.01  -0.01    -0.05  -0.08  -0.06     0.02   0.02   0.02
    43   6     0.01  -0.01  -0.01     0.04  -0.04  -0.04    -0.01   0.01   0.01
    44   6    -0.01   0.00  -0.01    -0.04   0.04  -0.05     0.01  -0.01   0.02
    45   6    -0.01  -0.00   0.00    -0.09  -0.08   0.03     0.03   0.03  -0.01
    46   1    -0.00   0.00   0.00     0.03   0.04   0.05    -0.01  -0.03  -0.03
    47   1     0.01  -0.01  -0.01     0.19  -0.07  -0.09    -0.07   0.02   0.03
    48   1     0.00  -0.01  -0.00     0.04   0.01   0.01    -0.01  -0.01  -0.01
    49   1    -0.02   0.03  -0.01    -0.09   0.18  -0.14     0.02  -0.05   0.05
    50   1     0.01   0.01   0.01     0.02   0.06   0.01    -0.00  -0.03   0.01
    51   1     0.01   0.00   0.02     0.02   0.04   0.03    -0.01  -0.01  -0.00
    52   1    -0.00  -0.00   0.00    -0.04  -0.03   0.03     0.02   0.02  -0.01
    53   1    -0.00   0.00   0.00    -0.06  -0.04   0.06     0.03   0.03  -0.02
    54   1    -0.01  -0.01   0.01    -0.14  -0.10   0.08     0.04   0.04  -0.02
    55   8    -0.11  -0.07  -0.17    -0.07  -0.01   0.05     0.05   0.01  -0.04
    56   6     0.00   0.00   0.00    -0.00  -0.00   0.00     0.00  -0.00   0.00
    57   6     0.01   0.02   0.01     0.00   0.04  -0.01    -0.00  -0.02   0.01
    58   6     0.01   0.03   0.01     0.01   0.03   0.02    -0.01  -0.02  -0.01
    59   6    -0.00   0.00   0.01    -0.00   0.01  -0.03     0.00  -0.01   0.03
    60   1     0.04  -0.01  -0.04     0.04  -0.04   0.00    -0.03   0.03  -0.00
    61   1    -0.04  -0.01   0.00     0.03  -0.04  -0.00    -0.03   0.03   0.00
    62   1    -0.02  -0.00  -0.00    -0.07  -0.01   0.04     0.05   0.01  -0.03
    63   1     0.04   0.09   0.02     0.00   0.01   0.01    -0.00  -0.01  -0.01
    64   1    -0.07   0.00  -0.02     0.01   0.03   0.04    -0.02  -0.03  -0.02
    65   1    -0.00   0.09  -0.03     0.02   0.04   0.02    -0.02  -0.02  -0.02
    66   1     0.01  -0.06   0.08    -0.01   0.00  -0.01     0.01  -0.00   0.01
    67   1    -0.03  -0.03  -0.07    -0.01   0.00  -0.04     0.01  -0.00   0.03
    68   1    -0.01  -0.04   0.04    -0.01   0.00  -0.05     0.01  -0.00   0.03
                     64                     65                     66
                      A                      A                      A
 Frequencies --    680.8365               705.3892               711.4794
 Red. masses --      3.7249                 3.4352                 6.2116
 Frc consts  --      1.0173                 1.0071                 1.8526
 IR Inten    --      0.0000                 0.0000                 0.0000
  Atom  AN      X      Y      Z        X      Y      Z        X      Y      Z
     1  26    -0.02  -0.04  -0.07     0.01   0.04   0.06    -0.01  -0.03  -0.04
     2   6     0.00   0.02   0.02     0.03   0.08   0.04     0.11   0.18   0.21
     3  46     0.00   0.00  -0.00    -0.00  -0.00   0.00     0.00   0.00   0.00
     4   6     0.11  -0.13   0.07     0.09  -0.12   0.04    -0.08   0.08  -0.04
     5   1     0.05   0.09   0.14    -0.06  -0.04  -0.24     0.05   0.02   0.17
     6   1     0.00   0.04   0.31    -0.02  -0.07  -0.17     0.01   0.06   0.09
     7   1     0.06   0.06   0.16    -0.02  -0.03  -0.15     0.02   0.01   0.11
     8   6    -0.01  -0.02  -0.02     0.07  -0.06   0.04     0.11  -0.13   0.02
     9   8    -0.00  -0.01  -0.00    -0.01   0.00  -0.04    -0.12  -0.03  -0.06
    10   6     0.10  -0.10  -0.03     0.05  -0.13  -0.11    -0.01   0.09   0.04
    11   8    -0.00  -0.00   0.01    -0.06   0.05   0.01    -0.14   0.15   0.03
    12   6    -0.01   0.12  -0.11    -0.05   0.09   0.04     0.04  -0.07  -0.03
    13   6    -0.05   0.05   0.01    -0.04   0.03  -0.02     0.03  -0.03   0.00
    14   6    -0.07  -0.01   0.03    -0.13  -0.06   0.01     0.10   0.04   0.01
    15   1    -0.05   0.11   0.01    -0.05  -0.02  -0.24     0.02  -0.01   0.17
    16   1     0.04   0.03   0.09     0.23  -0.00  -0.24    -0.19  -0.00   0.19
    17   1    -0.15   0.08   0.19    -0.13   0.00   0.01     0.12   0.01  -0.04
    18   1    -0.14  -0.11   0.05     0.16   0.15  -0.10     0.08  -0.03  -0.03
    19   6    -0.05   0.14   0.24     0.09   0.02  -0.10    -0.06  -0.04   0.08
    20   6     0.02   0.01  -0.01    -0.07  -0.02   0.07    -0.08  -0.07   0.18
    21   8    -0.00   0.00  -0.01     0.03  -0.02  -0.01     0.10   0.01  -0.13
    22   6     0.00   0.02   0.01    -0.02   0.02   0.01     0.01  -0.04  -0.02
    23   6    -0.00   0.06   0.09     0.01  -0.02  -0.06    -0.01   0.01   0.04
    24   6     0.03   0.01  -0.07     0.01  -0.01  -0.04    -0.01   0.01   0.03
    25   6     0.04  -0.00   0.07    -0.00  -0.01   0.06    -0.00   0.01  -0.06
    26   6    -0.01  -0.02  -0.06    -0.05  -0.03  -0.03     0.05   0.03   0.04
    27   1    -0.01   0.05   0.03    -0.05  -0.06  -0.11     0.04   0.06   0.03
    28   7     0.04  -0.01   0.01    -0.04  -0.07   0.01    -0.06  -0.16   0.02
    29   1     0.02   0.04  -0.04    -0.08  -0.04   0.05    -0.11  -0.09   0.13
    30   1     0.03  -0.08   0.07    -0.10   0.01   0.05     0.03   0.00  -0.04
    31   1     0.11  -0.26   0.19     0.16  -0.24   0.28    -0.12   0.14  -0.16
    32   1    -0.00   0.19   0.54     0.04  -0.19  -0.39    -0.06   0.12   0.26
    33   7    -0.04   0.02  -0.00    -0.02   0.02  -0.00     0.00  -0.01   0.01
    34   6     0.00   0.03  -0.03    -0.00   0.03  -0.03    -0.00  -0.02   0.02
    35   6    -0.00  -0.00  -0.00     0.00   0.01   0.01    -0.00  -0.00  -0.00
    36   1     0.02   0.08  -0.09     0.01   0.07  -0.07    -0.01  -0.04   0.04
    37   1     0.05   0.05  -0.05     0.03   0.03  -0.03    -0.02  -0.03   0.03
    38   1     0.05  -0.01   0.05     0.03   0.00   0.01    -0.02  -0.01  -0.01
    39   1     0.02   0.02   0.04     0.02   0.02   0.04    -0.00  -0.00  -0.01
    40   1     0.02  -0.03  -0.01     0.02  -0.01   0.02    -0.01   0.01  -0.02
    41   1     0.01  -0.03  -0.02     0.00  -0.02  -0.01     0.01   0.02   0.01
    42   6    -0.00  -0.01  -0.00     0.00  -0.00  -0.01    -0.01  -0.02  -0.04
    43   6     0.00   0.00  -0.00     0.01  -0.02  -0.01     0.05  -0.04  -0.03
    44   6    -0.00   0.00  -0.01    -0.01   0.01  -0.02    -0.05   0.05  -0.08
    45   6    -0.01  -0.01   0.00     0.01   0.01  -0.00    -0.00   0.00   0.00
    46   1     0.00   0.01   0.01     0.03  -0.03  -0.02     0.08  -0.06  -0.00
    47   1     0.02  -0.00  -0.01    -0.00  -0.01  -0.01     0.08  -0.05  -0.04
    48   1     0.00   0.01   0.01    -0.00  -0.02  -0.01    -0.01  -0.02   0.02
    49   1    -0.01   0.01  -0.01    -0.02   0.00  -0.01    -0.05   0.03  -0.06
    50   1    -0.00   0.01  -0.00    -0.01   0.00  -0.01    -0.05   0.03  -0.06
    51   1     0.00   0.00  -0.00    -0.03   0.02  -0.03    -0.08   0.07  -0.10
    52   1    -0.00  -0.00   0.00     0.03   0.04   0.00     0.08   0.08   0.01
    53   1    -0.01  -0.01   0.01     0.03   0.03   0.01     0.05   0.05   0.05
    54   1    -0.01  -0.01   0.01    -0.03  -0.01   0.04    -0.10  -0.07   0.12
    55   8    -0.00  -0.00   0.01     0.08  -0.00  -0.04     0.17  -0.01  -0.06
    56   6    -0.01   0.00   0.00    -0.04   0.01   0.02    -0.09   0.02   0.03
    57   6    -0.00   0.01  -0.00    -0.01   0.02  -0.00    -0.03   0.04  -0.00
    58   6     0.00   0.01  -0.00     0.01  -0.00   0.00     0.03   0.01   0.00
    59   6    -0.00   0.00  -0.01    -0.00   0.00  -0.01     0.00   0.01  -0.03
    60   1    -0.00  -0.00   0.00    -0.06   0.03   0.01    -0.12   0.06   0.03
    61   1    -0.00  -0.00   0.00    -0.05   0.03   0.02    -0.11   0.06   0.04
    62   1    -0.02   0.00   0.01    -0.01   0.02   0.00    -0.04   0.04   0.01
    63   1     0.00  -0.02  -0.00     0.01  -0.02  -0.00     0.02  -0.05  -0.01
    64   1    -0.00   0.01   0.03     0.08   0.02   0.01     0.14   0.05   0.04
    65   1     0.01   0.02  -0.00    -0.00  -0.05  -0.00     0.00  -0.09  -0.01
    66   1     0.00   0.00  -0.01     0.02  -0.02  -0.01     0.03  -0.03  -0.03
    67   1     0.00   0.00  -0.01     0.01  -0.01  -0.06     0.03  -0.02  -0.13
    68   1     0.00   0.00  -0.00     0.01  -0.02   0.04     0.03  -0.03   0.07
                     67                     68                     69
                      A                      A                      A
 Frequencies --    740.7282               751.6694               759.9028
 Red. masses --      7.5948                 2.2984                 2.1394
 Frc consts  --      2.4552                 0.7651                 0.7279
 IR Inten    --      0.0000                 0.0000                 0.0000
  Atom  AN      X      Y      Z        X      Y      Z        X      Y      Z
     1  26    -0.01  -0.00   0.01     0.01  -0.03  -0.05     0.00   0.00  -0.01
     2   6    -0.13   0.05  -0.28    -0.01   0.01  -0.03     0.00  -0.01   0.00
     3  46     0.00   0.02  -0.02     0.00   0.00  -0.00    -0.00  -0.00  -0.00
     4   6    -0.03   0.02  -0.02    -0.02   0.02   0.01     0.01  -0.01   0.00
     5   1     0.05  -0.04   0.04    -0.04   0.14   0.10     0.12   0.03   0.04
     6   1    -0.00   0.05  -0.05    -0.03  -0.05   0.16    -0.14   0.06  -0.29
     7   1    -0.06  -0.04   0.06     0.08   0.03  -0.19     0.07   0.07   0.72
     8   6     0.07  -0.12   0.00     0.01  -0.02   0.00    -0.00   0.00   0.00
     9   8     0.23   0.08  -0.09     0.03   0.01  -0.01    -0.00  -0.00   0.00
    10   6     0.04   0.03  -0.04    -0.03   0.02   0.08     0.02   0.00   0.00
    11   8    -0.12   0.06   0.03    -0.02   0.02   0.00     0.01  -0.00  -0.01
    12   6    -0.00  -0.02  -0.05     0.01  -0.01   0.01    -0.04   0.02   0.01
    13   6    -0.00  -0.05  -0.01     0.01   0.01   0.01    -0.00  -0.05  -0.03
    14   6     0.05   0.00   0.05     0.03   0.02  -0.04     0.02  -0.01   0.03
    15   1    -0.02   0.02   0.08     0.01   0.00   0.06    -0.02   0.05   0.01
    16   1    -0.10  -0.04   0.09    -0.09   0.01   0.19    -0.03  -0.05   0.07
    17   1     0.12   0.01  -0.12    -0.05   0.02   0.14     0.03   0.05   0.00
    18   1     0.06  -0.02   0.05    -0.02   0.00  -0.01    -0.01   0.02   0.02
    19   6    -0.02   0.02   0.05    -0.03  -0.01   0.02    -0.00   0.03  -0.02
    20   6    -0.22   0.08  -0.07    -0.03   0.01  -0.00     0.01   0.00  -0.00
    21   8    -0.06  -0.17   0.31    -0.01  -0.02   0.04    -0.00   0.01  -0.01
    22   6     0.01  -0.07  -0.01    -0.03   0.10   0.01    -0.03  -0.18  -0.05
    23   6    -0.02  -0.00   0.03     0.01   0.05  -0.01    -0.14   0.06   0.04
    24   6    -0.02   0.01  -0.00     0.04   0.02  -0.02     0.01   0.10  -0.03
    25   6    -0.02   0.03  -0.10     0.06  -0.05   0.21     0.05   0.05   0.07
    26   6     0.07   0.01   0.01    -0.10  -0.02   0.01     0.10  -0.01   0.01
    27   1     0.06   0.01  -0.02    -0.10   0.02   0.08     0.06   0.11  -0.08
    28   7    -0.02  -0.12   0.07    -0.00  -0.02   0.01     0.00   0.01  -0.00
    29   1    -0.21   0.09  -0.09    -0.03   0.01  -0.01     0.01   0.00  -0.00
    30   1    -0.05   0.03  -0.02     0.09  -0.05   0.00    -0.01  -0.02   0.01
    31   1    -0.01   0.02   0.01    -0.06   0.06  -0.12     0.01  -0.02   0.01
    32   1    -0.09   0.17   0.35     0.14  -0.39  -0.70    -0.07  -0.24  -0.38
    33   7     0.00  -0.00   0.00    -0.00  -0.00  -0.00     0.00  -0.00   0.00
    34   6     0.00  -0.02   0.02     0.00  -0.00   0.00     0.00  -0.00  -0.01
    35   6     0.00   0.00   0.00    -0.00  -0.01  -0.01     0.00   0.00   0.01
    36   1     0.00  -0.02   0.02     0.00  -0.00   0.00    -0.00  -0.01  -0.00
    37   1    -0.01  -0.02   0.02    -0.00   0.00   0.00    -0.00   0.01  -0.02
    38   1    -0.01  -0.01   0.00     0.00   0.00   0.01    -0.00   0.00  -0.00
    39   1    -0.00   0.00  -0.01    -0.00  -0.01  -0.01     0.00   0.00   0.01
    40   1     0.00   0.00  -0.01    -0.00  -0.00  -0.00     0.00   0.00   0.01
    41   1     0.01   0.01   0.01    -0.00  -0.01  -0.01     0.00   0.00   0.01
    42   6     0.03   0.02   0.03     0.00   0.00   0.00    -0.00  -0.00   0.00
    43   6    -0.03   0.02   0.02    -0.00   0.00   0.00    -0.00  -0.00  -0.00
    44   6     0.05  -0.06   0.09     0.01  -0.01   0.01    -0.00   0.00  -0.00
    45   6     0.06   0.06  -0.03     0.01   0.01  -0.00    -0.00  -0.00   0.00
    46   1    -0.02  -0.04  -0.06    -0.00  -0.01  -0.01    -0.00   0.00   0.00
    47   1    -0.18   0.09   0.04    -0.02   0.01   0.00     0.00  -0.00   0.00
    48   1    -0.00  -0.05  -0.06    -0.00  -0.01  -0.01     0.00   0.00   0.00
    49   1     0.03  -0.05   0.09     0.00  -0.01   0.01     0.00   0.00  -0.00
    50   1     0.06  -0.06   0.11     0.01  -0.01   0.01    -0.00   0.00  -0.00
    51   1     0.04  -0.05   0.09     0.00  -0.00   0.01     0.00  -0.00   0.00
    52   1     0.01   0.02  -0.02     0.00   0.01  -0.00    -0.00  -0.00   0.00
    53   1     0.05   0.07  -0.06     0.01   0.01  -0.01    -0.00  -0.00   0.00
    54   1     0.07   0.08  -0.07     0.01   0.01  -0.01    -0.00  -0.00  -0.00
    55   8     0.14  -0.02  -0.04     0.02  -0.01  -0.00    -0.00   0.01  -0.00
    56   6    -0.07   0.02   0.03    -0.02   0.00   0.01     0.01  -0.00  -0.00
    57   6    -0.02   0.03  -0.00    -0.00   0.00  -0.00     0.00  -0.00   0.00
    58   6     0.02   0.02   0.01     0.01   0.00   0.00    -0.00  -0.01   0.00
    59   6    -0.00   0.01  -0.04     0.00   0.00  -0.01     0.00  -0.00   0.00
    60   1    -0.10   0.05   0.03    -0.02   0.01   0.01     0.01  -0.00  -0.00
    61   1    -0.09   0.05   0.03    -0.02   0.01   0.01     0.01  -0.00  -0.00
    62   1    -0.03   0.03   0.00    -0.01   0.00   0.00     0.01  -0.00  -0.00
    63   1     0.01  -0.03  -0.00     0.02   0.01   0.01    -0.00   0.01   0.00
    64   1     0.11   0.05   0.05     0.04   0.01  -0.01     0.01  -0.01  -0.02
    65   1     0.01  -0.05  -0.00     0.01  -0.01   0.01    -0.01  -0.01  -0.00
    66   1     0.02  -0.02  -0.04     0.00  -0.00  -0.01     0.00  -0.00   0.01
    67   1     0.02  -0.01  -0.10     0.00  -0.00  -0.02    -0.00  -0.00   0.00
    68   1     0.02  -0.02   0.03     0.00  -0.00  -0.01    -0.00  -0.00  -0.00
                     70                     71                     72
                      A                      A                      A
 Frequencies --    778.4700               792.9140               802.0850
 Red. masses --      1.9064                 2.0993                 1.8656
 Frc consts  --      0.6807                 0.7776                 0.7071
 IR Inten    --      0.0000                 0.0000                 0.0000
  Atom  AN      X      Y      Z        X      Y      Z        X      Y      Z
     1  26    -0.00   0.01   0.02    -0.00  -0.01  -0.02     0.01   0.00   0.01
     2   6     0.01  -0.00   0.01     0.00   0.00   0.00     0.00   0.00   0.00
     3  46    -0.00  -0.00   0.00    -0.00   0.00   0.00    -0.00  -0.00  -0.00
     4   6     0.00  -0.00   0.01     0.03  -0.02   0.01    -0.00  -0.00  -0.01
     5   1     0.08   0.06   0.14    -0.10  -0.29  -0.35    -0.12  -0.06  -0.20
     6   1    -0.06  -0.07  -0.22     0.10   0.13   0.14     0.14   0.06   0.46
     7   1    -0.00  -0.15  -0.49    -0.16  -0.08  -0.23     0.03   0.24   0.51
     8   6    -0.00   0.01   0.01    -0.00  -0.00   0.01    -0.01  -0.00  -0.00
     9   8    -0.01  -0.00   0.00    -0.00  -0.00   0.00    -0.00  -0.00   0.00
    10   6     0.04   0.02   0.01     0.03  -0.00   0.00     0.03   0.03   0.01
    11   8     0.01  -0.01  -0.01     0.00  -0.01  -0.00    -0.02   0.00   0.00
    12   6    -0.09   0.06  -0.03    -0.02   0.03  -0.03    -0.09   0.04  -0.02
    13   6    -0.01  -0.13  -0.11     0.00  -0.03  -0.02    -0.04  -0.10   0.01
    14   6     0.06  -0.02   0.05     0.03   0.00  -0.02     0.08  -0.02   0.04
    15   1    -0.06   0.15   0.08    -0.01   0.09   0.09    -0.03   0.06  -0.16
    16   1    -0.25  -0.15   0.60    -0.14  -0.03   0.27    -0.01  -0.10  -0.02
    17   1     0.15   0.11  -0.19    -0.06   0.06   0.17     0.20   0.04  -0.25
    18   1    -0.01   0.05   0.02     0.00   0.06   0.02    -0.04  -0.04   0.01
    19   6     0.02   0.08  -0.05    -0.01   0.04   0.03     0.01   0.06  -0.03
    20   6     0.01  -0.00   0.00     0.01  -0.00  -0.00     0.01  -0.00  -0.01
    21   8     0.00   0.01  -0.01    -0.00   0.00  -0.01    -0.00   0.00  -0.00
    22   6    -0.02   0.03   0.04     0.05  -0.01   0.01     0.01   0.04  -0.11
    23   6    -0.02   0.02   0.04     0.03  -0.06   0.01     0.10  -0.03  -0.03
    24   6     0.03   0.01  -0.07    -0.13  -0.07   0.05    -0.02  -0.04   0.03
    25   6     0.03  -0.04  -0.03    -0.08   0.14   0.05    -0.03   0.00   0.02
    26   6    -0.03  -0.03   0.01     0.12   0.09   0.03    -0.07   0.01  -0.04
    27   1    -0.04   0.02   0.01     0.10  -0.21  -0.44    -0.01   0.06   0.38
    28   7    -0.00   0.01  -0.01     0.00   0.00  -0.00     0.00  -0.00   0.00
    29   1     0.01  -0.01   0.01     0.01   0.00  -0.01     0.00   0.00  -0.01
    30   1    -0.00  -0.02   0.01     0.03  -0.00   0.01    -0.01   0.02  -0.01
    31   1     0.01  -0.01   0.03     0.01  -0.05   0.02    -0.01  -0.00  -0.01
    32   1    -0.02  -0.01   0.11    -0.04  -0.03  -0.37     0.08   0.04  -0.06
    33   7     0.00   0.00  -0.00    -0.01   0.00   0.00     0.00  -0.00   0.00
    34   6    -0.00   0.01   0.00    -0.00   0.00   0.00     0.00  -0.01  -0.00
    35   6     0.00  -0.00  -0.00    -0.00  -0.01  -0.01     0.00   0.00   0.01
    36   1     0.00   0.01   0.01     0.01   0.02  -0.01    -0.00  -0.02   0.00
    37   1     0.00  -0.01   0.01     0.01   0.00   0.00    -0.01   0.02  -0.02
    38   1     0.00   0.00  -0.00     0.01  -0.02   0.02    -0.01   0.00  -0.00
    39   1    -0.00  -0.01  -0.01     0.00  -0.00   0.00    -0.00   0.00   0.00
    40   1    -0.00   0.00   0.00     0.00  -0.01  -0.02     0.00   0.00   0.00
    41   1    -0.00   0.00   0.00     0.00  -0.00  -0.01     0.00   0.00   0.01
    42   6    -0.00  -0.00  -0.00    -0.00  -0.00  -0.00    -0.00  -0.00  -0.00
    43   6     0.00  -0.00  -0.00    -0.00   0.00   0.00    -0.00   0.00   0.00
    44   6    -0.00   0.00  -0.00    -0.00   0.00   0.00     0.00  -0.00   0.00
    45   6    -0.00  -0.00   0.00    -0.00  -0.00   0.00     0.00   0.00  -0.00
    46   1    -0.00   0.00   0.00    -0.00   0.00   0.00    -0.00   0.01   0.00
    47   1     0.01  -0.01  -0.00     0.00  -0.00   0.00     0.00  -0.00   0.00
    48   1     0.00   0.00   0.00    -0.00   0.00   0.00    -0.00   0.01   0.00
    49   1    -0.00   0.00  -0.00     0.00  -0.00   0.00     0.00  -0.00   0.00
    50   1    -0.00   0.00  -0.01    -0.00   0.00  -0.00     0.00  -0.00   0.00
    51   1    -0.00   0.00  -0.00     0.00  -0.00  -0.00     0.00  -0.00   0.00
    52   1    -0.00  -0.00   0.00    -0.00  -0.00  -0.00     0.00   0.00  -0.00
    53   1    -0.00  -0.00   0.00    -0.00  -0.00  -0.00     0.00  -0.00  -0.00
    54   1    -0.00  -0.00   0.00     0.00   0.00  -0.00     0.00   0.00  -0.00
    55   8    -0.00   0.01  -0.00    -0.00   0.00  -0.00     0.02   0.02  -0.01
    56   6     0.01  -0.00  -0.00     0.01  -0.00  -0.00     0.02  -0.00  -0.01
    57   6     0.00  -0.00   0.00     0.00   0.00   0.00    -0.00   0.00  -0.00
    58   6    -0.01  -0.01  -0.01    -0.01  -0.01   0.00    -0.02  -0.02  -0.01
    59   6     0.00  -0.00   0.01     0.00   0.00   0.01    -0.00  -0.00   0.03
    60   1     0.01  -0.00  -0.00     0.01  -0.00  -0.00     0.01  -0.00  -0.01
    61   1     0.01  -0.00  -0.00     0.01  -0.00  -0.00     0.01  -0.00  -0.01
    62   1     0.01  -0.00  -0.00     0.00  -0.00  -0.00     0.02  -0.00  -0.01
    63   1    -0.01  -0.01  -0.00    -0.00   0.01   0.00    -0.02  -0.03  -0.02
    64   1    -0.01  -0.01  -0.00     0.01  -0.00  -0.02    -0.01  -0.01  -0.00
    65   1    -0.00   0.00  -0.00    -0.02  -0.02  -0.01    -0.02  -0.02  -0.01
    66   1     0.00  -0.00   0.01     0.00  -0.00   0.02     0.00  -0.01   0.03
    67   1    -0.00  -0.00   0.01    -0.00  -0.00  -0.00     0.00  -0.00   0.01
    68   1    -0.00   0.00   0.01    -0.00  -0.00   0.00     0.00  -0.01   0.04
                     73                     74                     75
                      A                      A                      A
 Frequencies --    803.4472               805.3985               821.7955
 Red. masses --      1.6608                 4.3261                 3.7094
 Frc consts  --      0.6317                 1.6534                 1.4760
 IR Inten    --      0.0000                 0.0000                 0.0000
  Atom  AN      X      Y      Z        X      Y      Z        X      Y      Z
     1  26    -0.01   0.01   0.06     0.00  -0.00  -0.00     0.00  -0.00  -0.00
     2   6     0.00  -0.00  -0.00    -0.01   0.08   0.04    -0.03  -0.11  -0.11
     3  46    -0.00  -0.00  -0.00    -0.00   0.00  -0.00    -0.00   0.00  -0.00
     4   6    -0.00   0.00  -0.01    -0.00   0.01   0.00     0.00   0.00   0.00
     5   1     0.04   0.18   0.34     0.04   0.07   0.14     0.01   0.02   0.04
     6   1     0.04   0.03   0.50    -0.03  -0.01   0.01    -0.01   0.00   0.03
     7   1     0.02   0.05   0.21    -0.00  -0.06  -0.14    -0.02  -0.03  -0.06
     8   6     0.00  -0.00  -0.00    -0.05  -0.02   0.06    -0.02  -0.03   0.02
     9   8     0.00   0.00   0.00     0.01  -0.02  -0.01     0.02   0.04   0.01
    10   6     0.01  -0.00  -0.02    -0.01  -0.00  -0.01     0.00   0.00  -0.00
    11   8     0.00   0.00  -0.00    -0.10  -0.03   0.03    -0.05  -0.03   0.02
    12   6     0.03  -0.01  -0.01     0.03  -0.02  -0.01     0.01  -0.01  -0.01
    13   6     0.03   0.00  -0.07     0.01   0.03   0.01    -0.00   0.00   0.01
    14   6     0.00  -0.01  -0.12    -0.01   0.00  -0.02     0.00   0.00  -0.00
    15   1    -0.00  -0.02   0.06     0.00  -0.04   0.02    -0.01  -0.01   0.03
    16   1    -0.10  -0.02   0.35     0.04   0.03  -0.05     0.03   0.00  -0.07
    17   1    -0.28   0.04   0.52    -0.06  -0.02   0.09    -0.00  -0.00   0.01
    18   1     0.03   0.01   0.06     0.03   0.01   0.00     0.00   0.00   0.00
    19   6     0.03  -0.00   0.00    -0.01  -0.02   0.01    -0.00   0.00   0.00
    20   6    -0.00   0.00   0.00     0.06  -0.07  -0.09     0.01   0.17   0.15
    21   8     0.00  -0.00   0.00    -0.02  -0.02  -0.01    -0.01   0.02   0.03
    22   6    -0.01  -0.03  -0.03    -0.01  -0.01   0.03    -0.00  -0.00   0.01
    23   6     0.00  -0.03  -0.10    -0.03   0.00  -0.01    -0.01  -0.00  -0.00
    24   6     0.00   0.01  -0.08     0.01   0.02  -0.02     0.00   0.01  -0.01
    25   6    -0.01  -0.00  -0.02     0.01  -0.00   0.00     0.00   0.00   0.00
    26   6    -0.00  -0.00   0.01     0.01  -0.01   0.01     0.01  -0.00   0.00
    27   1    -0.01  -0.02  -0.05    -0.00   0.00  -0.06     0.01  -0.00   0.00
    28   7    -0.00  -0.00  -0.00     0.02  -0.02   0.00     0.04  -0.02  -0.04
    29   1    -0.00   0.00   0.00     0.01  -0.03  -0.19     0.17   0.28   0.28
    30   1    -0.00   0.04  -0.02     0.01   0.00  -0.00     0.01   0.00   0.00
    31   1    -0.00  -0.00  -0.01    -0.00   0.01  -0.00     0.00   0.00  -0.00
    32   1    -0.05  -0.00   0.03    -0.04  -0.03   0.00    -0.01  -0.01  -0.01
    33   7    -0.01  -0.00   0.00    -0.00   0.00  -0.00    -0.00   0.00  -0.00
    34   6     0.00  -0.01   0.00     0.00   0.00   0.00     0.00  -0.00   0.00
    35   6    -0.00  -0.00  -0.00     0.00  -0.00  -0.00    -0.00  -0.00  -0.00
    36   1     0.00  -0.01   0.00     0.00   0.00   0.00     0.00  -0.00   0.00
    37   1    -0.00   0.00  -0.00     0.00  -0.01   0.01    -0.00  -0.00   0.00
    38   1     0.00  -0.01   0.01     0.00  -0.00  -0.00     0.00  -0.00   0.00
    39   1     0.00   0.00   0.00     0.00   0.00  -0.00    -0.01  -0.01  -0.00
    40   1     0.00  -0.00  -0.01    -0.00  -0.00  -0.00    -0.00  -0.00  -0.00
    41   1     0.00   0.00  -0.00    -0.00  -0.00  -0.00     0.00  -0.00  -0.01
    42   6     0.00   0.00   0.00    -0.00  -0.01  -0.02     0.02   0.05   0.06
    43   6     0.00  -0.00  -0.00    -0.08   0.05   0.04     0.20  -0.13  -0.08
    44   6    -0.00   0.00  -0.00     0.03  -0.04   0.04    -0.07   0.11  -0.12
    45   6    -0.00  -0.00   0.00     0.04   0.03  -0.03    -0.11  -0.09   0.08
    46   1     0.00  -0.00  -0.00    -0.09   0.10   0.08     0.21  -0.23  -0.19
    47   1    -0.00  -0.00  -0.00     0.01   0.02   0.02    -0.01  -0.03  -0.05
    48   1     0.00  -0.00  -0.00    -0.09   0.10   0.08     0.21  -0.25  -0.19
    49   1    -0.00   0.00  -0.00     0.03  -0.04   0.04    -0.05   0.05  -0.07
    50   1    -0.00   0.00  -0.00     0.03  -0.03   0.04    -0.10   0.10  -0.16
    51   1    -0.00   0.00  -0.00     0.04  -0.05   0.04    -0.10   0.11  -0.16
    52   1    -0.00  -0.00   0.00     0.05   0.04  -0.03    -0.17  -0.15   0.07
    53   1    -0.00  -0.00   0.00     0.03   0.02  -0.03    -0.14  -0.13   0.06
    54   1    -0.00  -0.00   0.00     0.05   0.03  -0.03    -0.06  -0.05   0.01
    55   8    -0.00  -0.01   0.00     0.09   0.19  -0.10     0.03   0.06  -0.03
    56   6    -0.00   0.00   0.00     0.15  -0.02  -0.07     0.05  -0.00  -0.03
    57   6     0.00  -0.00   0.00    -0.01   0.04  -0.02    -0.01   0.03  -0.01
    58   6     0.01   0.01   0.00    -0.17  -0.14  -0.11    -0.06  -0.05  -0.04
    59   6     0.00   0.00  -0.01    -0.00   0.00   0.24    -0.00   0.01   0.09
    60   1    -0.00  -0.00   0.00     0.16  -0.03  -0.08     0.07  -0.02  -0.03
    61   1    -0.00  -0.00   0.00     0.16  -0.02  -0.06     0.07  -0.02  -0.03
    62   1    -0.01   0.00   0.00     0.16  -0.02  -0.07     0.03  -0.01  -0.01
    63   1     0.01   0.01   0.01    -0.20  -0.27  -0.12    -0.08  -0.11  -0.05
    64   1     0.00   0.00  -0.00    -0.07  -0.10  -0.02    -0.00  -0.02   0.01
    65   1     0.00   0.00   0.00    -0.16  -0.21  -0.09    -0.06  -0.08  -0.03
    66   1    -0.00   0.00  -0.01     0.03  -0.06   0.28     0.01  -0.03   0.11
    67   1    -0.00   0.00  -0.01     0.03  -0.03   0.12     0.01  -0.01   0.01
    68   1    -0.00   0.00  -0.01     0.03  -0.06   0.35     0.01  -0.03   0.14
                     76                     77                     78
                      A                      A                      A
 Frequencies --    826.8582               835.9043               858.5873
 Red. masses --      1.6269                 1.3695                 1.3024
 Frc consts  --      0.6553                 0.5638                 0.5657
 IR Inten    --      0.0000                 0.0000                 0.0000
  Atom  AN      X      Y      Z        X      Y      Z        X      Y      Z
     1  26    -0.00   0.00   0.02     0.00  -0.00  -0.01     0.00   0.01   0.01
     2   6     0.00  -0.00  -0.00    -0.00   0.00  -0.00     0.01  -0.01   0.01
     3  46    -0.00  -0.00  -0.00     0.00   0.00  -0.00    -0.00  -0.00   0.00
     4   6     0.02  -0.03   0.01     0.01  -0.01   0.00     0.05  -0.02   0.02
     5   1    -0.03  -0.12  -0.16     0.07   0.18   0.60     0.02   0.07   0.09
     6   1     0.03  -0.04  -0.41     0.07   0.06   0.08     0.02   0.07   0.34
     7   1     0.01   0.14   0.29    -0.07   0.04   0.10    -0.00  -0.03  -0.05
     8   6    -0.01  -0.01  -0.00     0.00   0.00   0.00    -0.01   0.00   0.01
     9   8     0.00   0.00   0.00     0.00   0.00  -0.00    -0.00  -0.00   0.00
    10   6    -0.03  -0.03  -0.01    -0.02  -0.02  -0.01     0.00   0.00  -0.00
    11   8    -0.00   0.01   0.00     0.01  -0.01   0.00     0.00  -0.00  -0.01
    12   6     0.10  -0.03  -0.05     0.01   0.00   0.04     0.02  -0.03  -0.08
    13   6     0.04   0.07  -0.07     0.03   0.05  -0.03    -0.03  -0.00   0.03
    14   6    -0.08   0.02  -0.00    -0.05   0.02   0.07    -0.01   0.02   0.04
    15   1    -0.02   0.04   0.48     0.04  -0.10  -0.31    -0.08   0.19   0.73
    16   1    -0.24   0.08   0.45     0.00   0.04   0.15     0.05   0.01  -0.26
    17   1    -0.03  -0.04  -0.12     0.22  -0.08  -0.53     0.14   0.00  -0.30
    18   1    -0.02   0.01   0.08     0.02   0.01  -0.04    -0.02   0.07   0.06
    19   6     0.00  -0.03  -0.01    -0.02  -0.03   0.02    -0.03  -0.00  -0.05
    20   6    -0.00   0.01   0.00     0.00   0.00  -0.00    -0.00   0.01  -0.01
    21   8    -0.00  -0.00   0.00     0.00  -0.00   0.00     0.00   0.00  -0.01
    22   6     0.02   0.03  -0.05     0.01   0.00  -0.00    -0.02  -0.01   0.00
    23   6     0.06   0.00   0.05     0.03  -0.03   0.01    -0.02  -0.00  -0.05
    24   6    -0.01  -0.05   0.03    -0.03  -0.06  -0.07     0.02   0.02  -0.01
    25   6    -0.03   0.00   0.01    -0.04   0.03   0.02     0.01  -0.01   0.00
    26   6    -0.04   0.01  -0.04     0.01   0.03   0.02     0.00  -0.00   0.03
    27   1     0.01   0.04   0.30     0.01  -0.11  -0.19    -0.03  -0.05  -0.20
    28   7     0.00  -0.00  -0.00     0.00  -0.00   0.00    -0.00   0.01  -0.00
    29   1    -0.00   0.01  -0.00     0.00   0.01  -0.00    -0.01   0.01  -0.02
    30   1    -0.03  -0.02   0.02    -0.01   0.02  -0.00     0.04   0.04   0.00
    31   1     0.04  -0.04   0.05     0.01  -0.02   0.02     0.03  -0.06   0.04
    32   1     0.06   0.03  -0.06    -0.01  -0.02  -0.14    -0.01  -0.05  -0.04
    33   7    -0.00  -0.00   0.00    -0.00  -0.00   0.00    -0.02   0.01   0.00
    34   6    -0.00   0.00  -0.01    -0.00   0.00  -0.00    -0.00  -0.01   0.01
    35   6     0.00   0.00   0.01    -0.00   0.00   0.00    -0.01  -0.01  -0.02
    36   1     0.00   0.01  -0.01     0.00   0.01  -0.01     0.01   0.02  -0.02
    37   1     0.00   0.02  -0.02     0.00   0.01  -0.01     0.02  -0.00   0.00
    38   1     0.00   0.00   0.01     0.00  -0.00   0.00     0.02  -0.03   0.04
    39   1     0.01   0.01   0.01     0.00   0.00   0.01     0.00  -0.00   0.00
    40   1     0.00  -0.00   0.00     0.00  -0.00   0.00     0.00  -0.02  -0.03
    41   1     0.00   0.00   0.01     0.00  -0.00  -0.00    -0.00  -0.02  -0.03
    42   6     0.00   0.00   0.00     0.00   0.00   0.00     0.00  -0.00  -0.00
    43   6     0.00  -0.00  -0.00     0.00  -0.00  -0.00    -0.00   0.00   0.00
    44   6    -0.00   0.00  -0.00    -0.00   0.00  -0.00     0.00  -0.00   0.00
    45   6    -0.00  -0.00   0.00    -0.00  -0.00   0.00     0.00   0.00   0.00
    46   1     0.00  -0.00  -0.00     0.00  -0.00  -0.00    -0.00   0.00   0.00
    47   1    -0.00   0.00   0.00     0.00   0.00  -0.00    -0.00   0.00   0.00
    48   1     0.00  -0.01  -0.00     0.00  -0.00  -0.00    -0.00   0.00   0.00
    49   1    -0.00   0.00  -0.00    -0.00   0.00  -0.00    -0.00   0.01  -0.00
    50   1    -0.00   0.00  -0.00    -0.00   0.00  -0.00     0.00  -0.00   0.01
    51   1    -0.00   0.00  -0.00    -0.00   0.00  -0.00     0.00  -0.00   0.01
    52   1    -0.00  -0.00   0.00    -0.00  -0.00   0.00    -0.00  -0.00  -0.00
    53   1    -0.00  -0.00   0.00    -0.00  -0.00   0.00    -0.00  -0.00  -0.00
    54   1    -0.00   0.00  -0.00     0.00   0.00  -0.00     0.00   0.00  -0.00
    55   8     0.00   0.01  -0.00    -0.01  -0.00   0.00     0.01   0.01  -0.01
    56   6     0.00  -0.00  -0.00     0.00   0.00  -0.00    -0.01  -0.00   0.01
    57   6    -0.00   0.00  -0.00     0.00   0.00   0.00     0.00  -0.01   0.00
    58   6    -0.01  -0.01  -0.01     0.00   0.00   0.00     0.01  -0.00   0.00
    59   6     0.00  -0.00   0.01    -0.00   0.00  -0.00     0.01  -0.00  -0.01
    60   1     0.01  -0.00  -0.00     0.01  -0.00  -0.00    -0.03   0.01   0.01
    61   1     0.01  -0.00  -0.00     0.01  -0.00  -0.00    -0.03   0.01   0.01
    62   1     0.00  -0.00  -0.00    -0.00  -0.00   0.00     0.01   0.00  -0.01
    63   1    -0.01  -0.01  -0.01     0.00   0.01   0.00     0.02   0.03   0.01
    64   1    -0.00  -0.00  -0.00     0.01   0.00  -0.00    -0.01  -0.01  -0.02
    65   1    -0.01  -0.01  -0.00    -0.01  -0.01  -0.00     0.01   0.02   0.00
    66   1     0.00  -0.00   0.02    -0.00  -0.00   0.00    -0.00   0.01  -0.01
    67   1     0.00  -0.00   0.01    -0.00  -0.00  -0.01    -0.00   0.00   0.02
    68   1    -0.00  -0.00   0.00    -0.00  -0.00   0.00    -0.01   0.01  -0.04
                     79                     80                     81
                      A                      A                      A
 Frequencies --    871.3020               878.6645               894.1411
 Red. masses --      1.3570                 1.4762                 3.5907
 Frc consts  --      0.6070                 0.6715                 1.6914
 IR Inten    --      0.0000                 0.0000                 0.0000
  Atom  AN      X      Y      Z        X      Y      Z        X      Y      Z
     1  26     0.00   0.00   0.00     0.00  -0.00   0.00    -0.00  -0.00  -0.00
     2   6    -0.00   0.00   0.00    -0.00   0.00  -0.00    -0.09   0.16  -0.04
     3  46     0.00  -0.00   0.00     0.00   0.00  -0.00     0.00   0.00  -0.00
     4   6     0.02   0.00   0.01     0.04   0.01   0.02    -0.02  -0.01  -0.01
     5   1     0.06   0.04   0.30     0.07  -0.20  -0.42    -0.01  -0.01  -0.05
     6   1     0.03   0.09  -0.00    -0.01   0.13   0.47    -0.00  -0.00   0.03
     7   1    -0.09  -0.14  -0.26     0.05  -0.11  -0.14    -0.01   0.02   0.04
     8   6    -0.01   0.00  -0.01     0.01   0.00  -0.01    -0.04   0.04   0.01
     9   8    -0.00  -0.00   0.00     0.00   0.00  -0.00     0.07   0.01  -0.05
    10   6     0.01   0.00  -0.01    -0.02  -0.01  -0.01    -0.00  -0.00   0.01
    11   8    -0.01   0.00  -0.00     0.00  -0.00   0.00    -0.02  -0.02   0.01
    12   6    -0.00  -0.01  -0.02     0.03  -0.01   0.04     0.01   0.00  -0.00
    13   6    -0.01  -0.01   0.02     0.04   0.06  -0.04     0.00   0.01  -0.01
    14   6     0.00   0.00  -0.01    -0.04   0.01   0.03    -0.01  -0.00   0.00
    15   1    -0.02   0.01   0.07     0.05  -0.09  -0.23    -0.01  -0.02   0.00
    16   1     0.11  -0.01  -0.15    -0.21   0.07   0.30    -0.02   0.01   0.04
    17   1    -0.03   0.04   0.07     0.12  -0.19  -0.30     0.01  -0.02  -0.03
    18   1    -0.06  -0.07   0.10     0.03  -0.01  -0.05    -0.01   0.02   0.02
    19   6    -0.02   0.01  -0.01    -0.02  -0.02   0.01     0.02   0.00   0.01
    20   6     0.01  -0.01   0.00     0.00  -0.01   0.01     0.23  -0.19   0.07
    21   8    -0.00   0.00  -0.00    -0.00  -0.00   0.00    -0.14  -0.03   0.03
    22   6     0.04  -0.05   0.05    -0.01  -0.04   0.03    -0.00   0.00  -0.01
    23   6    -0.02  -0.03   0.01    -0.07   0.01  -0.06     0.00   0.01  -0.00
    24   6    -0.06  -0.02  -0.03     0.02   0.07   0.04     0.01   0.00   0.00
    25   6    -0.02   0.08   0.01     0.03  -0.00  -0.00     0.00  -0.01   0.00
    26   6     0.05  -0.01  -0.08     0.02  -0.03  -0.02    -0.00   0.00   0.01
    27   1     0.13   0.26   0.75     0.01   0.16   0.18    -0.01  -0.03  -0.08
    28   7    -0.01   0.01  -0.00    -0.00  -0.00  -0.00    -0.05   0.04  -0.01
    29   1     0.01  -0.02   0.01     0.00  -0.01   0.01     0.20  -0.38   0.25
    30   1     0.03   0.01   0.00     0.09   0.07  -0.01    -0.03  -0.01  -0.00
    31   1     0.01  -0.02   0.02     0.01  -0.03  -0.00    -0.01   0.01  -0.00
    32   1    -0.03  -0.02  -0.20    -0.10  -0.06   0.06     0.01   0.00   0.02
    33   7    -0.01   0.01   0.00    -0.03   0.01   0.01     0.01  -0.01  -0.00
    34   6    -0.00  -0.00   0.01    -0.00  -0.01   0.02     0.00   0.01  -0.02
    35   6    -0.00  -0.01  -0.02    -0.01  -0.02  -0.04     0.01   0.01   0.02
    36   1     0.01   0.02  -0.01     0.01   0.03  -0.02     0.00  -0.01   0.01
    37   1     0.01  -0.02   0.02     0.03  -0.02   0.02    -0.02   0.02  -0.02
    38   1     0.01  -0.02   0.02     0.03  -0.05   0.05    -0.01   0.03  -0.02
    39   1     0.00  -0.00  -0.00     0.00  -0.01  -0.00    -0.00   0.00  -0.00
    40   1    -0.00  -0.01  -0.02     0.00  -0.04  -0.05    -0.00   0.02   0.03
    41   1    -0.00  -0.01  -0.02    -0.00  -0.04  -0.06     0.00   0.02   0.03
    42   6    -0.00  -0.00  -0.00    -0.00  -0.00  -0.00     0.03   0.03   0.04
    43   6    -0.00   0.00  -0.00     0.00  -0.00  -0.00     0.02  -0.02  -0.01
    44   6     0.00   0.00  -0.00    -0.00   0.00  -0.00    -0.02   0.08  -0.03
    45   6    -0.00  -0.00  -0.00     0.00   0.00  -0.00    -0.04  -0.02   0.04
    46   1    -0.00   0.01   0.01     0.00   0.00   0.00     0.03  -0.00   0.02
    47   1     0.01  -0.00  -0.00     0.00  -0.00  -0.00     0.08  -0.05  -0.02
    48   1    -0.00   0.01   0.00    -0.00   0.00   0.00    -0.00   0.03   0.03
    49   1     0.00  -0.00   0.00     0.00  -0.00   0.00     0.10  -0.22   0.14
    50   1    -0.00  -0.00  -0.00    -0.00   0.00  -0.00    -0.15   0.05  -0.23
    51   1    -0.00   0.00  -0.00    -0.00   0.00  -0.00    -0.11   0.04  -0.22
    52   1     0.00   0.00  -0.00     0.00   0.00  -0.00    -0.04  -0.08   0.00
    53   1     0.00  -0.00   0.00     0.00   0.00   0.00    -0.10  -0.11   0.04
    54   1    -0.00  -0.00   0.00    -0.00  -0.00   0.00     0.05   0.01  -0.05
    55   8     0.01   0.01  -0.00    -0.01  -0.00   0.01     0.04   0.07  -0.05
    56   6    -0.01  -0.00   0.01     0.01   0.00  -0.00    -0.05  -0.03   0.04
    57   6     0.00  -0.01   0.01    -0.00   0.00  -0.00     0.03  -0.10   0.03
    58   6     0.01   0.00   0.01    -0.00   0.00   0.00     0.04  -0.00   0.04
    59   6     0.00  -0.00  -0.01    -0.00   0.00   0.00     0.01  -0.03  -0.06
    60   1    -0.03   0.01   0.01     0.02  -0.01  -0.00    -0.19   0.10   0.04
    61   1    -0.02   0.02   0.01     0.01  -0.01  -0.00    -0.17   0.11   0.05
    62   1     0.02   0.00  -0.01    -0.01  -0.00   0.01     0.20   0.01  -0.10
    63   1     0.02   0.03   0.01    -0.01  -0.01  -0.00     0.10   0.14   0.05
    64   1     0.00  -0.00  -0.02     0.01   0.01   0.01    -0.09  -0.06  -0.07
    65   1    -0.00   0.00  -0.01    -0.01  -0.01  -0.01     0.03   0.08   0.00
    66   1    -0.00   0.00  -0.01     0.00  -0.00   0.00    -0.01   0.04  -0.11
    67   1    -0.00   0.00   0.00     0.00  -0.00  -0.01    -0.01   0.02   0.09
    68   1    -0.00   0.00  -0.03     0.00  -0.00   0.01    -0.01   0.04  -0.14
                     82                     83                     84
                      A                      A                      A
 Frequencies --    901.2810               908.2938               948.2325
 Red. masses --      3.0922                 2.9731                 2.4935
 Frc consts  --      1.4799                 1.4452                 1.3210
 IR Inten    --      0.0000                 0.0000                 0.0000
  Atom  AN      X      Y      Z        X      Y      Z        X      Y      Z
     1  26     0.00  -0.00  -0.00    -0.00  -0.01  -0.01     0.00  -0.01  -0.01
     2   6     0.04  -0.09   0.03     0.00  -0.01   0.00     0.00  -0.00  -0.00
     3  46    -0.00  -0.00   0.00    -0.00   0.00   0.00    -0.00  -0.00   0.00
     4   6    -0.01   0.00  -0.00    -0.17  -0.13  -0.07    -0.10   0.13   0.05
     5   1     0.01  -0.04  -0.08     0.06  -0.06  -0.07     0.04  -0.05   0.01
     6   1    -0.01  -0.01  -0.01     0.01   0.08   0.35     0.01   0.08   0.03
     7   1     0.01   0.00  -0.00    -0.03  -0.10  -0.19     0.06  -0.00   0.03
     8   6    -0.06   0.01   0.04     0.00   0.00  -0.01    -0.01  -0.00   0.00
     9   8    -0.04  -0.01   0.04    -0.00   0.00   0.00     0.00   0.00  -0.00
    10   6    -0.00  -0.00   0.00    -0.00  -0.02   0.05     0.01  -0.06   0.00
    11   8    -0.10  -0.07   0.04     0.01   0.00  -0.00    -0.00   0.01   0.00
    12   6     0.01   0.00   0.00     0.01   0.01  -0.01    -0.02   0.05  -0.04
    13   6     0.01   0.02  -0.01    -0.01   0.04  -0.01    -0.04  -0.00  -0.00
    14   6    -0.01  -0.01  -0.00    -0.02   0.01   0.00    -0.12  -0.09   0.01
    15   1    -0.01  -0.09  -0.18    -0.08  -0.04   0.17    -0.20  -0.12   0.17
    16   1    -0.02   0.01   0.09    -0.02   0.03   0.04     0.33  -0.09   0.11
    17   1    -0.01  -0.05   0.01     0.06  -0.01  -0.19    -0.04  -0.13  -0.17
    18   1    -0.01  -0.01   0.01     0.03   0.04  -0.03    -0.05  -0.06   0.21
    19   6     0.01   0.00   0.01     0.08  -0.00   0.03     0.24   0.02   0.05
    20   6    -0.03   0.14  -0.10    -0.01   0.01  -0.00     0.00   0.01   0.02
    21   8     0.07   0.02  -0.03     0.01   0.00  -0.00    -0.00   0.00  -0.00
    22   6    -0.00   0.00  -0.00     0.00  -0.03   0.03     0.00  -0.01   0.01
    23   6    -0.00   0.00   0.00    -0.03  -0.00  -0.03    -0.02   0.01  -0.01
    24   6     0.01   0.01   0.01    -0.00   0.03   0.01    -0.01  -0.01   0.00
    25   6     0.00  -0.00   0.00     0.01   0.02   0.01    -0.00   0.02   0.01
    26   6    -0.00   0.00   0.00     0.03  -0.01  -0.01     0.01   0.00  -0.01
    27   1    -0.00  -0.02  -0.04     0.04   0.09   0.14     0.01  -0.02  -0.04
    28   7     0.00   0.04   0.01     0.00   0.00   0.00     0.00   0.00  -0.00
    29   1    -0.04   0.26  -0.23    -0.01   0.02  -0.01     0.02   0.01   0.04
    30   1    -0.00  -0.01  -0.00    -0.34  -0.06  -0.03     0.34  -0.01  -0.03
    31   1    -0.01   0.01  -0.01    -0.02  -0.03   0.09    -0.29   0.19  -0.40
    32   1    -0.02   0.00   0.04    -0.08  -0.06  -0.03     0.04   0.04  -0.01
    33   7     0.01  -0.00  -0.00     0.11  -0.10  -0.04     0.02   0.03   0.01
    34   6    -0.00   0.00  -0.01     0.00   0.09  -0.14     0.01  -0.01   0.02
    35   6     0.00   0.00   0.01     0.05   0.09   0.19     0.01  -0.02  -0.06
    36   1    -0.00  -0.01   0.01    -0.03  -0.06   0.10    -0.01  -0.05   0.05
    37   1    -0.01   0.01  -0.01    -0.11   0.17  -0.16    -0.02  -0.03   0.03
    38   1    -0.01   0.01  -0.01    -0.11   0.21  -0.20    -0.03   0.03  -0.03
    39   1    -0.00  -0.00  -0.00    -0.01   0.03  -0.01    -0.05  -0.08  -0.06
    40   1    -0.00   0.01   0.01    -0.01   0.16   0.18    -0.02   0.03   0.09
    41   1    -0.00   0.01   0.01     0.02   0.22   0.30    -0.05  -0.10  -0.11
    42   6    -0.00  -0.00  -0.00    -0.00  -0.00  -0.00    -0.01  -0.01  -0.01
    43   6    -0.00  -0.00   0.00    -0.00   0.00   0.00    -0.01  -0.00  -0.00
    44   6     0.00  -0.03   0.01     0.00  -0.01   0.00     0.00  -0.01   0.00
    45   6     0.00  -0.00   0.01     0.00   0.00  -0.00     0.00   0.00  -0.01
    46   1    -0.02   0.01  -0.01    -0.01   0.00  -0.01    -0.01   0.02   0.01
    47   1    -0.02   0.02  -0.00    -0.00   0.00   0.00     0.03  -0.01  -0.01
    48   1     0.02  -0.02  -0.03    -0.00  -0.01  -0.00    -0.00   0.01   0.01
    49   1    -0.05   0.12  -0.08    -0.01   0.02  -0.01    -0.01   0.01  -0.01
    50   1     0.06  -0.00   0.08     0.01  -0.00   0.02     0.01  -0.01   0.02
    51   1     0.06  -0.02   0.10     0.01  -0.00   0.01     0.01  -0.00   0.01
    52   1    -0.05  -0.04   0.01     0.00   0.00   0.00     0.03   0.03  -0.01
    53   1    -0.01  -0.01  -0.02     0.01   0.01  -0.00     0.01   0.01   0.01
    54   1     0.03   0.03  -0.04    -0.00  -0.00   0.00    -0.02  -0.02   0.02
    55   8     0.09   0.14  -0.09    -0.00  -0.02   0.01     0.01  -0.01  -0.01
    56   6    -0.08  -0.06   0.07     0.01   0.01  -0.01    -0.02   0.00  -0.02
    57   6     0.05  -0.15   0.05    -0.00   0.02  -0.00    -0.00  -0.00  -0.03
    58   6     0.05  -0.00   0.05    -0.01  -0.00  -0.00     0.01   0.02  -0.00
    59   6     0.01  -0.03  -0.07     0.00   0.00   0.01     0.01  -0.02   0.03
    60   1    -0.31   0.18   0.06     0.03  -0.02  -0.00    -0.08   0.01   0.07
    61   1    -0.29   0.19   0.08     0.03  -0.02  -0.01     0.12  -0.01  -0.02
    62   1     0.35   0.02  -0.18    -0.04  -0.00   0.02    -0.04   0.02   0.05
    63   1     0.15   0.19   0.07    -0.01  -0.01  -0.00    -0.03  -0.04  -0.01
    64   1    -0.12  -0.08  -0.10     0.02   0.01   0.00     0.06   0.04   0.04
    65   1     0.03   0.09  -0.01    -0.01  -0.01  -0.01     0.02   0.00   0.03
    66   1    -0.01   0.04  -0.16    -0.00  -0.00   0.02    -0.02   0.03   0.01
    67   1    -0.01   0.02   0.12    -0.00  -0.00  -0.01    -0.01   0.01   0.14
    68   1    -0.01   0.05  -0.17    -0.00  -0.01   0.00    -0.01   0.03  -0.05
                     85                     86                     87
                      A                      A                      A
 Frequencies --    950.0072               952.3044               953.0020
 Red. masses --      1.5749                 1.9212                 1.6100
 Frc consts  --      0.8374                 1.0265                 0.8615
 IR Inten    --      0.0000                 0.0000                 0.0000
  Atom  AN      X      Y      Z        X      Y      Z        X      Y      Z
     1  26     0.00   0.00   0.00    -0.00  -0.00   0.00     0.00  -0.00  -0.00
     2   6     0.00   0.00   0.01    -0.02  -0.01  -0.04    -0.01  -0.00  -0.02
     3  46     0.00  -0.00   0.00    -0.00   0.00  -0.00    -0.00  -0.00   0.00
     4   6     0.01  -0.02  -0.01     0.01  -0.01  -0.01    -0.00   0.00   0.00
     5   1    -0.00   0.01   0.00    -0.01   0.01  -0.00    -0.00   0.00   0.00
     6   1    -0.00  -0.00   0.00     0.00  -0.01  -0.01    -0.00   0.00   0.00
     7   1    -0.00  -0.00  -0.01    -0.03   0.01   0.01    -0.00   0.00   0.00
     8   6    -0.00   0.00   0.01     0.00   0.00   0.00    -0.02   0.01   0.00
     9   8    -0.00  -0.00   0.00     0.01   0.01  -0.00     0.00   0.00  -0.00
    10   6    -0.00   0.01  -0.00    -0.00   0.01   0.00     0.00  -0.00   0.00
    11   8    -0.00  -0.00  -0.00    -0.01  -0.02   0.01    -0.00  -0.01   0.00
    12   6     0.00  -0.01   0.00    -0.00  -0.00   0.00     0.00   0.00  -0.01
    13   6     0.01   0.00   0.00     0.01  -0.00  -0.00    -0.00  -0.00   0.00
    14   6     0.02   0.01  -0.00     0.01   0.01  -0.00    -0.00  -0.00   0.00
    15   1     0.02   0.01  -0.02     0.02   0.03  -0.01    -0.01   0.01   0.04
    16   1    -0.04   0.01  -0.01    -0.03   0.01  -0.00     0.01  -0.00  -0.00
    17   1     0.01   0.02   0.02     0.00   0.02   0.03    -0.00   0.00  -0.01
    18   1    -0.01  -0.01   0.00     0.06   0.07  -0.14    -0.00   0.02   0.02
    19   6    -0.03   0.00  -0.01    -0.03  -0.01   0.00     0.01   0.00   0.00
    20   6    -0.01  -0.01  -0.03     0.05   0.07   0.15     0.03   0.04   0.07
    21   8     0.00  -0.00  -0.00    -0.02   0.00   0.01    -0.01   0.00   0.00
    22   6    -0.00  -0.00  -0.00    -0.00   0.00  -0.00    -0.00   0.00  -0.00
    23   6    -0.00  -0.00  -0.00     0.00   0.00   0.00    -0.00   0.00  -0.00
    24   6    -0.00   0.00  -0.00     0.00   0.00  -0.00     0.00   0.00  -0.00
    25   6     0.00  -0.00  -0.00     0.00  -0.00  -0.00     0.00  -0.00   0.00
    26   6    -0.00  -0.00   0.00     0.00   0.00   0.00    -0.00  -0.00   0.00
    27   1     0.00  -0.01   0.01     0.00   0.00   0.01     0.00  -0.02  -0.01
    28   7    -0.01   0.01   0.00     0.03  -0.00  -0.02     0.01   0.01  -0.01
    29   1    -0.03  -0.02  -0.06     0.17   0.11   0.29     0.09   0.04   0.16
    30   1    -0.04   0.00   0.00    -0.06   0.01   0.00     0.01  -0.00  -0.00
    31   1     0.04  -0.03   0.05     0.04  -0.02   0.05    -0.01   0.00  -0.01
    32   1     0.02   0.00  -0.02    -0.01  -0.01   0.00     0.01   0.01  -0.00
    33   7    -0.00  -0.00  -0.00    -0.00  -0.00  -0.00     0.00  -0.00   0.00
    34   6    -0.00   0.00  -0.00     0.00  -0.00   0.00     0.00   0.00  -0.00
    35   6    -0.00   0.00   0.01    -0.00   0.00   0.01     0.00  -0.00  -0.00
    36   1     0.00   0.01  -0.01     0.00   0.00  -0.00    -0.00  -0.00   0.00
    37   1     0.00   0.01  -0.01     0.00  -0.00   0.00    -0.00   0.00  -0.00
    38   1     0.00  -0.00   0.01     0.00  -0.00  -0.00    -0.00   0.00  -0.00
    39   1     0.01   0.01   0.01     0.01   0.01   0.01    -0.00  -0.00  -0.00
    40   1     0.00  -0.00  -0.01     0.00  -0.00  -0.01    -0.00   0.00   0.01
    41   1     0.01   0.01   0.02     0.00   0.01   0.01    -0.00  -0.00  -0.00
    42   6     0.01   0.01   0.02    -0.08  -0.04  -0.07    -0.04  -0.02  -0.04
    43   6     0.01   0.00   0.01    -0.03  -0.03  -0.04    -0.02  -0.02  -0.03
    44   6    -0.00   0.01  -0.01     0.01  -0.07   0.04     0.01  -0.04   0.02
    45   6    -0.00  -0.01   0.02     0.02   0.03  -0.08     0.01   0.02  -0.04
    46   1     0.01  -0.02  -0.02    -0.05   0.11   0.12    -0.03   0.06   0.07
    47   1    -0.05   0.03   0.01     0.28  -0.16  -0.09     0.17  -0.10  -0.05
    48   1     0.01  -0.02  -0.02    -0.05   0.13   0.11    -0.03   0.08   0.06
    49   1     0.01  -0.02   0.01    -0.03   0.08  -0.06    -0.01   0.03  -0.03
    50   1    -0.02   0.01  -0.03     0.08  -0.04   0.11     0.04  -0.01   0.04
    51   1    -0.01   0.01  -0.03     0.09  -0.08   0.15     0.06  -0.05   0.08
    52   1    -0.06  -0.05   0.01     0.27   0.23  -0.08     0.14   0.11  -0.04
    53   1    -0.02  -0.02  -0.01     0.09   0.05   0.07     0.03   0.01   0.04
    54   1     0.03   0.03  -0.04    -0.11  -0.14   0.17    -0.05  -0.07   0.08
    55   8    -0.00  -0.01  -0.02    -0.01   0.04  -0.01     0.00  -0.02   0.01
    56   6    -0.02  -0.05  -0.07    -0.07   0.02  -0.02     0.10  -0.07   0.01
    57   6    -0.06  -0.03  -0.07     0.04  -0.02  -0.03    -0.08   0.00   0.04
    58   6     0.04   0.12   0.02     0.01  -0.01  -0.00    -0.00   0.06   0.02
    59   6    -0.01  -0.07   0.08     0.05  -0.03   0.04    -0.08   0.02  -0.04
    60   1    -0.33   0.10   0.25    -0.12   0.00   0.13     0.03   0.07  -0.11
    61   1     0.41   0.02  -0.07     0.17  -0.04  -0.02    -0.17   0.11   0.02
    62   1     0.14   0.05   0.07    -0.16   0.03   0.14     0.41  -0.03  -0.24
    63   1    -0.01  -0.14  -0.02    -0.02   0.01   0.00     0.07  -0.04  -0.00
    64   1     0.39   0.25   0.22    -0.06  -0.04  -0.03     0.22   0.14   0.10
    65   1     0.02  -0.13   0.04     0.04   0.06   0.03    -0.06  -0.14  -0.04
    66   1    -0.01   0.09  -0.16    -0.08   0.04   0.15     0.13  -0.03  -0.33
    67   1     0.01   0.05   0.42    -0.08   0.01   0.26     0.13   0.00  -0.24
    68   1     0.02   0.10   0.04    -0.06   0.04  -0.26     0.10  -0.02   0.42
                     88                     89                     90
                      A                      A                      A
 Frequencies --    964.9953               967.6963               971.1564
 Red. masses --      1.4984                 1.4682                 1.2577
 Frc consts  --      0.8221                 0.8101                 0.6989
 IR Inten    --      0.0000                 0.0000                 0.0000
  Atom  AN      X      Y      Z        X      Y      Z        X      Y      Z
     1  26     0.00   0.00  -0.00    -0.00  -0.00   0.00    -0.00  -0.00  -0.00
     2   6     0.01  -0.01   0.01     0.00  -0.00   0.01    -0.00   0.00  -0.00
     3  46    -0.00  -0.00   0.00     0.00  -0.00  -0.00     0.00   0.00  -0.00
     4   6    -0.00  -0.00   0.00    -0.00   0.00   0.00    -0.01   0.01  -0.01
     5   1     0.00  -0.00  -0.00    -0.00  -0.00   0.00     0.00   0.00   0.00
     6   1    -0.00  -0.00   0.00     0.00   0.00   0.00     0.00  -0.01  -0.00
     7   1     0.02  -0.00  -0.01    -0.00   0.00   0.00    -0.03   0.01   0.01
     8   6    -0.00  -0.00   0.00     0.01  -0.00  -0.00     0.01   0.00  -0.01
     9   8    -0.01  -0.00   0.01    -0.00  -0.00   0.00     0.00   0.00  -0.00
    10   6    -0.00  -0.00  -0.00     0.00  -0.00  -0.00     0.00  -0.00   0.00
    11   8    -0.00   0.00  -0.00    -0.00   0.00   0.00     0.00  -0.00   0.00
    12   6     0.00  -0.00   0.00    -0.00   0.00  -0.00    -0.01   0.01  -0.00
    13   6     0.00   0.00   0.00    -0.00  -0.00  -0.00    -0.00  -0.01  -0.00
    14   6     0.00  -0.00  -0.00    -0.00  -0.00   0.00    -0.01  -0.00   0.00
    15   1    -0.00  -0.02  -0.02    -0.00   0.01   0.01     0.00   0.05   0.05
    16   1    -0.01   0.01  -0.00     0.01  -0.00   0.00     0.04  -0.02   0.01
    17   1     0.00  -0.01  -0.00    -0.00   0.00   0.00    -0.01   0.02   0.00
    18   1    -0.04  -0.05   0.09     0.02   0.02  -0.03     0.10   0.10  -0.21
    19   6     0.00   0.01  -0.01     0.00  -0.00   0.00     0.01  -0.02   0.02
    20   6    -0.03   0.00  -0.04    -0.01  -0.00  -0.03     0.00  -0.01   0.00
    21   8     0.02   0.00  -0.01     0.01  -0.00  -0.00    -0.00  -0.00   0.00
    22   6     0.00  -0.00   0.00     0.00  -0.00   0.00    -0.00   0.00  -0.00
    23   6    -0.00  -0.00  -0.00     0.00  -0.00   0.00     0.01  -0.00   0.00
    24   6     0.00  -0.00  -0.00    -0.00  -0.00   0.00     0.00   0.00   0.00
    25   6    -0.00   0.00  -0.00    -0.00   0.00   0.00     0.00  -0.00   0.00
    26   6    -0.00  -0.00   0.00     0.00   0.00  -0.00     0.00  -0.00  -0.00
    27   1    -0.00  -0.00  -0.01     0.00   0.01   0.01     0.00   0.01   0.03
    28   7    -0.00  -0.00   0.00    -0.02  -0.00   0.01    -0.00  -0.00   0.00
    29   1    -0.05   0.02  -0.09    -0.03  -0.01  -0.05     0.00  -0.01   0.01
    30   1     0.01  -0.01   0.00     0.00   0.00  -0.00    -0.01   0.01  -0.01
    31   1    -0.01  -0.01  -0.00    -0.00   0.00  -0.00    -0.00   0.02  -0.01
    32   1     0.00   0.00  -0.00    -0.00  -0.00  -0.00    -0.04  -0.02   0.03
    33   7     0.00  -0.00  -0.00    -0.00   0.00   0.00    -0.00   0.01   0.00
    34   6    -0.00   0.00  -0.00    -0.00   0.00   0.00     0.00  -0.00   0.01
    35   6    -0.00   0.00   0.00     0.00  -0.00  -0.00    -0.00  -0.00  -0.01
    36   1     0.00   0.00   0.00    -0.00   0.00  -0.00    -0.00  -0.01   0.00
    37   1     0.00   0.01  -0.01     0.00  -0.00   0.00    -0.00  -0.01   0.01
    38   1     0.00   0.00   0.00     0.00  -0.00   0.00    -0.00   0.00  -0.01
    39   1    -0.01  -0.01   0.00     0.00   0.00  -0.00    -0.00  -0.00   0.00
    40   1     0.00  -0.00   0.01    -0.00   0.00  -0.00     0.00  -0.00  -0.00
    41   1     0.01   0.00  -0.00    -0.01  -0.00   0.00     0.00  -0.01  -0.02
    42   6    -0.04   0.08  -0.03    -0.06   0.01   0.06    -0.01  -0.01   0.02
    43   6     0.05   0.01  -0.11     0.02  -0.11  -0.03     0.00   0.01  -0.01
    44   6     0.02  -0.00   0.12    -0.05   0.01   0.02    -0.05  -0.00   0.00
    45   6    -0.05  -0.01   0.01     0.04   0.11   0.02     0.04  -0.00   0.01
    46   1     0.35  -0.30  -0.04    -0.20   0.28   0.15     0.07  -0.07  -0.01
    47   1     0.18  -0.23   0.03     0.34  -0.11  -0.19     0.00  -0.03   0.02
    48   1    -0.32   0.18   0.27     0.26  -0.01  -0.10    -0.07   0.03   0.05
    49   1     0.25  -0.32   0.23     0.06   0.01  -0.05     0.02   0.07  -0.10
    50   1    -0.12   0.11  -0.30    -0.04   0.15  -0.19    -0.01   0.13  -0.14
    51   1     0.12  -0.20   0.02     0.13  -0.12   0.11     0.14  -0.11   0.13
    52   1     0.06   0.02  -0.02     0.08  -0.08  -0.12    -0.16  -0.08   0.06
    53   1    -0.08  -0.10   0.08    -0.21  -0.27   0.03     0.08   0.13  -0.12
    54   1    -0.02  -0.05   0.04     0.41   0.22  -0.29     0.00   0.09  -0.07
    55   8     0.00  -0.00  -0.00     0.01  -0.01   0.00    -0.01  -0.00   0.01
    56   6    -0.00   0.00   0.00    -0.00   0.01   0.00     0.02  -0.04  -0.04
    57   6     0.00   0.00  -0.00     0.00   0.01  -0.00    -0.02   0.01   0.03
    58   6     0.00  -0.00  -0.00     0.00  -0.00  -0.01    -0.05  -0.01   0.05
    59   6     0.00  -0.00   0.00    -0.00  -0.00   0.00     0.04   0.05  -0.03
    60   1     0.01  -0.01  -0.00     0.04  -0.02  -0.02    -0.19   0.07   0.14
    61   1    -0.00  -0.01   0.00    -0.01  -0.02   0.00     0.24   0.03  -0.04
    62   1    -0.02   0.00   0.01    -0.05  -0.00   0.02     0.16   0.03   0.01
    63   1    -0.01  -0.01  -0.00    -0.04  -0.02  -0.01     0.32   0.18   0.04
    64   1    -0.01  -0.01  -0.00    -0.01  -0.00   0.01     0.08   0.02  -0.10
    65   1     0.01   0.01   0.01     0.02   0.02   0.02    -0.23  -0.24  -0.25
    66   1    -0.00   0.00   0.01     0.00   0.00  -0.01    -0.05  -0.07   0.31
    67   1    -0.00   0.00   0.01     0.00   0.00   0.01    -0.08  -0.05  -0.24
    68   1    -0.00  -0.00  -0.01     0.00   0.00   0.01    -0.07  -0.08  -0.19
                     91                     92                     93
                      A                      A                      A
 Frequencies --    971.2252               974.4029               994.3463
 Red. masses --      1.2617                 1.3302                 1.7952
 Frc consts  --      0.7012                 0.7441                 1.0458
 IR Inten    --      0.0000                 0.0000                 0.0000
  Atom  AN      X      Y      Z        X      Y      Z        X      Y      Z
     1  26    -0.00   0.00  -0.00    -0.00   0.00   0.00    -0.00   0.01   0.01
     2   6     0.01  -0.01   0.00     0.00   0.00  -0.00    -0.00   0.00  -0.00
     3  46    -0.00  -0.00   0.00    -0.00  -0.00   0.00     0.00   0.00  -0.00
     4   6     0.00  -0.00   0.01     0.01  -0.02   0.03    -0.05   0.00   0.16
     5   1     0.01  -0.00  -0.00     0.01  -0.01  -0.01    -0.01   0.02  -0.01
     6   1    -0.01  -0.02  -0.00    -0.03  -0.04  -0.00     0.00  -0.01  -0.02
     7   1     0.03  -0.00  -0.00     0.10  -0.01  -0.03    -0.02   0.01   0.01
     8   6    -0.01  -0.00   0.00    -0.03   0.00   0.01     0.01   0.00  -0.01
     9   8    -0.00  -0.00   0.00     0.00   0.00  -0.00    -0.00  -0.00   0.00
    10   6    -0.00  -0.00  -0.00    -0.01   0.00  -0.01     0.05  -0.01  -0.12
    11   8    -0.00   0.01   0.00    -0.00   0.02   0.00     0.00  -0.01   0.00
    12   6     0.01  -0.01   0.00     0.03  -0.04   0.00     0.00  -0.00   0.01
    13   6     0.00   0.00   0.00     0.00   0.02   0.00     0.01   0.00  -0.00
    14   6     0.00   0.00  -0.00     0.02   0.01  -0.00     0.03   0.03   0.01
    15   1     0.00  -0.03  -0.03     0.00  -0.14  -0.14     0.09   0.12  -0.01
    16   1    -0.03   0.01  -0.01    -0.13   0.05  -0.05    -0.13   0.04  -0.04
    17   1     0.01  -0.01  -0.00     0.03  -0.06  -0.01     0.01   0.07   0.04
    18   1    -0.07  -0.08   0.16    -0.31  -0.33   0.71     0.12   0.11  -0.20
    19   6    -0.00   0.02  -0.01    -0.02   0.08  -0.06    -0.09  -0.02  -0.01
    20   6    -0.02   0.00  -0.02     0.02   0.01   0.02     0.00   0.00  -0.00
    21   8     0.01   0.00  -0.00    -0.01   0.00  -0.00     0.00  -0.00   0.00
    22   6    -0.00   0.00  -0.00     0.00   0.00   0.00     0.00   0.00  -0.00
    23   6    -0.00  -0.00  -0.00    -0.01  -0.00  -0.00     0.01  -0.00   0.00
    24   6     0.00   0.00   0.00     0.00  -0.00  -0.00     0.00   0.00  -0.00
    25   6     0.00  -0.00  -0.00    -0.00   0.00  -0.00    -0.00  -0.00  -0.00
    26   6    -0.00  -0.00   0.00    -0.01  -0.00   0.01    -0.01   0.00  -0.00
    27   1    -0.01  -0.01  -0.03    -0.02  -0.06  -0.11    -0.00   0.01   0.03
    28   7     0.00   0.00   0.00     0.00   0.00  -0.01    -0.00  -0.00   0.00
    29   1    -0.03   0.01  -0.05     0.04   0.00   0.07    -0.00   0.00  -0.01
    30   1     0.02  -0.01   0.01     0.08  -0.06   0.03     0.53  -0.20   0.05
    31   1    -0.01  -0.01  -0.01    -0.03  -0.04  -0.01    -0.36  -0.16  -0.31
    32   1    -0.01   0.00   0.01     0.05   0.03  -0.01    -0.02  -0.01  -0.00
    33   7     0.00  -0.00  -0.00     0.01  -0.02  -0.00     0.02  -0.06   0.00
    34   6    -0.00   0.00  -0.00    -0.01   0.01  -0.02    -0.01   0.01  -0.08
    35   6     0.00  -0.00   0.00     0.01   0.00   0.02     0.04   0.02   0.01
    36   1     0.00   0.00  -0.00     0.01   0.02   0.00     0.03   0.01   0.08
    37   1     0.00   0.01  -0.01    -0.00   0.06  -0.05    -0.05   0.24  -0.20
    38   1     0.00  -0.00   0.01     0.01  -0.00   0.03     0.01   0.02   0.10
    39   1    -0.00  -0.00  -0.01    -0.01  -0.01  -0.02    -0.08  -0.12  -0.10
    40   1    -0.00   0.00   0.00    -0.01   0.02   0.03    -0.03   0.12   0.25
    41   1    -0.00   0.00   0.01    -0.00   0.03   0.04    -0.08  -0.03  -0.01
    42   6     0.00   0.03  -0.02    -0.01  -0.03   0.00     0.00   0.00  -0.00
    43   6    -0.00  -0.03   0.01    -0.01   0.00  -0.00     0.00   0.00   0.00
    44   6     0.08   0.01   0.01    -0.03  -0.01  -0.01     0.00  -0.00  -0.00
    45   6    -0.08   0.02  -0.01     0.04   0.00  -0.01    -0.00  -0.00   0.00
    46   1    -0.12   0.13   0.03    -0.01   0.01   0.01     0.00  -0.00  -0.00
    47   1     0.03   0.03  -0.05     0.02  -0.01  -0.00    -0.00   0.00   0.00
    48   1     0.13  -0.05  -0.09    -0.01   0.01   0.01    -0.01  -0.00   0.00
    49   1    -0.02  -0.16   0.21    -0.02   0.11  -0.12    -0.00  -0.00   0.00
    50   1    -0.00  -0.21   0.20     0.02   0.07  -0.05     0.00  -0.00   0.01
    51   1    -0.24   0.18  -0.24     0.10  -0.07   0.12    -0.01   0.00  -0.01
    52   1     0.30   0.12  -0.12    -0.10  -0.03   0.04     0.00   0.00  -0.00
    53   1    -0.17  -0.28   0.22     0.08   0.11  -0.09    -0.00  -0.00   0.00
    54   1     0.05  -0.13   0.09    -0.01   0.05  -0.03    -0.00  -0.00   0.00
    55   8     0.01  -0.01   0.00     0.04  -0.03  -0.00    -0.01   0.01   0.00
    56   6     0.00  -0.02  -0.03    -0.01  -0.00  -0.01     0.00   0.00   0.00
    57   6    -0.01   0.01   0.01     0.00   0.02  -0.00     0.00  -0.01   0.00
    58   6    -0.03  -0.01   0.03    -0.01  -0.01   0.00     0.00   0.00   0.00
    59   6     0.03   0.03  -0.01     0.01   0.01   0.00    -0.00  -0.00  -0.00
    60   1    -0.12   0.05   0.09    -0.04   0.02   0.03     0.01  -0.01  -0.00
    61   1     0.15   0.02  -0.02     0.04   0.01  -0.01     0.00  -0.01  -0.00
    62   1     0.09   0.02   0.01     0.00   0.01   0.02    -0.01  -0.00   0.00
    63   1     0.19   0.11   0.02     0.03   0.03   0.00     0.00  -0.00   0.00
    64   1     0.05   0.01  -0.06     0.00  -0.01  -0.02     0.00   0.00   0.00
    65   1    -0.14  -0.14  -0.15    -0.03  -0.02  -0.03     0.00  -0.00   0.00
    66   1    -0.04  -0.04   0.21    -0.02  -0.01   0.10     0.00   0.00  -0.02
    67   1    -0.05  -0.03  -0.15    -0.02  -0.01  -0.05     0.00   0.00   0.02
    68   1    -0.04  -0.05  -0.12    -0.02  -0.02  -0.06     0.00   0.00   0.00
                     94                     95                     96
                      A                      A                      A
 Frequencies --   1025.6470              1032.3425              1032.9839
 Red. masses --      2.4513                 1.4084                 1.4260
 Frc consts  --      1.5193                 0.8843                 0.8965
 IR Inten    --      0.0000                 0.0000                 0.0000
  Atom  AN      X      Y      Z        X      Y      Z        X      Y      Z
     1  26    -0.00   0.00  -0.00     0.00   0.00   0.00     0.00   0.00   0.00
     2   6     0.01   0.02   0.01    -0.00  -0.02  -0.01     0.00   0.01   0.00
     3  46    -0.00   0.00   0.00    -0.00   0.00  -0.00    -0.00   0.00  -0.00
     4   6    -0.00  -0.00   0.00    -0.01  -0.00   0.02    -0.01   0.00   0.03
     5   1    -0.01   0.00   0.01     0.02  -0.03   0.01     0.07  -0.06   0.02
     6   1     0.01   0.01   0.00    -0.01  -0.00   0.01    -0.03  -0.04   0.01
     7   1     0.10  -0.02  -0.01     0.12  -0.00   0.01     0.21  -0.00   0.02
     8   6     0.03  -0.03  -0.00     0.01  -0.01  -0.00     0.00   0.00  -0.00
     9   8     0.00   0.01  -0.02    -0.00   0.01   0.00     0.00  -0.00  -0.00
    10   6    -0.00  -0.00   0.00     0.01  -0.00  -0.01     0.01  -0.00  -0.01
    11   8     0.06   0.05  -0.03     0.00   0.00  -0.00     0.00   0.00  -0.00
    12   6     0.00  -0.01   0.01     0.00  -0.00   0.00    -0.00   0.00   0.00
    13   6    -0.01  -0.00   0.00     0.00   0.00   0.00     0.00   0.00  -0.00
    14   6     0.00  -0.00  -0.00     0.00   0.00   0.00     0.00   0.00   0.00
    15   1     0.00  -0.01   0.00     0.01   0.01   0.00     0.02   0.03  -0.00
    16   1    -0.03   0.00  -0.03    -0.01   0.00  -0.01    -0.01   0.00  -0.01
    17   1     0.00   0.00  -0.01     0.00   0.01  -0.00     0.00   0.01  -0.00
    18   1    -0.04  -0.07   0.15     0.01   0.00   0.01     0.02   0.01  -0.03
    19   6     0.01   0.02  -0.01    -0.01  -0.00  -0.00    -0.02  -0.00  -0.00
    20   6    -0.09  -0.10   0.01    -0.02   0.03   0.02    -0.00  -0.02  -0.00
    21   8    -0.00  -0.01   0.00     0.01   0.00   0.00    -0.00  -0.00   0.00
    22   6     0.01  -0.00   0.00     0.00  -0.00  -0.00     0.01   0.00  -0.00
    23   6     0.00  -0.00  -0.00    -0.01  -0.00  -0.00    -0.01  -0.00  -0.00
    24   6    -0.01  -0.01   0.00    -0.00  -0.01   0.00     0.00  -0.01   0.00
    25   6    -0.00  -0.00  -0.00    -0.00   0.01  -0.00    -0.01   0.02  -0.00
    26   6    -0.00   0.00  -0.00    -0.01   0.00   0.00    -0.01  -0.00   0.00
    27   1    -0.04   0.11  -0.04    -0.01   0.02  -0.01    -0.00  -0.05   0.01
    28   7     0.10  -0.08  -0.02     0.01  -0.01  -0.00     0.01  -0.00  -0.00
    29   1     0.04   0.06   0.03    -0.08   0.07  -0.13     0.02  -0.01   0.03
    30   1     0.00  -0.00  -0.00     0.05  -0.03   0.01     0.07  -0.05   0.02
    31   1    -0.00   0.00  -0.00    -0.03  -0.02  -0.02    -0.05  -0.03  -0.03
    32   1     0.01   0.00   0.00     0.03   0.02  -0.01     0.04   0.05  -0.02
    33   7     0.00  -0.00  -0.00     0.01  -0.01   0.03     0.02  -0.01   0.05
    34   6    -0.00   0.00  -0.00     0.01   0.06  -0.01     0.01   0.10  -0.02
    35   6     0.00  -0.00   0.00    -0.00  -0.06  -0.01    -0.01  -0.09  -0.02
    36   1     0.00  -0.00   0.01    -0.05  -0.00  -0.11    -0.08  -0.01  -0.17
    37   1    -0.00   0.01  -0.01     0.02  -0.16   0.11     0.03  -0.26   0.19
    38   1    -0.00   0.00   0.00    -0.05   0.08  -0.18    -0.08   0.13  -0.30
    39   1    -0.01  -0.00  -0.01    -0.00   0.01  -0.13    -0.01   0.01  -0.21
    40   1    -0.00   0.00  -0.00    -0.03  -0.03  -0.18    -0.05  -0.06  -0.30
    41   1     0.00   0.01   0.01     0.01   0.14   0.15     0.03   0.23   0.24
    42   6    -0.06   0.00   0.03     0.03  -0.04   0.01    -0.01   0.01   0.00
    43   6     0.08  -0.01   0.05    -0.06  -0.03  -0.00     0.02   0.01   0.01
    44   6    -0.05  -0.00   0.03     0.01   0.08   0.01    -0.01  -0.01   0.00
    45   6     0.00   0.05  -0.07     0.04  -0.05  -0.01    -0.01   0.01  -0.01
    46   1     0.03  -0.11  -0.17    -0.17   0.22   0.17     0.04  -0.06  -0.05
    47   1    -0.28   0.19   0.06     0.22  -0.09  -0.09    -0.08   0.04   0.03
    48   1     0.18  -0.24  -0.22     0.04   0.09   0.04     0.01  -0.05  -0.03
    49   1     0.06  -0.00  -0.03     0.11  -0.24   0.20    -0.01   0.04  -0.04
    50   1    -0.04   0.13  -0.17    -0.13   0.02  -0.17     0.02   0.02   0.00
    51   1     0.14  -0.14   0.14    -0.12   0.05  -0.22     0.04  -0.03   0.06
    52   1     0.27   0.21  -0.09    -0.15  -0.02   0.09     0.06   0.03  -0.03
    53   1     0.03  -0.02   0.09     0.17   0.23  -0.12    -0.03  -0.04   0.03
    54   1    -0.04  -0.11   0.12    -0.14  -0.01   0.05     0.01  -0.02   0.01
    55   8    -0.11   0.15   0.01    -0.01   0.02   0.00    -0.01  -0.00  -0.01
    56   6     0.02  -0.02  -0.03    -0.01  -0.00  -0.03     0.02   0.00   0.05
    57   6    -0.02  -0.05   0.01    -0.01  -0.02  -0.01     0.02   0.01   0.03
    58   6     0.03  -0.03   0.05     0.04  -0.02   0.02    -0.06   0.03  -0.02
    59   6    -0.04  -0.03  -0.00    -0.03   0.01   0.01     0.05  -0.03  -0.02
    60   1    -0.04   0.00   0.04    -0.06   0.01   0.07     0.11  -0.02  -0.11
    61   1     0.12  -0.02  -0.03     0.16  -0.03  -0.03    -0.22   0.03   0.05
    62   1     0.04  -0.00   0.01    -0.03   0.01   0.05     0.04  -0.02  -0.08
    63   1     0.16   0.22   0.07     0.05   0.12   0.04    -0.03  -0.15  -0.05
    64   1    -0.16  -0.11  -0.14    -0.14  -0.09  -0.09     0.19   0.12   0.10
    65   1    -0.00   0.09  -0.04     0.05   0.12   0.02    -0.10  -0.19  -0.05
    66   1     0.04   0.02  -0.21     0.04  -0.02  -0.06    -0.06   0.05   0.03
    67   1     0.05   0.02   0.08     0.04  -0.01  -0.09    -0.06   0.01   0.18
    68   1     0.04   0.03   0.14     0.03  -0.02   0.19    -0.04   0.05  -0.27
                     97                     98                     99
                      A                      A                      A
 Frequencies --   1033.8795              1039.4489              1043.2720
 Red. masses --      1.4437                 1.4016                 1.2180
 Frc consts  --      0.9092                 0.8922                 0.7811
 IR Inten    --      0.0000                 0.0000                 0.0000
  Atom  AN      X      Y      Z        X      Y      Z        X      Y      Z
     1  26     0.00   0.00   0.00     0.00   0.00   0.00     0.01  -0.00   0.00
     2   6    -0.00   0.01   0.01     0.00   0.00   0.00    -0.00   0.00  -0.00
     3  46     0.00  -0.00  -0.00    -0.00   0.00  -0.00     0.00   0.00  -0.00
     4   6    -0.00   0.00   0.01     0.00   0.00   0.00    -0.01  -0.02  -0.01
     5   1     0.00  -0.01   0.00     0.00  -0.01   0.01     0.39  -0.33   0.10
     6   1     0.00   0.01   0.00     0.01   0.05  -0.00    -0.10  -0.08   0.04
     7   1     0.05  -0.00   0.01     0.06  -0.01  -0.01     0.67  -0.02  -0.03
     8   6    -0.00   0.01  -0.00    -0.00   0.01  -0.00     0.00   0.00  -0.00
     9   8     0.00  -0.00   0.00    -0.00  -0.00  -0.00     0.00   0.00   0.00
    10   6     0.01  -0.00  -0.01     0.00   0.00  -0.00     0.00   0.00   0.01
    11   8    -0.02  -0.01   0.01     0.02   0.00  -0.01    -0.00  -0.00   0.00
    12   6    -0.00   0.00  -0.00    -0.00   0.00   0.00    -0.01   0.00  -0.00
    13   6     0.00   0.00  -0.00     0.00  -0.00  -0.00    -0.00  -0.00   0.00
    14   6    -0.00   0.00   0.00    -0.00   0.00   0.00     0.00   0.01   0.00
    15   1     0.01   0.01   0.00     0.01   0.01  -0.00     0.01   0.03   0.01
    16   1     0.01  -0.00   0.01     0.01  -0.00   0.01     0.05  -0.01  -0.02
    17   1    -0.00   0.01   0.00    -0.00   0.01   0.00    -0.00   0.02   0.01
    18   1     0.02   0.02  -0.04     0.01   0.00  -0.05     0.04   0.03  -0.08
    19   6    -0.01  -0.01   0.00    -0.00  -0.01   0.00    -0.02  -0.01   0.00
    20   6     0.04   0.00  -0.01    -0.02  -0.02  -0.00     0.00   0.00   0.00
    21   8    -0.01  -0.00  -0.00     0.00  -0.00   0.00    -0.00  -0.00   0.00
    22   6     0.00  -0.00  -0.00     0.00  -0.01   0.00     0.03   0.02  -0.01
    23   6    -0.00   0.00  -0.00    -0.01   0.00  -0.00    -0.07   0.01  -0.02
    24   6    -0.00  -0.00  -0.00    -0.01  -0.01  -0.00     0.00  -0.03   0.00
    25   6    -0.00   0.00  -0.00     0.00   0.00  -0.00    -0.03   0.06  -0.01
    26   6    -0.00   0.00   0.00    -0.00  -0.00   0.00    -0.04  -0.02   0.02
    27   1    -0.01   0.02  -0.00    -0.01   0.02  -0.00     0.02  -0.28   0.08
    28   7    -0.03   0.02   0.01     0.01   0.00  -0.00    -0.00  -0.00   0.00
    29   1     0.06  -0.06   0.09    -0.00  -0.00  -0.00    -0.00  -0.00   0.00
    30   1     0.04  -0.03   0.01     0.01   0.01  -0.00    -0.04   0.01  -0.01
    31   1    -0.03  -0.02  -0.02     0.00   0.00  -0.00     0.02  -0.03   0.06
    32   1     0.03   0.02  -0.01     0.08   0.04  -0.03     0.18   0.18  -0.06
    33   7     0.01  -0.00   0.03    -0.00  -0.01  -0.00    -0.00   0.01  -0.02
    34   6     0.01   0.05  -0.01    -0.00  -0.00  -0.00     0.00  -0.02   0.01
    35   6    -0.01  -0.05  -0.01     0.00   0.00   0.00     0.01   0.03  -0.00
    36   1    -0.04  -0.00  -0.09     0.00   0.01   0.00     0.02  -0.01   0.06
    37   1     0.01  -0.14   0.10    -0.00   0.02  -0.02    -0.01   0.03  -0.02
    38   1    -0.04   0.07  -0.16     0.01  -0.01   0.02     0.01  -0.02   0.07
    39   1    -0.00   0.01  -0.11     0.00   0.00  -0.00    -0.00  -0.02   0.06
    40   1    -0.02  -0.04  -0.16    -0.00   0.00  -0.00     0.01   0.03   0.13
    41   1     0.02   0.13   0.13     0.00   0.01   0.01    -0.02  -0.10  -0.10
    42   6    -0.01   0.03  -0.02    -0.01  -0.01   0.01     0.00   0.00  -0.00
    43   6     0.03   0.03  -0.01     0.01  -0.01   0.02    -0.00   0.00  -0.00
    44   6     0.00  -0.07  -0.02    -0.01   0.01   0.01     0.00  -0.00  -0.00
    45   6    -0.04   0.03   0.03     0.01   0.00  -0.03    -0.00   0.00   0.01
    46   1     0.14  -0.16  -0.09    -0.03   0.01  -0.02     0.01  -0.00   0.00
    47   1    -0.10   0.02   0.06    -0.06   0.05   0.01     0.01  -0.01  -0.00
    48   1    -0.10   0.00   0.04     0.07  -0.07  -0.07    -0.02   0.01   0.01
    49   1    -0.11   0.21  -0.16     0.05  -0.05   0.03    -0.01   0.01  -0.01
    50   1     0.13  -0.06   0.21    -0.04   0.05  -0.10     0.01  -0.01   0.02
    51   1     0.06   0.00   0.15     0.03  -0.04   0.00    -0.01   0.01  -0.00
    52   1     0.04  -0.05  -0.05     0.07   0.07  -0.01    -0.01  -0.02   0.00
    53   1    -0.16  -0.19   0.07     0.05   0.04   0.01    -0.01  -0.01  -0.00
    54   1     0.15   0.05  -0.09    -0.06  -0.05   0.07     0.02   0.01  -0.02
    55   8     0.04  -0.02   0.01    -0.03  -0.01   0.02    -0.00   0.00   0.00
    56   6    -0.02  -0.00  -0.05    -0.05  -0.08   0.03     0.00   0.00  -0.01
    57   6    -0.02  -0.01  -0.04     0.04   0.00  -0.04    -0.00  -0.00   0.00
    58   6     0.06  -0.03   0.02     0.03   0.01  -0.08     0.00  -0.00   0.00
    59   6    -0.05   0.04   0.03     0.03   0.08   0.04    -0.01   0.00  -0.00
    60   1    -0.14   0.02   0.13    -0.31   0.16   0.08     0.00  -0.01   0.01
    61   1     0.24  -0.03  -0.05    -0.13   0.15   0.05     0.03  -0.01  -0.01
    62   1    -0.05   0.03   0.09     0.34   0.01  -0.14    -0.02   0.00   0.01
    63   1     0.00   0.13   0.05    -0.33  -0.25  -0.07     0.03   0.02   0.00
    64   1    -0.21  -0.12  -0.10    -0.01   0.03   0.13    -0.03  -0.01  -0.02
    65   1     0.12   0.22   0.08     0.19   0.16   0.21     0.00   0.00   0.00
    66   1     0.06  -0.07   0.01    -0.02  -0.10   0.39     0.01  -0.00  -0.02
    67   1     0.06  -0.02  -0.24    -0.04  -0.05  -0.29     0.01   0.00  -0.01
    68   1     0.04  -0.07   0.30    -0.04  -0.11  -0.00     0.00  -0.00   0.02
                    100                    101                    102
                      A                      A                      A
 Frequencies --   1051.1226              1052.1292              1057.5577
 Red. masses --      1.6327                 1.7320                 1.3601
 Frc consts  --      1.0628                 1.1296                 0.8963
 IR Inten    --      0.0000                 0.0000                 0.0000
  Atom  AN      X      Y      Z        X      Y      Z        X      Y      Z
     1  26    -0.00   0.00  -0.00    -0.00  -0.00   0.00     0.00   0.00   0.00
     2   6     0.00  -0.00  -0.01     0.00   0.00   0.00    -0.00  -0.00   0.00
     3  46    -0.00   0.00  -0.00     0.00  -0.00   0.00     0.00  -0.00  -0.00
     4   6    -0.03  -0.03  -0.00    -0.10  -0.10   0.01    -0.01  -0.01  -0.00
     5   1    -0.16   0.09  -0.01    -0.01   0.04  -0.00    -0.22   0.10  -0.03
     6   1     0.06   0.10  -0.01    -0.04  -0.14   0.05     0.09   0.18  -0.03
     7   1     0.24  -0.06  -0.02    -0.17   0.03   0.02     0.42  -0.09  -0.03
     8   6     0.03  -0.03  -0.00    -0.01   0.01   0.00    -0.02   0.02   0.01
     9   8     0.00   0.01  -0.01    -0.00  -0.00   0.00    -0.00  -0.00   0.01
    10   6    -0.00  -0.01   0.00     0.01  -0.02   0.01    -0.00  -0.01   0.00
    11   8     0.04   0.03  -0.01    -0.01  -0.01   0.00    -0.03  -0.02   0.01
    12   6     0.01  -0.01   0.01     0.01  -0.01   0.01     0.01  -0.00  -0.00
    13   6    -0.00  -0.00   0.00    -0.00   0.02  -0.00     0.01  -0.01   0.00
    14   6     0.00   0.00  -0.00     0.02   0.00  -0.00    -0.01   0.01  -0.00
    15   1     0.02  -0.00  -0.01     0.02   0.01  -0.00     0.02   0.01  -0.02
    16   1    -0.04   0.01  -0.01    -0.18   0.06  -0.07     0.10  -0.03   0.08
    17   1     0.00   0.08  -0.02     0.02  -0.02  -0.00    -0.01   0.20  -0.02
    18   1    -0.01  -0.04   0.08    -0.03   0.00   0.02     0.02   0.03  -0.05
    19   6    -0.01   0.01  -0.01    -0.02   0.02  -0.01    -0.01  -0.01   0.00
    20   6    -0.04  -0.01   0.05     0.01   0.00  -0.01     0.04   0.02  -0.03
    21   8     0.00  -0.00   0.00     0.00   0.00  -0.00    -0.00   0.00   0.00
    22   6     0.01  -0.03   0.02    -0.01   0.01  -0.01     0.01  -0.05   0.02
    23   6     0.02  -0.01   0.00     0.01  -0.01   0.00     0.02  -0.00  -0.00
    24   6    -0.03  -0.03   0.00     0.01   0.02  -0.00    -0.04  -0.04   0.00
    25   6     0.01  -0.02  -0.00    -0.01   0.00   0.00     0.02  -0.02  -0.00
    26   6    -0.01   0.02  -0.00     0.02  -0.00  -0.00    -0.02   0.03   0.00
    27   1    -0.13   0.44  -0.15     0.06  -0.13   0.05    -0.19   0.60  -0.21
    28   7     0.03  -0.06  -0.01    -0.01   0.01   0.00    -0.03   0.04   0.01
    29   1    -0.03   0.01   0.01     0.01  -0.01  -0.00     0.03  -0.01  -0.00
    30   1    -0.02   0.01  -0.01    -0.07  -0.12   0.01    -0.01   0.05  -0.02
    31   1    -0.03  -0.08   0.03    -0.12  -0.25   0.08    -0.00  -0.04   0.03
    32   1     0.05   0.01  -0.01    -0.12  -0.07   0.00     0.15   0.07  -0.01
    33   7     0.01   0.03  -0.00     0.05   0.10   0.00     0.00   0.01  -0.00
    34   6     0.02   0.00   0.02     0.07   0.01   0.08     0.00  -0.00   0.01
    35   6     0.01   0.01  -0.03     0.03   0.03  -0.10     0.01   0.01  -0.01
    36   1    -0.01  -0.04   0.02    -0.07  -0.17   0.05     0.00  -0.01   0.01
    37   1    -0.01  -0.07   0.06    -0.02  -0.31   0.28    -0.00  -0.02   0.02
    38   1    -0.03   0.04  -0.06    -0.13   0.17  -0.31    -0.00   0.01   0.00
    39   1    -0.02  -0.04  -0.00    -0.06  -0.13  -0.00    -0.01  -0.02   0.00
    40   1     0.00   0.04   0.12     0.00   0.10   0.32     0.00   0.03   0.07
    41   1    -0.03  -0.08  -0.09    -0.09  -0.26  -0.30    -0.02  -0.05  -0.05
    42   6     0.02   0.01  -0.02    -0.01  -0.00   0.01    -0.01  -0.00   0.01
    43   6    -0.04   0.02  -0.05     0.01  -0.00   0.01     0.02  -0.01   0.02
    44   6     0.04  -0.02  -0.04    -0.01   0.01   0.01    -0.02   0.01   0.02
    45   6     0.00   0.01   0.07    -0.00  -0.00  -0.02    -0.00  -0.01  -0.04
    46   1     0.06  -0.01   0.07    -0.02   0.01  -0.02    -0.04   0.01  -0.03
    47   1     0.18  -0.14  -0.03    -0.05   0.04   0.01    -0.08   0.07   0.01
    48   1    -0.18   0.17   0.17     0.05  -0.05  -0.05     0.09  -0.08  -0.08
    49   1    -0.10   0.09  -0.03     0.03  -0.02   0.01     0.05  -0.04   0.02
    50   1     0.09  -0.14   0.24    -0.02   0.04  -0.06    -0.04   0.07  -0.12
    51   1    -0.10   0.13  -0.05     0.03  -0.03   0.01     0.05  -0.06   0.03
    52   1    -0.19  -0.20   0.03     0.05   0.05  -0.01     0.09   0.10  -0.01
    53   1    -0.11  -0.09  -0.05     0.03   0.02   0.01     0.06   0.05   0.03
    54   1     0.18   0.17  -0.19    -0.05  -0.04   0.05    -0.10  -0.09   0.10
    55   8    -0.08   0.07   0.01     0.02  -0.02  -0.00     0.06  -0.05  -0.01
    56   6     0.00  -0.03   0.02    -0.00   0.00  -0.00     0.00   0.02  -0.01
    57   6     0.01  -0.01   0.00     0.00   0.00  -0.01    -0.01   0.01   0.00
    58   6    -0.00   0.00  -0.01     0.01  -0.00  -0.00    -0.01   0.00   0.01
    59   6     0.01  -0.00   0.00    -0.00   0.01   0.00    -0.00  -0.00  -0.00
    60   1    -0.05   0.04  -0.01    -0.01   0.00   0.01     0.06  -0.03  -0.01
    61   1    -0.08   0.05   0.02     0.01  -0.00  -0.00     0.03  -0.03  -0.01
    62   1     0.13  -0.01  -0.07    -0.01   0.00   0.01    -0.09   0.00   0.04
    63   1    -0.03  -0.04  -0.01    -0.02  -0.00   0.00     0.05   0.02   0.00
    64   1     0.02   0.01   0.02    -0.00  -0.00  -0.00     0.01   0.01   0.00
    65   1     0.01  -0.01   0.01     0.01   0.02   0.01    -0.03  -0.03  -0.03
    66   1    -0.02   0.00   0.04     0.00  -0.01   0.01     0.00   0.01  -0.02
    67   1    -0.02   0.00   0.04     0.00  -0.00  -0.02     0.00   0.00   0.01
    68   1    -0.01   0.00  -0.06     0.00  -0.01   0.02     0.00   0.01   0.00
                    103                    104                    105
                      A                      A                      A
 Frequencies --   1075.5775              1084.2423              1086.4896
 Red. masses --      1.1238                 1.2383                 1.1291
 Frc consts  --      0.7660                 0.8577                 0.7853
 IR Inten    --      0.0000                 0.0000                 0.0000
  Atom  AN      X      Y      Z        X      Y      Z        X      Y      Z
     1  26    -0.00   0.00  -0.00    -0.00   0.00   0.00     0.00   0.00  -0.00
     2   6     0.00   0.00  -0.00    -0.00  -0.00  -0.00    -0.00   0.00  -0.00
     3  46     0.00   0.00  -0.00     0.00   0.00  -0.00    -0.00   0.00  -0.00
     4   6    -0.00   0.01  -0.00     0.01   0.01   0.03    -0.01  -0.01   0.00
     5   1    -0.01  -0.00  -0.07     0.06  -0.05   0.03    -0.26   0.19  -0.13
     6   1    -0.15  -0.42   0.10     0.01   0.00  -0.01     0.00   0.10   0.05
     7   1     0.11   0.04   0.00     0.06  -0.00  -0.01    -0.17  -0.04  -0.02
     8   6    -0.00  -0.00   0.00    -0.00  -0.00   0.00     0.00   0.00  -0.00
     9   8     0.00   0.00  -0.00     0.00   0.00   0.00    -0.00   0.00  -0.00
    10   6    -0.00  -0.01  -0.00     0.01  -0.00  -0.01    -0.00  -0.01  -0.00
    11   8     0.00   0.00  -0.00     0.00  -0.00   0.00    -0.00  -0.00  -0.00
    12   6     0.02  -0.01  -0.00    -0.01   0.00  -0.00     0.02  -0.01   0.01
    13   6     0.01  -0.02   0.01    -0.00   0.00  -0.00     0.01  -0.01   0.01
    14   6    -0.03   0.02  -0.00     0.00  -0.00   0.00    -0.02   0.01  -0.00
    15   1     0.04   0.01  -0.03     0.01   0.03   0.01     0.02  -0.04  -0.04
    16   1     0.39  -0.11   0.19    -0.07   0.02  -0.05     0.19  -0.06   0.16
    17   1    -0.02   0.55  -0.13     0.00  -0.11   0.02    -0.02   0.40  -0.08
    18   1    -0.02  -0.04   0.13    -0.00   0.01   0.00    -0.00  -0.04   0.03
    19   6    -0.03  -0.03  -0.01    -0.00   0.00  -0.00    -0.03  -0.01  -0.01
    20   6    -0.00  -0.00   0.00     0.00   0.00  -0.00    -0.01  -0.01   0.01
    21   8    -0.00  -0.00   0.00     0.00  -0.00   0.00     0.01  -0.00  -0.00
    22   6     0.01   0.04  -0.02     0.00   0.01  -0.00    -0.01  -0.04   0.01
    23   6     0.00  -0.03   0.01     0.01  -0.00  -0.00    -0.03   0.02  -0.00
    24   6     0.02   0.02   0.01    -0.00  -0.01   0.00    -0.00   0.02  -0.01
    25   6    -0.02   0.01  -0.00    -0.01  -0.00   0.00     0.04   0.01  -0.01
    26   6     0.03   0.01  -0.01    -0.00   0.01  -0.00    -0.00  -0.03   0.02
    27   1     0.03   0.04   0.00    -0.03   0.11  -0.04     0.08  -0.34   0.10
    28   7     0.00  -0.00  -0.00    -0.00   0.00   0.00     0.01  -0.01  -0.00
    29   1     0.00   0.00   0.00    -0.00  -0.00  -0.00    -0.01   0.01  -0.01
    30   1     0.00   0.00  -0.01     0.05  -0.08   0.04     0.02   0.06  -0.03
    31   1     0.01   0.04   0.00    -0.01   0.02  -0.03    -0.02  -0.03   0.00
    32   1    -0.40  -0.22   0.06    -0.11  -0.07   0.01     0.54   0.33  -0.07
    33   7    -0.00  -0.00   0.00     0.00  -0.00   0.03     0.00   0.00   0.01
    34   6     0.00  -0.00  -0.00     0.08  -0.01  -0.05     0.02   0.00  -0.01
    35   6    -0.00   0.00   0.00    -0.10   0.01   0.00    -0.02   0.00  -0.01
    36   1     0.00  -0.00   0.01    -0.01  -0.27   0.39    -0.01  -0.07   0.10
    37   1    -0.01   0.01  -0.01    -0.20   0.15  -0.09    -0.05   0.03  -0.02
    38   1    -0.00   0.00   0.01    -0.17   0.27  -0.16    -0.05   0.08  -0.07
    39   1     0.01   0.01   0.02     0.16   0.23   0.40     0.03   0.04   0.08
    40   1     0.00  -0.01  -0.01     0.10  -0.26  -0.33     0.02  -0.05  -0.05
    41   1     0.01  -0.00  -0.00     0.16  -0.11  -0.15     0.03  -0.04  -0.05
    42   6    -0.00  -0.00  -0.00     0.00  -0.00   0.00    -0.00  -0.00  -0.00
    43   6    -0.00   0.00  -0.00    -0.00  -0.00   0.00    -0.00   0.00  -0.00
    44   6     0.00  -0.00  -0.00    -0.00   0.00   0.00     0.00  -0.00  -0.00
    45   6     0.00   0.00   0.00     0.00  -0.00  -0.00     0.00   0.00   0.00
    46   1     0.00   0.00   0.00    -0.00   0.01   0.01     0.00  -0.00   0.00
    47   1     0.00  -0.00  -0.00     0.00  -0.00  -0.00     0.01  -0.00  -0.00
    48   1    -0.00   0.00   0.00     0.01   0.00  -0.00    -0.01   0.01   0.01
    49   1    -0.00   0.00   0.00     0.00  -0.00   0.00    -0.00  -0.00   0.00
    50   1     0.00  -0.00   0.00    -0.00   0.00  -0.00     0.00  -0.01   0.01
    51   1    -0.00   0.00  -0.00    -0.00   0.00  -0.00    -0.01   0.01  -0.01
    52   1    -0.00  -0.00   0.00     0.00   0.00  -0.00    -0.01  -0.01   0.00
    53   1    -0.00   0.00  -0.00     0.00   0.00  -0.00    -0.01  -0.00  -0.00
    54   1     0.00   0.00  -0.00    -0.00  -0.00   0.00     0.01   0.01  -0.01
    55   8    -0.00   0.00   0.00     0.00  -0.00  -0.00    -0.00   0.01  -0.00
    56   6    -0.00  -0.00   0.00    -0.00  -0.00   0.00     0.00   0.00  -0.00
    57   6     0.00   0.00  -0.01    -0.00   0.00  -0.00     0.00  -0.00   0.01
    58   6     0.01  -0.00  -0.00     0.00  -0.00  -0.00    -0.01   0.00   0.00
    59   6    -0.00   0.00   0.00     0.00   0.00   0.00     0.00  -0.00  -0.01
    60   1    -0.02   0.01   0.00    -0.00   0.00  -0.00     0.01  -0.00   0.00
    61   1    -0.01   0.01   0.00    -0.00   0.00   0.00     0.01  -0.01  -0.00
    62   1     0.02  -0.00  -0.01     0.00  -0.00  -0.00    -0.01   0.00   0.01
    63   1    -0.05  -0.01   0.01    -0.01  -0.00   0.00     0.06   0.01  -0.01
    64   1     0.01   0.00  -0.00     0.01   0.00   0.00    -0.03  -0.01  -0.00
    65   1     0.01   0.02  -0.00     0.00   0.01  -0.00    -0.01  -0.02   0.01
    66   1     0.00  -0.00   0.01     0.00  -0.00   0.00    -0.00   0.00  -0.01
    67   1     0.00  -0.00  -0.00    -0.00  -0.00   0.00    -0.00   0.00   0.00
    68   1     0.00  -0.00   0.01     0.00  -0.00   0.00    -0.00   0.00  -0.01
                    106                    107                    108
                      A                      A                      A
 Frequencies --   1097.0829              1118.8940              1149.4012
 Red. masses --      1.0968                 1.3931                 1.4817
 Frc consts  --      0.7778                 1.0275                 1.1533
 IR Inten    --      0.0000                 0.0000                 0.0000
  Atom  AN      X      Y      Z        X      Y      Z        X      Y      Z
     1  26     0.00   0.00  -0.00     0.00  -0.00   0.00    -0.00  -0.00  -0.00
     2   6     0.00   0.00   0.00     0.00   0.00  -0.00     0.00   0.00   0.00
     3  46    -0.00  -0.00   0.00     0.00   0.00  -0.00     0.00   0.00  -0.00
     4   6    -0.01  -0.01  -0.01     0.00  -0.02   0.01     0.02   0.01  -0.02
     5   1     0.43  -0.36   0.06     0.06  -0.08  -0.06    -0.04   0.03   0.01
     6   1     0.22   0.57  -0.10     0.04   0.10  -0.04    -0.02  -0.04  -0.06
     7   1    -0.26   0.03   0.03    -0.11   0.01   0.00     0.08   0.01  -0.00
     8   6    -0.00  -0.00   0.00     0.00   0.00   0.00    -0.01   0.01   0.00
     9   8     0.00   0.00  -0.00     0.00   0.00  -0.00    -0.00  -0.00  -0.00
    10   6    -0.01  -0.01   0.01     0.04   0.07  -0.00    -0.04   0.02   0.03
    11   8     0.00   0.00   0.00     0.01  -0.00  -0.00    -0.00  -0.01  -0.00
    12   6     0.02  -0.01   0.01    -0.07   0.01  -0.05    -0.01  -0.03   0.00
    13   6     0.00  -0.02   0.01     0.01   0.05  -0.01     0.01   0.00  -0.00
    14   6    -0.01   0.00  -0.01     0.03   0.05   0.01     0.03  -0.00   0.01
    15   1     0.09   0.05  -0.04    -0.16  -0.09  -0.00    -0.28  -0.37   0.07
    16   1     0.08  -0.03  -0.01     0.67  -0.11   0.31     0.06  -0.01   0.01
    17   1    -0.04   0.37   0.01     0.03  -0.46   0.10     0.02  -0.03   0.04
    18   1    -0.03  -0.05   0.07     0.03  -0.02   0.19    -0.00   0.06  -0.15
    19   6    -0.01  -0.00  -0.01    -0.07  -0.08  -0.02     0.01   0.06   0.01
    20   6    -0.00  -0.00   0.00    -0.01  -0.00   0.00    -0.03  -0.02   0.01
    21   8    -0.00   0.00  -0.00     0.00  -0.00   0.00     0.00  -0.00   0.00
    22   6    -0.01   0.01   0.00     0.00  -0.00  -0.00    -0.01   0.01  -0.01
    23   6     0.01   0.03  -0.02     0.01   0.01  -0.01    -0.00  -0.01   0.01
    24   6     0.02  -0.02  -0.00    -0.00   0.00  -0.00     0.00  -0.01   0.00
    25   6     0.00  -0.03   0.01     0.00  -0.01   0.00     0.01  -0.00  -0.00
    26   6    -0.04  -0.01   0.01    -0.01  -0.01   0.00     0.01   0.01  -0.00
    27   1    -0.06   0.02  -0.05    -0.03   0.05  -0.03     0.03  -0.03   0.02
    28   7     0.00  -0.00  -0.00     0.01  -0.00  -0.00     0.03   0.02  -0.01
    29   1     0.00   0.01  -0.00    -0.00   0.00   0.00    -0.01  -0.04   0.05
    30   1     0.00   0.11  -0.05    -0.01  -0.15   0.06     0.05   0.46  -0.19
    31   1    -0.03  -0.05  -0.01    -0.03  -0.15   0.05    -0.04  -0.38   0.21
    32   1    -0.12  -0.09   0.06     0.03   0.01   0.01    -0.09  -0.06   0.03
    33   7     0.00   0.00   0.02    -0.01   0.00  -0.02    -0.03   0.01   0.12
    34   6     0.00   0.00  -0.00     0.02  -0.00   0.01     0.01  -0.01  -0.08
    35   6     0.01  -0.01  -0.01     0.01   0.00   0.01     0.04  -0.04  -0.06
    36   1    -0.01  -0.01   0.00    -0.01  -0.05   0.04     0.02  -0.07   0.20
    37   1    -0.01   0.00  -0.00    -0.02  -0.03   0.03    -0.11   0.22  -0.18
    38   1    -0.02   0.02  -0.04    -0.03   0.04  -0.04    -0.07   0.11   0.01
    39   1    -0.01  -0.02  -0.03    -0.01  -0.02  -0.03    -0.08  -0.12  -0.19
    40   1    -0.01   0.01   0.02    -0.01   0.03   0.05    -0.05   0.07   0.08
    41   1    -0.01  -0.01  -0.01    -0.01   0.01   0.02    -0.08   0.02   0.02
    42   6    -0.00  -0.00  -0.00    -0.00  -0.00  -0.00    -0.00   0.00   0.00
    43   6    -0.00   0.00  -0.00     0.00   0.00  -0.00     0.00  -0.00  -0.00
    44   6     0.00  -0.00  -0.00     0.00   0.00  -0.00     0.00   0.00  -0.00
    45   6     0.00   0.00   0.00     0.00   0.00   0.00     0.00   0.00   0.00
    46   1    -0.00  -0.00  -0.00     0.00  -0.00  -0.00     0.00  -0.00  -0.00
    47   1     0.00  -0.00  -0.00     0.00  -0.00  -0.00    -0.00  -0.00   0.00
    48   1    -0.00   0.00   0.00    -0.00  -0.00   0.00    -0.00   0.00   0.00
    49   1    -0.00   0.00  -0.00    -0.00  -0.00   0.00    -0.00  -0.00   0.01
    50   1     0.00  -0.00   0.00     0.00  -0.00   0.00     0.00  -0.01   0.01
    51   1    -0.00   0.00  -0.00    -0.00   0.00  -0.00    -0.01   0.01  -0.01
    52   1    -0.00  -0.00  -0.00    -0.00  -0.00   0.00    -0.01  -0.01   0.00
    53   1    -0.00  -0.00  -0.00    -0.00   0.00  -0.00     0.00   0.00  -0.01
    54   1     0.00   0.00  -0.00     0.00   0.01  -0.00     0.01   0.01  -0.01
    55   8     0.00  -0.00  -0.00    -0.00   0.00   0.00     0.01  -0.01  -0.00
    56   6     0.00  -0.00   0.00     0.00  -0.00   0.00     0.00  -0.00  -0.00
    57   6    -0.00   0.00  -0.00    -0.00   0.00   0.00    -0.00   0.01   0.00
    58   6    -0.00  -0.00   0.00    -0.00  -0.00   0.00     0.00  -0.00   0.00
    59   6     0.00  -0.00  -0.00     0.00  -0.00  -0.00     0.00  -0.00   0.00
    60   1    -0.00   0.00  -0.00     0.00   0.00  -0.00    -0.00   0.00   0.00
    61   1    -0.00   0.00   0.00    -0.00   0.00   0.00     0.00   0.00  -0.00
    62   1     0.00  -0.00  -0.00     0.01  -0.00  -0.00     0.01   0.00  -0.00
    63   1    -0.00   0.01   0.00     0.00   0.00   0.00    -0.01   0.00   0.00
    64   1     0.00  -0.00  -0.00     0.00   0.00   0.00    -0.00  -0.00  -0.01
    65   1    -0.00   0.00  -0.01    -0.00   0.00  -0.00     0.00   0.01  -0.00
    66   1    -0.00   0.00  -0.00    -0.00   0.00  -0.00    -0.00   0.00  -0.01
    67   1    -0.00   0.00   0.01    -0.00   0.00   0.01     0.01  -0.00   0.00
    68   1     0.00   0.00  -0.00    -0.00   0.00  -0.01    -0.00   0.01  -0.01
                    109                    110                    111
                      A                      A                      A
 Frequencies --   1156.3725              1159.1785              1172.8629
 Red. masses --      1.3304                 3.5855                 1.8406
 Frc consts  --      1.0482                 2.8386                 1.4918
 IR Inten    --      0.0000                 0.0000                 0.0000
  Atom  AN      X      Y      Z        X      Y      Z        X      Y      Z
     1  26     0.00   0.00  -0.00    -0.00  -0.00  -0.00    -0.00  -0.00  -0.00
     2   6     0.00  -0.00   0.00    -0.01  -0.04  -0.02     0.02   0.03   0.04
     3  46     0.00   0.00  -0.00     0.00  -0.00  -0.00     0.00   0.00   0.00
     4   6     0.01   0.01  -0.02    -0.00  -0.01  -0.01    -0.00  -0.00  -0.00
     5   1    -0.09   0.07  -0.01    -0.00   0.00   0.00     0.00  -0.00  -0.00
     6   1    -0.02  -0.03  -0.02    -0.01  -0.02  -0.01    -0.00  -0.00  -0.00
     7   1     0.03  -0.01  -0.01    -0.02   0.01   0.00    -0.02   0.00   0.00
     8   6    -0.01  -0.00   0.01     0.12  -0.12  -0.03     0.05  -0.05  -0.01
     9   8     0.00   0.00  -0.00     0.01   0.01   0.00    -0.00  -0.02   0.01
    10   6    -0.01   0.01   0.03    -0.02   0.01   0.01    -0.00   0.00   0.00
    11   8    -0.00   0.01   0.00     0.04   0.06  -0.02     0.01   0.02  -0.01
    12   6    -0.01   0.06  -0.02    -0.00   0.00  -0.00    -0.00   0.00  -0.00
    13   6    -0.02  -0.02   0.00     0.00   0.01   0.00     0.00   0.00   0.00
    14   6    -0.03   0.02  -0.01     0.02  -0.00   0.00     0.01  -0.00   0.00
    15   1     0.47   0.66  -0.13    -0.12  -0.15   0.02    -0.03  -0.03   0.00
    16   1    -0.06  -0.01  -0.02     0.03   0.00  -0.00     0.00   0.00  -0.00
    17   1    -0.02  -0.15  -0.01     0.01   0.00   0.01     0.01   0.01   0.00
    18   1    -0.05  -0.14   0.22     0.11   0.02   0.16     0.04   0.00   0.06
    19   6     0.04  -0.11   0.02     0.00   0.01  -0.01    -0.00  -0.00  -0.00
    20   6     0.00   0.00  -0.00     0.24   0.12  -0.01     0.01   0.05  -0.16
    21   8    -0.00  -0.00  -0.00    -0.01   0.01   0.00    -0.02  -0.00  -0.01
    22   6    -0.00  -0.00   0.00     0.00   0.01  -0.00     0.00   0.00  -0.00
    23   6    -0.01  -0.01   0.00    -0.01   0.00   0.00    -0.00   0.00  -0.00
    24   6     0.00  -0.00   0.00     0.00  -0.00   0.00     0.00  -0.00   0.00
    25   6     0.00   0.00  -0.00     0.00  -0.00  -0.00     0.00  -0.00  -0.00
    26   6     0.01   0.01  -0.01     0.00  -0.00   0.00     0.00  -0.00   0.00
    27   1     0.03  -0.05   0.02     0.02  -0.05   0.02     0.01  -0.02   0.01
    28   7    -0.00  -0.01   0.00    -0.21  -0.11   0.09    -0.07  -0.03   0.05
    29   1     0.01   0.02  -0.01    -0.09   0.25  -0.62     0.51   0.07   0.66
    30   1    -0.00   0.21  -0.09     0.01   0.15  -0.06     0.00   0.04  -0.02
    31   1    -0.02  -0.18   0.11    -0.02  -0.11   0.05    -0.00  -0.02   0.01
    32   1     0.00  -0.00  -0.00     0.01   0.00   0.00     0.01   0.01  -0.00
    33   7    -0.03   0.00   0.04     0.01  -0.00   0.04     0.01  -0.00   0.01
    34   6     0.01  -0.01  -0.03    -0.01   0.01  -0.02    -0.01   0.00  -0.01
    35   6     0.03  -0.02  -0.02    -0.00  -0.01  -0.02    -0.00  -0.00  -0.01
    36   1     0.01  -0.06   0.13     0.01   0.02   0.00     0.00   0.02  -0.01
    37   1    -0.07   0.10  -0.08    -0.00   0.05  -0.05     0.01   0.01  -0.01
    38   1    -0.04   0.07  -0.01     0.00  -0.00   0.02     0.01  -0.01   0.01
    39   1    -0.05  -0.07  -0.12    -0.01  -0.02  -0.00     0.01   0.01   0.02
    40   1    -0.03   0.06   0.06     0.00  -0.01   0.01     0.01  -0.01  -0.00
    41   1    -0.05   0.03   0.04    -0.01  -0.03  -0.04     0.00  -0.01  -0.02
    42   6    -0.00   0.00  -0.00     0.08  -0.02  -0.01    -0.11   0.06  -0.01
    43   6     0.00  -0.00  -0.00    -0.02   0.02   0.02     0.03  -0.04  -0.00
    44   6     0.00  -0.00  -0.00    -0.05  -0.01   0.00     0.05  -0.00   0.02
    45   6     0.00  -0.00  -0.00    -0.05  -0.00  -0.03     0.04  -0.04   0.01
    46   1    -0.00   0.00  -0.00    -0.02   0.02   0.00    -0.03   0.02  -0.02
    47   1     0.00  -0.00  -0.00    -0.02   0.03   0.01     0.03   0.01  -0.04
    48   1    -0.00  -0.00   0.00     0.00   0.01  -0.00     0.09  -0.06  -0.07
    49   1    -0.00  -0.00   0.00     0.02   0.08  -0.11     0.01  -0.09   0.11
    50   1     0.00  -0.00   0.00    -0.01   0.12  -0.12     0.02  -0.10   0.12
    51   1     0.00  -0.00   0.00     0.10  -0.09   0.10    -0.07   0.07  -0.07
    52   1    -0.00  -0.00   0.00     0.14   0.08  -0.06    -0.16  -0.05   0.08
    53   1     0.00   0.00  -0.00    -0.05  -0.10   0.11     0.12   0.18  -0.14
    54   1    -0.00  -0.00   0.00    -0.04  -0.13   0.10    -0.07   0.06  -0.04
    55   8     0.00  -0.00  -0.00    -0.09   0.06   0.02    -0.03   0.03   0.00
    56   6    -0.00   0.00   0.00     0.00   0.01  -0.00    -0.00   0.01  -0.00
    57   6     0.01  -0.00  -0.01     0.01  -0.06   0.02     0.01  -0.04   0.01
    58   6     0.00   0.00   0.00    -0.01   0.02  -0.01    -0.00   0.01  -0.00
    59   6    -0.00   0.00  -0.00    -0.00   0.02  -0.00    -0.00   0.01  -0.00
    60   1    -0.00   0.00  -0.00     0.03  -0.03   0.00     0.03  -0.02   0.00
    61   1    -0.01   0.00   0.00     0.02  -0.04  -0.01     0.01  -0.03  -0.00
    62   1    -0.01  -0.00   0.00    -0.04  -0.00   0.02    -0.04   0.00   0.02
    63   1     0.00   0.00   0.00    -0.02  -0.06  -0.02    -0.01  -0.04  -0.01
    64   1    -0.01  -0.00  -0.00     0.08   0.05   0.04     0.05   0.03   0.03
    65   1    -0.00  -0.01  -0.00    -0.00  -0.04   0.01    -0.00  -0.03   0.01
    66   1    -0.00   0.00   0.00     0.02  -0.03   0.04     0.01  -0.02   0.02
    67   1    -0.01   0.00   0.01     0.00  -0.01  -0.09     0.00  -0.01  -0.06
    68   1     0.00  -0.01   0.01    -0.01  -0.04   0.02    -0.00  -0.02   0.02
                    112                    113                    114
                      A                      A                      A
 Frequencies --   1182.0063              1188.9034              1200.9821
 Red. masses --      2.1776                 1.3187                 2.3370
 Frc consts  --      1.7926                 1.0982                 1.9860
 IR Inten    --      0.0000                 0.0000                 0.0000
  Atom  AN      X      Y      Z        X      Y      Z        X      Y      Z
     1  26    -0.00  -0.00   0.00    -0.00   0.00   0.00     0.00   0.00   0.00
     2   6     0.00   0.00  -0.00     0.00   0.00   0.00    -0.00   0.00   0.00
     3  46    -0.00   0.00  -0.00     0.00   0.00   0.00     0.00  -0.00  -0.00
     4   6    -0.05  -0.06   0.01     0.01   0.00   0.00    -0.00   0.01   0.00
     5   1    -0.09   0.07  -0.03    -0.31   0.24  -0.06    -0.02   0.02  -0.01
     6   1     0.04   0.10  -0.06     0.18   0.48  -0.10     0.01   0.02  -0.00
     7   1     0.10  -0.01  -0.00     0.37  -0.04  -0.02     0.02  -0.01  -0.00
     8   6    -0.01   0.01   0.00     0.01  -0.00  -0.00    -0.01  -0.02   0.00
     9   8     0.00   0.00  -0.00     0.00  -0.00  -0.00     0.00  -0.00   0.00
    10   6    -0.03   0.01  -0.01     0.01   0.00  -0.00     0.01   0.01  -0.00
    11   8    -0.00  -0.01   0.00     0.00  -0.00  -0.00     0.02   0.04  -0.01
    12   6    -0.03   0.03  -0.03     0.00  -0.00   0.00     0.00  -0.02   0.01
    13   6     0.00   0.02  -0.00     0.00   0.00  -0.00    -0.01  -0.01  -0.00
    14   6     0.05   0.03   0.00    -0.00  -0.00  -0.00    -0.02   0.01  -0.00
    15   1    -0.02   0.06  -0.01    -0.02  -0.03   0.01     0.03   0.02   0.01
    16   1     0.06   0.01   0.03     0.01  -0.00   0.02     0.04  -0.02   0.03
    17   1     0.04  -0.07   0.05    -0.01  -0.02   0.01    -0.01  -0.04   0.00
    18   1     0.02  -0.01   0.08     0.01   0.01   0.01    -0.12  -0.08  -0.22
    19   6     0.02  -0.05   0.01    -0.01   0.01  -0.00    -0.00   0.01   0.00
    20   6    -0.02  -0.01   0.01     0.00   0.00  -0.00     0.04   0.02  -0.03
    21   8    -0.00  -0.00   0.00    -0.00   0.00   0.00    -0.00   0.00  -0.00
    22   6    -0.02  -0.00   0.00    -0.07   0.00   0.01    -0.00  -0.01   0.00
    23   6    -0.00  -0.02   0.00    -0.02  -0.06   0.02     0.00  -0.01   0.00
    24   6     0.02  -0.01   0.00     0.05  -0.04   0.01     0.01   0.00  -0.00
    25   6     0.01   0.01  -0.01     0.07   0.03  -0.02     0.00   0.01  -0.00
    26   6    -0.01   0.02  -0.01    -0.02   0.06  -0.02    -0.00   0.00   0.00
    27   1     0.03  -0.12   0.04     0.11  -0.41   0.13     0.01  -0.05   0.02
    28   7     0.02   0.01  -0.01    -0.00  -0.00   0.00    -0.06  -0.04   0.03
    29   1    -0.02  -0.00  -0.01     0.00  -0.00   0.00     0.12   0.15  -0.02
    30   1     0.02   0.22  -0.11     0.01  -0.05   0.03     0.01  -0.01   0.00
    31   1    -0.00   0.03  -0.02    -0.00   0.02  -0.02    -0.01  -0.04   0.01
    32   1    -0.11  -0.06   0.02    -0.36  -0.22   0.08    -0.00   0.01  -0.00
    33   7     0.16  -0.06   0.13    -0.02   0.00  -0.05    -0.00   0.00  -0.01
    34   6    -0.11   0.07  -0.04     0.02  -0.01   0.02     0.00  -0.00   0.00
    35   6    -0.08   0.03  -0.08     0.01   0.00   0.03    -0.00   0.00   0.00
    36   1     0.03   0.31  -0.36    -0.01  -0.05   0.04    -0.00  -0.00   0.00
    37   1     0.20  -0.03  -0.02    -0.02  -0.04   0.04    -0.00  -0.00   0.00
    38   1     0.16  -0.22   0.10    -0.02   0.03  -0.03    -0.00   0.00  -0.00
    39   1     0.09   0.10   0.34    -0.00   0.01  -0.02     0.00   0.00  -0.00
    40   1     0.12  -0.20  -0.06    -0.01   0.02   0.00    -0.00  -0.00  -0.01
    41   1     0.10  -0.26  -0.34    -0.00   0.04   0.05     0.00   0.00   0.01
    42   6    -0.00  -0.01   0.00    -0.00   0.00  -0.00    -0.02   0.02   0.00
    43   6    -0.00   0.00  -0.00     0.00  -0.00   0.00     0.00  -0.01  -0.00
    44   6     0.00   0.00  -0.00     0.00  -0.00   0.00     0.01  -0.00   0.00
    45   6     0.00   0.00   0.00    -0.00  -0.00   0.00     0.00  -0.01  -0.00
    46   1     0.01  -0.01   0.01    -0.00   0.00  -0.00    -0.00   0.00  -0.00
    47   1    -0.00  -0.01   0.00     0.00   0.00  -0.00     0.01  -0.00  -0.01
    48   1     0.00   0.01   0.00    -0.00  -0.00   0.00     0.02  -0.01  -0.01
    49   1    -0.00   0.00   0.00     0.00   0.00  -0.00    -0.00  -0.01   0.01
    50   1    -0.00  -0.00   0.00     0.00   0.00  -0.00     0.01  -0.01   0.02
    51   1    -0.01   0.01  -0.01     0.00  -0.00   0.00    -0.01   0.01   0.00
    52   1     0.00   0.00  -0.00    -0.00  -0.00   0.00    -0.02   0.00   0.01
    53   1    -0.00  -0.00   0.00     0.00   0.00  -0.00     0.02   0.03  -0.01
    54   1     0.01   0.01  -0.00    -0.00  -0.00   0.00    -0.02  -0.00   0.00
    55   8     0.01  -0.01  -0.00    -0.00   0.00   0.00     0.00  -0.05   0.02
    56   6     0.00  -0.00   0.00    -0.00   0.00  -0.00     0.03  -0.09   0.03
    57   6    -0.00   0.01  -0.01     0.00  -0.01  -0.00    -0.08   0.25  -0.07
    58   6     0.00  -0.00   0.00     0.00   0.00   0.00     0.03  -0.08   0.03
    59   6     0.00  -0.00   0.00    -0.00   0.00   0.00     0.03  -0.09   0.01
    60   1    -0.01   0.01  -0.00     0.00  -0.00   0.00    -0.14   0.14  -0.06
    61   1    -0.01   0.01   0.00     0.00  -0.01  -0.00    -0.11   0.17   0.04
    62   1     0.02  -0.00  -0.01    -0.01   0.00   0.01     0.37  -0.01  -0.19
    63   1    -0.01   0.01   0.01    -0.03  -0.01   0.00     0.04   0.22   0.07
    64   1    -0.01  -0.01  -0.01     0.03   0.01  -0.00    -0.30  -0.20  -0.19
    65   1    -0.00   0.01  -0.01    -0.01   0.00  -0.01     0.02   0.19  -0.06
    66   1    -0.00   0.01  -0.01     0.01  -0.01   0.00    -0.09   0.13  -0.10
    67   1    -0.00   0.00   0.02     0.00  -0.00  -0.02    -0.03   0.04   0.40
    68   1     0.00   0.01  -0.01    -0.00  -0.01   0.01     0.01   0.14  -0.15
                    115                    116                    117
                      A                      A                      A
 Frequencies --   1226.8131              1233.4573              1243.0687
 Red. masses --      2.1589                 1.9117                 3.0777
 Frc consts  --      1.9144                 1.7137                 2.8020
 IR Inten    --      0.0000                 0.0000                 0.0000
  Atom  AN      X      Y      Z        X      Y      Z        X      Y      Z
     1  26    -0.01  -0.00   0.00    -0.00  -0.00   0.00    -0.00  -0.00   0.00
     2   6    -0.01   0.01  -0.00    -0.00  -0.00  -0.01    -0.01   0.00  -0.00
     3  46     0.00   0.00  -0.00     0.00  -0.00  -0.00     0.00   0.00  -0.00
     4   6     0.02  -0.01   0.00     0.01  -0.00   0.00     0.00  -0.00   0.00
     5   1     0.00   0.01  -0.00     0.01   0.00  -0.00     0.01   0.01  -0.01
     6   1    -0.00  -0.00  -0.01     0.00  -0.01  -0.01     0.01  -0.00  -0.01
     7   1    -0.00  -0.01   0.00     0.01  -0.01   0.00     0.01  -0.01  -0.00
     8   6     0.05   0.00  -0.01    -0.02   0.04   0.00    -0.01  -0.00   0.00
     9   8    -0.00  -0.01   0.01     0.00   0.01  -0.01    -0.00  -0.00   0.00
    10   6    -0.06  -0.06  -0.01    -0.02  -0.02  -0.01    -0.01  -0.01  -0.00
    11   8    -0.01  -0.03   0.00     0.01  -0.00  -0.00     0.01   0.01  -0.00
    12   6    -0.03   0.16  -0.06    -0.01   0.06  -0.02    -0.01   0.02  -0.01
    13   6     0.04   0.06   0.01     0.02   0.02   0.00     0.01   0.01   0.00
    14   6     0.11  -0.06   0.02     0.04  -0.02   0.01     0.02  -0.00   0.00
    15   1    -0.32  -0.18  -0.01    -0.13  -0.07   0.01    -0.04  -0.01   0.01
    16   1    -0.28   0.15  -0.12    -0.10   0.05  -0.04    -0.03   0.02  -0.01
    17   1     0.09   0.26   0.03     0.03   0.09   0.01     0.01   0.03   0.01
    18   1     0.34   0.13   0.44     0.07   0.03   0.08    -0.01  -0.02   0.02
    19   6    -0.01  -0.15   0.01    -0.00  -0.05   0.01     0.00  -0.03   0.00
    20   6    -0.01   0.02  -0.01     0.02  -0.08   0.05     0.01   0.01   0.01
    21   8     0.01  -0.00  -0.00     0.00  -0.00   0.00     0.00  -0.00  -0.00
    22   6     0.00  -0.01   0.00    -0.00  -0.01   0.00    -0.00  -0.01   0.00
    23   6    -0.00   0.00  -0.00     0.01  -0.00  -0.00     0.01  -0.00   0.00
    24   6     0.01   0.00   0.00     0.01   0.01   0.00     0.01   0.01  -0.00
    25   6    -0.01   0.01  -0.00    -0.01   0.01  -0.00    -0.01   0.01  -0.00
    26   6    -0.01  -0.00  -0.00    -0.01  -0.00  -0.00    -0.01   0.00  -0.00
    27   1    -0.01  -0.00   0.02    -0.01   0.01   0.00    -0.01   0.01  -0.01
    28   7     0.02   0.01  -0.01    -0.04   0.02   0.02    -0.00  -0.01  -0.00
    29   1    -0.09  -0.26   0.14     0.20   0.64  -0.37    -0.02  -0.02  -0.00
    30   1    -0.03   0.03   0.00    -0.01   0.01   0.00    -0.00   0.00   0.00
    31   1     0.06   0.22  -0.08     0.02   0.08  -0.03     0.01   0.04  -0.02
    32   1     0.02   0.02  -0.01    -0.01   0.00  -0.01    -0.03  -0.01  -0.01
    33   7    -0.04   0.02  -0.00    -0.02   0.00  -0.00    -0.01   0.00   0.00
    34   6     0.02  -0.01  -0.00     0.01  -0.00   0.00     0.00   0.00  -0.00
    35   6     0.02  -0.01   0.00     0.01   0.00   0.00     0.00  -0.00  -0.00
    36   1    -0.00  -0.05   0.07    -0.00  -0.02   0.02    -0.00  -0.01   0.01
    37   1    -0.04   0.01  -0.00    -0.02  -0.01   0.01    -0.01  -0.00   0.00
    38   1    -0.03   0.05  -0.02    -0.02   0.02  -0.02    -0.01   0.01  -0.01
    39   1    -0.02  -0.02  -0.05    -0.01  -0.02  -0.02    -0.00  -0.00  -0.01
    40   1    -0.03   0.05   0.02    -0.01   0.02   0.02    -0.00   0.01   0.01
    41   1    -0.04   0.03   0.04    -0.01   0.01   0.01    -0.01   0.00   0.00
    42   6     0.05   0.03  -0.03    -0.16  -0.11   0.06    -0.00   0.02  -0.05
    43   6    -0.01  -0.01   0.01     0.05   0.03  -0.02     0.00  -0.01   0.01
    44   6    -0.02  -0.01   0.01     0.05   0.03  -0.03     0.00  -0.01   0.01
    45   6    -0.02  -0.01   0.01     0.06   0.04  -0.01    -0.00  -0.01   0.01
    46   1    -0.06   0.06   0.03     0.15  -0.18  -0.11    -0.04   0.02  -0.01
    47   1     0.01   0.02  -0.02    -0.07  -0.03   0.08    -0.02   0.03  -0.01
    48   1     0.03   0.01  -0.00    -0.10  -0.05   0.01     0.04  -0.03  -0.03
    49   1     0.03   0.01  -0.03    -0.07  -0.07   0.12     0.02  -0.02   0.01
    50   1     0.01   0.05  -0.03    -0.04  -0.14   0.09     0.01   0.01  -0.01
    51   1     0.05  -0.04   0.05    -0.15   0.12  -0.17     0.02  -0.02   0.02
    52   1    -0.01  -0.01   0.00     0.01   0.01  -0.01    -0.04  -0.04   0.01
    53   1    -0.02  -0.02   0.02     0.05   0.06  -0.07    -0.01  -0.00  -0.02
    54   1    -0.03  -0.03   0.03     0.11   0.11  -0.11    -0.00   0.02  -0.01
    55   8    -0.01  -0.00   0.01     0.02  -0.02  -0.00    -0.01  -0.01  -0.02
    56   6     0.01  -0.02   0.01     0.00   0.00  -0.00    -0.05  -0.05  -0.10
    57   6    -0.05   0.04  -0.04    -0.01  -0.01   0.01     0.15   0.14   0.31
    58   6     0.02  -0.01   0.01     0.00   0.00  -0.00    -0.04  -0.05  -0.10
    59   6     0.02  -0.01   0.01     0.00   0.00  -0.00    -0.05  -0.04  -0.10
    60   1     0.01   0.02  -0.04     0.01  -0.01   0.00    -0.30   0.05   0.28
    61   1    -0.05   0.03   0.01     0.01  -0.01  -0.00     0.40   0.05  -0.07
    62   1     0.08  -0.01  -0.06    -0.02   0.00   0.01     0.10   0.09   0.20
    63   1     0.01   0.06   0.02    -0.02  -0.01  -0.00    -0.30  -0.25  -0.08
    64   1    -0.06  -0.04  -0.04     0.00   0.01   0.02    -0.14  -0.06   0.08
    65   1     0.01   0.05  -0.01     0.01   0.00   0.01     0.04  -0.06   0.08
    66   1    -0.02   0.02   0.03    -0.00  -0.00   0.01     0.05   0.07  -0.39
    67   1    -0.02   0.00   0.08    -0.01  -0.00  -0.02     0.11   0.03  -0.02
    68   1    -0.01   0.02  -0.05    -0.00  -0.01  -0.01     0.03   0.12  -0.01
                    118                    119                    120
                      A                      A                      A
 Frequencies --   1245.9136              1251.7998              1257.5165
 Red. masses --      2.9557                 4.6651                 2.6811
 Frc consts  --      2.7033                 4.3071                 2.4980
 IR Inten    --      0.0000                 0.0000                 0.0000
  Atom  AN      X      Y      Z        X      Y      Z        X      Y      Z
     1  26     0.00   0.00  -0.00     0.00  -0.01  -0.02    -0.00   0.00   0.00
     2   6     0.07  -0.02   0.03     0.02  -0.01   0.01     0.03  -0.01   0.01
     3  46     0.00  -0.00   0.00    -0.00  -0.00  -0.00     0.00  -0.00   0.00
     4   6     0.00   0.00   0.00    -0.00   0.00  -0.01     0.01   0.00   0.00
     5   1     0.01   0.01  -0.01     0.15   0.15  -0.15    -0.01  -0.01   0.01
     6   1     0.02  -0.02  -0.01     0.22  -0.17  -0.07    -0.01   0.01   0.00
     7   1    -0.01  -0.02  -0.00     0.04  -0.30  -0.02    -0.00   0.02   0.00
     8   6    -0.01   0.00   0.01    -0.04  -0.01   0.01    -0.02   0.03   0.00
     9   8     0.01   0.02  -0.03     0.01   0.01  -0.01     0.01   0.02  -0.03
    10   6    -0.01  -0.01  -0.00    -0.01  -0.02   0.00    -0.00   0.00  -0.00
    11   8     0.01   0.01  -0.00     0.02   0.03  -0.00     0.00  -0.00   0.00
    12   6    -0.00   0.02  -0.01    -0.02   0.00  -0.00    -0.00   0.00  -0.00
    13   6     0.00   0.01   0.00     0.00   0.02  -0.00     0.00   0.00   0.00
    14   6     0.01  -0.00   0.00     0.01  -0.00   0.01     0.00   0.00   0.00
    15   1    -0.03  -0.02   0.01    -0.02   0.02   0.05    -0.01  -0.01   0.00
    16   1    -0.02   0.01  -0.00     0.02   0.01   0.06    -0.00   0.00  -0.00
    17   1     0.01   0.03   0.01    -0.01   0.03   0.05     0.00   0.00   0.00
    18   1    -0.03  -0.04  -0.03    -0.26  -0.13  -0.20    -0.00   0.01  -0.01
    19   6    -0.00  -0.02   0.00     0.01  -0.02   0.01     0.00  -0.00   0.00
    20   6    -0.05  -0.06  -0.09     0.01   0.01   0.01     0.00  -0.12   0.07
    21   8    -0.06  -0.00   0.01    -0.02   0.00   0.00    -0.03  -0.00   0.01
    22   6    -0.00  -0.02   0.01    -0.02  -0.23   0.09     0.00   0.01  -0.01
    23   6     0.02  -0.01   0.00     0.24  -0.08   0.04    -0.01   0.00  -0.00
    24   6     0.01   0.02  -0.00     0.14   0.19  -0.03    -0.01  -0.01   0.00
    25   6    -0.01   0.02  -0.00    -0.12   0.21  -0.03     0.01  -0.01   0.00
    26   6    -0.02  -0.00   0.00    -0.23  -0.04   0.06     0.01   0.00  -0.00
    27   1    -0.02  -0.01  -0.00    -0.26  -0.10  -0.07     0.01   0.01   0.00
    28   7    -0.01  -0.00   0.01    -0.00  -0.01   0.00    -0.01   0.01  -0.01
    29   1     0.08   0.10  -0.02    -0.02  -0.01  -0.01    -0.03   0.39  -0.48
    30   1     0.00   0.01  -0.00    -0.05  -0.05   0.02     0.00   0.01  -0.00
    31   1    -0.00   0.00  -0.00     0.04   0.13  -0.02     0.01   0.02  -0.01
    32   1    -0.01   0.01  -0.01    -0.20   0.13  -0.12     0.01  -0.01   0.01
    33   7    -0.01   0.00  -0.01    -0.01   0.02   0.03    -0.01  -0.01  -0.00
    34   6     0.00  -0.00   0.00    -0.00  -0.01  -0.02     0.00   0.01   0.00
    35   6     0.00   0.00   0.00     0.01  -0.01  -0.01     0.00   0.01   0.00
    36   1    -0.00  -0.02   0.02     0.02  -0.00   0.07    -0.01  -0.01  -0.01
    37   1     0.00   0.00   0.00    -0.02   0.05  -0.05    -0.00  -0.02   0.02
    38   1    -0.00   0.00  -0.01    -0.01   0.02   0.04    -0.00   0.01  -0.02
    39   1    -0.00  -0.00  -0.00    -0.02  -0.03  -0.05     0.00  -0.00   0.02
    40   1    -0.00   0.01   0.00    -0.02   0.02   0.01    -0.00   0.01   0.01
    41   1    -0.00   0.01   0.01    -0.02   0.01   0.01    -0.02  -0.02  -0.02
    42   6     0.08   0.08   0.31     0.01   0.02  -0.06    -0.03   0.29  -0.10
    43   6    -0.02  -0.03  -0.10    -0.00  -0.00   0.02     0.01  -0.08   0.02
    44   6    -0.03  -0.03  -0.10    -0.00  -0.01   0.02     0.01  -0.08   0.03
    45   6    -0.02  -0.02  -0.10    -0.00  -0.01   0.02     0.01  -0.09   0.03
    46   1     0.12   0.01   0.18    -0.05   0.03  -0.02    -0.16   0.15   0.03
    47   1     0.28  -0.25  -0.04    -0.00   0.04  -0.02     0.12   0.05  -0.14
    48   1    -0.11   0.21   0.18     0.04  -0.03  -0.04     0.25  -0.07  -0.13
    49   1    -0.18   0.26  -0.20     0.03  -0.02   0.01    -0.03   0.07  -0.05
    50   1     0.12  -0.00   0.15    -0.01   0.01  -0.02     0.13  -0.02   0.16
    51   1    -0.04   0.13   0.09     0.03  -0.04   0.02     0.11  -0.04   0.20
    52   1     0.19   0.27  -0.00    -0.05  -0.04   0.01    -0.24  -0.05   0.15
    53   1     0.15   0.10   0.15    -0.02  -0.01  -0.02     0.08   0.13  -0.10
    54   1    -0.18  -0.22   0.23     0.00   0.02  -0.02    -0.21   0.02   0.03
    55   8     0.00  -0.00  -0.00    -0.00  -0.00   0.00     0.02  -0.01  -0.00
    56   6    -0.01  -0.00  -0.01    -0.03   0.01   0.02     0.01   0.01   0.00
    57   6     0.02   0.01   0.03     0.09  -0.02  -0.07    -0.03  -0.03  -0.01
    58   6    -0.01  -0.00  -0.01    -0.03   0.00   0.02     0.01   0.01   0.00
    59   6    -0.01  -0.00  -0.01    -0.03   0.01   0.03     0.01   0.01   0.00
    60   1    -0.03   0.00   0.03    -0.02   0.02  -0.00     0.04  -0.01  -0.02
    61   1     0.04   0.00  -0.01    -0.09   0.01   0.02    -0.01  -0.02  -0.00
    62   1    -0.00   0.01   0.03    -0.07  -0.01   0.01    -0.03  -0.01  -0.00
    63   1    -0.03  -0.03  -0.01     0.08   0.01   0.00     0.00   0.00   0.00
    64   1    -0.00   0.00   0.01     0.09   0.03  -0.05     0.01   0.01   0.02
    65   1    -0.00  -0.01   0.01    -0.08  -0.08  -0.08     0.02   0.01   0.02
    66   1     0.01   0.00  -0.04     0.04  -0.03  -0.02    -0.01  -0.01   0.05
    67   1     0.02   0.00  -0.01     0.05   0.00  -0.03    -0.02  -0.01  -0.03
    68   1     0.00   0.01   0.01     0.02  -0.01   0.13    -0.01  -0.02  -0.02
                    121                    122                    123
                      A                      A                      A
 Frequencies --   1260.2636              1261.5713              1264.8872
 Red. masses --      2.5537                 3.1741                 1.7366
 Frc consts  --      2.3897                 2.9764                 1.6370
 IR Inten    --      0.0000                 0.0000                 0.0000
  Atom  AN      X      Y      Z        X      Y      Z        X      Y      Z
     1  26    -0.00   0.00  -0.00    -0.00   0.00   0.01     0.00   0.00   0.00
     2   6    -0.00   0.00  -0.00     0.01  -0.00   0.00    -0.01   0.00  -0.00
     3  46    -0.00  -0.00   0.00     0.00  -0.00   0.00     0.00  -0.00  -0.00
     4   6    -0.11  -0.02   0.00    -0.03  -0.00   0.01    -0.03  -0.09  -0.03
     5   1     0.00   0.01  -0.01    -0.03  -0.03   0.03    -0.04  -0.00   0.00
     6   1     0.02   0.00   0.00    -0.05   0.03   0.01     0.01   0.08   0.03
     7   1     0.02  -0.02  -0.01    -0.02   0.06   0.00     0.03   0.01  -0.03
     8   6     0.01   0.01  -0.00    -0.04  -0.00   0.01     0.00   0.00  -0.00
     9   8    -0.00  -0.00  -0.00     0.00   0.00  -0.01    -0.00  -0.00   0.00
    10   6     0.02  -0.01   0.02    -0.01  -0.01   0.00     0.05  -0.01  -0.02
    11   8    -0.01  -0.01   0.00     0.03   0.02  -0.01     0.00  -0.00  -0.00
    12   6     0.00   0.01  -0.00    -0.01   0.04  -0.01     0.00  -0.03   0.01
    13   6     0.00   0.01  -0.00     0.01   0.01   0.00    -0.01   0.01  -0.01
    14   6    -0.01  -0.02  -0.00     0.02  -0.02   0.00    -0.01   0.01  -0.00
    15   1    -0.01  -0.00  -0.00    -0.09  -0.07   0.01     0.06   0.05   0.00
    16   1    -0.05   0.02  -0.01    -0.05   0.03  -0.03     0.07  -0.01   0.03
    17   1    -0.01   0.03  -0.01     0.02   0.05  -0.00     0.01  -0.05  -0.01
    18   1     0.04   0.03   0.06     0.03  -0.01  -0.00     0.00   0.01  -0.02
    19   6    -0.02  -0.01  -0.01    -0.01  -0.03   0.00    -0.03   0.03  -0.01
    20   6    -0.00  -0.01   0.01     0.00  -0.01   0.01     0.00  -0.00  -0.00
    21   8     0.00  -0.00  -0.00    -0.01  -0.00   0.00     0.01   0.00  -0.00
    22   6    -0.00  -0.01   0.01     0.01   0.05  -0.02    -0.00   0.02  -0.01
    23   6     0.01  -0.00   0.00    -0.05   0.02  -0.01    -0.02   0.00  -0.00
    24   6     0.01   0.01  -0.00    -0.03  -0.04   0.01    -0.02  -0.02   0.00
    25   6    -0.01   0.02  -0.00     0.02  -0.04   0.01     0.02  -0.01  -0.00
    26   6    -0.01  -0.00   0.00     0.05   0.01  -0.01     0.02   0.00  -0.00
    27   1    -0.02  -0.01   0.00     0.05   0.03   0.01     0.02  -0.01   0.01
    28   7     0.00   0.00  -0.00    -0.01   0.00   0.00    -0.01   0.00   0.00
    29   1     0.00   0.03  -0.03     0.00   0.05  -0.04     0.00   0.02  -0.02
    30   1     0.03  -0.06  -0.01     0.05   0.04  -0.02    -0.22  -0.34   0.14
    31   1    -0.17  -0.38   0.12    -0.09  -0.20   0.05     0.23   0.69  -0.19
    32   1    -0.02   0.00  -0.01     0.06  -0.01   0.03     0.00  -0.02   0.01
    33   7     0.15   0.21  -0.06     0.04   0.05  -0.05    -0.01   0.09   0.14
    34   6    -0.04  -0.12   0.01    -0.01  -0.03   0.02    -0.01  -0.03  -0.06
    35   6    -0.04  -0.10   0.03    -0.02  -0.02   0.02     0.04  -0.05  -0.06
    36   1     0.13   0.13   0.12     0.03   0.03   0.01     0.07   0.04   0.13
    37   1     0.07   0.22  -0.19     0.03   0.03  -0.03    -0.06   0.19  -0.15
    38   1     0.08  -0.16   0.33     0.03  -0.05   0.07    -0.02   0.05   0.15
    39   1     0.08   0.16  -0.14     0.03   0.06  -0.02    -0.05  -0.08  -0.13
    40   1    -0.05  -0.10  -0.39    -0.01  -0.04  -0.13    -0.06   0.08   0.05
    41   1     0.13   0.22   0.24     0.05   0.07   0.08    -0.08   0.03   0.03
    42   6    -0.01   0.01  -0.00    -0.01   0.01  -0.01    -0.00   0.01   0.01
    43   6     0.00  -0.00  -0.00     0.00  -0.00   0.00     0.00  -0.00  -0.00
    44   6     0.00  -0.00   0.00     0.00  -0.00   0.00     0.00  -0.00  -0.00
    45   6     0.00  -0.00   0.00     0.00  -0.00   0.00     0.00  -0.00  -0.00
    46   1     0.00  -0.00   0.01    -0.00   0.00  -0.00     0.00  -0.00   0.00
    47   1    -0.00   0.00  -0.00     0.00   0.00  -0.01     0.01  -0.01  -0.00
    48   1     0.01   0.00  -0.00     0.01  -0.01  -0.01    -0.01   0.00   0.00
    49   1    -0.01   0.00   0.00     0.00  -0.00   0.00    -0.01   0.01  -0.00
    50   1     0.00  -0.01   0.01     0.00  -0.01   0.01     0.01  -0.00   0.01
    51   1    -0.00   0.00   0.00     0.00  -0.00   0.00    -0.00   0.01   0.00
    52   1    -0.01  -0.00   0.01    -0.01  -0.00   0.01     0.00   0.01   0.00
    53   1     0.01   0.01  -0.01     0.01   0.01  -0.01     0.01   0.01   0.00
    54   1    -0.01   0.00  -0.00    -0.01   0.01  -0.00    -0.01  -0.00   0.01
    55   8     0.01   0.00  -0.01    -0.02  -0.03   0.02    -0.00  -0.00   0.00
    56   6     0.02   0.00  -0.01    -0.09  -0.01   0.05    -0.01  -0.00   0.00
    57   6    -0.08  -0.01   0.05     0.31   0.05  -0.17     0.02   0.01  -0.01
    58   6     0.03   0.00  -0.01    -0.10  -0.02   0.05    -0.01  -0.00   0.00
    59   6     0.02   0.00  -0.01    -0.09  -0.01   0.05    -0.01  -0.00   0.00
    60   1     0.05  -0.03  -0.01    -0.20   0.11   0.05    -0.02   0.01   0.00
    61   1     0.05  -0.03  -0.01    -0.20   0.11   0.05    -0.01   0.01   0.00
    62   1     0.02  -0.00  -0.01    -0.07   0.00   0.03    -0.00   0.00   0.00
    63   1    -0.08  -0.01   0.00     0.27   0.02  -0.01     0.02   0.00  -0.00
    64   1    -0.03  -0.01   0.04     0.11   0.02  -0.15     0.01   0.00  -0.01
    65   1     0.06   0.07   0.06    -0.25  -0.27  -0.23    -0.02  -0.02  -0.02
    66   1    -0.03   0.01   0.04     0.11  -0.05  -0.19     0.01  -0.00  -0.01
    67   1    -0.05  -0.01  -0.01     0.19   0.05   0.04     0.01   0.00   0.01
    68   1    -0.02  -0.01  -0.10     0.09   0.04   0.39     0.01   0.00   0.03
                    124                    125                    126
                      A                      A                      A
 Frequencies --   1291.5429              1303.0131              1315.4475
 Red. masses --      2.8415                 1.9320                 3.6680
 Frc consts  --      2.7927                 1.9327                 3.7396
 IR Inten    --      0.0000                 0.0000                 0.0000
  Atom  AN      X      Y      Z        X      Y      Z        X      Y      Z
     1  26    -0.01  -0.00  -0.01    -0.00  -0.00  -0.01     0.01   0.00   0.01
     2   6    -0.17   0.07  -0.08    -0.11   0.05  -0.04    -0.19   0.08  -0.08
     3  46     0.00   0.00   0.00     0.00  -0.00   0.00    -0.00  -0.00  -0.00
     4   6    -0.00   0.03  -0.02    -0.00   0.02  -0.01     0.02  -0.12   0.09
     5   1     0.01   0.02  -0.00     0.00   0.01   0.00     0.01  -0.01  -0.01
     6   1     0.03  -0.03   0.00     0.01  -0.01   0.00    -0.02   0.00  -0.03
     7   1     0.01  -0.02   0.01     0.01  -0.01   0.00     0.00   0.01   0.00
     8   6     0.10   0.01  -0.03     0.02   0.03  -0.01    -0.10  -0.02   0.03
     9   8    -0.03  -0.04   0.07    -0.02  -0.03   0.04    -0.03  -0.05   0.07
    10   6     0.04   0.02   0.03     0.03   0.01   0.02    -0.18  -0.04  -0.08
    11   8    -0.03  -0.05   0.01    -0.01  -0.02   0.00     0.05   0.07  -0.02
    12   6     0.03  -0.04   0.02     0.01  -0.01   0.01    -0.06  -0.01  -0.02
    13   6    -0.01  -0.03   0.00    -0.00  -0.01   0.00     0.01   0.01   0.00
    14   6    -0.05  -0.01  -0.01    -0.02  -0.01  -0.01     0.10   0.09   0.02
    15   1     0.09   0.03  -0.02     0.03   0.00  -0.00    -0.02   0.06   0.02
    16   1     0.00  -0.03  -0.01    -0.01  -0.01  -0.01     0.12  -0.01   0.06
    17   1    -0.04  -0.07  -0.03    -0.02  -0.02  -0.02     0.09   0.02   0.08
    18   1     0.38   0.26   0.34     0.19   0.13   0.16    -0.52  -0.28  -0.36
    19   6    -0.01   0.06  -0.01    -0.01   0.02  -0.01     0.09  -0.03   0.04
    20   6     0.05  -0.00   0.01    -0.06  -0.09  -0.01     0.03   0.00  -0.01
    21   8     0.15  -0.00  -0.02     0.10  -0.00  -0.01     0.16  -0.00  -0.02
    22   6    -0.00  -0.02   0.01    -0.00  -0.01   0.00     0.01   0.01  -0.00
    23   6     0.03  -0.01   0.01     0.01  -0.00   0.00    -0.03  -0.01  -0.01
    24   6     0.01   0.02   0.00     0.00   0.00   0.00     0.00   0.01  -0.00
    25   6    -0.01   0.03  -0.00    -0.00   0.01  -0.00    -0.00  -0.03   0.00
    26   6    -0.04  -0.02   0.01    -0.01  -0.01   0.00     0.02   0.02  -0.01
    27   1    -0.05   0.01  -0.00    -0.02   0.01   0.00     0.03  -0.01  -0.02
    28   7     0.01   0.03  -0.01    -0.02   0.02   0.01    -0.01  -0.05   0.01
    29   1    -0.34  -0.40  -0.20     0.51   0.64   0.19    -0.01  -0.07   0.02
    30   1    -0.01  -0.03   0.00    -0.01  -0.03   0.01     0.06   0.28  -0.09
    31   1    -0.01  -0.11   0.06    -0.00  -0.05   0.03     0.01   0.22  -0.20
    32   1    -0.04   0.02  -0.00    -0.02   0.00  -0.00     0.02  -0.02  -0.00
    33   7     0.01  -0.02   0.01     0.00  -0.01   0.01    -0.01   0.05  -0.07
    34   6    -0.01   0.01  -0.00    -0.00   0.00  -0.00     0.02  -0.02   0.02
    35   6    -0.00   0.01  -0.01     0.00   0.00  -0.00    -0.00  -0.02   0.03
    36   1     0.00   0.03  -0.04     0.00   0.01  -0.02    -0.00  -0.02   0.01
    37   1     0.00  -0.01   0.00    -0.00  -0.01   0.00    -0.03   0.00   0.02
    38   1     0.00  -0.00   0.01     0.00  -0.00   0.01    -0.04   0.05  -0.04
    39   1    -0.00  -0.01   0.03     0.00  -0.00   0.01     0.01   0.04  -0.05
    40   1     0.01  -0.01   0.02     0.00  -0.00   0.01    -0.03   0.01  -0.06
    41   1     0.00  -0.02  -0.03    -0.00  -0.01  -0.02     0.03   0.06   0.07
    42   6    -0.13   0.08   0.10     0.16  -0.01  -0.03     0.00   0.04   0.04
    43   6     0.03  -0.02  -0.02    -0.03  -0.01  -0.00    -0.00  -0.01  -0.01
    44   6     0.03  -0.02  -0.03    -0.04   0.00   0.01    -0.00  -0.01  -0.01
    45   6     0.04  -0.02  -0.03    -0.04   0.00   0.01     0.00  -0.01  -0.01
    46   1     0.09  -0.09  -0.03    -0.07   0.13   0.12     0.01   0.00   0.03
    47   1     0.06  -0.04  -0.02    -0.07   0.02   0.01     0.04  -0.00  -0.03
    48   1     0.05  -0.03  -0.04    -0.03   0.10   0.08     0.04   0.03   0.01
    49   1    -0.11   0.04   0.02     0.07   0.02  -0.07    -0.03   0.05  -0.04
    50   1     0.05  -0.09   0.15     0.00   0.09  -0.08     0.02  -0.01   0.03
    51   1    -0.06   0.11   0.01     0.07  -0.08   0.05     0.00   0.01   0.03
    52   1    -0.03   0.07   0.05     0.03  -0.03  -0.04    -0.01   0.02   0.01
    53   1     0.11   0.13  -0.06    -0.06  -0.09   0.08     0.03   0.03   0.01
    54   1    -0.11   0.01   0.03     0.06  -0.07   0.03    -0.05  -0.03   0.04
    55   8    -0.03   0.00   0.01    -0.00  -0.01   0.00     0.02   0.01  -0.01
    56   6    -0.01  -0.01   0.01    -0.00  -0.00   0.00     0.01   0.01  -0.00
    57   6     0.04   0.03  -0.02     0.02   0.01  -0.01    -0.02  -0.04   0.01
    58   6    -0.01  -0.01   0.01    -0.00  -0.00   0.00     0.00   0.01  -0.00
    59   6    -0.01  -0.01   0.01    -0.00  -0.00   0.00     0.01   0.01  -0.00
    60   1    -0.04   0.02   0.01    -0.01   0.01   0.01     0.03  -0.02  -0.01
    61   1    -0.01   0.03   0.01    -0.01   0.01   0.00     0.00  -0.03  -0.00
    62   1     0.03   0.00  -0.01    -0.00   0.00   0.01    -0.05  -0.01   0.01
    63   1     0.01   0.00   0.00     0.00  -0.00  -0.00     0.02   0.00  -0.00
    64   1    -0.01  -0.01  -0.03     0.00   0.00  -0.00     0.05   0.02   0.03
    65   1    -0.03  -0.02  -0.04    -0.01  -0.01  -0.01     0.03   0.02   0.04
    66   1     0.01   0.00  -0.04     0.01  -0.00  -0.01    -0.00  -0.01   0.03
    67   1     0.03   0.01   0.03     0.01   0.00   0.00    -0.01  -0.01  -0.05
    68   1     0.01   0.02   0.04     0.00  -0.00   0.02    -0.01  -0.02  -0.02
                    127                    128                    129
                      A                      A                      A
 Frequencies --   1333.3061              1347.1988              1378.6012
 Red. masses --      2.8071                 2.0246                 1.2463
 Frc consts  --      2.9401                 2.1650                 1.3956
 IR Inten    --      0.0000                 0.0000                 0.0000
  Atom  AN      X      Y      Z        X      Y      Z        X      Y      Z
     1  26     0.01   0.01   0.01    -0.00   0.00   0.01    -0.00  -0.00   0.00
     2   6    -0.08   0.03  -0.04    -0.01   0.00  -0.00    -0.00   0.00   0.00
     3  46    -0.00  -0.00  -0.00     0.00  -0.00   0.00     0.00  -0.00   0.00
     4   6    -0.02   0.15  -0.10    -0.04  -0.02   0.02     0.00  -0.00   0.00
     5   1    -0.02  -0.01  -0.00     0.00  -0.01   0.01    -0.00  -0.00   0.00
     6   1     0.01   0.06   0.04    -0.01  -0.09  -0.05    -0.00  -0.00  -0.00
     7   1     0.02   0.00  -0.02     0.02   0.01  -0.00     0.00   0.00  -0.00
     8   6    -0.13  -0.02   0.04    -0.02  -0.00   0.01     0.01   0.00  -0.00
     9   8    -0.01  -0.02   0.03    -0.00  -0.00   0.00    -0.00  -0.00   0.00
    10   6     0.12  -0.01   0.05     0.19  -0.07   0.08     0.00  -0.00   0.00
    11   8     0.06   0.06  -0.02     0.01   0.01  -0.01    -0.00  -0.00   0.00
    12   6     0.00   0.08  -0.01    -0.01  -0.03   0.01    -0.00  -0.00  -0.00
    13   6     0.01   0.06  -0.01    -0.04   0.10  -0.03    -0.00   0.01  -0.00
    14   6    -0.01  -0.13   0.01     0.02  -0.09   0.01     0.00  -0.00   0.00
    15   1    -0.15  -0.10   0.03     0.05   0.07   0.00     0.01   0.01  -0.00
    16   1    -0.15   0.10  -0.04     0.05   0.08   0.03     0.01   0.00   0.00
    17   1    -0.01   0.14  -0.03     0.03  -0.08   0.03     0.00   0.00   0.00
    18   1    -0.43  -0.21  -0.22    -0.05   0.00  -0.02     0.01   0.01   0.01
    19   6    -0.08  -0.09  -0.03    -0.10   0.01  -0.04     0.00   0.00  -0.00
    20   6     0.02   0.02  -0.01     0.00   0.00  -0.00    -0.01  -0.01  -0.00
    21   8     0.07  -0.00  -0.01     0.01   0.00  -0.00     0.00  -0.00  -0.00
    22   6    -0.02   0.01  -0.00    -0.03   0.01  -0.00    -0.00   0.00  -0.00
    23   6    -0.01   0.01  -0.01     0.02   0.01   0.00     0.00   0.00  -0.00
    24   6    -0.01  -0.02  -0.00    -0.00  -0.01   0.00    -0.00  -0.00   0.00
    25   6     0.00  -0.01   0.00    -0.01   0.01  -0.00     0.00   0.00  -0.00
    26   6     0.03   0.01  -0.01     0.02  -0.02   0.00     0.00  -0.00   0.00
    27   1     0.03  -0.00  -0.01     0.01   0.03  -0.00     0.00   0.00  -0.00
    28   7     0.00  -0.05   0.00     0.00  -0.01  -0.00    -0.00   0.01  -0.00
    29   1    -0.04  -0.09   0.01    -0.01  -0.01  -0.00     0.04   0.05   0.03
    30   1    -0.06  -0.50   0.16     0.05   0.77  -0.29    -0.01   0.02  -0.00
    31   1    -0.00  -0.26   0.25    -0.04   0.31  -0.26    -0.01   0.01  -0.02
    32   1     0.00  -0.02  -0.01    -0.00   0.01  -0.01     0.00   0.00  -0.00
    33   7     0.01  -0.05   0.07    -0.01  -0.01  -0.05    -0.00   0.00  -0.00
    34   6    -0.02   0.02  -0.03     0.01  -0.01   0.02     0.00  -0.00  -0.00
    35   6     0.00   0.02  -0.02    -0.01   0.00   0.02    -0.00   0.01   0.00
    36   1     0.01   0.03  -0.01    -0.02  -0.01  -0.04     0.00   0.00  -0.00
    37   1     0.01  -0.01  -0.01     0.01   0.01   0.00    -0.01  -0.01   0.00
    38   1     0.03  -0.03   0.07    -0.02   0.01  -0.10    -0.00   0.01   0.01
    39   1    -0.04  -0.06   0.01     0.02   0.03   0.02    -0.04  -0.05  -0.02
    40   1     0.04  -0.02   0.07    -0.01   0.00  -0.03     0.04  -0.04  -0.01
    41   1    -0.01  -0.05  -0.06     0.01   0.02   0.02     0.02   0.01   0.00
    42   6    -0.00   0.02   0.01    -0.00   0.00   0.00     0.03  -0.01  -0.00
    43   6    -0.01  -0.00   0.00     0.00  -0.00  -0.00    -0.11   0.06   0.06
    44   6     0.00  -0.01  -0.00     0.00  -0.00   0.00    -0.02   0.02  -0.02
    45   6     0.00  -0.01  -0.01     0.00  -0.00  -0.00    -0.02  -0.01   0.01
    46   1     0.02  -0.03   0.01    -0.01   0.01   0.00     0.28  -0.47  -0.15
    47   1     0.05  -0.00  -0.02    -0.01   0.00   0.00     0.51  -0.13  -0.15
    48   1     0.04   0.01  -0.02    -0.01   0.00   0.01     0.37  -0.12  -0.35
    49   1    -0.02   0.03  -0.02    -0.00   0.01  -0.00     0.05  -0.11   0.05
    50   1     0.01  -0.01   0.02    -0.00  -0.00  -0.00     0.02  -0.04   0.12
    51   1     0.00   0.00   0.01    -0.00   0.00  -0.00     0.10  -0.06   0.07
    52   1    -0.01   0.01   0.01    -0.00   0.00   0.00     0.08   0.02  -0.02
    53   1     0.01   0.01  -0.00     0.00  -0.00   0.00     0.03   0.07  -0.01
    54   1    -0.03  -0.01   0.02    -0.00  -0.00   0.00     0.07   0.01  -0.04
    55   8     0.03   0.00  -0.01     0.01  -0.00  -0.00    -0.00  -0.00   0.00
    56   6     0.01   0.01  -0.00     0.00   0.00  -0.00     0.00  -0.00  -0.00
    57   6    -0.02  -0.04   0.01    -0.00  -0.00   0.00     0.00   0.00   0.00
    58   6     0.00   0.01  -0.00     0.00   0.00  -0.00    -0.00  -0.00  -0.00
    59   6     0.01   0.01  -0.00     0.00   0.00  -0.00    -0.00   0.00  -0.00
    60   1     0.02  -0.01   0.00     0.00  -0.00   0.00    -0.00   0.00  -0.00
    61   1    -0.00  -0.02  -0.01    -0.00  -0.00  -0.00     0.00   0.00   0.00
    62   1    -0.05  -0.01   0.02    -0.01  -0.00   0.00    -0.00  -0.00   0.00
    63   1     0.01   0.00  -0.00    -0.01  -0.00  -0.00    -0.00   0.00   0.00
    64   1     0.03   0.02   0.03    -0.00   0.00   0.01     0.00   0.00   0.00
    65   1     0.02   0.01   0.03     0.00  -0.00   0.00     0.00   0.00   0.00
    66   1    -0.00  -0.00   0.02    -0.00  -0.00   0.00     0.00  -0.00  -0.00
    67   1    -0.02  -0.01  -0.04    -0.01  -0.00  -0.00     0.00   0.00   0.00
    68   1    -0.01  -0.01  -0.02    -0.00  -0.01   0.00    -0.00  -0.00  -0.00
                    130                    131                    132
                      A                      A                      A
 Frequencies --   1387.8310              1390.9605              1399.8890
 Red. masses --      1.2576                 1.2655                 7.2469
 Frc consts  --      1.4272                 1.4425                 8.3673
 IR Inten    --      0.0000                 0.0000                 0.0000
  Atom  AN      X      Y      Z        X      Y      Z        X      Y      Z
     1  26    -0.00  -0.00   0.00    -0.00  -0.00  -0.00     0.00   0.00  -0.00
     2   6     0.00  -0.00   0.00     0.00   0.00   0.00    -0.00   0.00  -0.00
     3  46     0.00  -0.00  -0.00     0.00   0.00  -0.00    -0.00  -0.00  -0.00
     4   6    -0.00   0.01  -0.00     0.00  -0.01   0.00    -0.03  -0.02  -0.00
     5   1     0.01   0.00  -0.00    -0.00   0.00   0.00     0.05   0.14  -0.05
     6   1     0.00   0.01  -0.00     0.00  -0.00   0.00    -0.09   0.16  -0.01
     7   1     0.00   0.00  -0.00    -0.00   0.00   0.00    -0.26   0.02   0.03
     8   6     0.02   0.00  -0.01    -0.02  -0.00   0.01    -0.04  -0.00   0.01
     9   8     0.00   0.00  -0.00    -0.00  -0.00   0.00    -0.00  -0.00   0.00
    10   6     0.00  -0.01   0.00     0.00   0.01  -0.00     0.13   0.00   0.04
    11   8    -0.01  -0.01   0.00     0.01   0.01  -0.00     0.02   0.01  -0.00
    12   6    -0.01  -0.01  -0.00     0.01   0.01   0.00     0.01   0.06  -0.02
    13   6     0.00   0.01  -0.00    -0.00  -0.01   0.00     0.07  -0.09   0.04
    14   6     0.01  -0.01   0.00    -0.01   0.01  -0.00    -0.10   0.04  -0.03
    15   1     0.01   0.02  -0.00    -0.02  -0.03   0.01    -0.16  -0.15  -0.01
    16   1     0.00   0.01   0.01    -0.01  -0.01  -0.01    -0.17  -0.04  -0.07
    17   1     0.00   0.01   0.00    -0.01  -0.01  -0.00    -0.08  -0.13  -0.05
    18   1    -0.03  -0.01  -0.01     0.06   0.02   0.02     0.02   0.05   0.03
    19   6     0.00   0.00  -0.00    -0.00  -0.00   0.00    -0.06  -0.01  -0.01
    20   6    -0.00  -0.00   0.00     0.00   0.00  -0.00     0.00   0.00  -0.00
    21   8    -0.00   0.00   0.00    -0.00  -0.00   0.00     0.00  -0.00  -0.00
    22   6     0.01   0.00  -0.00    -0.00   0.00   0.00     0.46  -0.05  -0.02
    23   6    -0.00  -0.01   0.00     0.00   0.00   0.00    -0.23  -0.22   0.05
    24   6    -0.00   0.01  -0.00     0.00  -0.00   0.00     0.07   0.14  -0.02
    25   6     0.00  -0.01   0.00     0.00   0.01  -0.00    -0.06  -0.17   0.03
    26   6    -0.00   0.01  -0.00    -0.00  -0.01   0.00    -0.21   0.30  -0.04
    27   1     0.00  -0.01   0.00    -0.00   0.00   0.00    -0.11  -0.13   0.01
    28   7    -0.00   0.01  -0.00     0.00  -0.01   0.00     0.00  -0.01   0.00
    29   1     0.00   0.01  -0.00    -0.01  -0.01   0.00    -0.00  -0.00   0.00
    30   1     0.01  -0.01  -0.00    -0.01   0.01  -0.00     0.07   0.21  -0.11
    31   1     0.00  -0.00   0.01    -0.00   0.01  -0.01     0.06   0.16  -0.00
    32   1     0.00  -0.00   0.01    -0.01   0.00  -0.00     0.06  -0.08   0.03
    33   7    -0.00  -0.00   0.00     0.00   0.00  -0.00    -0.00  -0.00  -0.00
    34   6    -0.00   0.00  -0.00     0.00  -0.00   0.00     0.00  -0.01   0.02
    35   6     0.00   0.00   0.00    -0.00  -0.00  -0.00    -0.00  -0.00  -0.00
    36   1    -0.00  -0.00   0.00     0.00   0.00  -0.00     0.00   0.04  -0.09
    37   1     0.00  -0.00  -0.00     0.00   0.00  -0.00     0.01   0.09  -0.05
    38   1     0.00  -0.00   0.00    -0.00   0.00  -0.00    -0.04   0.02  -0.11
    39   1    -0.00  -0.00  -0.00     0.00   0.00   0.00     0.01   0.00   0.03
    40   1     0.00  -0.00  -0.00    -0.00   0.00   0.00    -0.00   0.00   0.01
    41   1    -0.00  -0.00  -0.00    -0.00   0.00   0.00    -0.01   0.01   0.01
    42   6     0.00   0.00  -0.00    -0.00   0.00   0.00     0.00   0.00   0.00
    43   6     0.00  -0.00  -0.00    -0.00   0.00   0.00    -0.01   0.00   0.00
    44   6    -0.00   0.00  -0.00    -0.00   0.00   0.00    -0.00   0.01  -0.01
    45   6     0.00   0.00  -0.00    -0.00  -0.00  -0.00     0.00   0.00  -0.00
    46   1    -0.00   0.00   0.00     0.00  -0.00  -0.00     0.02  -0.02   0.00
    47   1    -0.00   0.00   0.00     0.00  -0.00  -0.00     0.02  -0.01   0.00
    48   1    -0.00   0.00   0.00     0.00  -0.00  -0.00     0.02  -0.01  -0.02
    49   1    -0.00  -0.00   0.00     0.00   0.00  -0.00     0.01  -0.04   0.02
    50   1    -0.00  -0.01   0.00    -0.00  -0.00   0.00     0.01  -0.02   0.04
    51   1     0.01  -0.01   0.00     0.00  -0.01  -0.00     0.03  -0.02   0.03
    52   1    -0.00  -0.00   0.00     0.00   0.00   0.00    -0.01  -0.01   0.00
    53   1    -0.00  -0.00   0.00    -0.00  -0.00   0.00    -0.00  -0.01   0.00
    54   1    -0.00  -0.00   0.00    -0.00   0.00   0.00    -0.01  -0.01   0.01
    55   8    -0.00  -0.00   0.00     0.01   0.00  -0.00     0.01  -0.00  -0.00
    56   6    -0.04   0.00   0.01     0.09  -0.02  -0.04     0.01  -0.00  -0.00
    57   6     0.02   0.01   0.01    -0.01  -0.00   0.02    -0.00  -0.00  -0.00
    58   6    -0.08  -0.08  -0.04     0.02   0.01  -0.00     0.00   0.01   0.00
    59   6    -0.00   0.00  -0.06     0.01   0.01  -0.10     0.00  -0.00   0.02
    60   1     0.11  -0.09  -0.05    -0.27   0.18   0.19    -0.03   0.02   0.01
    61   1     0.14  -0.03  -0.00    -0.36   0.11   0.00    -0.03   0.01   0.00
    62   1     0.15   0.04  -0.05    -0.34  -0.06   0.21    -0.04  -0.01   0.02
    63   1     0.26   0.34   0.02    -0.05  -0.04  -0.00     0.02  -0.02  -0.01
    64   1     0.47   0.16   0.17    -0.09  -0.03   0.01    -0.03  -0.01  -0.01
    65   1     0.17   0.43   0.24    -0.01  -0.08  -0.02     0.00  -0.04   0.01
    66   1    -0.07  -0.07   0.22    -0.11  -0.12   0.37     0.02   0.02  -0.06
    67   1    -0.01   0.08   0.23    -0.07   0.12   0.39     0.00  -0.02  -0.06
    68   1     0.09  -0.03   0.23     0.14  -0.10   0.38    -0.03   0.01  -0.06
                    133                    134                    135
                      A                      A                      A
 Frequencies --   1403.8980              1406.6226              1407.2424
 Red. masses --      3.6201                 1.3848                 1.2719
 Frc consts  --      4.2038                 1.6144                 1.4841
 IR Inten    --      0.0000                 0.0000                 0.0000
  Atom  AN      X      Y      Z        X      Y      Z        X      Y      Z
     1  26    -0.00  -0.00   0.01    -0.00  -0.00   0.00    -0.00  -0.00   0.00
     2   6     0.01  -0.00   0.01     0.00   0.00  -0.00     0.00  -0.00   0.00
     3  46     0.00  -0.00   0.00     0.00  -0.00  -0.00    -0.00  -0.00  -0.00
     4   6    -0.00   0.09  -0.05    -0.00   0.02  -0.01    -0.00   0.02  -0.01
     5   1    -0.01  -0.00  -0.02     0.00   0.01  -0.01     0.00  -0.00  -0.00
     6   1     0.02   0.08  -0.01    -0.02  -0.01   0.01    -0.01  -0.00   0.00
     7   1    -0.07   0.08   0.02    -0.01  -0.03   0.00    -0.00  -0.01   0.00
     8   6     0.09   0.00  -0.03     0.03  -0.00  -0.01     0.01   0.00  -0.01
     9   8     0.00   0.00  -0.00    -0.00  -0.00   0.00     0.00   0.00  -0.00
    10   6    -0.06  -0.14   0.00    -0.01  -0.03   0.00    -0.01  -0.02  -0.00
    11   8    -0.04  -0.03   0.01    -0.01  -0.01   0.00    -0.01  -0.00   0.00
    12   6    -0.15  -0.15  -0.04    -0.01  -0.03  -0.00    -0.02  -0.03  -0.00
    13   6     0.02   0.20  -0.02    -0.02   0.04  -0.01    -0.01   0.03  -0.01
    14   6     0.12  -0.08   0.03     0.03  -0.02   0.01     0.03  -0.02   0.01
    15   1     0.20   0.36   0.01     0.05   0.06   0.00     0.04   0.06   0.00
    16   1     0.15   0.18   0.10     0.05   0.02   0.03     0.04   0.02   0.02
    17   1     0.11   0.18   0.05     0.03   0.03   0.02     0.02   0.03   0.01
    18   1    -0.10  -0.02  -0.07    -0.02   0.01  -0.02    -0.02   0.00  -0.02
    19   6     0.05   0.07   0.01     0.01   0.02   0.00     0.01   0.01   0.00
    20   6    -0.01  -0.01   0.00    -0.00  -0.01   0.00     0.00   0.00  -0.00
    21   8    -0.01   0.00   0.00     0.00  -0.00   0.00    -0.00   0.00   0.00
    22   6     0.10   0.05  -0.04     0.01  -0.03   0.01     0.01  -0.01   0.00
    23   6    -0.05  -0.12   0.04    -0.01   0.03  -0.01    -0.00   0.01  -0.00
    24   6    -0.08   0.07  -0.01     0.03  -0.02   0.00     0.01  -0.00   0.00
    25   6     0.11   0.03  -0.02    -0.04  -0.04   0.01    -0.01  -0.02   0.01
    26   6    -0.06  -0.04   0.03     0.00   0.06  -0.02    -0.00   0.02  -0.01
    27   1    -0.09   0.02  -0.05     0.03  -0.03   0.02     0.01  -0.01   0.01
    28   7    -0.00   0.03  -0.00    -0.00   0.01  -0.00    -0.00   0.00   0.00
    29   1     0.01   0.02  -0.01     0.01   0.01   0.00    -0.00   0.00  -0.01
    30   1     0.07  -0.23   0.06     0.03  -0.02  -0.00     0.03  -0.03   0.00
    31   1     0.03  -0.12   0.18     0.01  -0.03   0.04     0.01  -0.02   0.04
    32   1    -0.03  -0.05   0.01     0.02   0.00  -0.00     0.01  -0.00   0.00
    33   7    -0.00  -0.01   0.01    -0.00  -0.00  -0.01    -0.00  -0.00  -0.01
    34   6     0.00  -0.01   0.01    -0.01   0.03  -0.03    -0.00   0.02  -0.02
    35   6     0.01   0.02   0.04    -0.02  -0.04  -0.07    -0.01  -0.03  -0.05
    36   1    -0.00   0.02  -0.08    -0.03  -0.12   0.19    -0.02  -0.08   0.13
    37   1    -0.02   0.07  -0.03     0.02  -0.18   0.10     0.01  -0.12   0.07
    38   1    -0.02   0.02  -0.04     0.11  -0.10   0.16     0.08  -0.07   0.11
    39   1    -0.10  -0.08  -0.20     0.16   0.12   0.31     0.11   0.09   0.22
    40   1     0.02  -0.04  -0.22    -0.03   0.05   0.36    -0.02   0.04   0.26
    41   1    -0.04  -0.20  -0.15     0.09   0.31   0.22     0.06   0.21   0.16
    42   6    -0.00  -0.00  -0.00     0.00   0.01  -0.00    -0.00  -0.01   0.01
    43   6     0.00  -0.00  -0.00    -0.01   0.00   0.01     0.01  -0.00  -0.01
    44   6     0.01  -0.01   0.01     0.03  -0.04   0.05    -0.04   0.05  -0.07
    45   6    -0.00  -0.00   0.00    -0.03  -0.03   0.02     0.04   0.04  -0.03
    46   1    -0.00   0.02   0.02    -0.01  -0.04  -0.07    -0.03   0.05   0.02
    47   1    -0.03   0.00   0.01     0.08   0.01  -0.05    -0.05   0.00   0.02
    48   1    -0.01   0.01   0.01    -0.00  -0.02  -0.01    -0.04   0.00   0.03
    49   1    -0.01   0.04  -0.03    -0.07   0.24  -0.15     0.10  -0.33   0.20
    50   1    -0.00   0.03  -0.05    -0.04   0.11  -0.25     0.07  -0.14   0.35
    51   1    -0.05   0.03  -0.03    -0.21   0.10  -0.17     0.29  -0.13   0.25
    52   1     0.03   0.01  -0.00     0.17   0.10  -0.02    -0.24  -0.13   0.02
    53   1     0.01   0.02  -0.01     0.08   0.15  -0.06    -0.10  -0.20   0.08
    54   1     0.02   0.01  -0.02     0.11   0.08  -0.14    -0.14  -0.11   0.19
    55   8    -0.02   0.01   0.01    -0.01   0.00   0.00    -0.00   0.00   0.00
    56   6     0.04  -0.01  -0.02     0.01  -0.00  -0.00     0.01  -0.00  -0.00
    57   6     0.00   0.01  -0.00     0.00   0.00  -0.00    -0.00   0.00   0.00
    58   6     0.00   0.00   0.01    -0.00  -0.00   0.00    -0.00  -0.00   0.00
    59   6    -0.00  -0.00   0.01     0.00  -0.00   0.00    -0.00  -0.00   0.01
    60   1    -0.14   0.09   0.09    -0.04   0.02   0.02    -0.04   0.03   0.02
    61   1    -0.18   0.06   0.00    -0.05   0.02   0.00    -0.04   0.02   0.00
    62   1    -0.15  -0.03   0.10    -0.04  -0.01   0.03    -0.04  -0.01   0.03
    63   1    -0.03  -0.03   0.00     0.01  -0.00  -0.00     0.00   0.00  -0.00
    64   1    -0.01  -0.01  -0.04     0.01   0.00  -0.01     0.01   0.00  -0.00
    65   1    -0.03  -0.01  -0.05    -0.00   0.01  -0.00     0.00   0.01   0.00
    66   1     0.02   0.02  -0.05    -0.00   0.01  -0.01     0.01  -0.00  -0.02
    67   1     0.01  -0.01  -0.03    -0.00  -0.01  -0.01     0.01  -0.00  -0.02
    68   1    -0.01   0.01  -0.04    -0.00   0.00  -0.01    -0.01   0.01  -0.02
                    136                    137                    138
                      A                      A                      A
 Frequencies --   1408.0869              1411.0809              1423.9161
 Red. masses --      3.4882                 1.2644                 1.2575
 Frc consts  --      4.0748                 1.4833                 1.5022
 IR Inten    --      0.0000                 0.0000                 0.0000
  Atom  AN      X      Y      Z        X      Y      Z        X      Y      Z
     1  26    -0.00   0.00   0.00    -0.00  -0.00   0.00    -0.00   0.00  -0.00
     2   6     0.00  -0.00   0.00    -0.00   0.00  -0.00    -0.00   0.00  -0.00
     3  46     0.00  -0.00   0.00     0.00  -0.00   0.00     0.00   0.00  -0.00
     4   6     0.01   0.02  -0.01     0.00   0.01  -0.01     0.02  -0.01   0.01
     5   1    -0.02   0.03  -0.02    -0.01   0.01  -0.00     0.07  -0.03   0.00
     6   1    -0.08  -0.07   0.04    -0.01   0.01   0.00     0.04  -0.00  -0.01
     7   1     0.03  -0.16  -0.04    -0.02  -0.00   0.00     0.05   0.00   0.01
     8   6     0.05  -0.00  -0.02    -0.01  -0.00   0.00    -0.00  -0.00   0.00
     9   8     0.00   0.00  -0.00     0.00  -0.00   0.00    -0.00  -0.00   0.00
    10   6    -0.03  -0.03  -0.00    -0.01  -0.02  -0.00     0.01   0.00   0.00
    11   8    -0.02  -0.02   0.01     0.01   0.00  -0.00     0.00   0.00  -0.00
    12   6     0.01  -0.04   0.01    -0.02  -0.02  -0.00    -0.00   0.00  -0.00
    13   6    -0.09   0.06  -0.04    -0.01   0.03  -0.01     0.01  -0.01   0.00
    14   6     0.08  -0.04   0.02     0.02  -0.01   0.01    -0.01   0.00  -0.00
    15   1     0.10   0.08   0.01     0.03   0.04   0.01    -0.01  -0.01  -0.00
    16   1     0.13   0.01   0.07     0.03   0.02   0.02    -0.01  -0.00  -0.01
    17   1     0.07   0.03   0.04     0.02   0.02   0.01    -0.01  -0.00  -0.00
    18   1    -0.01   0.04  -0.02     0.03   0.01  -0.00     0.01   0.00   0.01
    19   6     0.01   0.03  -0.00     0.01   0.01   0.00    -0.00  -0.00  -0.00
    20   6    -0.00  -0.01   0.00    -0.00  -0.00   0.00     0.00   0.00   0.00
    21   8    -0.00   0.00  -0.00     0.00  -0.00  -0.00     0.00  -0.00  -0.00
    22   6    -0.01  -0.12   0.06     0.02  -0.01   0.00    -0.02   0.01  -0.00
    23   6     0.00   0.17  -0.06    -0.01   0.00  -0.00     0.02  -0.04   0.01
    24   6     0.16  -0.11   0.02     0.01  -0.00   0.00    -0.03   0.05  -0.01
    25   6    -0.19  -0.12   0.05    -0.00  -0.00   0.00     0.01  -0.04   0.01
    26   6     0.03   0.20  -0.08    -0.01   0.01  -0.00     0.01   0.02  -0.01
    27   1     0.12  -0.11   0.07    -0.01  -0.00   0.00     0.03  -0.03   0.01
    28   7    -0.00   0.02  -0.00    -0.00   0.00  -0.00    -0.00  -0.00   0.00
    29   1     0.00   0.01  -0.01     0.00   0.00  -0.00    -0.00  -0.00   0.00
    30   1    -0.02  -0.11   0.05     0.01  -0.03   0.01    -0.25   0.08   0.04
    31   1    -0.00  -0.04   0.03     0.00  -0.02   0.02    -0.15  -0.05  -0.21
    32   1     0.06   0.02  -0.01    -0.01  -0.01  -0.00     0.06  -0.00   0.00
    33   7    -0.00   0.00   0.01    -0.00  -0.00   0.00     0.00   0.01   0.00
    34   6     0.00  -0.01   0.01    -0.00   0.00  -0.00    -0.02   0.06  -0.08
    35   6     0.02   0.04   0.08    -0.00  -0.00  -0.00     0.01   0.02   0.04
    36   1     0.03   0.08  -0.08    -0.00  -0.01   0.02    -0.07  -0.24   0.43
    37   1     0.01   0.10  -0.06     0.00  -0.02   0.01     0.06  -0.38   0.20
    38   1    -0.07   0.06  -0.08     0.01  -0.01   0.02     0.25  -0.22   0.35
    39   1    -0.18  -0.15  -0.35     0.00   0.00   0.00    -0.10  -0.09  -0.17
    40   1     0.04  -0.07  -0.41     0.00  -0.00   0.01     0.03  -0.04  -0.23
    41   1    -0.10  -0.35  -0.25     0.00   0.01   0.00    -0.07  -0.17  -0.12
    42   6    -0.00  -0.00  -0.00     0.00   0.00   0.00    -0.00  -0.00  -0.00
    43   6     0.00  -0.00  -0.01    -0.00  -0.00  -0.00    -0.00  -0.00  -0.01
    44   6    -0.00   0.01  -0.01    -0.00   0.00  -0.00     0.00  -0.00   0.00
    45   6     0.01   0.01  -0.00     0.00   0.00  -0.00     0.00   0.00  -0.00
    46   1     0.02   0.02   0.05     0.00   0.00   0.00     0.05  -0.00   0.07
    47   1    -0.05  -0.01   0.03    -0.00   0.00  -0.00    -0.05   0.00   0.02
    48   1     0.01   0.02   0.01     0.00   0.00   0.00     0.05   0.04  -0.00
    49   1     0.01  -0.04   0.02    -0.00  -0.00   0.00    -0.01   0.01  -0.00
    50   1     0.01  -0.01   0.04    -0.01  -0.01   0.01    -0.01  -0.00  -0.01
    51   1     0.03  -0.01   0.03     0.01  -0.01   0.00    -0.01  -0.00  -0.01
    52   1    -0.04  -0.02   0.00    -0.01  -0.00   0.00    -0.01  -0.01  -0.00
    53   1    -0.02  -0.03   0.01    -0.00  -0.01   0.00    -0.01  -0.01  -0.00
    54   1    -0.02  -0.02   0.03    -0.01  -0.00   0.01    -0.01  -0.00   0.01
    55   8    -0.01   0.00   0.00     0.00  -0.00  -0.00     0.00  -0.00  -0.00
    56   6     0.02  -0.01  -0.01    -0.08   0.02   0.03     0.00  -0.00   0.00
    57   6    -0.00   0.01  -0.00     0.01  -0.01  -0.00    -0.00   0.00  -0.00
    58   6    -0.00  -0.00   0.00     0.04   0.05   0.02    -0.00   0.00  -0.00
    59   6    -0.00  -0.00   0.00    -0.00   0.01  -0.07     0.00  -0.00   0.00
    60   1    -0.06   0.04   0.04     0.26  -0.18  -0.17    -0.00   0.00  -0.00
    61   1    -0.08   0.03   0.00     0.35  -0.13  -0.01     0.00  -0.00   0.00
    62   1    -0.07  -0.01   0.04     0.33   0.06  -0.21    -0.00  -0.00  -0.00
    63   1     0.01  -0.00  -0.00    -0.12  -0.20  -0.02     0.02  -0.00  -0.00
    64   1     0.02   0.00  -0.02    -0.28  -0.09  -0.09    -0.01  -0.00   0.00
    65   1     0.00   0.02   0.00    -0.09  -0.27  -0.11     0.01  -0.02   0.01
    66   1     0.00   0.01  -0.01    -0.06  -0.12   0.28     0.00   0.00  -0.00
    67   1     0.01  -0.00  -0.01    -0.02   0.10   0.30     0.00  -0.00  -0.00
    68   1    -0.00   0.01  -0.01     0.10  -0.07   0.29    -0.00   0.00  -0.00
                    139                    140                    141
                      A                      A                      A
 Frequencies --   1427.3568              1428.5409              1436.8812
 Red. masses --      1.2087                 3.4496                 3.9144
 Frc consts  --      1.4509                 4.1477                 4.7616
 IR Inten    --      0.0000                 0.0000                 0.0000
  Atom  AN      X      Y      Z        X      Y      Z        X      Y      Z
     1  26     0.00   0.00   0.00    -0.01  -0.00  -0.00    -0.00  -0.01   0.00
     2   6     0.00  -0.00  -0.01    -0.00  -0.00  -0.00     0.00  -0.00   0.00
     3  46    -0.00   0.00  -0.00    -0.00   0.00   0.00     0.00   0.00   0.00
     4   6     0.00   0.00  -0.00    -0.01   0.01  -0.01    -0.01  -0.00  -0.01
     5   1     0.00  -0.00   0.00     0.32  -0.09  -0.02    -0.13   0.31  -0.13
     6   1     0.00  -0.00   0.00     0.22   0.10  -0.07     0.07   0.43  -0.08
     7   1     0.00  -0.00   0.00     0.37  -0.01  -0.03    -0.02   0.20   0.00
     8   6    -0.00  -0.00   0.00     0.03  -0.00  -0.01    -0.00   0.00  -0.00
     9   8    -0.00  -0.00   0.00    -0.00   0.00   0.00     0.00   0.00  -0.00
    10   6    -0.00  -0.00  -0.00     0.01  -0.01   0.00    -0.01  -0.01   0.00
    11   8     0.00   0.00  -0.00    -0.01  -0.01   0.00    -0.00  -0.00   0.00
    12   6    -0.00  -0.00   0.00    -0.04  -0.01  -0.02     0.02   0.00   0.01
    13   6    -0.00   0.00  -0.00     0.05   0.00   0.02    -0.03  -0.00  -0.01
    14   6     0.00   0.00   0.00    -0.02   0.01  -0.01     0.02   0.01   0.00
    15   1     0.00   0.00   0.00    -0.02   0.02  -0.00     0.02  -0.01  -0.00
    16   1     0.00   0.00   0.00    -0.04   0.02  -0.01     0.04  -0.02   0.03
    17   1     0.00   0.00   0.00    -0.02   0.02  -0.01     0.02  -0.03   0.01
    18   1    -0.00  -0.00  -0.00    -0.03  -0.00   0.05     0.02   0.01  -0.01
    19   6     0.00   0.00  -0.00     0.01   0.00   0.00    -0.00   0.01  -0.00
    20   6     0.00   0.01   0.00    -0.00  -0.00   0.00     0.00   0.00  -0.00
    21   8    -0.00   0.00   0.00     0.00   0.00   0.00    -0.00  -0.00   0.00
    22   6    -0.00  -0.00   0.00    -0.18   0.04   0.00     0.01   0.16  -0.06
    23   6     0.00   0.00  -0.00     0.11  -0.17   0.06    -0.14  -0.14   0.04
    24   6    -0.00   0.00  -0.00    -0.05   0.22  -0.04     0.27  -0.01   0.01
    25   6     0.00  -0.00   0.00    -0.11  -0.18   0.05    -0.25   0.07   0.01
    26   6     0.00   0.00  -0.00     0.15   0.09  -0.06     0.11  -0.19   0.04
    27   1     0.00  -0.00   0.00     0.21  -0.03   0.05    -0.04   0.40  -0.10
    28   7     0.00  -0.00  -0.00    -0.00   0.01  -0.00    -0.00  -0.00   0.00
    29   1    -0.03  -0.02  -0.02     0.00   0.01  -0.00    -0.00  -0.00  -0.00
    30   1    -0.00  -0.00   0.00     0.11  -0.08  -0.01     0.11  -0.04  -0.02
    31   1    -0.00  -0.00   0.00     0.07   0.02   0.10     0.07   0.04   0.10
    32   1     0.00  -0.00   0.00     0.36   0.09  -0.03     0.07   0.25  -0.12
    33   7     0.00  -0.00   0.00     0.00  -0.01   0.00    -0.00   0.00  -0.00
    34   6    -0.00   0.00  -0.00     0.01  -0.03   0.04    -0.00   0.02  -0.02
    35   6     0.00  -0.00   0.00    -0.00  -0.01  -0.02     0.00   0.00   0.01
    36   1    -0.01  -0.01   0.02     0.06   0.16  -0.21    -0.06  -0.11   0.08
    37   1     0.01  -0.01   0.00    -0.03   0.18  -0.09    -0.02  -0.08   0.05
    38   1     0.01  -0.02   0.00    -0.15   0.14  -0.15     0.09  -0.09   0.09
    39   1     0.01   0.02  -0.01     0.03   0.03   0.06    -0.01   0.00  -0.05
    40   1    -0.02   0.02  -0.02    -0.01   0.01   0.09    -0.01   0.01  -0.05
    41   1    -0.02  -0.02  -0.01     0.02   0.06   0.04    -0.01  -0.05  -0.04
    42   6     0.01   0.00  -0.00     0.00   0.00   0.00    -0.00  -0.00  -0.00
    43   6     0.02  -0.02  -0.01     0.00   0.00   0.00    -0.00  -0.00  -0.00
    44   6    -0.03   0.03  -0.05    -0.00   0.00  -0.00     0.00   0.00   0.00
    45   6    -0.08  -0.07   0.04    -0.00  -0.00  -0.00     0.00   0.00   0.00
    46   1    -0.07   0.12   0.05    -0.02   0.01  -0.03     0.02  -0.00   0.03
    47   1    -0.13   0.03   0.04     0.02  -0.00  -0.01    -0.02  -0.00   0.01
    48   1    -0.09   0.03   0.09    -0.03  -0.02   0.00     0.02   0.01  -0.00
    49   1     0.09  -0.25   0.14     0.01  -0.01   0.00    -0.00   0.00   0.00
    50   1     0.07  -0.08   0.26     0.01   0.00   0.01    -0.00  -0.00  -0.00
    51   1     0.20  -0.09   0.19     0.00   0.00   0.00     0.00  -0.00  -0.00
    52   1     0.43   0.25  -0.04     0.00   0.00   0.00    -0.00  -0.00  -0.00
    53   1     0.19   0.38  -0.13     0.00   0.00   0.00    -0.00  -0.00  -0.00
    54   1     0.26   0.19  -0.34     0.01   0.00  -0.00    -0.00  -0.00   0.00
    55   8     0.00   0.00  -0.00    -0.01   0.00   0.00     0.00  -0.00   0.00
    56   6    -0.00   0.00   0.00    -0.00  -0.00   0.00     0.00   0.00   0.00
    57   6    -0.00  -0.00   0.00     0.00   0.00  -0.00    -0.00  -0.00  -0.00
    58   6     0.00   0.00  -0.00     0.00   0.01  -0.00    -0.00  -0.00  -0.01
    59   6    -0.00   0.00  -0.00    -0.00  -0.00  -0.01    -0.00  -0.00   0.00
    60   1     0.00   0.00  -0.01    -0.00   0.01  -0.02    -0.00   0.00  -0.00
    61   1     0.01  -0.00   0.00     0.01  -0.00   0.00    -0.00  -0.00   0.00
    62   1    -0.00  -0.00  -0.01     0.00  -0.01  -0.02    -0.00  -0.00  -0.00
    63   1    -0.00   0.00  -0.00     0.07  -0.05  -0.02     0.01   0.04   0.00
    64   1    -0.00   0.00   0.00    -0.10  -0.03  -0.01    -0.01   0.00   0.05
    65   1     0.00  -0.00   0.00     0.01  -0.11   0.06     0.01  -0.02   0.03
    66   1     0.01  -0.01   0.00    -0.01  -0.01   0.03     0.00   0.00  -0.00
    67   1     0.01   0.00   0.00     0.02   0.01   0.02     0.01  -0.00  -0.01
    68   1    -0.00  -0.00  -0.00     0.01   0.01   0.02    -0.00   0.01  -0.01
                    142                    143                    144
                      A                      A                      A
 Frequencies --   1446.1715              1449.1917              1451.5886
 Red. masses --      1.2162                 4.8583                 1.0732
 Frc consts  --      1.4987                 6.0115                 1.3324
 IR Inten    --      0.0000                 0.0000                 0.0000
  Atom  AN      X      Y      Z        X      Y      Z        X      Y      Z
     1  26     0.00   0.00   0.00     0.01  -0.00   0.01     0.00   0.00   0.00
     2   6    -0.00   0.00  -0.00    -0.00   0.00  -0.00     0.00  -0.00   0.01
     3  46    -0.00  -0.00  -0.00    -0.00  -0.00   0.00    -0.00  -0.00  -0.00
     4   6    -0.07  -0.01  -0.03     0.02   0.01   0.01    -0.01  -0.00  -0.00
     5   1     0.01  -0.03   0.01    -0.08   0.04  -0.01    -0.00  -0.00   0.00
     6   1    -0.00  -0.03  -0.00    -0.05  -0.00   0.02    -0.00  -0.01   0.00
     7   1    -0.02  -0.01   0.02    -0.03  -0.02  -0.02    -0.00  -0.00  -0.00
     8   6     0.00   0.00  -0.00     0.06  -0.01  -0.02     0.00  -0.00  -0.00
     9   8    -0.00  -0.00   0.00    -0.00  -0.00   0.00     0.00   0.00  -0.00
    10   6     0.02  -0.03   0.01     0.07  -0.01   0.02     0.00  -0.01   0.00
    11   8     0.00   0.00  -0.00    -0.02  -0.01   0.00    -0.00   0.00  -0.00
    12   6    -0.03   0.00  -0.01    -0.28  -0.09  -0.11    -0.02  -0.01  -0.01
    13   6     0.05  -0.02   0.02     0.39  -0.00   0.13     0.02  -0.00   0.01
    14   6    -0.02   0.04  -0.01    -0.15   0.06  -0.03    -0.01   0.01  -0.00
    15   1    -0.04  -0.01  -0.00    -0.15   0.13  -0.03    -0.01   0.01  -0.00
    16   1    -0.04  -0.00  -0.02    -0.28   0.16  -0.11    -0.01   0.01  -0.01
    17   1    -0.02  -0.04  -0.00    -0.13   0.11  -0.09    -0.01   0.00  -0.00
    18   1    -0.01  -0.01   0.01    -0.23  -0.12  -0.04    -0.00  -0.01  -0.00
    19   6    -0.01   0.00  -0.00     0.01   0.01  -0.00     0.00   0.00   0.00
    20   6     0.00  -0.00  -0.00    -0.00  -0.01   0.00     0.00   0.00   0.00
    21   8     0.00   0.00  -0.00     0.00   0.00  -0.00    -0.00   0.00  -0.00
    22   6    -0.02  -0.01   0.01    -0.03  -0.01   0.01    -0.01  -0.00   0.00
    23   6     0.02   0.03  -0.01    -0.01   0.10  -0.04     0.00   0.01  -0.00
    24   6    -0.01  -0.01   0.00     0.10  -0.10   0.02     0.00  -0.01   0.00
    25   6     0.01  -0.00  -0.00    -0.07   0.02   0.00    -0.00   0.00  -0.00
    26   6     0.00   0.01  -0.00     0.03  -0.01   0.00     0.00   0.00  -0.00
    27   1     0.01  -0.02   0.00     0.01   0.05  -0.01     0.00  -0.00   0.00
    28   7    -0.00  -0.00   0.00    -0.00   0.02  -0.00     0.00  -0.00  -0.00
    29   1     0.00   0.00   0.00     0.01   0.01  -0.00    -0.01  -0.01  -0.01
    30   1     0.60  -0.02  -0.17    -0.35   0.10   0.06     0.06   0.00  -0.02
    31   1     0.36   0.23   0.45    -0.20  -0.07  -0.28     0.03   0.03   0.04
    32   1    -0.01  -0.02   0.00    -0.04   0.03  -0.02    -0.00   0.00   0.00
    33   7    -0.01   0.01  -0.01     0.01  -0.00   0.01    -0.00   0.00  -0.00
    34   6     0.00   0.03  -0.01    -0.01  -0.01  -0.00     0.01  -0.00   0.00
    35   6     0.00  -0.00   0.03     0.00   0.00  -0.01    -0.01   0.01  -0.01
    36   1    -0.12  -0.21   0.10     0.07   0.09   0.02    -0.01   0.00  -0.05
    37   1    -0.01  -0.07   0.05     0.07   0.00  -0.01    -0.05   0.01   0.00
    38   1     0.16  -0.18   0.05    -0.06   0.06  -0.02    -0.01   0.02   0.01
    39   1     0.02   0.08  -0.13    -0.01  -0.04   0.07    -0.06  -0.10   0.03
    40   1    -0.06   0.07  -0.09     0.01  -0.01  -0.00     0.10  -0.11   0.09
    41   1     0.01  -0.11  -0.09    -0.05   0.03   0.03     0.06   0.10   0.07
    42   6     0.00  -0.00   0.00     0.00  -0.00   0.00    -0.01   0.00  -0.02
    43   6    -0.00   0.00   0.00     0.01  -0.00   0.01    -0.03  -0.00  -0.05
    44   6     0.00  -0.00  -0.00    -0.00  -0.00  -0.00     0.00   0.00   0.01
    45   6     0.00   0.00  -0.00    -0.00   0.00  -0.00     0.00  -0.00   0.01
    46   1    -0.01  -0.01  -0.04    -0.09   0.01  -0.13     0.36   0.01   0.59
    47   1     0.03   0.01  -0.02     0.07   0.03  -0.06    -0.34  -0.13   0.27
    48   1    -0.02  -0.01   0.00    -0.10  -0.03   0.04     0.41   0.16  -0.14
    49   1    -0.00   0.00   0.00     0.01  -0.01   0.00     0.02   0.04  -0.03
    50   1    -0.00   0.00  -0.00     0.02   0.01   0.01    -0.04  -0.04   0.00
    51   1    -0.00   0.00   0.00     0.00   0.01   0.01     0.00  -0.05  -0.06
    52   1    -0.01  -0.00   0.00    -0.01   0.01   0.01     0.05  -0.02  -0.03
    53   1    -0.00  -0.01   0.01     0.01   0.00   0.02    -0.03   0.01  -0.09
    54   1    -0.00  -0.00   0.00     0.01  -0.01   0.00    -0.04   0.03  -0.01
    55   8    -0.00   0.00   0.00    -0.01   0.01   0.00    -0.00   0.00   0.00
    56   6    -0.00   0.00  -0.00    -0.00  -0.00  -0.00     0.00  -0.00  -0.00
    57   6     0.00  -0.00   0.00     0.00   0.00   0.00    -0.00   0.00   0.00
    58   6     0.00   0.00   0.00     0.00   0.00   0.01     0.00  -0.00  -0.00
    59   6    -0.00   0.00  -0.00    -0.00   0.00  -0.01    -0.00   0.00   0.00
    60   1     0.00  -0.00   0.00     0.00  -0.01   0.01    -0.00   0.00   0.00
    61   1     0.00   0.00  -0.00    -0.01   0.01   0.00    -0.00   0.00   0.00
    62   1     0.00   0.00   0.00     0.01   0.01   0.01    -0.00   0.00   0.00
    63   1    -0.01  -0.01  -0.00    -0.04  -0.07  -0.01    -0.00   0.00   0.00
    64   1     0.00  -0.00  -0.01     0.02  -0.00  -0.09     0.00   0.00   0.00
    65   1    -0.00   0.01  -0.01    -0.03   0.03  -0.06    -0.00   0.00  -0.00
    66   1     0.00  -0.00   0.00     0.01  -0.03   0.03     0.01  -0.01  -0.00
    67   1    -0.00   0.00   0.00     0.01   0.02   0.04     0.01   0.00   0.01
    68   1     0.00  -0.00   0.00     0.01  -0.01   0.03    -0.00  -0.01  -0.01
                    145                    146                    147
                      A                      A                      A
 Frequencies --   1462.0151              1468.6232              1472.8773
 Red. masses --      1.0900                 1.0575                 1.1468
 Frc consts  --      1.3727                 1.3438                 1.4657
 IR Inten    --      0.0000                 0.0000                 0.0000
  Atom  AN      X      Y      Z        X      Y      Z        X      Y      Z
     1  26    -0.00  -0.00  -0.00     0.00   0.00   0.00    -0.00   0.00   0.00
     2   6     0.00  -0.00   0.00     0.00  -0.00   0.00     0.00  -0.00   0.00
     3  46     0.00   0.00   0.00     0.00   0.00   0.00     0.00   0.00  -0.00
     4   6     0.00   0.00  -0.00    -0.01  -0.00  -0.00    -0.02   0.02  -0.01
     5   1    -0.00  -0.00   0.00    -0.00   0.00  -0.00    -0.00  -0.00   0.00
     6   1    -0.00  -0.01   0.00    -0.00  -0.00  -0.00     0.00   0.00  -0.00
     7   1    -0.00  -0.01   0.00    -0.02   0.00   0.00    -0.02   0.01   0.02
     8   6    -0.02   0.00   0.01     0.01  -0.00  -0.00    -0.02   0.01   0.01
     9   8     0.00   0.00  -0.00     0.00   0.00  -0.00     0.00   0.00  -0.00
    10   6    -0.00  -0.00   0.00     0.01  -0.00   0.00    -0.00  -0.06   0.01
    11   8     0.01   0.01  -0.00    -0.00  -0.00   0.00     0.01   0.01  -0.00
    12   6    -0.02  -0.02  -0.00     0.00   0.00  -0.00     0.00   0.00   0.00
    13   6     0.01   0.01   0.00     0.00  -0.00   0.00    -0.00  -0.01   0.00
    14   6    -0.00   0.00  -0.00    -0.00   0.00  -0.00     0.01   0.05  -0.00
    15   1     0.01   0.03  -0.00    -0.01  -0.01   0.00    -0.00  -0.01  -0.00
    16   1     0.00   0.01  -0.00    -0.01  -0.00  -0.00     0.02  -0.02   0.00
    17   1     0.00   0.01  -0.00    -0.00  -0.01  -0.00     0.02  -0.05   0.01
    18   1     0.11   0.03   0.03    -0.02  -0.00   0.00     0.09   0.02   0.02
    19   6     0.00   0.01   0.00    -0.00  -0.00  -0.00    -0.01   0.01  -0.00
    20   6     0.00   0.00  -0.00    -0.00  -0.00   0.00     0.00   0.00  -0.00
    21   8    -0.00  -0.00   0.00    -0.00   0.00  -0.00    -0.00   0.00   0.00
    22   6     0.00  -0.01   0.00     0.00  -0.00   0.00    -0.00   0.00  -0.00
    23   6     0.00   0.01  -0.00    -0.00   0.00  -0.00     0.00   0.00  -0.00
    24   6     0.00  -0.01   0.00     0.00  -0.00   0.00    -0.00  -0.00   0.00
    25   6     0.00   0.00  -0.00     0.00   0.00  -0.00     0.00   0.00  -0.00
    26   6    -0.00   0.00  -0.00    -0.00  -0.00   0.00    -0.00  -0.01   0.00
    27   1    -0.00  -0.01   0.01    -0.00  -0.00  -0.00    -0.00   0.00   0.00
    28   7    -0.00  -0.01   0.00    -0.00   0.00  -0.00     0.00  -0.01   0.00
    29   1    -0.00  -0.01   0.00    -0.00   0.00  -0.00    -0.00  -0.00   0.00
    30   1     0.00  -0.01   0.00     0.03   0.03  -0.02     0.15   0.01  -0.04
    31   1     0.00  -0.01   0.00     0.02   0.03   0.01     0.07   0.03   0.11
    32   1    -0.03  -0.02   0.00    -0.00  -0.00  -0.00    -0.01  -0.00   0.00
    33   7    -0.00  -0.00  -0.00    -0.00   0.00  -0.00    -0.01  -0.01  -0.02
    34   6    -0.00  -0.00   0.00     0.03  -0.01  -0.03    -0.03  -0.03  -0.03
    35   6     0.00  -0.00  -0.00    -0.04   0.02   0.01     0.02   0.03  -0.01
    36   1     0.00   0.00   0.00     0.05   0.12  -0.14     0.35   0.41   0.30
    37   1     0.00   0.00  -0.00    -0.33  -0.16   0.14     0.31  -0.28   0.10
    38   1    -0.00   0.00  -0.00    -0.10   0.22   0.34    -0.24   0.30   0.06
    39   1     0.00   0.00   0.01    -0.12  -0.05  -0.34    -0.11  -0.23   0.18
    40   1    -0.01   0.01  -0.01     0.24  -0.28   0.24     0.10  -0.12  -0.10
    41   1    -0.01  -0.00   0.00     0.52   0.05  -0.06    -0.20   0.06   0.09
    42   6     0.00   0.00   0.00     0.00   0.00   0.00     0.00   0.00   0.00
    43   6    -0.00   0.00   0.00     0.01  -0.01   0.01     0.00   0.00   0.00
    44   6     0.00  -0.00   0.00     0.00   0.00  -0.00    -0.00  -0.00  -0.00
    45   6     0.00   0.00  -0.00    -0.00  -0.00  -0.00    -0.00  -0.00  -0.00
    46   1    -0.00  -0.00  -0.01    -0.07   0.02  -0.09    -0.03   0.01  -0.02
    47   1     0.01   0.00  -0.00     0.02   0.07  -0.06     0.01  -0.01  -0.00
    48   1    -0.00  -0.00  -0.00    -0.06   0.02   0.06    -0.03  -0.02   0.00
    49   1    -0.01   0.01  -0.01    -0.01  -0.01   0.01    -0.00  -0.01   0.01
    50   1    -0.01  -0.00  -0.01    -0.00  -0.00  -0.00     0.01   0.01  -0.00
    51   1    -0.00  -0.00  -0.01     0.01   0.01   0.02    -0.00   0.01   0.01
    52   1    -0.00  -0.00   0.00    -0.00   0.01   0.00     0.00   0.00   0.00
    53   1    -0.00  -0.00   0.00     0.02   0.01   0.02     0.00   0.00   0.00
    54   1    -0.00  -0.00   0.00     0.02  -0.01  -0.01     0.00   0.00  -0.00
    55   8     0.00  -0.00  -0.00    -0.00   0.00   0.00     0.01  -0.00  -0.00
    56   6     0.01   0.01   0.03     0.00   0.00   0.00    -0.00  -0.00  -0.00
    57   6     0.00   0.00  -0.01    -0.00   0.00   0.00     0.00  -0.00  -0.00
    58   6     0.01  -0.01  -0.06     0.00  -0.00  -0.00    -0.00  -0.00  -0.00
    59   6    -0.02  -0.00   0.01    -0.00   0.00  -0.00     0.01   0.00   0.00
    60   1    -0.13   0.16  -0.05    -0.00   0.01  -0.00     0.03  -0.03  -0.00
    61   1     0.08  -0.19  -0.00     0.00  -0.01  -0.00    -0.01   0.05   0.00
    62   1    -0.14  -0.13  -0.28    -0.00  -0.00  -0.01     0.03   0.03   0.06
    63   1     0.03   0.41   0.06    -0.01   0.01   0.00     0.02   0.03   0.00
    64   1    -0.24  -0.01   0.54    -0.00   0.00   0.01    -0.02  -0.00   0.04
    65   1     0.05  -0.34   0.14    -0.00  -0.00  -0.01     0.01  -0.03   0.02
    66   1     0.09  -0.14   0.05     0.01  -0.01   0.00    -0.02   0.05  -0.04
    67   1     0.24   0.06   0.00     0.02   0.01   0.00    -0.09  -0.03  -0.01
    68   1    -0.02   0.11  -0.10    -0.00   0.00  -0.00    -0.00  -0.05   0.02
                    148                    149                    150
                      A                      A                      A
 Frequencies --   1473.8131              1477.7665              1480.6223
 Red. masses --      1.2849                 1.0799                 1.5748
 Frc consts  --      1.6443                 1.3894                 2.0341
 IR Inten    --      0.0000                 0.0000                 0.0000
  Atom  AN      X      Y      Z        X      Y      Z        X      Y      Z
     1  26     0.00   0.00   0.00    -0.00   0.00   0.00    -0.00  -0.00  -0.00
     2   6    -0.01   0.00  -0.00     0.00  -0.00   0.00     0.00  -0.00   0.00
     3  46    -0.00  -0.00  -0.00     0.00  -0.00   0.00    -0.00   0.00   0.00
     4   6    -0.01   0.00  -0.00    -0.01   0.00  -0.00     0.01  -0.05   0.02
     5   1    -0.00  -0.00  -0.00     0.00  -0.00   0.00     0.00   0.01  -0.00
     6   1    -0.00   0.00  -0.01     0.00  -0.00   0.00     0.00   0.00   0.00
     7   1    -0.01   0.01   0.00     0.01  -0.00  -0.00    -0.01   0.01   0.00
     8   6     0.08  -0.02  -0.03     0.00   0.00  -0.00    -0.04   0.01   0.01
     9   8    -0.00  -0.00   0.00     0.00   0.00  -0.00     0.00   0.00  -0.00
    10   6     0.01  -0.02   0.00     0.00  -0.03   0.00    -0.02   0.15  -0.02
    11   8    -0.04  -0.02   0.02    -0.00  -0.00   0.00     0.02   0.01  -0.01
    12   6     0.04   0.04   0.00     0.00   0.00   0.00    -0.03  -0.04  -0.00
    13   6    -0.02  -0.02  -0.00    -0.00  -0.01   0.00     0.01   0.04  -0.00
    14   6     0.00   0.02  -0.00     0.01   0.02  -0.00    -0.02  -0.11   0.01
    15   1    -0.04  -0.06   0.01    -0.00  -0.01   0.00     0.04   0.06  -0.01
    16   1    -0.01  -0.03  -0.00     0.01  -0.01   0.00    -0.01   0.05  -0.00
    17   1     0.00  -0.04   0.01     0.01  -0.02   0.00    -0.03   0.13  -0.02
    18   1    -0.34  -0.08  -0.08     0.00   0.00   0.00     0.16   0.03   0.03
    19   6    -0.01  -0.03  -0.01    -0.00   0.00  -0.00     0.02   0.00   0.01
    20   6    -0.00  -0.01   0.01     0.00   0.00   0.00     0.00   0.01  -0.00
    21   8     0.00   0.00  -0.00    -0.00  -0.00   0.00    -0.00  -0.00   0.00
    22   6     0.00   0.01  -0.00    -0.00  -0.00   0.00     0.01   0.00  -0.00
    23   6    -0.00  -0.00  -0.00     0.00   0.00  -0.00    -0.00  -0.01   0.00
    24   6    -0.01  -0.00  -0.00    -0.00   0.00  -0.00     0.00   0.00   0.00
    25   6     0.01   0.00  -0.00     0.00  -0.00  -0.00    -0.01   0.00   0.00
    26   6     0.00  -0.01   0.00     0.00   0.00  -0.00    -0.00   0.00  -0.00
    27   1    -0.01   0.01  -0.03     0.00  -0.00   0.00    -0.00   0.01   0.01
    28   7    -0.00   0.05  -0.00    -0.00   0.00  -0.00     0.00  -0.02   0.00
    29   1     0.01   0.02  -0.01    -0.01  -0.01  -0.00    -0.00  -0.01   0.01
    30   1     0.02   0.02  -0.01    -0.01  -0.01   0.00     0.13   0.01  -0.03
    31   1     0.01   0.02   0.01    -0.00   0.01  -0.00     0.08   0.04   0.07
    32   1     0.01   0.00  -0.01     0.00  -0.00  -0.00    -0.00   0.00   0.01
    33   7    -0.00   0.00  -0.00     0.00   0.02  -0.00    -0.00   0.00  -0.01
    34   6    -0.01  -0.01  -0.00    -0.00   0.01   0.02    -0.00  -0.00  -0.01
    35   6     0.00   0.01  -0.00     0.00   0.03  -0.02     0.00   0.01   0.00
    36   1     0.07   0.07   0.09    -0.11  -0.16  -0.02     0.05   0.05   0.07
    37   1     0.11  -0.04   0.00     0.04   0.14  -0.08     0.07  -0.05   0.02
    38   1    -0.04   0.03  -0.03     0.11  -0.17  -0.14    -0.03   0.03  -0.01
    39   1    -0.04  -0.07   0.04    -0.18  -0.32   0.11    -0.04  -0.08   0.03
    40   1     0.04  -0.04  -0.02     0.21  -0.26  -0.01     0.04  -0.05  -0.02
    41   1    -0.04   0.02   0.03    -0.05   0.14   0.12    -0.03   0.02   0.02
    42   6    -0.00  -0.00   0.00    -0.01  -0.01   0.00    -0.00  -0.00  -0.00
    43   6     0.00  -0.00  -0.00    -0.01  -0.05   0.01    -0.00  -0.01   0.00
    44   6    -0.00   0.00   0.00     0.02   0.00  -0.01     0.00  -0.00  -0.01
    45   6     0.00   0.00  -0.00    -0.01   0.01  -0.00    -0.01   0.01   0.00
    46   1    -0.00   0.01   0.00     0.02  -0.12  -0.12     0.02  -0.04  -0.02
    47   1    -0.01   0.01  -0.00    -0.06   0.37  -0.29    -0.02   0.10  -0.07
    48   1    -0.00   0.01   0.01     0.12   0.34   0.22     0.05   0.10   0.05
    49   1     0.02   0.01  -0.02    -0.16   0.01   0.09    -0.04  -0.03   0.05
    50   1     0.00  -0.00   0.01    -0.09  -0.07  -0.07     0.01   0.03  -0.03
    51   1    -0.00  -0.01  -0.02     0.05   0.01   0.08    -0.01   0.06   0.06
    52   1    -0.01   0.00   0.00    -0.03  -0.10  -0.05     0.00  -0.07  -0.04
    53   1     0.00   0.00   0.01     0.07   0.08   0.04     0.02   0.04  -0.01
    54   1     0.00  -0.00   0.00     0.13  -0.11   0.05     0.05  -0.06   0.03
    55   8    -0.02   0.01   0.00    -0.00  -0.00   0.00     0.01  -0.00  -0.00
    56   6     0.02   0.02   0.02    -0.00  -0.00  -0.01     0.02   0.02   0.03
    57   6    -0.01   0.00   0.02    -0.00  -0.00  -0.00     0.01   0.01   0.02
    58   6     0.00   0.00   0.03     0.00  -0.00  -0.00    -0.02   0.00   0.01
    59   6    -0.04  -0.01  -0.01    -0.00   0.00   0.00     0.03  -0.01  -0.00
    60   1    -0.16   0.17   0.00     0.03  -0.04   0.01    -0.20   0.24  -0.06
    61   1     0.07  -0.28  -0.01    -0.02   0.05   0.00     0.15  -0.30  -0.01
    62   1    -0.15  -0.15  -0.33     0.03   0.03   0.06    -0.20  -0.19  -0.41
    63   1    -0.07  -0.19  -0.02    -0.01   0.03   0.01     0.11  -0.17  -0.05
    64   1     0.11   0.01  -0.24    -0.02  -0.00   0.03     0.08   0.00  -0.20
    65   1    -0.04   0.16  -0.11    -0.00  -0.02  -0.00     0.05   0.11   0.08
    66   1     0.08  -0.22   0.18     0.01  -0.02   0.00    -0.17   0.24  -0.08
    67   1     0.41   0.11   0.05     0.02   0.01   0.00    -0.28  -0.09  -0.07
    68   1     0.01   0.23  -0.10    -0.01   0.00  -0.01     0.05  -0.04   0.13
                    151                    152                    153
                      A                      A                      A
 Frequencies --   1480.9241              1483.5498              1484.2868
 Red. masses --      1.8914                 1.0554                 1.0973
 Frc consts  --      2.4440                 1.3685                 1.4244
 IR Inten    --      0.0000                 0.0000                 0.0000
  Atom  AN      X      Y      Z        X      Y      Z        X      Y      Z
     1  26     0.00  -0.00  -0.00     0.00   0.00   0.00    -0.00   0.00   0.00
     2   6    -0.00   0.00  -0.00    -0.00   0.00  -0.01    -0.00  -0.00   0.00
     3  46    -0.00  -0.00  -0.00     0.00   0.00  -0.00     0.00  -0.00  -0.00
     4   6     0.01  -0.07   0.03     0.00  -0.00   0.00     0.01   0.02  -0.01
     5   1     0.00   0.00  -0.00     0.00  -0.00  -0.00    -0.00   0.00   0.00
     6   1    -0.00   0.00  -0.00     0.00   0.00   0.00     0.00   0.00   0.00
     7   1    -0.02   0.01   0.01     0.01   0.00  -0.00     0.00   0.00   0.00
     8   6     0.04  -0.01  -0.01     0.01  -0.00  -0.00    -0.00   0.00   0.00
     9   8    -0.00  -0.00   0.00    -0.00  -0.00   0.00     0.00   0.00  -0.00
    10   6    -0.01   0.20  -0.03    -0.00  -0.00  -0.00     0.00  -0.04   0.01
    11   8    -0.02  -0.01   0.01    -0.00  -0.00   0.00     0.00   0.00  -0.00
    12   6    -0.01  -0.01  -0.00     0.00   0.00   0.00     0.00   0.00   0.00
    13   6     0.00   0.04  -0.01    -0.00  -0.00  -0.00    -0.00  -0.01   0.00
    14   6    -0.03  -0.15   0.01     0.00   0.00  -0.00     0.01   0.03  -0.00
    15   1     0.01   0.03   0.01    -0.00  -0.00   0.00    -0.00  -0.01  -0.00
    16   1    -0.03   0.05  -0.01    -0.00  -0.00  -0.00     0.01  -0.01   0.00
    17   1    -0.05   0.15  -0.03     0.00  -0.00   0.00     0.01  -0.03   0.01
    18   1    -0.16  -0.05  -0.05    -0.01  -0.00  -0.00     0.02   0.01   0.01
    19   6     0.02  -0.02   0.01     0.00  -0.00   0.00    -0.01   0.00  -0.00
    20   6    -0.00  -0.01   0.00    -0.00  -0.00   0.00     0.00   0.00   0.00
    21   8     0.00   0.00   0.00     0.00  -0.00   0.00    -0.00   0.00   0.00
    22   6     0.01   0.01  -0.00    -0.00   0.00  -0.00    -0.00   0.00  -0.00
    23   6    -0.01  -0.01   0.00     0.00  -0.00   0.00    -0.00   0.00  -0.00
    24   6    -0.00   0.01  -0.00    -0.00   0.00  -0.00     0.00  -0.00   0.00
    25   6    -0.00  -0.00   0.00    -0.00   0.00   0.00     0.00   0.00  -0.00
    26   6    -0.00   0.00   0.00     0.00  -0.00   0.00     0.00  -0.00   0.00
    27   1    -0.01  -0.00  -0.01     0.00   0.00  -0.00     0.00   0.00   0.00
    28   7    -0.00   0.02  -0.00    -0.00   0.00  -0.00     0.00  -0.00   0.00
    29   1     0.00   0.00  -0.01     0.01   0.01   0.00    -0.00  -0.01  -0.00
    30   1     0.16   0.02  -0.04    -0.01  -0.02   0.01    -0.07  -0.02   0.03
    31   1     0.10   0.07   0.08     0.00   0.02  -0.01    -0.03  -0.01  -0.05
    32   1     0.00   0.00  -0.01    -0.00  -0.00  -0.00    -0.00   0.00   0.00
    33   7    -0.01  -0.00  -0.01    -0.01   0.01   0.00    -0.02  -0.01   0.01
    34   6    -0.02  -0.00  -0.01    -0.03   0.01   0.02    -0.03  -0.00   0.00
    35   6    -0.00   0.00   0.01    -0.02   0.02  -0.00    -0.02  -0.03   0.02
    36   1     0.12   0.11   0.21    -0.03  -0.12   0.21     0.13   0.12   0.23
    37   1     0.24  -0.09   0.01     0.36   0.13  -0.13     0.36  -0.02  -0.05
    38   1    -0.06   0.05  -0.09     0.10  -0.21  -0.34    -0.06   0.01  -0.22
    39   1    -0.01   0.02  -0.06    -0.15  -0.17  -0.16     0.17   0.37  -0.30
    40   1     0.01  -0.01   0.02     0.24  -0.28   0.15    -0.15   0.19   0.19
    41   1     0.06  -0.02  -0.02     0.28   0.10   0.02     0.34  -0.12  -0.16
    42   6    -0.00   0.00   0.00     0.00   0.00   0.00    -0.00  -0.00  -0.00
    43   6    -0.00  -0.01   0.00     0.01   0.02  -0.00    -0.01  -0.02  -0.00
    44   6     0.00   0.01   0.00    -0.02  -0.00   0.00     0.01   0.00  -0.00
    45   6    -0.00  -0.00  -0.00     0.01  -0.01  -0.00    -0.01   0.01   0.00
    46   1     0.02  -0.02   0.00    -0.09   0.09  -0.02     0.09  -0.08   0.04
    47   1    -0.02   0.06  -0.04     0.06  -0.17   0.11    -0.06   0.15  -0.10
    48   1     0.04   0.06   0.03    -0.14  -0.19  -0.08     0.16   0.19   0.07
    49   1    -0.04   0.03   0.00     0.14  -0.02  -0.07    -0.12   0.02   0.06
    50   1    -0.05  -0.06  -0.01     0.09   0.06   0.07    -0.08  -0.06  -0.06
    51   1     0.03  -0.05  -0.02    -0.04  -0.01  -0.07     0.04   0.00   0.05
    52   1    -0.01   0.01   0.01     0.01   0.13   0.08    -0.01  -0.11  -0.07
    53   1     0.01   0.01   0.02    -0.06  -0.09  -0.01     0.05   0.08   0.00
    54   1     0.02  -0.01  -0.00    -0.13   0.13  -0.07     0.10  -0.10   0.05
    55   8    -0.01   0.00   0.00    -0.00   0.00   0.00     0.00  -0.00  -0.00
    56   6    -0.01  -0.01  -0.03    -0.00   0.00   0.00     0.00  -0.00   0.00
    57   6    -0.01  -0.01  -0.01     0.00   0.00  -0.00     0.00   0.00   0.00
    58   6     0.02  -0.00  -0.00     0.00  -0.00  -0.00    -0.00   0.00  -0.00
    59   6    -0.03   0.01   0.00     0.01   0.00   0.00     0.00   0.00   0.00
    60   1     0.17  -0.20   0.07    -0.01   0.01  -0.00    -0.02   0.03  -0.02
    61   1    -0.13   0.24   0.01     0.01  -0.02  -0.00     0.02  -0.01  -0.00
    62   1     0.17   0.16   0.34    -0.01  -0.01  -0.03    -0.03  -0.02  -0.03
    63   1    -0.12   0.14   0.04    -0.00   0.03   0.00     0.02  -0.01  -0.00
    64   1    -0.04   0.00   0.15    -0.02  -0.00   0.04     0.00  -0.00  -0.01
    65   1    -0.05  -0.06  -0.10    -0.00  -0.03   0.00     0.01   0.00   0.02
    66   1     0.17  -0.24   0.09    -0.04   0.06  -0.04    -0.01   0.02  -0.02
    67   1     0.31   0.10   0.07    -0.11  -0.03  -0.01    -0.05  -0.01  -0.00
    68   1    -0.05   0.06  -0.14     0.01  -0.05   0.05    -0.00  -0.03   0.01
                    154                    155                    156
                      A                      A                      A
 Frequencies --   1486.0704              1488.4946              1491.8253
 Red. masses --      1.0732                 1.0885                 1.3398
 Frc consts  --      1.3964                 1.4210                 1.7568
 IR Inten    --      0.0000                 0.0000                 0.0000
  Atom  AN      X      Y      Z        X      Y      Z        X      Y      Z
     1  26     0.00   0.00   0.00    -0.00  -0.00  -0.00    -0.01  -0.00  -0.00
     2   6    -0.00  -0.00  -0.00     0.00  -0.00   0.00     0.01   0.00   0.00
     3  46    -0.00  -0.00   0.00     0.00   0.00   0.00     0.00   0.00   0.00
     4   6    -0.00  -0.00   0.00     0.00   0.00  -0.00     0.00   0.01  -0.00
     5   1    -0.00  -0.00   0.00    -0.01   0.00   0.00     0.01   0.00   0.00
     6   1    -0.00  -0.00  -0.00    -0.00  -0.00   0.00     0.01   0.00   0.00
     7   1    -0.00   0.00  -0.00    -0.00  -0.00   0.00     0.01  -0.00   0.00
     8   6     0.02  -0.01  -0.01    -0.03   0.01   0.01    -0.10   0.03   0.03
     9   8     0.00   0.00   0.00     0.00   0.00  -0.00    -0.00  -0.00  -0.00
    10   6     0.00   0.00   0.00    -0.00  -0.00  -0.00    -0.01  -0.02   0.00
    11   8    -0.01  -0.00   0.00     0.01   0.01  -0.01     0.04   0.02  -0.02
    12   6     0.00   0.01  -0.00    -0.01  -0.01  -0.00    -0.03  -0.04   0.00
    13   6    -0.00  -0.00  -0.00     0.00   0.01   0.00     0.01   0.01   0.00
    14   6    -0.00   0.00   0.00     0.00  -0.00  -0.00     0.01   0.01  -0.00
    15   1    -0.01  -0.01   0.01     0.02   0.03  -0.01     0.05   0.06  -0.02
    16   1    -0.01  -0.00  -0.00     0.01   0.01   0.00     0.02   0.01   0.00
    17   1    -0.00  -0.00   0.00     0.00   0.00  -0.00     0.01   0.01  -0.00
    18   1    -0.08  -0.02  -0.02     0.13   0.03   0.04     0.39   0.09   0.09
    19   6    -0.00  -0.01  -0.00     0.00   0.01   0.00     0.01   0.03   0.01
    20   6    -0.00  -0.00   0.00     0.00   0.01  -0.00     0.00   0.02  -0.01
    21   8     0.00   0.00  -0.00    -0.00  -0.00   0.00    -0.00  -0.00   0.00
    22   6     0.00  -0.00   0.00     0.00  -0.00   0.00    -0.01  -0.00   0.00
    23   6    -0.00   0.00  -0.00     0.00   0.01  -0.00     0.00  -0.00   0.00
    24   6    -0.00  -0.00   0.00     0.00  -0.01   0.00     0.00   0.01   0.00
    25   6     0.00   0.00  -0.00     0.00   0.01  -0.00    -0.01  -0.01   0.00
    26   6    -0.00  -0.00   0.00    -0.00  -0.00   0.00     0.00   0.00  -0.00
    27   1    -0.00  -0.00  -0.01    -0.01   0.01   0.01     0.01  -0.00   0.03
    28   7    -0.00   0.02  -0.00     0.00  -0.02   0.00     0.00  -0.07   0.01
    29   1     0.00   0.01  -0.00    -0.00  -0.01   0.01    -0.00  -0.01   0.02
    30   1     0.00   0.00  -0.00    -0.00  -0.01   0.00    -0.01  -0.02   0.01
    31   1     0.00   0.00  -0.00    -0.00  -0.00   0.00    -0.01  -0.02  -0.00
    32   1    -0.01  -0.01  -0.00    -0.05  -0.02   0.01     0.04   0.03   0.01
    33   7     0.00  -0.00   0.00    -0.00   0.00   0.00    -0.00   0.00   0.00
    34   6    -0.00  -0.00  -0.00    -0.00   0.00   0.00    -0.00  -0.00   0.00
    35   6    -0.00  -0.00   0.00    -0.00   0.00  -0.00    -0.00  -0.00   0.00
    36   1     0.00   0.01   0.00    -0.00  -0.01   0.01    -0.00  -0.01   0.01
    37   1     0.00  -0.01   0.00     0.03   0.01  -0.01     0.02   0.02  -0.01
    38   1    -0.00   0.01   0.00     0.01  -0.02  -0.03     0.00  -0.01  -0.03
    39   1     0.01   0.01  -0.01    -0.01  -0.01  -0.02    -0.00   0.01  -0.03
    40   1    -0.01   0.01   0.00     0.02  -0.03   0.02     0.01  -0.01   0.02
    41   1     0.01  -0.01  -0.00     0.04   0.01  -0.00     0.04   0.00  -0.01
    42   6    -0.00  -0.00  -0.00     0.00   0.00  -0.00     0.01  -0.00  -0.00
    43   6    -0.00   0.00  -0.00     0.00   0.00   0.00    -0.00  -0.00   0.00
    44   6     0.00  -0.01  -0.01     0.00   0.00   0.00     0.01   0.01   0.00
    45   6    -0.00   0.00   0.00     0.00  -0.00  -0.00     0.01  -0.02  -0.01
    46   1     0.01   0.00   0.02    -0.01   0.01  -0.00    -0.00  -0.02  -0.03
    47   1    -0.01  -0.02   0.02     0.01  -0.03   0.02     0.02   0.03  -0.03
    48   1     0.01  -0.01  -0.01    -0.02  -0.04  -0.02     0.00   0.02   0.01
    49   1    -0.02  -0.04   0.05    -0.04   0.01   0.01    -0.09   0.06   0.01
    50   1     0.04   0.06  -0.02    -0.03  -0.02  -0.02    -0.13  -0.13  -0.03
    51   1    -0.02   0.07   0.07     0.01  -0.01   0.01     0.07  -0.10  -0.03
    52   1     0.01  -0.05  -0.04    -0.00   0.03   0.02    -0.01   0.20   0.13
    53   1     0.01   0.03  -0.03    -0.00  -0.01   0.01    -0.06  -0.12   0.04
    54   1     0.02  -0.03   0.03    -0.01   0.02  -0.01    -0.13   0.16  -0.11
    55   8    -0.01   0.00   0.00     0.01  -0.00  -0.00     0.02  -0.01  -0.01
    56   6    -0.00   0.04  -0.03    -0.00  -0.02   0.00     0.01   0.03  -0.02
    57   6     0.00  -0.00  -0.01    -0.02  -0.01   0.00    -0.01   0.00   0.01
    58   6     0.00   0.00  -0.01    -0.03   0.03  -0.01     0.00  -0.01   0.02
    59   6     0.01  -0.05  -0.00    -0.02  -0.03  -0.00    -0.02   0.00   0.00
    60   1     0.03  -0.24   0.40     0.05   0.05  -0.20    -0.01  -0.15   0.32
    61   1    -0.26  -0.31  -0.02     0.08   0.27   0.02    -0.18  -0.30  -0.02
    62   1     0.21   0.08  -0.01    -0.06   0.02   0.15     0.13   0.03  -0.08
    63   1     0.02   0.06   0.01     0.40  -0.25  -0.10    -0.11  -0.07   0.01
    64   1    -0.07  -0.01   0.09    -0.10  -0.05  -0.21     0.17   0.03  -0.16
    65   1    -0.00  -0.10   0.02     0.18  -0.08   0.38    -0.04   0.24  -0.15
    66   1    -0.34   0.29   0.13    -0.11  -0.01   0.19     0.14  -0.19   0.04
    67   1     0.01  -0.08  -0.22     0.31   0.03  -0.11     0.25   0.07   0.03
    68   1     0.18   0.41   0.15     0.08   0.39  -0.06    -0.05   0.07  -0.16
                    157                    158                    159
                      A                      A                      A
 Frequencies --   1493.6868              1499.5715              1502.8437
 Red. masses --      1.0876                 1.0710                 1.0600
 Frc consts  --      1.4297                 1.4190                 1.4105
 IR Inten    --      0.0000                 0.0000                 0.0000
  Atom  AN      X      Y      Z        X      Y      Z        X      Y      Z
     1  26     0.00   0.00   0.00    -0.00  -0.00  -0.00     0.00   0.00   0.00
     2   6     0.00   0.00  -0.00     0.00  -0.00   0.00    -0.00   0.00  -0.00
     3  46    -0.00  -0.00   0.00     0.00   0.00   0.00    -0.00  -0.00   0.00
     4   6    -0.00  -0.00   0.00     0.00   0.00  -0.00    -0.00  -0.00   0.00
     5   1    -0.00  -0.00  -0.00     0.00   0.00   0.00     0.00  -0.00  -0.00
     6   1    -0.00  -0.00  -0.00     0.00   0.00   0.00     0.00   0.00  -0.00
     7   1    -0.01   0.00  -0.00     0.00  -0.00   0.00    -0.00   0.00  -0.00
     8   6     0.03  -0.01  -0.01    -0.02   0.01   0.01     0.01  -0.00  -0.00
     9   8    -0.00  -0.00   0.00     0.00   0.00  -0.00    -0.00  -0.00   0.00
    10   6     0.00   0.00   0.00    -0.00  -0.00   0.00     0.00   0.00   0.00
    11   8    -0.01  -0.01   0.01     0.01   0.00  -0.00    -0.00  -0.00   0.00
    12   6     0.01   0.01  -0.00    -0.00  -0.01   0.00     0.00   0.00  -0.00
    13   6    -0.00  -0.00  -0.00     0.00   0.00   0.00    -0.00  -0.00  -0.00
    14   6    -0.00  -0.00   0.00     0.00   0.00  -0.00    -0.00   0.00   0.00
    15   1    -0.02  -0.02   0.01     0.01   0.01  -0.00    -0.01  -0.01   0.00
    16   1    -0.01  -0.00  -0.00     0.00   0.00   0.00    -0.00  -0.00  -0.00
    17   1    -0.00  -0.00   0.00     0.00   0.00  -0.00    -0.00  -0.00   0.00
    18   1    -0.12  -0.03  -0.03     0.07   0.02   0.02    -0.04  -0.01  -0.01
    19   6    -0.00  -0.01  -0.00     0.00   0.01   0.00    -0.00  -0.00  -0.00
    20   6    -0.00  -0.00   0.00     0.00   0.00  -0.00    -0.00  -0.00  -0.00
    21   8    -0.00   0.00  -0.00    -0.00   0.00   0.00     0.00   0.00  -0.00
    22   6     0.00   0.00  -0.00    -0.00  -0.00  -0.00    -0.00   0.00  -0.00
    23   6    -0.00   0.00  -0.00     0.00   0.00   0.00    -0.00  -0.00  -0.00
    24   6    -0.00  -0.00   0.00     0.00   0.00   0.00    -0.00   0.00  -0.00
    25   6     0.00   0.00  -0.00    -0.00  -0.00  -0.00     0.00  -0.00   0.00
    26   6    -0.00  -0.00   0.00    -0.00   0.00  -0.00     0.00   0.00   0.00
    27   1    -0.00  -0.00  -0.01     0.00   0.00   0.01     0.00  -0.00  -0.00
    28   7    -0.00   0.02  -0.00     0.00  -0.01   0.00    -0.00   0.01   0.00
    29   1     0.01   0.01   0.00    -0.01   0.00  -0.01     0.03   0.02   0.02
    30   1     0.00   0.01  -0.00    -0.00  -0.00   0.00    -0.00   0.00  -0.00
    31   1     0.00   0.00  -0.00    -0.00  -0.00  -0.00    -0.00   0.00  -0.00
    32   1    -0.02  -0.01  -0.00     0.00   0.00   0.00     0.01   0.00  -0.00
    33   7     0.00  -0.00  -0.00    -0.00  -0.00   0.00     0.00  -0.00  -0.00
    34   6     0.00  -0.00  -0.00    -0.00  -0.00  -0.00     0.00  -0.00  -0.00
    35   6     0.00  -0.01   0.00    -0.00  -0.00   0.00     0.00  -0.00  -0.00
    36   1     0.02   0.04  -0.01     0.01   0.01   0.00     0.00   0.00  -0.00
    37   1    -0.02  -0.03   0.02     0.00  -0.00   0.00    -0.00  -0.00   0.00
    38   1    -0.03   0.05   0.04    -0.01   0.01   0.00    -0.00   0.00   0.00
    39   1     0.04   0.06   0.01     0.01   0.02  -0.01     0.00   0.00   0.00
    40   1    -0.06   0.07  -0.01    -0.01   0.02   0.00    -0.00   0.00   0.00
    41   1    -0.03  -0.03  -0.02     0.01  -0.01  -0.01     0.00   0.00   0.00
    42   6     0.00  -0.02   0.01    -0.01  -0.01   0.02     0.02  -0.01  -0.00
    43   6    -0.01  -0.03   0.01    -0.00  -0.02   0.00    -0.01   0.00   0.00
    44   6    -0.01   0.02   0.01    -0.04  -0.02   0.01     0.03  -0.02  -0.03
    45   6     0.03  -0.03  -0.01     0.02   0.02   0.03     0.03  -0.01   0.03
    46   1     0.06  -0.11  -0.05     0.02  -0.08  -0.07    -0.00  -0.00  -0.00
    47   1    -0.04   0.24  -0.18    -0.01   0.17  -0.14     0.02  -0.01  -0.00
    48   1     0.12   0.25   0.13     0.05   0.16   0.11    -0.00  -0.00  -0.00
    49   1     0.12   0.07  -0.12     0.41  -0.11  -0.17    -0.37  -0.08   0.29
    50   1    -0.06  -0.13   0.10     0.33   0.27   0.19    -0.07   0.07  -0.25
    51   1     0.05  -0.20  -0.19    -0.19   0.10  -0.14     0.03   0.27   0.38
    52   1    -0.02   0.40   0.26     0.22  -0.18  -0.21     0.22   0.08  -0.05
    53   1    -0.12  -0.24   0.08    -0.16  -0.00  -0.40    -0.25  -0.16  -0.35
    54   1    -0.27   0.32  -0.20    -0.21  -0.00   0.12    -0.37   0.20  -0.02
    55   8    -0.01   0.00   0.00     0.01  -0.00  -0.00    -0.00   0.00   0.00
    56   6    -0.00  -0.00   0.00    -0.00   0.00  -0.00    -0.00  -0.01   0.01
    57   6     0.01   0.00  -0.00    -0.01  -0.00  -0.00     0.00  -0.00   0.00
    58   6    -0.00   0.01  -0.01    -0.00   0.00   0.00     0.01  -0.00   0.00
    59   6     0.01  -0.01  -0.00    -0.01   0.00   0.00    -0.00  -0.00  -0.00
    60   1    -0.01   0.03  -0.04     0.02  -0.04   0.04     0.00   0.04  -0.09
    61   1     0.03   0.02   0.00    -0.03  -0.01  -0.00     0.05   0.08   0.01
    62   1    -0.02  -0.01  -0.01     0.03   0.02   0.02    -0.04  -0.01   0.02
    63   1     0.06   0.01  -0.01     0.02  -0.03  -0.01    -0.07   0.04   0.02
    64   1    -0.06  -0.01   0.04     0.01   0.00  -0.04     0.02   0.01   0.03
    65   1     0.02  -0.08   0.07     0.01   0.02   0.01    -0.03   0.01  -0.06
    66   1    -0.11   0.13  -0.02     0.05  -0.07   0.02    -0.01   0.00   0.01
    67   1    -0.12  -0.05  -0.05     0.09   0.03   0.02     0.00  -0.00  -0.00
    68   1     0.04   0.02   0.08    -0.02   0.01  -0.05     0.01   0.01   0.02
                    160                    161                    162
                      A                      A                      A
 Frequencies --   1507.0053              1512.0207              1699.4436
 Red. masses --      1.0842                 1.0598                 7.6485
 Frc consts  --      1.4507                 1.4275                13.0149
 IR Inten    --      0.0000                 0.0000                 0.0000
  Atom  AN      X      Y      Z        X      Y      Z        X      Y      Z
     1  26     0.00   0.00   0.00    -0.00  -0.00  -0.00     0.01   0.00   0.00
     2   6    -0.00   0.00  -0.00     0.00  -0.00  -0.00    -0.06  -0.04   0.07
     3  46    -0.00  -0.00   0.00    -0.00  -0.00  -0.00    -0.00   0.00  -0.00
     4   6    -0.00  -0.00   0.00     0.00   0.00  -0.00     0.00   0.00   0.00
     5   1    -0.01   0.00   0.00    -0.00   0.00   0.00    -0.00  -0.00  -0.00
     6   1    -0.00  -0.00  -0.00     0.00   0.00   0.00    -0.00  -0.00  -0.01
     7   1    -0.01   0.00   0.00    -0.00  -0.00  -0.00     0.01   0.00   0.00
     8   6     0.03  -0.01  -0.01    -0.01   0.00   0.00     0.12   0.57  -0.08
     9   8    -0.00  -0.00   0.00    -0.00  -0.00   0.00     0.03   0.03  -0.05
    10   6     0.00   0.01  -0.00    -0.00  -0.00   0.00     0.01   0.01   0.00
    11   8    -0.01  -0.01   0.01     0.00   0.00  -0.00    -0.10  -0.10   0.04
    12   6     0.01   0.01  -0.00    -0.00  -0.00   0.00     0.02   0.03  -0.01
    13   6    -0.00  -0.00  -0.00     0.00   0.00   0.00    -0.01  -0.01  -0.00
    14   6    -0.00  -0.00   0.00     0.00   0.00  -0.00    -0.00  -0.00   0.00
    15   1    -0.01  -0.02   0.00     0.00   0.00  -0.00    -0.06  -0.04   0.05
    16   1    -0.00  -0.00  -0.00     0.00   0.00   0.00    -0.02  -0.00  -0.00
    17   1    -0.00  -0.00   0.00     0.00   0.00  -0.00    -0.00  -0.01   0.01
    18   1    -0.12  -0.03  -0.02     0.01   0.00   0.00    -0.61   0.15  -0.02
    19   6    -0.00  -0.01  -0.00    -0.00   0.00   0.00     0.00  -0.02  -0.01
    20   6    -0.00  -0.00   0.00     0.00   0.01   0.00     0.03   0.04  -0.03
    21   8     0.00   0.00  -0.00    -0.00   0.00   0.00     0.02   0.00  -0.00
    22   6     0.00   0.00  -0.00    -0.00  -0.00   0.00     0.00   0.00  -0.00
    23   6    -0.00   0.00  -0.00     0.00  -0.00   0.00    -0.00  -0.00  -0.00
    24   6     0.00  -0.01   0.00     0.00   0.00   0.00    -0.00  -0.00  -0.00
    25   6     0.00   0.01  -0.00    -0.00   0.00  -0.00     0.00  -0.00   0.00
    26   6    -0.00  -0.00   0.00    -0.00  -0.00   0.00     0.00   0.00   0.00
    27   1    -0.01   0.01  -0.01    -0.00   0.00   0.00    -0.02   0.03  -0.03
    28   7    -0.00   0.02  -0.00     0.00  -0.00   0.00    -0.00  -0.41   0.04
    29   1     0.01   0.01  -0.00    -0.00  -0.00   0.01    -0.01  -0.05   0.03
    30   1     0.00   0.01  -0.00    -0.00  -0.00   0.00    -0.01   0.02  -0.01
    31   1     0.00   0.01   0.00    -0.00  -0.00  -0.00    -0.00  -0.00  -0.01
    32   1    -0.05  -0.03   0.01    -0.00  -0.00   0.00    -0.03  -0.03  -0.01
    33   7     0.00  -0.00  -0.00    -0.00  -0.00   0.00    -0.01  -0.00   0.00
    34   6     0.00   0.00  -0.00    -0.00  -0.00  -0.00    -0.00   0.00   0.00
    35   6     0.00   0.00   0.00    -0.00  -0.00   0.00    -0.00   0.00  -0.00
    36   1     0.00   0.00   0.00     0.00   0.01   0.00     0.00  -0.00  -0.00
    37   1    -0.00  -0.00   0.00     0.00  -0.00   0.00     0.00   0.00   0.00
    38   1    -0.00   0.00   0.01    -0.01   0.01  -0.00     0.00  -0.00   0.00
    39   1    -0.00  -0.00   0.01     0.01   0.02  -0.00     0.00  -0.00   0.00
    40   1    -0.00   0.00  -0.00    -0.02   0.02   0.01     0.00  -0.01   0.00
    41   1    -0.01   0.00   0.00     0.00  -0.01  -0.01     0.00   0.00  -0.00
    42   6     0.00  -0.00   0.00    -0.01  -0.02  -0.02     0.01   0.01  -0.00
    43   6     0.00   0.00  -0.00    -0.01  -0.00  -0.00     0.00   0.00   0.00
    44   6     0.01  -0.00  -0.01    -0.01  -0.04  -0.02     0.00  -0.00   0.00
    45   6     0.00  -0.00   0.00     0.00  -0.01  -0.03    -0.00  -0.00   0.00
    46   1    -0.01   0.01   0.00     0.08  -0.05   0.07    -0.01   0.00  -0.00
    47   1     0.01  -0.02   0.01    -0.07   0.06  -0.01     0.00  -0.00  -0.00
    48   1    -0.01  -0.02  -0.01     0.11   0.09   0.01    -0.01  -0.01  -0.00
    49   1    -0.08   0.00   0.05     0.09  -0.22   0.12     0.00   0.00  -0.01
    50   1    -0.04  -0.02  -0.04     0.32   0.40  -0.06    -0.00   0.01  -0.00
    51   1     0.02   0.02   0.06    -0.20   0.40   0.23    -0.01   0.00  -0.01
    52   1     0.03  -0.01  -0.02    -0.22   0.22   0.23     0.00   0.01   0.01
    53   1    -0.03  -0.01  -0.05     0.11  -0.06   0.37     0.00   0.00   0.00
    54   1    -0.04   0.02   0.01     0.13   0.07  -0.14     0.00   0.01  -0.01
    55   8    -0.01   0.00   0.00     0.00  -0.00  -0.00    -0.01  -0.02   0.01
    56   6     0.01   0.02  -0.02    -0.00   0.00  -0.00    -0.01  -0.00   0.00
    57   6    -0.01   0.03  -0.01    -0.00  -0.00  -0.00     0.03  -0.01  -0.01
    58   6    -0.03   0.02  -0.01    -0.00   0.00   0.00    -0.00   0.01  -0.00
    59   6     0.00   0.03   0.01    -0.01   0.01  -0.00    -0.00   0.00  -0.00
    60   1    -0.02  -0.12   0.29     0.01  -0.01   0.00    -0.00   0.00  -0.00
    61   1    -0.18  -0.25  -0.02    -0.01   0.01   0.00     0.00  -0.00   0.00
    62   1     0.13   0.03  -0.06     0.01   0.01   0.01     0.01  -0.00  -0.01
    63   1     0.40  -0.16  -0.09     0.01  -0.01  -0.00     0.01  -0.01  -0.00
    64   1    -0.16  -0.06  -0.10     0.00  -0.00  -0.01    -0.03  -0.01   0.02
    65   1     0.18  -0.16   0.39     0.01   0.00   0.01    -0.02  -0.10   0.00
    66   1     0.24  -0.16  -0.14     0.05  -0.06   0.01    -0.01   0.01   0.00
    67   1    -0.10   0.03   0.17     0.04   0.02   0.03    -0.03  -0.01   0.00
    68   1    -0.13  -0.35  -0.08    -0.02  -0.03  -0.03     0.02  -0.03   0.08
                    163                    164                    165
                      A                      A                      A
 Frequencies --   1721.9995              2807.3113              2838.4214
 Red. masses --     12.2147                 1.0700                 1.0701
 Frc consts  --     21.3402                 4.9686                 5.0797
 IR Inten    --      0.0000                 0.0000                 0.0000
  Atom  AN      X      Y      Z        X      Y      Z        X      Y      Z
     1  26    -0.00  -0.00  -0.00     0.00   0.00  -0.00     0.00  -0.00  -0.00
     2   6    -0.51  -0.32   0.54    -0.00  -0.00   0.00     0.00   0.00  -0.00
     3  46     0.00  -0.00   0.00     0.00   0.00   0.00    -0.00  -0.00   0.00
     4   6     0.00   0.00   0.00    -0.00   0.00   0.00    -0.06   0.03   0.04
     5   1     0.00   0.00   0.00     0.00   0.00   0.00    -0.00  -0.00  -0.00
     6   1     0.00   0.00   0.00     0.00  -0.00   0.00     0.00   0.00   0.00
     7   1     0.02   0.00   0.01    -0.00  -0.00  -0.00    -0.00  -0.00   0.00
     8   6    -0.03  -0.11   0.02    -0.00   0.00   0.00     0.00  -0.00  -0.00
     9   8     0.22   0.22  -0.35     0.00   0.00  -0.00    -0.00  -0.00   0.00
    10   6    -0.00  -0.00   0.00     0.00   0.00   0.00    -0.00   0.00   0.00
    11   8     0.02   0.02  -0.01     0.00  -0.00   0.00     0.00   0.00  -0.00
    12   6    -0.00  -0.00   0.00     0.00   0.00   0.00     0.00  -0.00  -0.00
    13   6     0.00  -0.00   0.00    -0.00  -0.00  -0.00    -0.00   0.00  -0.00
    14   6    -0.00   0.00  -0.00    -0.00   0.00  -0.00     0.00  -0.00   0.00
    15   1     0.01   0.01  -0.01    -0.00   0.00  -0.00    -0.00   0.00  -0.00
    16   1    -0.00   0.00  -0.00     0.00   0.00  -0.00     0.00   0.00   0.00
    17   1     0.00  -0.00  -0.00     0.00   0.00  -0.00    -0.00   0.00  -0.00
    18   1     0.11   0.01   0.02    -0.00   0.00  -0.00    -0.00  -0.00   0.00
    19   6     0.00   0.00   0.00    -0.00  -0.00   0.00     0.00  -0.00   0.00
    20   6     0.01   0.00  -0.01     0.00  -0.00  -0.00    -0.00   0.00   0.00
    21   8     0.15   0.01  -0.04     0.00   0.00  -0.00    -0.00   0.00  -0.00
    22   6    -0.00  -0.00  -0.00    -0.00   0.00  -0.00    -0.00   0.00  -0.00
    23   6     0.00  -0.00   0.00    -0.00   0.00  -0.00    -0.00   0.00  -0.00
    24   6    -0.00   0.00  -0.00    -0.00  -0.00   0.00    -0.00   0.00  -0.00
    25   6    -0.00  -0.00  -0.00     0.00  -0.00  -0.00     0.00  -0.00   0.00
    26   6    -0.00  -0.00  -0.00     0.00  -0.00  -0.00     0.00   0.00  -0.00
    27   1     0.00   0.00   0.01    -0.00  -0.00   0.00    -0.00  -0.00  -0.00
    28   7     0.00   0.10  -0.02     0.00  -0.00  -0.00    -0.00   0.00   0.00
    29   1     0.02  -0.07   0.13    -0.00   0.00   0.00     0.00  -0.00  -0.00
    30   1     0.00   0.00  -0.00    -0.00   0.00   0.00    -0.04   0.01  -0.01
    31   1     0.00   0.00  -0.00     0.01  -0.01  -0.01     0.79  -0.37  -0.46
    32   1     0.00   0.00   0.00    -0.00   0.00   0.00     0.00   0.00  -0.00
    33   7     0.00   0.00  -0.00    -0.00   0.00   0.00    -0.00  -0.00   0.00
    34   6    -0.00   0.00   0.00    -0.00  -0.00   0.00     0.00  -0.00  -0.00
    35   6    -0.00  -0.00  -0.00    -0.00   0.00  -0.00     0.01  -0.00  -0.00
    36   1    -0.00  -0.01   0.01     0.00  -0.00  -0.00    -0.04   0.03   0.01
    37   1     0.02  -0.01  -0.00    -0.00   0.00   0.00     0.00  -0.00  -0.00
    38   1     0.02  -0.03  -0.00     0.00   0.00   0.00    -0.00  -0.01   0.00
    39   1    -0.00  -0.01  -0.00     0.00  -0.00  -0.00    -0.06   0.03   0.01
    40   1     0.01  -0.01  -0.01     0.00   0.00  -0.00    -0.01  -0.01   0.00
    41   1    -0.00  -0.00  -0.00    -0.00  -0.00   0.00     0.00  -0.00   0.00
    42   6    -0.01  -0.01   0.00    -0.00  -0.00   0.00     0.00   0.00  -0.00
    43   6     0.01   0.00   0.00    -0.05  -0.05   0.03     0.00   0.00  -0.00
    44   6     0.00   0.00   0.00     0.00   0.00  -0.00    -0.00  -0.00  -0.00
    45   6    -0.00  -0.01  -0.00    -0.00   0.00   0.00    -0.00  -0.00  -0.00
    46   1    -0.03  -0.01  -0.04     0.67   0.61  -0.42    -0.01  -0.01   0.01
    47   1     0.01  -0.01  -0.00    -0.02  -0.02   0.03     0.00   0.00   0.00
    48   1    -0.05  -0.03   0.00    -0.02  -0.03   0.02     0.00  -0.00   0.00
    49   1     0.00  -0.01   0.01     0.00   0.00   0.00     0.00   0.00   0.00
    50   1    -0.00  -0.00  -0.00    -0.00   0.00   0.00     0.00  -0.00  -0.00
    51   1    -0.01   0.00  -0.01    -0.01  -0.01   0.00     0.00   0.00  -0.00
    52   1     0.05   0.13   0.04     0.00  -0.00   0.00    -0.00   0.00  -0.00
    53   1     0.01   0.00   0.02     0.00  -0.00  -0.00     0.00  -0.00  -0.00
    54   1    -0.00   0.05  -0.05    -0.00  -0.00  -0.00     0.00   0.00   0.00
    55   8     0.01  -0.00  -0.00     0.00  -0.00  -0.00    -0.00   0.00   0.00
    56   6     0.00   0.00  -0.00     0.00  -0.00  -0.00    -0.00   0.00  -0.00
    57   6    -0.01   0.00   0.00    -0.00  -0.00   0.00     0.00  -0.00   0.00
    58   6     0.00  -0.00   0.00     0.00  -0.00  -0.00    -0.00   0.00  -0.00
    59   6     0.00  -0.00   0.00     0.00  -0.00  -0.00    -0.00   0.00  -0.00
    60   1    -0.00  -0.00   0.00    -0.00   0.00   0.00     0.00   0.00   0.00
    61   1    -0.00  -0.00  -0.00     0.00  -0.00   0.00     0.00  -0.00  -0.00
    62   1    -0.00  -0.00  -0.00    -0.00  -0.00  -0.00     0.00  -0.00   0.00
    63   1    -0.01   0.00   0.00     0.00  -0.00   0.00     0.00  -0.00   0.00
    64   1     0.01   0.00  -0.00    -0.00   0.00  -0.00     0.00  -0.00   0.00
    65   1     0.00   0.03  -0.00     0.00   0.00  -0.00     0.00  -0.00  -0.00
    66   1     0.00  -0.00  -0.00    -0.00   0.00   0.00     0.00   0.00   0.00
    67   1     0.01   0.00  -0.00    -0.00   0.00  -0.00     0.00  -0.00   0.00
    68   1    -0.00   0.01  -0.02    -0.00   0.00   0.00     0.00  -0.00   0.00
                    166                    167                    168
                      A                      A                      A
 Frequencies --   2875.2507              2895.6214              2909.4772
 Red. masses --      1.0699                 1.0691                 1.0729
 Frc consts  --      5.2113                 5.2812                 5.3511
 IR Inten    --      0.0000                 0.0000                 0.0000
  Atom  AN      X      Y      Z        X      Y      Z        X      Y      Z
     1  26     0.00  -0.00   0.00     0.00  -0.00   0.00     0.00  -0.00  -0.00
     2   6     0.00   0.00  -0.00     0.00   0.00  -0.00    -0.00   0.00   0.00
     3  46     0.00  -0.00   0.00     0.00  -0.00  -0.00    -0.00  -0.00   0.00
     4   6    -0.00   0.00   0.00    -0.00   0.00   0.00     0.00  -0.00  -0.00
     5   1    -0.00  -0.00  -0.00    -0.00  -0.00  -0.00     0.00  -0.00   0.00
     6   1    -0.00  -0.00   0.00    -0.00   0.00   0.00    -0.00   0.00   0.00
     7   1    -0.00  -0.00   0.00    -0.00   0.00  -0.00     0.00   0.00   0.00
     8   6     0.00  -0.00  -0.00     0.00  -0.00   0.00    -0.00   0.00   0.00
     9   8    -0.00  -0.00   0.00    -0.00  -0.00   0.00     0.00   0.00  -0.00
    10   6    -0.00   0.00  -0.00    -0.00   0.00   0.00     0.00   0.00   0.00
    11   8     0.00   0.00  -0.00     0.00   0.00  -0.00     0.00  -0.00  -0.00
    12   6     0.00  -0.00  -0.00     0.00  -0.00  -0.00    -0.00   0.00  -0.00
    13   6    -0.00   0.00  -0.00    -0.00   0.00   0.00     0.00  -0.00  -0.00
    14   6     0.00  -0.00   0.00     0.00  -0.00   0.00     0.00   0.00   0.00
    15   1    -0.00   0.00   0.00    -0.00   0.00  -0.00     0.00  -0.00  -0.00
    16   1     0.00  -0.00   0.00     0.00   0.00   0.00     0.00   0.00  -0.00
    17   1    -0.00   0.00  -0.00    -0.00   0.00  -0.00     0.00  -0.00  -0.00
    18   1    -0.00  -0.00  -0.00    -0.00  -0.00   0.00     0.00   0.00   0.00
    19   6    -0.00  -0.00  -0.00    -0.00  -0.00  -0.00    -0.00   0.00  -0.00
    20   6    -0.00   0.00   0.00    -0.00   0.00   0.00    -0.06   0.04   0.03
    21   8    -0.00  -0.00   0.00    -0.00   0.00  -0.00     0.00  -0.00  -0.00
    22   6    -0.00   0.00  -0.00    -0.00  -0.00   0.00     0.00  -0.00  -0.00
    23   6    -0.00  -0.00  -0.00     0.00  -0.00   0.00     0.00  -0.00  -0.00
    24   6     0.00   0.00   0.00     0.00   0.00  -0.00     0.00   0.00  -0.00
    25   6    -0.00  -0.00   0.00    -0.00  -0.00   0.00     0.00  -0.00   0.00
    26   6     0.00  -0.00   0.00     0.00   0.00   0.00    -0.00  -0.00   0.00
    27   1    -0.00  -0.00  -0.00    -0.00  -0.00  -0.00     0.00   0.00  -0.00
    28   7    -0.00   0.00  -0.00    -0.00   0.00   0.00    -0.00  -0.00   0.00
    29   1     0.00  -0.00  -0.00     0.02  -0.01  -0.01     0.75  -0.46  -0.46
    30   1     0.00   0.00   0.01    -0.00  -0.00  -0.01     0.00  -0.00  -0.00
    31   1     0.05  -0.02  -0.03     0.05  -0.02  -0.03    -0.00   0.00   0.00
    32   1    -0.00   0.00  -0.00     0.00   0.00  -0.00    -0.00  -0.00   0.00
    33   7    -0.00   0.00   0.00    -0.00   0.00  -0.00     0.00  -0.00   0.00
    34   6     0.01  -0.01  -0.00    -0.06   0.04   0.02     0.00  -0.00  -0.00
    35   6    -0.06   0.04   0.01    -0.01   0.00   0.00     0.00  -0.00  -0.00
    36   1    -0.11   0.07   0.03     0.80  -0.54  -0.20    -0.02   0.01   0.00
    37   1     0.01   0.01   0.01    -0.04   0.00  -0.01     0.00  -0.00  -0.00
    38   1     0.00  -0.00  -0.00    -0.01   0.04   0.01     0.00  -0.00  -0.00
    39   1     0.81  -0.53  -0.19     0.10  -0.07  -0.03    -0.01   0.00   0.00
    40   1     0.00   0.05  -0.00     0.00   0.01  -0.00     0.00   0.00  -0.00
    41   1    -0.03  -0.01   0.03    -0.01   0.01  -0.01     0.00  -0.00   0.00
    42   6     0.00   0.00  -0.00    -0.00   0.00   0.00    -0.00   0.00   0.00
    43   6     0.00   0.00  -0.00     0.00   0.00  -0.00     0.00  -0.00   0.00
    44   6    -0.00  -0.00   0.00    -0.00  -0.00  -0.00     0.00  -0.00  -0.00
    45   6    -0.00  -0.00  -0.00    -0.00  -0.00  -0.00     0.00  -0.00  -0.00
    46   1    -0.00  -0.00   0.00    -0.00  -0.00   0.00     0.00   0.00  -0.00
    47   1     0.00   0.00   0.00     0.00   0.00   0.00    -0.00   0.00   0.00
    48   1     0.00  -0.00   0.00     0.00  -0.00   0.00    -0.00   0.00  -0.01
    49   1     0.00   0.00   0.00     0.00   0.00   0.00     0.00   0.00   0.01
    50   1     0.00  -0.00  -0.00     0.00  -0.00  -0.00    -0.01   0.01   0.01
    51   1     0.00   0.00  -0.00     0.00   0.00  -0.00    -0.00  -0.00  -0.00
    52   1    -0.00   0.00  -0.00     0.00   0.00  -0.00     0.00  -0.00   0.00
    53   1     0.00  -0.00  -0.00     0.00  -0.00  -0.00    -0.01   0.01   0.01
    54   1     0.00   0.00   0.00     0.00   0.00   0.00     0.00   0.01   0.01
    55   8    -0.00   0.00   0.00    -0.00   0.00   0.00     0.00  -0.00  -0.00
    56   6    -0.00   0.00  -0.00    -0.00   0.00  -0.00     0.00   0.00  -0.00
    57   6     0.00  -0.00   0.00     0.00  -0.00   0.00     0.00   0.00   0.00
    58   6    -0.00   0.00  -0.00    -0.00   0.00  -0.00    -0.00   0.00  -0.00
    59   6    -0.00   0.00  -0.00    -0.00   0.00  -0.00    -0.00   0.00   0.00
    60   1     0.00   0.00   0.00     0.00   0.00   0.00    -0.00  -0.00  -0.00
    61   1     0.00  -0.00  -0.00     0.00  -0.00  -0.00     0.00  -0.00   0.00
    62   1     0.00  -0.00   0.00     0.00  -0.00   0.00     0.00  -0.00   0.00
    63   1     0.00  -0.00  -0.00     0.00  -0.00   0.00     0.00  -0.00   0.00
    64   1     0.00  -0.00   0.00     0.00  -0.00   0.00     0.00  -0.00   0.00
    65   1    -0.00  -0.00   0.00    -0.00  -0.00   0.00     0.00   0.00  -0.00
    66   1     0.00   0.00   0.00     0.00   0.00   0.00    -0.00  -0.00  -0.00
    67   1     0.00  -0.00   0.00     0.00  -0.00   0.00     0.00  -0.00   0.00
    68   1     0.00  -0.00   0.00    -0.00  -0.00   0.00     0.00   0.00  -0.00
                    169                    170                    171
                      A                      A                      A
 Frequencies --   2980.8482              2991.7601              3004.8000
 Red. masses --      1.0786                 1.0648                 1.0748
 Frc consts  --      5.6465                 5.6154                 5.7175
 IR Inten    --      0.0000                 0.0000                 0.0000
  Atom  AN      X      Y      Z        X      Y      Z        X      Y      Z
     1  26    -0.00  -0.00   0.00     0.00   0.00   0.00    -0.00   0.00  -0.00
     2   6    -0.00  -0.00   0.00     0.00   0.00  -0.00     0.00   0.00  -0.00
     3  46     0.00   0.00  -0.00     0.00  -0.00  -0.00     0.00  -0.00  -0.00
     4   6     0.00  -0.00  -0.00    -0.00   0.00   0.00     0.00   0.00   0.00
     5   1     0.00   0.00  -0.00    -0.00  -0.00   0.00     0.00   0.00  -0.00
     6   1     0.00  -0.00   0.00    -0.00   0.00   0.00     0.00   0.00   0.00
     7   1     0.00  -0.00   0.00    -0.00  -0.00   0.00    -0.00  -0.00   0.00
     8   6    -0.00   0.00  -0.00     0.00   0.00  -0.00    -0.00  -0.00   0.00
     9   8     0.00  -0.00  -0.00    -0.00  -0.00   0.00    -0.00  -0.00   0.00
    10   6    -0.00  -0.00  -0.00    -0.00   0.00   0.00     0.00  -0.00   0.00
    11   8     0.00  -0.00   0.00     0.00   0.00  -0.00     0.00   0.00  -0.00
    12   6     0.00  -0.00   0.00     0.00   0.00  -0.00    -0.00   0.00  -0.00
    13   6    -0.00  -0.00  -0.00     0.00   0.00  -0.00     0.00   0.00   0.00
    14   6    -0.00  -0.00  -0.00     0.00   0.00   0.00    -0.00  -0.00  -0.00
    15   1    -0.00   0.00  -0.00     0.00  -0.00  -0.00     0.00  -0.00   0.00
    16   1     0.00   0.00  -0.00     0.00  -0.00  -0.00    -0.00  -0.00  -0.00
    17   1     0.00  -0.00  -0.00    -0.00   0.00  -0.00     0.00  -0.00   0.00
    18   1    -0.00   0.00  -0.00    -0.00  -0.00   0.00     0.00  -0.00  -0.00
    19   6    -0.00   0.00   0.00    -0.00   0.00  -0.00    -0.00   0.00   0.00
    20   6    -0.00   0.00   0.00     0.00  -0.00  -0.00     0.00  -0.00  -0.00
    21   8     0.00  -0.00  -0.00    -0.00   0.00   0.00     0.00  -0.00   0.00
    22   6     0.00   0.00  -0.00    -0.00   0.00   0.00    -0.00   0.00   0.00
    23   6    -0.00   0.00   0.00     0.00  -0.00   0.00     0.00   0.00   0.00
    24   6    -0.00  -0.00   0.00     0.00   0.00  -0.00     0.00   0.00   0.00
    25   6     0.00  -0.00   0.00    -0.00   0.00  -0.00    -0.00   0.00   0.00
    26   6     0.00   0.00  -0.00    -0.00  -0.00   0.00    -0.00  -0.00   0.00
    27   1    -0.00   0.00   0.00     0.00   0.00  -0.00     0.00   0.00  -0.00
    28   7     0.00   0.00  -0.00     0.00  -0.00  -0.00     0.00  -0.00  -0.00
    29   1     0.01  -0.00  -0.00    -0.00   0.00   0.00    -0.00   0.00   0.00
    30   1     0.00   0.00   0.00    -0.00  -0.00  -0.01    -0.01  -0.02  -0.04
    31   1    -0.00   0.00   0.00     0.01  -0.00  -0.00    -0.01   0.00   0.00
    32   1    -0.00   0.00   0.00     0.00  -0.00   0.00    -0.00   0.00   0.00
    33   7     0.00  -0.00  -0.00    -0.00  -0.00  -0.00    -0.00   0.00  -0.00
    34   6    -0.00  -0.00   0.00     0.00   0.00   0.00    -0.00  -0.00   0.00
    35   6    -0.00   0.00  -0.00    -0.06  -0.04   0.00    -0.00   0.05  -0.06
    36   1    -0.00   0.00   0.00    -0.00   0.00   0.00     0.01  -0.01  -0.00
    37   1    -0.00   0.00   0.00    -0.00  -0.02  -0.03    -0.00   0.00   0.01
    38   1     0.02   0.01  -0.00    -0.04  -0.03   0.01     0.05   0.04  -0.01
    39   1    -0.01   0.00   0.00    -0.07   0.01   0.02    -0.02   0.04  -0.02
    40   1     0.00   0.00  -0.00     0.77   0.61  -0.09    -0.08  -0.03  -0.01
    41   1     0.00  -0.01   0.01    -0.01  -0.08   0.08     0.16  -0.64   0.74
    42   6    -0.00   0.00  -0.00     0.00  -0.00  -0.00    -0.00  -0.00   0.00
    43   6    -0.04   0.04  -0.06    -0.00  -0.00  -0.00     0.00   0.00   0.00
    44   6    -0.00   0.00   0.00    -0.00   0.00   0.00    -0.00  -0.00   0.00
    45   6     0.00  -0.00   0.00    -0.00   0.00   0.00    -0.00   0.00   0.00
    46   1    -0.02   0.00  -0.02    -0.00  -0.00   0.00     0.00  -0.00   0.00
    47   1     0.04   0.10   0.07     0.02   0.03   0.03    -0.01  -0.02  -0.02
    48   1     0.41  -0.57   0.69    -0.01   0.01  -0.01    -0.00   0.01  -0.01
    49   1    -0.01  -0.02  -0.02    -0.00  -0.00  -0.00     0.00   0.00   0.00
    50   1     0.01  -0.01  -0.01     0.00  -0.00  -0.00     0.00  -0.00  -0.00
    51   1     0.02   0.02  -0.01     0.00   0.00  -0.00     0.01   0.01  -0.01
    52   1    -0.01   0.01  -0.02     0.00  -0.00   0.00    -0.00  -0.00   0.00
    53   1    -0.01   0.01   0.01     0.00  -0.00  -0.00     0.00  -0.00  -0.00
    54   1     0.00   0.01   0.01    -0.00  -0.00  -0.00    -0.00  -0.00   0.00
    55   8     0.00  -0.00  -0.00    -0.00   0.00   0.00    -0.00   0.00  -0.00
    56   6     0.00   0.00   0.00    -0.00  -0.00  -0.00     0.00  -0.00   0.00
    57   6    -0.00   0.00  -0.00     0.00  -0.00  -0.00    -0.00  -0.00  -0.00
    58   6     0.00  -0.00   0.00     0.00   0.00  -0.00     0.00  -0.00   0.00
    59   6     0.00   0.00   0.00     0.00  -0.00  -0.00    -0.00  -0.00  -0.00
    60   1    -0.00  -0.00  -0.00     0.00   0.00   0.00     0.00   0.00   0.00
    61   1    -0.00   0.00  -0.00    -0.00  -0.00   0.00    -0.00   0.00  -0.00
    62   1    -0.00   0.00  -0.00     0.00  -0.00   0.00    -0.00   0.00  -0.00
    63   1    -0.00   0.00  -0.00    -0.00   0.00  -0.00    -0.00   0.00  -0.00
    64   1    -0.00   0.00  -0.00     0.00  -0.00   0.00    -0.00   0.00  -0.00
    65   1     0.00  -0.00  -0.00    -0.00   0.00   0.00    -0.00   0.00   0.00
    66   1    -0.00  -0.00  -0.00     0.00   0.00   0.00     0.00   0.00   0.00
    67   1     0.00  -0.00   0.00     0.00  -0.00   0.00     0.00  -0.00   0.00
    68   1     0.00  -0.00  -0.00    -0.00   0.00   0.00    -0.00  -0.00   0.00
                    172                    173                    174
                      A                      A                      A
 Frequencies --   3007.9318              3009.5762              3016.2698
 Red. masses --      1.0658                 1.0864                 1.0758
 Frc consts  --      5.6814                 5.7974                 5.7666
 IR Inten    --      0.0000                 0.0000                 0.0000
  Atom  AN      X      Y      Z        X      Y      Z        X      Y      Z
     1  26    -0.00  -0.00   0.00    -0.00  -0.00  -0.00    -0.00  -0.00  -0.00
     2   6    -0.00  -0.00   0.00    -0.00  -0.00   0.00     0.00   0.00  -0.00
     3  46    -0.00  -0.00  -0.00     0.00  -0.00   0.00     0.00  -0.00   0.00
     4   6     0.00   0.00   0.00    -0.00  -0.00  -0.00    -0.00  -0.00  -0.00
     5   1     0.00   0.00  -0.00    -0.00  -0.00   0.00     0.00   0.00  -0.00
     6   1     0.00   0.00   0.00    -0.00  -0.00  -0.00     0.00  -0.00  -0.00
     7   1     0.00   0.00   0.00    -0.00   0.00  -0.00     0.00   0.00  -0.00
     8   6    -0.00   0.00   0.00     0.00  -0.00   0.00    -0.00   0.00  -0.00
     9   8     0.00   0.00  -0.00     0.00   0.00  -0.00    -0.00  -0.00   0.00
    10   6     0.00   0.00   0.00     0.00   0.00  -0.00     0.00   0.00  -0.00
    11   8    -0.00  -0.00   0.00    -0.00   0.00  -0.00    -0.00  -0.00   0.00
    12   6    -0.00   0.00   0.00     0.00   0.00   0.00     0.00   0.00   0.00
    13   6    -0.00  -0.00   0.00     0.00  -0.00   0.00    -0.00  -0.00   0.00
    14   6    -0.00  -0.00  -0.00    -0.00   0.00  -0.00    -0.00  -0.00  -0.00
    15   1     0.00  -0.00   0.00    -0.00   0.00  -0.00    -0.00   0.00  -0.00
    16   1     0.00   0.00  -0.00     0.00   0.00  -0.00     0.00   0.00   0.00
    17   1     0.00  -0.00   0.00     0.00   0.00   0.00     0.00   0.00   0.00
    18   1     0.00   0.00   0.00     0.00  -0.00   0.00     0.00   0.00   0.00
    19   6     0.00   0.00   0.00    -0.00  -0.00  -0.00     0.00  -0.00   0.00
    20   6     0.00   0.00   0.00    -0.00   0.00  -0.00     0.00  -0.00   0.00
    21   8     0.00  -0.00  -0.00     0.00   0.00  -0.00    -0.00   0.00   0.00
    22   6     0.00  -0.00  -0.00     0.00  -0.00   0.00     0.00  -0.00  -0.00
    23   6    -0.00   0.00  -0.00    -0.00   0.00  -0.00    -0.00   0.00  -0.00
    24   6    -0.00  -0.00   0.00    -0.00  -0.00  -0.00    -0.00  -0.00   0.00
    25   6     0.00  -0.00  -0.00     0.00   0.00  -0.00     0.00   0.00  -0.00
    26   6    -0.00   0.00  -0.00     0.00   0.00  -0.00     0.00   0.00  -0.00
    27   1     0.00   0.00   0.00     0.00  -0.00   0.00    -0.00   0.00   0.00
    28   7     0.00   0.00  -0.00     0.00   0.00  -0.00    -0.00  -0.00  -0.00
    29   1     0.00  -0.00  -0.00     0.00  -0.00   0.00    -0.00   0.00   0.00
    30   1    -0.00  -0.00  -0.01     0.00   0.00   0.01     0.00   0.00   0.00
    31   1    -0.00   0.00   0.00    -0.00  -0.00  -0.00    -0.00   0.00   0.00
    32   1    -0.00   0.00  -0.00     0.00  -0.00   0.00    -0.00  -0.00   0.00
    33   7     0.00   0.00   0.00    -0.00  -0.00   0.00     0.00   0.00   0.00
    34   6     0.00   0.00   0.00     0.00   0.00  -0.00     0.00   0.00   0.00
    35   6     0.00   0.00  -0.00    -0.00  -0.00   0.00     0.00   0.00   0.00
    36   1    -0.00   0.00   0.00    -0.00   0.00  -0.00    -0.00   0.00   0.00
    37   1    -0.00  -0.00  -0.00     0.00   0.00   0.00    -0.00  -0.00  -0.00
    38   1     0.00   0.00  -0.00    -0.00  -0.00   0.00    -0.00  -0.00   0.00
    39   1     0.00   0.00  -0.00    -0.00   0.00   0.00    -0.00   0.00   0.00
    40   1    -0.04  -0.03   0.00     0.01   0.01  -0.00    -0.00  -0.00   0.00
    41   1     0.00  -0.01   0.01    -0.00   0.01  -0.01     0.00   0.00  -0.00
    42   6    -0.00  -0.00  -0.00    -0.00  -0.00   0.00    -0.00  -0.00  -0.00
    43   6    -0.02  -0.05  -0.04     0.00   0.01   0.01    -0.00  -0.01  -0.00
    44   6    -0.01   0.00   0.01    -0.06  -0.05   0.02    -0.01   0.02   0.04
    45   6     0.00   0.02   0.01     0.01   0.00   0.01    -0.01  -0.04  -0.04
    46   1    -0.02  -0.02  -0.02     0.01   0.01  -0.00     0.01   0.00  -0.00
    47   1     0.36   0.53   0.65    -0.07  -0.11  -0.13     0.04   0.05   0.07
    48   1    -0.07   0.06  -0.12     0.01  -0.00   0.01    -0.02   0.03  -0.04
    49   1    -0.06  -0.07  -0.08     0.11   0.17   0.24    -0.24  -0.31  -0.35
    50   1     0.05  -0.05  -0.03     0.04  -0.08  -0.04     0.13  -0.10  -0.06
    51   1     0.13   0.11  -0.08     0.63   0.52  -0.41     0.19   0.17  -0.10
    52   1     0.01   0.00   0.02    -0.01   0.01  -0.01     0.01  -0.03  -0.00
    53   1     0.05  -0.03  -0.01    -0.05   0.04   0.02    -0.11   0.06   0.02
    54   1    -0.09  -0.18  -0.18    -0.04  -0.08  -0.08     0.24   0.51   0.51
    55   8     0.00  -0.00  -0.00    -0.00   0.00  -0.00     0.00  -0.00  -0.00
    56   6     0.00  -0.00  -0.00    -0.00  -0.00  -0.00     0.00   0.00  -0.00
    57   6    -0.00   0.00   0.00     0.00   0.00   0.00     0.00   0.00   0.00
    58   6     0.00  -0.00   0.00     0.00  -0.00  -0.00    -0.00  -0.00   0.00
    59   6     0.00   0.00   0.00     0.00  -0.00   0.00     0.00   0.00   0.00
    60   1    -0.00  -0.00  -0.00     0.00   0.00   0.00    -0.00  -0.00  -0.00
    61   1     0.00  -0.00   0.00    -0.00  -0.00   0.00     0.00  -0.00   0.00
    62   1    -0.00   0.00  -0.00    -0.00   0.00  -0.00    -0.00   0.00  -0.00
    63   1    -0.00   0.00  -0.00     0.00  -0.00   0.00     0.00  -0.00   0.00
    64   1    -0.00   0.00  -0.00    -0.00   0.00  -0.00    -0.00   0.00  -0.00
    65   1     0.00  -0.00  -0.00    -0.00   0.00   0.00     0.00  -0.00  -0.00
    66   1    -0.00  -0.00  -0.00    -0.00  -0.00  -0.00    -0.01  -0.01  -0.00
    67   1    -0.00   0.00  -0.00    -0.00   0.01  -0.00    -0.00   0.00  -0.00
    68   1     0.00  -0.00  -0.00    -0.01   0.00   0.00     0.00  -0.00  -0.00
                    175                    176                    177
                      A                      A                      A
 Frequencies --   3022.0460              3023.0724              3028.9489
 Red. masses --      1.0766                 1.0795                 1.0790
 Frc consts  --      5.7932                 5.8127                 5.8326
 IR Inten    --      0.0000                 0.0000                 0.0000
  Atom  AN      X      Y      Z        X      Y      Z        X      Y      Z
     1  26    -0.00   0.00   0.00    -0.00  -0.00  -0.00     0.00  -0.00  -0.00
     2   6     0.00  -0.00   0.00    -0.00  -0.00   0.00     0.00   0.00  -0.00
     3  46     0.00  -0.00  -0.00    -0.00   0.00   0.00    -0.00  -0.00   0.00
     4   6     0.00   0.00   0.00    -0.01  -0.02  -0.05    -0.01  -0.01  -0.04
     5   1     0.00   0.00  -0.00    -0.00  -0.00   0.00    -0.00  -0.00   0.00
     6   1     0.00   0.00   0.00     0.00  -0.01  -0.00     0.00  -0.01  -0.00
     7   1     0.00   0.00   0.00     0.00  -0.01   0.00     0.00   0.00  -0.00
     8   6     0.00   0.00  -0.00     0.00   0.00  -0.00     0.00   0.00  -0.00
     9   8    -0.00   0.00  -0.00     0.00   0.00  -0.00    -0.00  -0.00   0.00
    10   6     0.00  -0.00   0.00    -0.00   0.00  -0.00    -0.00   0.00  -0.00
    11   8    -0.00  -0.00   0.00    -0.00  -0.00   0.00    -0.00  -0.00  -0.00
    12   6    -0.00  -0.00   0.00    -0.00  -0.00   0.00    -0.00  -0.00  -0.00
    13   6    -0.00  -0.00   0.00     0.00   0.00  -0.00    -0.00   0.00  -0.00
    14   6    -0.00  -0.00  -0.00     0.00  -0.00   0.00     0.00   0.00   0.00
    15   1     0.00  -0.00  -0.00    -0.00   0.00  -0.00    -0.00   0.00  -0.00
    16   1    -0.00  -0.00  -0.00     0.00   0.00  -0.00     0.00   0.00  -0.00
    17   1     0.00   0.00   0.00    -0.01  -0.00  -0.00    -0.01  -0.00  -0.00
    18   1     0.00  -0.00  -0.00    -0.00   0.00  -0.00    -0.00   0.00  -0.00
    19   6     0.00   0.00   0.00     0.00   0.00  -0.00     0.00   0.00  -0.00
    20   6     0.00  -0.00  -0.00     0.00   0.00   0.00     0.00  -0.00  -0.00
    21   8    -0.00   0.00   0.00    -0.00  -0.00  -0.00    -0.00   0.00   0.00
    22   6    -0.00  -0.00   0.00     0.00   0.00  -0.00     0.00  -0.00  -0.00
    23   6    -0.00   0.00   0.00    -0.00  -0.00  -0.00    -0.00  -0.00  -0.00
    24   6    -0.00  -0.00   0.00    -0.00   0.00   0.00    -0.00   0.00   0.00
    25   6     0.00  -0.00  -0.00    -0.00   0.00  -0.00    -0.00   0.00  -0.00
    26   6     0.00  -0.00  -0.00    -0.00  -0.00   0.00    -0.00   0.00   0.00
    27   1    -0.00   0.00   0.00     0.00   0.00  -0.00     0.00   0.00  -0.00
    28   7     0.00  -0.00   0.00    -0.00  -0.00  -0.00     0.00  -0.00   0.00
    29   1    -0.01   0.01   0.01     0.00  -0.00  -0.00    -0.00   0.00   0.00
    30   1    -0.01  -0.01  -0.03     0.18   0.25   0.69     0.15   0.21   0.57
    31   1    -0.00   0.00   0.00     0.01  -0.01  -0.03     0.02  -0.01  -0.03
    32   1    -0.00   0.00  -0.00     0.00  -0.00   0.00     0.00  -0.00   0.00
    33   7     0.00   0.00   0.00     0.00   0.00  -0.00    -0.00  -0.00  -0.00
    34   6    -0.00   0.00   0.00     0.03   0.04   0.03    -0.05  -0.05  -0.01
    35   6     0.00   0.00  -0.00     0.00   0.00  -0.00    -0.00  -0.00   0.00
    36   1    -0.00   0.00   0.00     0.02   0.02   0.01    -0.03  -0.02  -0.01
    37   1    -0.00  -0.01  -0.01    -0.06  -0.25  -0.42     0.03   0.16   0.29
    38   1     0.00   0.00  -0.00    -0.34  -0.25   0.07     0.55   0.42  -0.10
    39   1    -0.00   0.00   0.00     0.00   0.00  -0.00    -0.01   0.01   0.00
    40   1    -0.01  -0.00   0.00    -0.03  -0.02  -0.00     0.04   0.03  -0.00
    41   1     0.00  -0.00   0.00     0.01  -0.04   0.05    -0.00   0.00  -0.01
    42   6    -0.00  -0.00  -0.00     0.00  -0.00  -0.00    -0.00  -0.00  -0.00
    43   6    -0.01  -0.01  -0.01    -0.00  -0.00  -0.00     0.00  -0.00   0.00
    44   6    -0.01  -0.04  -0.05     0.00  -0.00  -0.00    -0.00  -0.00  -0.00
    45   6    -0.01  -0.03  -0.03    -0.00  -0.00  -0.00    -0.00  -0.00  -0.00
    46   1    -0.01  -0.01  -0.01    -0.00  -0.00   0.00    -0.00  -0.00   0.00
    47   1     0.12   0.18   0.21     0.00   0.00   0.01     0.00   0.01   0.01
    48   1    -0.01   0.01  -0.02     0.00  -0.00   0.00    -0.01   0.01  -0.01
    49   1     0.32   0.43   0.50     0.01   0.01   0.01     0.01   0.01   0.01
    50   1    -0.17   0.12   0.08    -0.01   0.01   0.00     0.00  -0.00  -0.00
    51   1    -0.08  -0.08   0.02    -0.00  -0.00   0.00    -0.00  -0.00   0.00
    52   1    -0.01  -0.01  -0.02    -0.00   0.00  -0.00     0.00  -0.00   0.00
    53   1    -0.08   0.04   0.01    -0.00  -0.00  -0.00     0.01  -0.01  -0.00
    54   1     0.17   0.36   0.36     0.00   0.00   0.00     0.00   0.01   0.01
    55   8    -0.00  -0.00  -0.00     0.00  -0.00  -0.00    -0.00  -0.00   0.00
    56   6    -0.00  -0.00   0.00    -0.00  -0.00   0.00    -0.00   0.00   0.00
    57   6    -0.00   0.00  -0.00     0.00  -0.00  -0.00     0.00  -0.00  -0.00
    58   6     0.00  -0.00   0.00     0.00   0.00   0.00     0.00   0.00   0.00
    59   6    -0.00  -0.00  -0.00     0.00  -0.00  -0.00     0.00  -0.00  -0.00
    60   1     0.00   0.00   0.00     0.00   0.00   0.00     0.00   0.00   0.00
    61   1    -0.00   0.00  -0.00    -0.00   0.00  -0.00    -0.00   0.00  -0.00
    62   1    -0.00   0.01  -0.00     0.00  -0.00   0.00     0.00  -0.00   0.00
    63   1    -0.00   0.00  -0.00    -0.00   0.00  -0.00    -0.00   0.00  -0.01
    64   1    -0.00   0.01  -0.00     0.00  -0.00   0.00     0.00  -0.00   0.00
    65   1    -0.00  -0.00   0.00    -0.00   0.00   0.00    -0.01   0.00   0.00
    66   1     0.02   0.02   0.01     0.00   0.00   0.00     0.00   0.00   0.00
    67   1    -0.00   0.01  -0.00     0.00  -0.00   0.00     0.00  -0.00   0.00
    68   1    -0.01   0.00   0.00    -0.00   0.00   0.00    -0.00   0.00   0.00
                    178                    179                    180
                      A                      A                      A
 Frequencies --   3029.5449              3033.0917              3035.1093
 Red. masses --      1.0583                 1.0491                 1.0644
 Frc consts  --      5.7230                 5.6865                 5.7773
 IR Inten    --      0.0000                 0.0000                 0.0000
  Atom  AN      X      Y      Z        X      Y      Z        X      Y      Z
     1  26     0.00  -0.00   0.00    -0.00  -0.00  -0.00    -0.00  -0.00   0.00
     2   6     0.00   0.00  -0.00    -0.00  -0.00   0.00    -0.00  -0.00   0.00
     3  46    -0.00  -0.00  -0.00    -0.00   0.00  -0.00     0.00   0.00   0.00
     4   6    -0.00  -0.00  -0.00    -0.00  -0.00  -0.01     0.00   0.00   0.00
     5   1    -0.00  -0.00   0.00    -0.00  -0.00   0.00     0.00   0.00   0.00
     6   1    -0.00  -0.00  -0.00     0.00  -0.00  -0.00    -0.00   0.00   0.00
     7   1     0.00   0.00  -0.00     0.00   0.01  -0.00    -0.00   0.00   0.00
     8   6    -0.00   0.00  -0.00     0.00  -0.00  -0.00    -0.00   0.00  -0.00
     9   8    -0.00  -0.00   0.00     0.00   0.00  -0.00     0.00  -0.00  -0.00
    10   6     0.00   0.00  -0.00    -0.00   0.00  -0.00     0.00   0.00   0.00
    11   8     0.00  -0.00   0.00    -0.00  -0.00  -0.00     0.00  -0.00  -0.00
    12   6    -0.00   0.00  -0.00     0.00  -0.00   0.00    -0.00   0.00   0.00
    13   6    -0.00   0.00  -0.00    -0.00  -0.00  -0.00    -0.00  -0.00  -0.00
    14   6     0.00   0.00   0.00     0.00  -0.00   0.00    -0.00   0.00  -0.00
    15   1     0.00  -0.00   0.00    -0.00   0.00  -0.00    -0.00  -0.00  -0.00
    16   1    -0.00   0.00  -0.00    -0.00   0.00   0.00     0.00   0.00  -0.00
    17   1    -0.00  -0.00  -0.00    -0.00  -0.00  -0.00     0.00   0.00   0.00
    18   1    -0.00   0.00   0.00     0.00   0.00  -0.00    -0.00   0.00   0.00
    19   6    -0.00  -0.00  -0.00     0.00   0.00   0.00    -0.00  -0.00   0.00
    20   6    -0.00   0.00   0.00    -0.00   0.00   0.00    -0.00   0.00   0.00
    21   8    -0.00  -0.00   0.00     0.00  -0.00   0.00     0.00  -0.00  -0.00
    22   6     0.00  -0.00   0.00     0.00  -0.00   0.00    -0.00   0.00  -0.00
    23   6     0.00  -0.00  -0.00    -0.00  -0.00  -0.00     0.00   0.00  -0.00
    24   6     0.00   0.00  -0.00    -0.00   0.00   0.00    -0.00  -0.00  -0.00
    25   6    -0.00  -0.00   0.00    -0.00   0.00  -0.00     0.00  -0.00   0.00
    26   6    -0.00   0.00   0.00    -0.00   0.00   0.00    -0.00   0.00  -0.00
    27   1     0.00   0.00  -0.00     0.00   0.00   0.00    -0.00   0.00  -0.00
    28   7    -0.00  -0.00   0.00    -0.00   0.00  -0.00    -0.00  -0.00   0.00
    29   1     0.00  -0.00  -0.00     0.00  -0.00  -0.00     0.02  -0.01  -0.01
    30   1     0.00   0.00   0.00     0.05   0.07   0.18    -0.00  -0.00  -0.01
    31   1     0.00  -0.00  -0.00     0.00  -0.00  -0.01    -0.00   0.00   0.00
    32   1    -0.00  -0.00  -0.00     0.00  -0.00   0.00    -0.00   0.00   0.00
    33   7    -0.00  -0.00   0.00    -0.00   0.00  -0.00     0.00   0.00   0.00
    34   6    -0.00   0.00   0.00     0.02  -0.00  -0.05     0.00   0.00   0.00
    35   6     0.00   0.00   0.00     0.00   0.00  -0.00     0.00  -0.00   0.00
    36   1    -0.00   0.00   0.00     0.04  -0.03  -0.03    -0.00   0.00   0.00
    37   1    -0.00  -0.00  -0.00     0.13   0.42   0.66    -0.00  -0.01  -0.02
    38   1     0.00   0.00  -0.00    -0.44  -0.35   0.05     0.00   0.00   0.00
    39   1     0.00   0.00  -0.00    -0.01   0.01   0.00    -0.00   0.00   0.00
    40   1    -0.00  -0.00   0.00    -0.00  -0.00  -0.00    -0.00  -0.00   0.00
    41   1    -0.00   0.00  -0.00     0.01  -0.02   0.02    -0.00   0.00  -0.00
    42   6     0.00   0.00  -0.00    -0.00  -0.00  -0.00    -0.00   0.00   0.00
    43   6     0.00  -0.00  -0.00    -0.00  -0.00  -0.00     0.00   0.00   0.00
    44   6    -0.04   0.03   0.01    -0.00   0.00  -0.00    -0.03   0.02   0.01
    45   6     0.04  -0.02  -0.00    -0.00   0.00  -0.00    -0.05   0.03   0.00
    46   1     0.00  -0.00  -0.00    -0.00  -0.00  -0.00     0.00   0.00   0.00
    47   1     0.01   0.01   0.01     0.01   0.01   0.01    -0.01  -0.01  -0.02
    48   1    -0.01   0.01  -0.01     0.00  -0.00   0.01     0.01  -0.01   0.01
    49   1     0.07   0.13   0.14     0.01   0.01   0.01     0.06   0.12   0.13
    50   1     0.52  -0.43  -0.31     0.01  -0.01  -0.01     0.40  -0.34  -0.24
    51   1    -0.15  -0.10   0.09    -0.01  -0.00   0.00    -0.05  -0.02   0.03
    52   1    -0.03   0.05  -0.11    -0.00  -0.00   0.00     0.03  -0.05   0.11
    53   1    -0.45   0.32   0.19     0.01  -0.01  -0.01     0.58  -0.42  -0.24
    54   1    -0.01  -0.07  -0.06     0.00   0.01   0.01     0.02   0.11   0.09
    55   8     0.00  -0.00   0.00     0.00  -0.00  -0.00     0.00  -0.00  -0.00
    56   6     0.00   0.00   0.00     0.00   0.00   0.00     0.00   0.00   0.00
    57   6    -0.00   0.00  -0.00     0.00   0.00  -0.00    -0.00  -0.00  -0.00
    58   6     0.00  -0.00   0.00     0.00  -0.00  -0.00     0.00   0.00  -0.00
    59   6    -0.00   0.00  -0.00     0.00  -0.00  -0.00    -0.01  -0.00  -0.00
    60   1    -0.01  -0.01  -0.01    -0.00  -0.00  -0.00    -0.03  -0.03  -0.01
    61   1    -0.00   0.00  -0.01    -0.00   0.00  -0.00     0.00   0.00  -0.02
    62   1     0.00   0.00   0.00     0.00  -0.00   0.00    -0.00   0.00   0.00
    63   1    -0.00   0.00  -0.00     0.00   0.00  -0.00     0.00  -0.00   0.01
    64   1    -0.00   0.00   0.00     0.00  -0.00  -0.00     0.00  -0.01   0.00
    65   1    -0.00   0.00   0.00    -0.01   0.00   0.00    -0.03   0.00   0.01
    66   1     0.01   0.01   0.01     0.00   0.00   0.00     0.06   0.06   0.03
    67   1     0.00  -0.02   0.01     0.00  -0.00   0.00     0.00  -0.02   0.00
    68   1     0.01  -0.00  -0.01    -0.00   0.00   0.00     0.04  -0.01  -0.02
                    181                    182                    183
                      A                      A                      A
 Frequencies --   3035.4050              3039.0732              3041.4915
 Red. masses --      1.0850                 1.0544                 1.0717
 Frc consts  --      5.8899                 5.7377                 5.8410
 IR Inten    --      0.0000                 0.0000                 0.0000
  Atom  AN      X      Y      Z        X      Y      Z        X      Y      Z
     1  26    -0.00   0.00  -0.00     0.00  -0.00   0.00    -0.00   0.00  -0.00
     2   6    -0.00   0.00  -0.00    -0.00   0.00  -0.00     0.00  -0.00   0.00
     3  46    -0.00  -0.00   0.00    -0.00  -0.00   0.00     0.00   0.00  -0.00
     4   6     0.00   0.00   0.00    -0.00  -0.00  -0.00    -0.00  -0.00  -0.00
     5   1     0.00  -0.00  -0.00    -0.00  -0.00   0.00     0.00  -0.00  -0.00
     6   1     0.00  -0.00  -0.00    -0.00   0.00  -0.00     0.00  -0.00  -0.00
     7   1    -0.00  -0.00   0.00     0.00   0.00  -0.00    -0.00  -0.00   0.00
     8   6    -0.00  -0.00  -0.00     0.00   0.00  -0.00     0.00   0.00  -0.00
     9   8     0.00   0.00   0.00    -0.00  -0.00   0.00    -0.00   0.00  -0.00
    10   6    -0.00   0.00  -0.00     0.00  -0.00  -0.00    -0.00   0.00  -0.00
    11   8     0.00  -0.00  -0.00    -0.00   0.00   0.00     0.00  -0.00  -0.00
    12   6    -0.00   0.00   0.00     0.00  -0.00  -0.00    -0.00   0.00  -0.00
    13   6     0.00   0.00   0.00    -0.00   0.00  -0.00     0.00  -0.00   0.00
    14   6    -0.00   0.00  -0.00     0.00  -0.00   0.00    -0.00   0.00  -0.00
    15   1     0.00  -0.00  -0.00    -0.00   0.00   0.00     0.00  -0.00   0.00
    16   1     0.00  -0.00   0.00    -0.00   0.00  -0.00     0.00   0.00   0.00
    17   1     0.00   0.00   0.00    -0.00  -0.00  -0.00     0.00   0.00   0.00
    18   1     0.00  -0.00  -0.00    -0.00   0.00   0.00    -0.00   0.00   0.00
    19   6    -0.00   0.00   0.00     0.00  -0.00  -0.00     0.00   0.00   0.00
    20   6     0.00  -0.00  -0.00     0.00  -0.00  -0.00     0.00  -0.00  -0.00
    21   8     0.00   0.00  -0.00     0.00  -0.00  -0.00    -0.00   0.00   0.00
    22   6    -0.00   0.00  -0.00     0.00  -0.00   0.00    -0.00   0.00  -0.00
    23   6    -0.00   0.00  -0.00     0.00  -0.00   0.00    -0.00   0.00  -0.00
    24   6     0.00  -0.00  -0.00     0.00   0.00  -0.00    -0.00  -0.00  -0.00
    25   6     0.00  -0.00   0.00    -0.00  -0.00   0.00     0.00  -0.00   0.00
    26   6     0.00  -0.00  -0.00    -0.00   0.00   0.00     0.00   0.00  -0.00
    27   1    -0.00  -0.00   0.00     0.00   0.00  -0.00    -0.00  -0.00   0.00
    28   7     0.00   0.00   0.00    -0.00  -0.00   0.00     0.00  -0.00  -0.00
    29   1    -0.00   0.00   0.00    -0.00   0.00   0.00    -0.00   0.00   0.00
    30   1    -0.00  -0.00  -0.00     0.00   0.00   0.00     0.00   0.00   0.00
    31   1    -0.00   0.00   0.00     0.00  -0.00  -0.00     0.00  -0.00  -0.00
    32   1     0.00   0.00   0.00    -0.00   0.00  -0.00    -0.00   0.01  -0.00
    33   7     0.00   0.00   0.00     0.00  -0.00  -0.00    -0.00  -0.00  -0.00
    34   6     0.00   0.00  -0.00    -0.00  -0.00  -0.00    -0.00  -0.00   0.00
    35   6     0.00  -0.00   0.00    -0.00  -0.00   0.00    -0.00   0.00  -0.00
    36   1    -0.00   0.00   0.00     0.00  -0.00  -0.00    -0.00  -0.00  -0.00
    37   1     0.00  -0.00  -0.00     0.00   0.00   0.00    -0.00   0.00   0.00
    38   1    -0.00  -0.00   0.00     0.00   0.00  -0.00     0.00   0.00  -0.00
    39   1    -0.00   0.00   0.00     0.00  -0.00  -0.00     0.00  -0.00  -0.00
    40   1    -0.00  -0.00   0.00     0.00   0.00  -0.00     0.00   0.00  -0.00
    41   1    -0.00   0.00  -0.00    -0.00   0.00  -0.00     0.00  -0.00   0.00
    42   6     0.00  -0.00   0.00     0.00  -0.00   0.00     0.00  -0.00  -0.00
    43   6    -0.00  -0.00  -0.00     0.00   0.00   0.00    -0.00  -0.00  -0.00
    44   6     0.00  -0.00   0.00     0.00  -0.00   0.00     0.00  -0.00  -0.00
    45   6     0.00  -0.00  -0.00     0.00  -0.00   0.00     0.00  -0.00  -0.00
    46   1     0.00   0.00  -0.00     0.00   0.00   0.00    -0.00  -0.00   0.00
    47   1     0.00   0.00   0.00    -0.00  -0.00  -0.00     0.00   0.00   0.00
    48   1    -0.00  -0.00  -0.00    -0.00   0.00  -0.00    -0.00   0.00  -0.00
    49   1    -0.02  -0.03  -0.03    -0.01  -0.01  -0.02     0.00   0.01   0.01
    50   1    -0.05   0.04   0.03    -0.02   0.02   0.02    -0.00   0.00   0.00
    51   1     0.01   0.01  -0.01     0.01   0.01  -0.01    -0.00  -0.00   0.00
    52   1    -0.00   0.00  -0.01    -0.00   0.00  -0.00    -0.00   0.00  -0.00
    53   1    -0.06   0.04   0.02    -0.02   0.01   0.01    -0.00   0.00   0.00
    54   1    -0.00  -0.01  -0.01    -0.00  -0.01  -0.01     0.00   0.00   0.00
    55   8     0.00   0.00   0.00    -0.00   0.00  -0.00    -0.00  -0.00   0.00
    56   6     0.01   0.00   0.01     0.01   0.02   0.02     0.00   0.02   0.02
    57   6    -0.00  -0.00  -0.00    -0.00  -0.00   0.00     0.00   0.00  -0.00
    58   6     0.02   0.02  -0.03    -0.01  -0.05   0.02     0.02  -0.01  -0.06
    59   6    -0.06  -0.04  -0.01    -0.03  -0.00  -0.02     0.00   0.02   0.02
    60   1    -0.09  -0.10  -0.05    -0.15  -0.16  -0.08    -0.09  -0.09  -0.04
    61   1    -0.00   0.01  -0.10    -0.00   0.02  -0.13    -0.01   0.02  -0.21
    62   1    -0.01   0.06  -0.01     0.03  -0.08   0.03     0.05  -0.13   0.05
    63   1     0.02  -0.02   0.14     0.00  -0.03   0.04     0.10  -0.15   0.70
    64   1     0.11  -0.29   0.03    -0.24   0.67  -0.09    -0.08   0.26  -0.06
    65   1    -0.34   0.06   0.18     0.31  -0.07  -0.16    -0.28   0.04   0.13
    66   1     0.51   0.48   0.28     0.30   0.28   0.16    -0.26  -0.23  -0.13
    67   1    -0.05   0.09  -0.04     0.04  -0.24   0.06    -0.01   0.08  -0.01
    68   1     0.26  -0.10  -0.11    -0.02  -0.00  -0.00     0.25  -0.06  -0.09
                    184                    185                    186
                      A                      A                      A
 Frequencies --   3043.3019              3044.8421              3046.5526
 Red. masses --      1.0776                 1.0875                 1.0588
 Frc consts  --      5.8800                 5.9404                 5.7899
 IR Inten    --      0.0000                 0.0000                 0.0000
  Atom  AN      X      Y      Z        X      Y      Z        X      Y      Z
     1  26     0.00  -0.00  -0.00    -0.00   0.00  -0.00     0.00  -0.00   0.00
     2   6    -0.00  -0.00  -0.00     0.00   0.00  -0.00    -0.00   0.00  -0.00
     3  46    -0.00  -0.00  -0.00     0.00   0.00  -0.00    -0.00  -0.00   0.00
     4   6    -0.00  -0.00  -0.00     0.00   0.00   0.00    -0.00  -0.00  -0.00
     5   1     0.00   0.00   0.00     0.00  -0.00  -0.00    -0.00  -0.00   0.00
     6   1    -0.00  -0.00   0.00     0.00   0.00   0.00    -0.00  -0.00  -0.00
     7   1     0.00   0.00  -0.00    -0.00  -0.00   0.00     0.00   0.00  -0.00
     8   6    -0.00  -0.00  -0.00    -0.00   0.00  -0.00     0.00  -0.00  -0.00
     9   8     0.00   0.00   0.00    -0.00  -0.00   0.00    -0.00  -0.00   0.00
    10   6     0.00  -0.00  -0.00    -0.00   0.00  -0.00     0.00  -0.00  -0.00
    11   8    -0.00   0.00   0.00     0.00  -0.00   0.00    -0.00   0.00  -0.00
    12   6     0.00  -0.00  -0.00     0.00  -0.00   0.00    -0.00   0.00  -0.00
    13   6    -0.00   0.00  -0.00    -0.00   0.00   0.00     0.00  -0.00  -0.00
    14   6     0.00  -0.00   0.00    -0.00   0.00  -0.00     0.00  -0.00   0.00
    15   1    -0.00   0.00   0.00    -0.00   0.00  -0.00     0.00  -0.00   0.00
    16   1    -0.00   0.00  -0.00     0.00  -0.00   0.00    -0.00   0.00  -0.00
    17   1    -0.00  -0.00  -0.00     0.00   0.00   0.00    -0.00  -0.00  -0.00
    18   1    -0.00   0.00  -0.00    -0.00  -0.00   0.00    -0.00   0.00  -0.00
    19   6     0.00  -0.00  -0.00     0.00   0.00   0.00     0.00  -0.00  -0.00
    20   6     0.00   0.00   0.00    -0.00   0.00   0.00     0.00   0.00   0.00
    21   8     0.00  -0.00   0.00    -0.00  -0.00   0.00     0.00   0.00  -0.00
    22   6     0.00  -0.00   0.00    -0.00   0.00  -0.00     0.00  -0.00   0.00
    23   6     0.00  -0.00   0.00    -0.00   0.00  -0.00     0.00  -0.00   0.00
    24   6     0.00   0.00   0.00    -0.00  -0.00   0.00     0.00   0.00  -0.00
    25   6    -0.00   0.00  -0.00     0.00  -0.00   0.00    -0.00   0.00  -0.00
    26   6    -0.00  -0.00   0.00     0.00   0.00  -0.00    -0.00   0.00   0.00
    27   1     0.00  -0.00   0.00    -0.00  -0.00  -0.00     0.00   0.00  -0.00
    28   7    -0.00   0.00   0.00     0.00   0.00   0.00    -0.00  -0.00   0.00
    29   1     0.00  -0.00  -0.00     0.00  -0.00  -0.00     0.00  -0.00  -0.00
    30   1     0.00   0.00   0.00    -0.00  -0.00  -0.00     0.00   0.00   0.01
    31   1    -0.00   0.00  -0.00     0.00  -0.00   0.00     0.00  -0.00  -0.00
    32   1     0.00  -0.00  -0.00    -0.00   0.00   0.00     0.00  -0.00  -0.00
    33   7    -0.00  -0.00  -0.00     0.00   0.00   0.00     0.00  -0.00  -0.00
    34   6    -0.00  -0.00  -0.00    -0.00   0.00   0.00    -0.00  -0.00  -0.00
    35   6    -0.00   0.00  -0.00     0.00   0.00   0.00    -0.00  -0.00  -0.00
    36   1    -0.00  -0.00  -0.00     0.00   0.00   0.00     0.00  -0.00  -0.00
    37   1     0.00   0.00   0.00    -0.00  -0.00  -0.00     0.00   0.00   0.00
    38   1     0.00   0.00  -0.00     0.00   0.00  -0.00     0.00   0.00  -0.00
    39   1    -0.00   0.00   0.00     0.00  -0.00  -0.00     0.00  -0.00  -0.00
    40   1     0.00   0.00  -0.00    -0.00  -0.00   0.00     0.00   0.00  -0.00
    41   1     0.00  -0.00   0.00    -0.00   0.00  -0.00     0.00  -0.00   0.00
    42   6    -0.00   0.00  -0.00    -0.00   0.00   0.00    -0.00   0.00  -0.00
    43   6    -0.00   0.00  -0.00     0.00   0.00  -0.00     0.00   0.00   0.00
    44   6    -0.00   0.00   0.00    -0.00   0.00   0.00    -0.00   0.00  -0.00
    45   6    -0.00  -0.00   0.00    -0.00   0.00   0.00    -0.00   0.00   0.00
    46   1    -0.00  -0.00   0.00    -0.00  -0.00   0.00    -0.00  -0.00   0.00
    47   1     0.00   0.00   0.00    -0.00  -0.00  -0.00    -0.00  -0.00  -0.00
    48   1     0.00  -0.00   0.00     0.00  -0.00   0.00     0.00   0.00   0.00
    49   1    -0.00   0.00   0.00    -0.00  -0.00  -0.00     0.00   0.00   0.00
    50   1     0.01  -0.01  -0.01     0.02  -0.01  -0.01     0.01  -0.01  -0.00
    51   1    -0.00  -0.00   0.00    -0.01  -0.00   0.01    -0.00  -0.00   0.00
    52   1    -0.00   0.00  -0.00    -0.00   0.00  -0.00    -0.00   0.00  -0.00
    53   1     0.00  -0.00  -0.00     0.00  -0.00  -0.00     0.00  -0.00  -0.00
    54   1     0.00   0.00   0.00    -0.00   0.00   0.00    -0.00  -0.00  -0.00
    55   8     0.00   0.00   0.00    -0.00  -0.00   0.00    -0.00   0.00   0.00
    56   6     0.00  -0.00   0.01    -0.01   0.03  -0.02    -0.01   0.01  -0.03
    57   6    -0.00  -0.00  -0.00     0.00  -0.00  -0.00    -0.00  -0.00   0.00
    58   6    -0.05   0.04  -0.02     0.03  -0.02   0.00    -0.02  -0.00   0.02
    59   6     0.02  -0.03  -0.01     0.03  -0.06  -0.00    -0.04  -0.02   0.03
    60   1    -0.03  -0.03  -0.01     0.03   0.05   0.01     0.07   0.09   0.03
    61   1    -0.00   0.00  -0.04    -0.00   0.01   0.04     0.01  -0.02   0.34
    62   1    -0.01   0.04  -0.01     0.15  -0.48   0.14     0.04  -0.14   0.03
    63   1     0.04  -0.09   0.55    -0.00   0.01  -0.13    -0.02   0.01  -0.06
    64   1     0.09  -0.30   0.03    -0.07   0.21  -0.03    -0.04   0.09  -0.00
    65   1     0.50  -0.06  -0.29    -0.25   0.03   0.14     0.33  -0.05  -0.17
    66   1     0.11   0.08   0.05     0.11   0.05   0.05    -0.03  -0.02   0.01
    67   1    -0.05   0.24  -0.08    -0.12   0.55  -0.17    -0.13   0.46  -0.12
    68   1    -0.34   0.08   0.13    -0.41   0.09   0.16     0.60  -0.18  -0.23
                    187                    188                    189
                      A                      A                      A
 Frequencies --   3048.6060              3052.9591              3053.1009
 Red. masses --      1.0826                 1.0366                 1.0883
 Frc consts  --      5.9283                 5.6924                 5.9771
 IR Inten    --      0.0000                 0.0000                 0.0000
  Atom  AN      X      Y      Z        X      Y      Z        X      Y      Z
     1  26    -0.00   0.00  -0.00    -0.00   0.00  -0.00     0.00   0.00   0.00
     2   6    -0.00   0.00  -0.00     0.00   0.00  -0.00    -0.00   0.00   0.00
     3  46    -0.00   0.00  -0.00    -0.00   0.00  -0.00    -0.00   0.00   0.00
     4   6     0.00   0.00   0.00    -0.00  -0.00  -0.00    -0.00  -0.00  -0.00
     5   1     0.00  -0.00  -0.00     0.00  -0.00  -0.00    -0.00  -0.00   0.00
     6   1     0.00  -0.00  -0.00     0.00  -0.00  -0.00    -0.00   0.00  -0.00
     7   1    -0.00  -0.00   0.00    -0.00  -0.00   0.00    -0.00  -0.00   0.00
     8   6    -0.00  -0.00  -0.00    -0.00   0.00   0.00    -0.00   0.00   0.00
     9   8     0.00  -0.00   0.00     0.00  -0.00   0.00    -0.00  -0.00  -0.00
    10   6    -0.00   0.00  -0.00    -0.00   0.00  -0.00    -0.00   0.00  -0.00
    11   8     0.00  -0.00   0.00     0.00  -0.00   0.00     0.00  -0.00  -0.00
    12   6     0.00  -0.00   0.00     0.00  -0.00   0.00     0.00  -0.00   0.00
    13   6     0.00   0.00   0.00    -0.00   0.00   0.00    -0.00   0.00   0.00
    14   6    -0.00   0.00   0.00    -0.00   0.00   0.00     0.00  -0.00   0.00
    15   1     0.00  -0.00  -0.00    -0.00   0.00  -0.00    -0.00   0.00  -0.00
    16   1     0.00  -0.00  -0.00     0.00  -0.00   0.00     0.00  -0.00   0.00
    17   1     0.00   0.00   0.00     0.00   0.00   0.00    -0.00   0.00   0.00
    18   1     0.00  -0.00  -0.00    -0.00   0.00   0.00    -0.00   0.00   0.00
    19   6     0.00   0.00   0.00     0.00   0.00   0.00     0.00  -0.00  -0.00
    20   6    -0.00   0.00   0.00    -0.00   0.00   0.00    -0.00   0.00   0.00
    21   8     0.00  -0.00   0.00    -0.00  -0.00   0.00     0.00  -0.00  -0.00
    22   6    -0.00   0.00  -0.00    -0.00   0.00  -0.00    -0.00   0.00  -0.00
    23   6    -0.00   0.00  -0.00    -0.00   0.00  -0.00     0.00  -0.00  -0.00
    24   6    -0.00   0.00  -0.00    -0.00  -0.00  -0.00     0.00   0.00  -0.00
    25   6     0.00  -0.00   0.00     0.00  -0.00   0.00     0.00  -0.00   0.00
    26   6    -0.00  -0.00   0.00     0.00   0.00  -0.00     0.00  -0.00   0.00
    27   1     0.00  -0.00   0.00    -0.00  -0.00   0.00    -0.00   0.00  -0.00
    28   7     0.00   0.00   0.00     0.00  -0.00   0.00     0.00  -0.00  -0.00
    29   1     0.00  -0.00  -0.00     0.00  -0.00  -0.00     0.00   0.00  -0.00
    30   1    -0.00  -0.00  -0.00     0.00   0.00   0.00     0.00   0.00   0.00
    31   1    -0.00   0.00   0.00     0.00  -0.00  -0.00     0.00  -0.00  -0.00
    32   1    -0.00   0.00  -0.00    -0.00   0.00   0.00    -0.00   0.00  -0.00
    33   7     0.00   0.00   0.00     0.00  -0.00  -0.00     0.00  -0.00  -0.00
    34   6    -0.00  -0.00  -0.00    -0.00  -0.00  -0.00    -0.00   0.00   0.00
    35   6     0.00  -0.00   0.00    -0.00   0.00   0.00    -0.00  -0.00   0.00
    36   1    -0.00   0.00   0.00     0.00  -0.00  -0.00     0.00  -0.00  -0.00
    37   1     0.00   0.00   0.00    -0.00   0.00   0.00    -0.00   0.00  -0.00
    38   1     0.00   0.00  -0.00     0.00   0.00  -0.00     0.00   0.00   0.00
    39   1     0.00  -0.00   0.00     0.00  -0.00  -0.00     0.00  -0.00  -0.00
    40   1    -0.00  -0.00   0.00     0.00   0.00   0.00     0.00   0.00  -0.00
    41   1    -0.00   0.00  -0.00    -0.00  -0.00   0.00    -0.00   0.00  -0.00
    42   6    -0.00   0.00   0.00     0.00  -0.00   0.00    -0.00   0.00  -0.00
    43   6    -0.00   0.00  -0.00     0.00  -0.00   0.00     0.00   0.00   0.00
    44   6    -0.00   0.00   0.00     0.00   0.00  -0.00    -0.00   0.00   0.00
    45   6    -0.00   0.00   0.00     0.00  -0.00   0.01    -0.00   0.01  -0.01
    46   1    -0.00   0.00   0.00     0.00   0.00  -0.00    -0.00  -0.00   0.00
    47   1    -0.00  -0.00  -0.00     0.00  -0.00   0.00    -0.00  -0.00  -0.00
    48   1     0.00  -0.00   0.00    -0.00   0.00  -0.00     0.00  -0.00   0.00
    49   1    -0.00  -0.00  -0.00    -0.00  -0.00  -0.00    -0.00  -0.00  -0.00
    50   1     0.02  -0.01  -0.01    -0.00   0.00   0.00     0.01  -0.01  -0.01
    51   1    -0.00  -0.00   0.00    -0.00  -0.00   0.00    -0.01  -0.00   0.00
    52   1    -0.00   0.00  -0.00    -0.06   0.07  -0.12     0.06  -0.07   0.12
    53   1     0.01  -0.00  -0.00     0.02  -0.02  -0.00    -0.02   0.02   0.00
    54   1    -0.00   0.00   0.00     0.00   0.00   0.01    -0.01  -0.01  -0.01
    55   8     0.00   0.00   0.00     0.00  -0.00  -0.00     0.00   0.00  -0.00
    56   6    -0.04  -0.04  -0.05     0.03  -0.00  -0.03     0.01  -0.06   0.04
    57   6    -0.00  -0.00  -0.00     0.00  -0.00  -0.00     0.00  -0.00   0.00
    58   6     0.01  -0.01  -0.03     0.01  -0.01  -0.01     0.01  -0.02   0.01
    59   6    -0.01   0.00  -0.01     0.01  -0.01  -0.00     0.01  -0.03   0.01
    60   1     0.48   0.51   0.25    -0.32  -0.35  -0.19     0.16   0.14   0.11
    61   1    -0.00  -0.05   0.42     0.04  -0.04   0.65    -0.01  -0.00  -0.40
    62   1    -0.04   0.07  -0.05    -0.12   0.40  -0.13    -0.20   0.62  -0.17
    63   1     0.04  -0.07   0.30     0.02  -0.02   0.07    -0.01   0.01  -0.09
    64   1    -0.06   0.18  -0.04    -0.04   0.14  -0.02    -0.09   0.26  -0.03
    65   1    -0.11   0.01   0.05    -0.15   0.02   0.08    -0.03  -0.00   0.03
    66   1     0.14   0.14   0.08    -0.01  -0.03  -0.01    -0.00  -0.02  -0.00
    67   1     0.04  -0.20   0.05    -0.02   0.12  -0.04    -0.10   0.42  -0.12
    68   1    -0.09   0.03   0.03    -0.14   0.04   0.06    -0.03  -0.01   0.02
                    190                    191                    192
                      A                      A                      A
 Frequencies --   3053.3636              3179.0268              3220.8425
 Red. masses --      1.0619                 1.0873                 1.0900
 Frc consts  --      5.8329                 6.4742                 6.6623
 IR Inten    --      0.0000                 0.0000                 0.0000
  Atom  AN      X      Y      Z        X      Y      Z        X      Y      Z
     1  26    -0.00  -0.00   0.00     0.00   0.00  -0.00     0.00   0.00  -0.00
     2   6    -0.00  -0.00   0.00    -0.00   0.00  -0.00     0.00   0.00  -0.00
     3  46     0.00   0.00  -0.00     0.00   0.00   0.00    -0.00   0.00   0.00
     4   6    -0.00   0.00   0.00    -0.00   0.00  -0.00     0.00   0.00   0.00
     5   1     0.00   0.00  -0.00    -0.01  -0.01   0.01    -0.03  -0.03   0.02
     6   1     0.00  -0.00  -0.00     0.12  -0.05  -0.00     0.09  -0.04  -0.00
     7   1     0.00  -0.00   0.00     0.06   0.92  -0.31     0.01   0.13  -0.04
     8   6     0.00   0.00  -0.00    -0.00  -0.00   0.00     0.00   0.00  -0.00
     9   8    -0.00   0.00  -0.00     0.00  -0.00   0.00    -0.00  -0.00   0.00
    10   6    -0.00  -0.00  -0.00    -0.00  -0.00  -0.00     0.00  -0.00   0.00
    11   8    -0.00  -0.00   0.00    -0.00   0.00   0.00    -0.00  -0.00  -0.00
    12   6    -0.00  -0.00  -0.00    -0.00   0.00  -0.00    -0.00   0.00  -0.00
    13   6    -0.00  -0.00  -0.00     0.00   0.00  -0.00    -0.00  -0.00  -0.00
    14   6    -0.00  -0.00  -0.00     0.00   0.00   0.00     0.00   0.00   0.00
    15   1     0.00  -0.00   0.00     0.00  -0.00   0.00     0.04  -0.03   0.01
    16   1    -0.00  -0.00   0.00    -0.00  -0.00  -0.00     0.00   0.02   0.00
    17   1    -0.00   0.00   0.00    -0.01  -0.00  -0.01    -0.05  -0.00  -0.02
    18   1     0.00  -0.00  -0.00    -0.00  -0.00  -0.00    -0.00   0.00   0.00
    19   6     0.00   0.00   0.00     0.00  -0.00  -0.00    -0.00  -0.00  -0.00
    20   6     0.00  -0.00  -0.00     0.00  -0.00   0.00     0.00  -0.00  -0.00
    21   8     0.00   0.00  -0.00    -0.00  -0.00  -0.00    -0.00  -0.00  -0.00
    22   6    -0.00  -0.00   0.00    -0.01  -0.08   0.03     0.00  -0.01   0.00
    23   6    -0.00   0.00   0.00    -0.01   0.00   0.00    -0.01   0.00   0.00
    24   6    -0.00  -0.00   0.00     0.00   0.00  -0.00     0.00   0.00  -0.00
    25   6     0.00   0.00   0.00    -0.00   0.00  -0.00     0.00  -0.00   0.00
    26   6     0.00   0.00  -0.00     0.01   0.00  -0.00    -0.08  -0.02   0.02
    27   1    -0.00  -0.00   0.00    -0.15  -0.03   0.03     0.94   0.21  -0.16
    28   7    -0.00   0.00   0.00     0.00   0.00   0.00    -0.00  -0.00  -0.00
    29   1    -0.01   0.00   0.00     0.00  -0.00   0.00    -0.00   0.00   0.00
    30   1    -0.00  -0.00  -0.00    -0.00   0.00   0.00    -0.00  -0.00  -0.00
    31   1     0.00  -0.00  -0.00     0.00  -0.00  -0.00     0.00  -0.00  -0.00
    32   1     0.00   0.00   0.00     0.01  -0.01   0.00    -0.04   0.06  -0.03
    33   7     0.00   0.00  -0.00     0.00   0.00   0.00     0.00   0.00   0.00
    34   6     0.00   0.00  -0.00     0.00   0.00   0.00     0.00   0.00   0.00
    35   6    -0.00   0.00  -0.00    -0.00   0.00  -0.00     0.00   0.00   0.00
    36   1     0.00  -0.00  -0.00    -0.00   0.00   0.00     0.00  -0.00  -0.00
    37   1     0.00   0.00   0.00     0.00  -0.01  -0.01    -0.00  -0.00  -0.00
    38   1    -0.00  -0.00   0.00    -0.00  -0.00   0.00    -0.00  -0.00   0.00
    39   1     0.00  -0.00  -0.00     0.00  -0.00  -0.00     0.00  -0.00  -0.00
    40   1     0.00   0.00  -0.00    -0.00  -0.00  -0.00    -0.00  -0.00   0.00
    41   1    -0.00  -0.00   0.00     0.00  -0.00   0.00    -0.00   0.00  -0.00
    42   6    -0.00   0.00  -0.00    -0.00  -0.00  -0.00    -0.00  -0.00  -0.00
    43   6    -0.00   0.00  -0.00    -0.00  -0.00   0.00    -0.00  -0.00   0.00
    44   6    -0.00  -0.00  -0.00     0.00  -0.00  -0.00     0.00   0.00   0.00
    45   6    -0.02   0.03  -0.06     0.00   0.00   0.00    -0.00  -0.00  -0.00
    46   1    -0.00  -0.00   0.00     0.00   0.00  -0.00     0.00   0.00  -0.00
    47   1    -0.00  -0.00  -0.01    -0.00  -0.00  -0.00    -0.00  -0.00  -0.00
    48   1     0.01  -0.01   0.01     0.00  -0.00   0.00     0.00  -0.00   0.00
    49   1     0.01   0.02   0.02    -0.00  -0.00  -0.00    -0.00  -0.00  -0.00
    50   1     0.01  -0.01  -0.01    -0.00   0.00   0.00    -0.00   0.00  -0.00
    51   1    -0.01  -0.01   0.00    -0.00  -0.00   0.00    -0.00   0.00   0.00
    52   1     0.38  -0.45   0.75    -0.00   0.00  -0.00     0.00  -0.00   0.00
    53   1    -0.15   0.11   0.03    -0.00   0.00   0.00    -0.00   0.00  -0.00
    54   1    -0.02  -0.01  -0.05    -0.00  -0.00  -0.00     0.00   0.00   0.00
    55   8    -0.00  -0.00   0.00    -0.00   0.00   0.00    -0.00   0.00   0.00
    56   6     0.00   0.01  -0.01    -0.00  -0.00  -0.00     0.00   0.00  -0.00
    57   6     0.00   0.00  -0.00    -0.00  -0.00   0.00     0.00   0.00  -0.00
    58   6     0.00   0.00  -0.00     0.00  -0.00  -0.00     0.00  -0.00  -0.00
    59   6     0.00   0.00  -0.00     0.00  -0.00  -0.00     0.00  -0.00  -0.00
    60   1    -0.07  -0.07  -0.05     0.00   0.00   0.00    -0.00  -0.00  -0.00
    61   1     0.01  -0.01   0.17     0.00  -0.00   0.00    -0.00   0.00   0.00
    62   1     0.01  -0.04   0.01    -0.00   0.00  -0.00     0.00  -0.00   0.00
    63   1     0.00  -0.01   0.03    -0.00  -0.00   0.00     0.00   0.00  -0.00
    64   1     0.01  -0.02   0.00    -0.00   0.00  -0.00    -0.00   0.00  -0.00
    65   1    -0.02   0.00   0.01    -0.00   0.00   0.00    -0.00  -0.00   0.00
    66   1     0.00   0.00  -0.00     0.00   0.00   0.00    -0.00  -0.00  -0.00
    67   1     0.01  -0.04   0.01    -0.00   0.00  -0.00    -0.00   0.00   0.00
    68   1    -0.02   0.01   0.01    -0.00   0.00   0.00    -0.00   0.00   0.00
                    193                    194                    195
                      A                      A                      A
 Frequencies --   3225.0833              3226.9666              3235.5906
 Red. masses --      1.0829                 1.0873                 1.0851
 Frc consts  --      6.6359                 6.6708                 6.6930
 IR Inten    --      0.0000                 0.0000                 0.0000
  Atom  AN      X      Y      Z        X      Y      Z        X      Y      Z
     1  26     0.00  -0.00   0.00     0.00  -0.00   0.00     0.00  -0.00   0.00
     2   6    -0.00  -0.00   0.00     0.00  -0.00  -0.00     0.00   0.00  -0.00
     3  46     0.00   0.00  -0.00    -0.00  -0.00  -0.00    -0.00   0.00  -0.00
     4   6     0.00   0.00   0.00     0.00   0.00   0.00    -0.00  -0.00  -0.00
     5   1    -0.04  -0.05   0.02    -0.11  -0.12   0.06    -0.05  -0.05   0.03
     6   1     0.23  -0.09  -0.01     0.83  -0.32  -0.02     0.26  -0.10  -0.01
     7   1    -0.00  -0.05   0.02    -0.01  -0.12   0.04    -0.00  -0.02   0.01
     8   6     0.00   0.00   0.00    -0.00   0.00   0.00     0.00   0.00  -0.00
     9   8     0.00  -0.00  -0.00    -0.00  -0.00  -0.00    -0.00  -0.00   0.00
    10   6     0.00  -0.00   0.00    -0.00  -0.00   0.00    -0.00   0.00  -0.00
    11   8    -0.00  -0.00   0.00     0.00   0.00  -0.00    -0.00  -0.00   0.00
    12   6    -0.05   0.04  -0.02     0.02  -0.02   0.01    -0.02   0.02  -0.01
    13   6    -0.01  -0.03  -0.00    -0.00   0.00  -0.00     0.00   0.02   0.00
    14   6     0.02   0.00   0.01     0.01   0.00   0.01    -0.07  -0.01  -0.03
    15   1     0.65  -0.48   0.20    -0.27   0.20  -0.08     0.26  -0.19   0.08
    16   1     0.07   0.36   0.04    -0.00  -0.02  -0.00    -0.05  -0.25  -0.03
    17   1    -0.27  -0.02  -0.12    -0.16  -0.01  -0.07     0.78   0.07   0.34
    18   1    -0.00   0.00  -0.00     0.00  -0.00   0.00    -0.00   0.00  -0.00
    19   6    -0.00  -0.00  -0.00     0.00   0.00   0.00    -0.00  -0.00   0.00
    20   6    -0.00  -0.00   0.00    -0.00   0.00   0.00     0.00  -0.00  -0.00
    21   8     0.00   0.00   0.00    -0.00   0.00   0.00    -0.00  -0.00   0.00
    22   6     0.00   0.01  -0.00     0.00   0.01  -0.00     0.00   0.00  -0.00
    23   6    -0.02   0.01   0.00    -0.07   0.03   0.00    -0.02   0.01  -0.00
    24   6     0.00   0.00  -0.00     0.01   0.01  -0.00     0.00   0.00  -0.00
    25   6    -0.00  -0.00   0.00     0.00  -0.00   0.00     0.00  -0.00   0.00
    26   6     0.01   0.00  -0.00     0.01   0.00  -0.00    -0.00  -0.00   0.00
    27   1    -0.09  -0.02   0.01    -0.07  -0.01   0.01     0.00   0.00  -0.00
    28   7    -0.00  -0.00   0.00     0.00   0.00  -0.00    -0.00  -0.00   0.00
    29   1    -0.00   0.00   0.00     0.00  -0.00  -0.00    -0.00  -0.00   0.00
    30   1    -0.00  -0.00  -0.00    -0.00  -0.01  -0.01     0.00  -0.00   0.01
    31   1    -0.00   0.00   0.00    -0.00   0.00   0.00     0.00  -0.00  -0.00
    32   1    -0.00   0.00  -0.00    -0.01   0.01  -0.01    -0.01   0.02  -0.01
    33   7     0.00  -0.00   0.00     0.00   0.00   0.00     0.00  -0.00   0.00
    34   6     0.00   0.00  -0.00    -0.00   0.00   0.00    -0.00  -0.00  -0.00
    35   6     0.00  -0.00   0.00    -0.00  -0.00  -0.00    -0.00  -0.00   0.00
    36   1     0.00  -0.00  -0.00     0.00  -0.00  -0.00     0.00  -0.00  -0.00
    37   1    -0.00   0.00   0.00    -0.00  -0.00   0.00    -0.00   0.00   0.00
    38   1    -0.00  -0.00   0.00     0.00   0.00   0.00     0.00   0.00  -0.00
    39   1    -0.00   0.00   0.00    -0.00   0.00   0.00     0.00  -0.00  -0.00
    40   1    -0.00  -0.00   0.00     0.00   0.00   0.00     0.00   0.00  -0.00
    41   1    -0.00   0.00  -0.00     0.00   0.00   0.00    -0.00   0.00  -0.00
    42   6    -0.00   0.00   0.00     0.00   0.00   0.00     0.00   0.00  -0.00
    43   6    -0.00  -0.00   0.00     0.00   0.00   0.00     0.00   0.00   0.00
    44   6    -0.00  -0.00   0.00    -0.00   0.00   0.00     0.00   0.00   0.00
    45   6    -0.00   0.00   0.00     0.00   0.00   0.00     0.00   0.00   0.00
    46   1     0.00   0.00  -0.00    -0.00  -0.00   0.00    -0.00  -0.00   0.00
    47   1    -0.00  -0.00  -0.00    -0.00  -0.00  -0.00    -0.00  -0.00  -0.00
    48   1     0.00  -0.00   0.00    -0.00   0.00  -0.00     0.00   0.00   0.00
    49   1    -0.00  -0.00  -0.00    -0.00  -0.00  -0.00    -0.00  -0.00  -0.00
    50   1     0.00  -0.00  -0.00     0.00  -0.00  -0.00     0.00  -0.00  -0.00
    51   1     0.00   0.00  -0.00    -0.00  -0.00   0.00    -0.00  -0.00   0.00
    52   1    -0.00   0.00  -0.00     0.00   0.00   0.00    -0.00   0.00   0.00
    53   1     0.00  -0.00  -0.00     0.00   0.00  -0.00     0.00  -0.00  -0.00
    54   1    -0.00  -0.00  -0.00    -0.00  -0.00  -0.00    -0.00  -0.00  -0.00
    55   8    -0.00  -0.00   0.00     0.00  -0.00  -0.00    -0.00  -0.00   0.00
    56   6     0.00  -0.00   0.00     0.00   0.00   0.00    -0.00  -0.00   0.00
    57   6     0.00  -0.00   0.00    -0.00   0.00   0.00     0.00  -0.00  -0.00
    58   6     0.00  -0.00   0.00    -0.00   0.00   0.00    -0.00  -0.00   0.00
    59   6     0.00  -0.00  -0.00    -0.00   0.00   0.00     0.00  -0.00  -0.00
    60   1    -0.00  -0.00   0.00    -0.00  -0.00  -0.00    -0.00  -0.00  -0.00
    61   1     0.00   0.00  -0.00     0.00   0.00  -0.00     0.00   0.00  -0.00
    62   1    -0.00   0.00  -0.00     0.00  -0.00   0.00    -0.00   0.00  -0.00
    63   1    -0.00   0.00  -0.00    -0.00   0.00  -0.00    -0.00   0.00  -0.00
    64   1    -0.00   0.00  -0.00     0.00  -0.00   0.00    -0.00   0.00   0.00
    65   1     0.00  -0.00   0.00     0.00  -0.00  -0.00     0.00  -0.00  -0.00
    66   1     0.00   0.00   0.00    -0.00  -0.00  -0.00     0.00   0.00   0.00
    67   1    -0.00   0.00  -0.00     0.00  -0.00   0.00    -0.00   0.00  -0.00
    68   1    -0.00   0.00   0.00     0.00  -0.00  -0.00    -0.00   0.00   0.00
                    196                    197                    198
                      A                      A                      A
 Frequencies --   3251.7759              3262.3144              3300.1499
 Red. masses --      1.0930                 1.0879                 1.0883
 Frc consts  --      6.8092                 6.8218                 6.9833
 IR Inten    --      0.0000                 0.0000                 0.0000
  Atom  AN      X      Y      Z        X      Y      Z        X      Y      Z
     1  26     0.00   0.00  -0.00     0.00   0.00   0.00    -0.00   0.00   0.00
     2   6     0.00   0.00  -0.00     0.00   0.00  -0.00     0.00  -0.00  -0.00
     3  46     0.00  -0.00  -0.00     0.00   0.00   0.00     0.00  -0.00  -0.00
     4   6    -0.00  -0.00  -0.00    -0.00   0.00   0.00    -0.00   0.00  -0.00
     5   1    -0.14  -0.16   0.08     0.58   0.65  -0.32     0.10   0.11  -0.06
     6   1    -0.05   0.02   0.00     0.18  -0.07  -0.00     0.00  -0.00  -0.00
     7   1     0.00   0.01  -0.00    -0.00  -0.00  -0.00     0.00   0.00  -0.00
     8   6    -0.00  -0.00  -0.00     0.00  -0.00   0.00    -0.00  -0.00   0.00
     9   8    -0.00  -0.00   0.00    -0.00  -0.00   0.00    -0.00  -0.00  -0.00
    10   6    -0.00   0.00  -0.00    -0.00   0.00  -0.00     0.00  -0.00   0.00
    11   8     0.00   0.00  -0.00     0.00  -0.00  -0.00     0.00   0.00   0.00
    12   6     0.02  -0.01   0.01     0.00  -0.00   0.00     0.00  -0.00   0.00
    13   6    -0.01  -0.07  -0.01    -0.00  -0.02  -0.00    -0.00  -0.00   0.00
    14   6    -0.03  -0.00  -0.01    -0.01  -0.00  -0.00     0.00   0.00   0.00
    15   1    -0.20   0.15  -0.06    -0.02   0.02  -0.01    -0.00   0.00  -0.00
    16   1     0.17   0.84   0.08     0.04   0.21   0.02     0.00   0.01   0.00
    17   1     0.32   0.02   0.14     0.09   0.01   0.04    -0.00  -0.00  -0.00
    18   1     0.00  -0.00   0.00     0.00   0.00   0.00     0.00  -0.00  -0.00
    19   6     0.00   0.00   0.00     0.00   0.00   0.00     0.00   0.00   0.00
    20   6     0.00   0.00  -0.00     0.00   0.00  -0.00    -0.00   0.00  -0.00
    21   8    -0.00   0.00   0.00    -0.00  -0.00  -0.00    -0.00   0.00  -0.00
    22   6    -0.00  -0.00   0.00     0.00   0.00  -0.00    -0.00   0.00  -0.00
    23   6     0.00  -0.00  -0.00    -0.02   0.01  -0.00    -0.00   0.00  -0.00
    24   6     0.01   0.01  -0.01    -0.05  -0.06   0.03    -0.01  -0.01   0.00
    25   6     0.00  -0.00   0.00    -0.00   0.01  -0.00     0.04  -0.07   0.03
    26   6    -0.00  -0.00   0.00    -0.00  -0.00   0.00     0.01   0.00  -0.00
    27   1     0.01   0.00  -0.00     0.04   0.01  -0.01    -0.07  -0.02   0.01
    28   7     0.00   0.00  -0.00    -0.00   0.00  -0.00     0.00   0.00   0.00
    29   1    -0.00   0.00   0.00     0.00  -0.00  -0.00     0.00   0.00  -0.00
    30   1     0.00   0.00   0.00    -0.00  -0.00   0.00    -0.00   0.00   0.00
    31   1    -0.00  -0.00  -0.00     0.00   0.00   0.00    -0.00   0.00  -0.00
    32   1    -0.02   0.02  -0.01     0.08  -0.12   0.06    -0.52   0.75  -0.35
    33   7     0.00   0.00   0.00     0.00   0.00   0.00    -0.00   0.00  -0.00
    34   6    -0.00  -0.00  -0.00    -0.00   0.00   0.00    -0.00  -0.00   0.00
    35   6    -0.00   0.00  -0.00    -0.00  -0.00   0.00    -0.00  -0.00  -0.00
    36   1     0.00  -0.00  -0.00     0.00  -0.00  -0.00    -0.00   0.00  -0.00
    37   1     0.00   0.00  -0.00    -0.00   0.00  -0.00    -0.00   0.00  -0.00
    38   1     0.00   0.00  -0.00     0.00   0.00  -0.00     0.00   0.00  -0.00
    39   1     0.00  -0.00  -0.00     0.00  -0.00  -0.00    -0.00   0.00   0.00
    40   1     0.00   0.00   0.00     0.00   0.00   0.00     0.00   0.00  -0.00
    41   1     0.00  -0.00   0.00    -0.00   0.00   0.00     0.00  -0.00   0.00
    42   6     0.00  -0.00  -0.00     0.00   0.00   0.00     0.00   0.00   0.00
    43   6     0.00   0.00  -0.00     0.00   0.00   0.00     0.00   0.00   0.00
    44   6     0.00   0.00  -0.00     0.00   0.00   0.00    -0.00  -0.00   0.00
    45   6     0.00  -0.00  -0.00     0.00   0.00   0.00     0.00   0.00   0.00
    46   1    -0.00  -0.00   0.00    -0.00  -0.00   0.00    -0.00  -0.00   0.00
    47   1    -0.00   0.00   0.00    -0.00  -0.00  -0.00    -0.00  -0.00  -0.00
    48   1    -0.00   0.00  -0.00    -0.00   0.00  -0.00    -0.00   0.00  -0.00
    49   1     0.00   0.00   0.00    -0.00  -0.00  -0.00    -0.00   0.00  -0.00
    50   1    -0.00   0.00   0.00     0.00  -0.00  -0.00    -0.00   0.00  -0.00
    51   1    -0.00  -0.00   0.00    -0.00  -0.00   0.00     0.00   0.00  -0.00
    52   1     0.00  -0.00   0.00     0.00   0.00  -0.00     0.00   0.00  -0.00
    53   1    -0.00   0.00   0.00    -0.00   0.00   0.00    -0.00   0.00   0.00
    54   1     0.00  -0.00  -0.00    -0.00  -0.00  -0.00    -0.00  -0.00  -0.00
    55   8     0.00   0.00   0.00    -0.00   0.00  -0.00     0.00  -0.00  -0.00
    56   6    -0.00  -0.00  -0.00     0.00  -0.00   0.00     0.00   0.00  -0.00
    57   6    -0.00  -0.00   0.00     0.00  -0.00   0.00    -0.00   0.00   0.00
    58   6     0.00   0.00  -0.00    -0.00  -0.00   0.00     0.00   0.00   0.00
    59   6    -0.00   0.00  -0.00    -0.00  -0.00   0.00    -0.00   0.00   0.00
    60   1     0.00   0.00   0.00     0.00   0.00   0.00    -0.00  -0.00  -0.00
    61   1    -0.00  -0.00   0.00     0.00  -0.00  -0.00    -0.00   0.00   0.00
    62   1    -0.00   0.00  -0.00    -0.00   0.00  -0.00     0.00  -0.00   0.00
    63   1     0.00  -0.00   0.00     0.00  -0.00   0.00     0.00   0.00  -0.00
    64   1     0.00  -0.00   0.00    -0.00   0.00  -0.00     0.00  -0.00   0.00
    65   1     0.00  -0.00  -0.00    -0.00  -0.00  -0.00     0.01   0.00   0.00
    66   1     0.00   0.00   0.00     0.00   0.00   0.00    -0.00  -0.00  -0.00
    67   1    -0.00  -0.00   0.00    -0.00   0.00  -0.00     0.00  -0.00   0.00
    68   1     0.00  -0.00  -0.00     0.00  -0.00  -0.00     0.00   0.00  -0.00

 -------------------
 - Thermochemistry -
 -------------------
 Temperature   298.150 Kelvin.  Pressure   1.00000 Atm.
 Atom     1 has atomic number 26 and mass  55.93494
 Atom     2 has atomic number  6 and mass  12.00000
 Atom     3 has atomic number 46 and mass 105.90320
 Atom     4 has atomic number  6 and mass  12.00000
 Atom     5 has atomic number  1 and mass   1.00783
 Atom     6 has atomic number  1 and mass   1.00783
 Atom     7 has atomic number  1 and mass   1.00783
 Atom     8 has atomic number  6 and mass  12.00000
 Atom     9 has atomic number  8 and mass  15.99491
 Atom    10 has atomic number  6 and mass  12.00000
 Atom    11 has atomic number  8 and mass  15.99491
 Atom    12 has atomic number  6 and mass  12.00000
 Atom    13 has atomic number  6 and mass  12.00000
 Atom    14 has atomic number  6 and mass  12.00000
 Atom    15 has atomic number  1 and mass   1.00783
 Atom    16 has atomic number  1 and mass   1.00783
 Atom    17 has atomic number  1 and mass   1.00783
 Atom    18 has atomic number  1 and mass   1.00783
 Atom    19 has atomic number  6 and mass  12.00000
 Atom    20 has atomic number  6 and mass  12.00000
 Atom    21 has atomic number  8 and mass  15.99491
 Atom    22 has atomic number  6 and mass  12.00000
 Atom    23 has atomic number  6 and mass  12.00000
 Atom    24 has atomic number  6 and mass  12.00000
 Atom    25 has atomic number  6 and mass  12.00000
 Atom    26 has atomic number  6 and mass  12.00000
 Atom    27 has atomic number  1 and mass   1.00783
 Atom    28 has atomic number  7 and mass  14.00307
 Atom    29 has atomic number  1 and mass   1.00783
 Atom    30 has atomic number  1 and mass   1.00783
 Atom    31 has atomic number  1 and mass   1.00783
 Atom    32 has atomic number  1 and mass   1.00783
 Atom    33 has atomic number  7 and mass  14.00307
 Atom    34 has atomic number  6 and mass  12.00000
 Atom    35 has atomic number  6 and mass  12.00000
 Atom    36 has atomic number  1 and mass   1.00783
 Atom    37 has atomic number  1 and mass   1.00783
 Atom    38 has atomic number  1 and mass   1.00783
 Atom    39 has atomic number  1 and mass   1.00783
 Atom    40 has atomic number  1 and mass   1.00783
 Atom    41 has atomic number  1 and mass   1.00783
 Atom    42 has atomic number  6 and mass  12.00000
 Atom    43 has atomic number  6 and mass  12.00000
 Atom    44 has atomic number  6 and mass  12.00000
 Atom    45 has atomic number  6 and mass  12.00000
 Atom    46 has atomic number  1 and mass   1.00783
 Atom    47 has atomic number  1 and mass   1.00783
 Atom    48 has atomic number  1 and mass   1.00783
 Atom    49 has atomic number  1 and mass   1.00783
 Atom    50 has atomic number  1 and mass   1.00783
 Atom    51 has atomic number  1 and mass   1.00783
 Atom    52 has atomic number  1 and mass   1.00783
 Atom    53 has atomic number  1 and mass   1.00783
 Atom    54 has atomic number  1 and mass   1.00783
 Atom    55 has atomic number  8 and mass  15.99491
 Atom    56 has atomic number  6 and mass  12.00000
 Atom    57 has atomic number  6 and mass  12.00000
 Atom    58 has atomic number  6 and mass  12.00000
 Atom    59 has atomic number  6 and mass  12.00000
 Atom    60 has atomic number  1 and mass   1.00783
 Atom    61 has atomic number  1 and mass   1.00783
 Atom    62 has atomic number  1 and mass   1.00783
 Atom    63 has atomic number  1 and mass   1.00783
 Atom    64 has atomic number  1 and mass   1.00783
 Atom    65 has atomic number  1 and mass   1.00783
 Atom    66 has atomic number  1 and mass   1.00783
 Atom    67 has atomic number  1 and mass   1.00783
 Atom    68 has atomic number  1 and mass   1.00783
 Molecular mass:   578.10565 amu.
 Principal axes and moments of inertia in atomic units:
                           1         2         3
     Eigenvalues --  ******************************
           X            0.99632  -0.08478   0.01247
           Y            0.08467   0.99637   0.00921
           Z           -0.01320  -0.00812   0.99988
 This molecule is an asymmetric top.
 Rotational symmetry number  1.
 Warning -- assumption of classical behavior for rotation
           may cause significant error
 Rotational temperatures (Kelvin)      0.00835     0.00698     0.00478
 Rotational constants (GHZ):           0.17402     0.14549     0.09958
    1 imaginary frequencies ignored.
 Zero-point vibrational energy    1461491.5 (Joules/Mol)
                                  349.30486 (Kcal/Mol)
 Warning -- explicit consideration of  57 degrees of freedom as
           vibrations may cause significant error
 Vibrational temperatures:     47.32    52.17    61.22    77.80    83.18
          (Kelvin)             95.20   101.81   136.17   140.07   145.79
                              164.20   201.15   203.80   218.70   232.24
                              245.38   249.69   267.56   279.39   291.92
                              302.04   310.08   323.55   326.30   333.01
                              340.25   353.15   379.48   388.65   396.32
                              410.65   431.47   438.94   449.95   456.79
                              480.91   500.67   508.72   521.70   530.66
                              557.04   595.15   598.52   607.69   623.65
                              638.15   647.25   656.85   665.82   673.38
                              711.04   714.04   736.54   826.63   839.95
                              864.73   886.95   903.49   926.46   933.01
                              959.96   975.51   979.57  1014.90  1023.66
                             1065.74  1081.48  1093.33  1120.04  1140.83
                             1154.02  1155.98  1158.79  1182.38  1189.66
                             1202.68  1235.32  1253.61  1264.20  1286.47
                             1296.74  1306.83  1364.30  1366.85  1370.15
                             1371.16  1388.41  1392.30  1397.28  1397.38
                             1401.95  1430.64  1475.68  1485.31  1486.23
                             1487.52  1495.54  1501.04  1512.33  1513.78
                             1521.59  1547.52  1559.98  1563.22  1578.46
                             1609.84  1653.73  1663.76  1667.80  1687.49
                             1700.64  1710.57  1727.95  1765.11  1774.67
                             1788.50  1792.59  1801.06  1809.29  1813.24
                             1815.12  1819.89  1858.24  1874.75  1892.64
                             1918.33  1938.32  1983.50  1996.78  2001.28
                             2014.13  2019.90  2023.82  2024.71  2025.92
                             2030.23  2048.70  2053.65  2055.35  2067.35
                             2080.72  2085.06  2088.51  2103.51  2113.02
                             2119.14  2120.49  2126.18  2130.29  2130.72
                             2134.50  2135.56  2138.12  2141.61  2146.40
                             2149.08  2157.55  2162.26  2168.24  2175.46
                             2445.12  2477.57  4039.09  4083.86  4136.84
                             4166.15  4186.09  4288.78  4304.48  4323.24
                             4327.74  4330.11  4339.74  4348.05  4349.53
                             4357.98  4358.84  4363.94  4366.85  4367.27
                             4372.55  4376.03  4378.63  4380.85  4383.31
                             4386.26  4392.53  4392.73  4393.11  4573.91
                             4634.07  4640.18  4642.89  4655.29  4678.58
                             4693.74  4748.18
 
 Zero-point correction=                           0.556653 (Hartree/Particle)
 Thermal correction to Energy=                    0.590300
 Thermal correction to Enthalpy=                  0.591244
 Thermal correction to Gibbs Free Energy=         0.494687
 Sum of electronic and zero-point Energies=            -99.168416
 Sum of electronic and thermal Energies=               -99.134769
 Sum of electronic and thermal Enthalpies=             -99.133825
 Sum of electronic and thermal Free Energies=          -99.230382
 
                     E (Thermal)             CV                S
                      KCal/Mol        Cal/Mol-Kelvin    Cal/Mol-Kelvin
 Total                  370.419            133.313            203.222
 Electronic               0.000              0.000              0.000
 Translational            0.889              2.981             44.948
 Rotational               0.889              2.981             36.098
 Vibrational            368.641            127.352            122.175
 Vibration     1          0.594              1.983              5.647
 Vibration     2          0.594              1.982              5.454
 Vibration     3          0.595              1.980              5.137
 Vibration     4          0.596              1.976              4.663
 Vibration     5          0.596              1.974              4.531
 Vibration     6          0.598              1.970              4.264
 Vibration     7          0.598              1.968              4.132
 Vibration     8          0.603              1.953              3.562
 Vibration     9          0.603              1.951              3.507
 Vibration    10          0.604              1.948              3.429
 Vibration    11          0.607              1.938              3.197
 Vibration    12          0.615              1.914              2.806
 Vibration    13          0.615              1.912              2.782
 Vibration    14          0.619              1.900              2.647
 Vibration    15          0.622              1.890              2.533
 Vibration    16          0.626              1.879              2.429
 Vibration    17          0.627              1.875              2.397
 Vibration    18          0.632              1.859              2.268
 Vibration    19          0.635              1.848              2.188
 Vibration    20          0.639              1.836              2.107
 Vibration    21          0.642              1.826              2.044
 Vibration    22          0.645              1.817              1.996
 Vibration    23          0.650              1.803              1.919
 Vibration    24          0.650              1.800              1.904
 Vibration    25          0.653              1.793              1.868
 Vibration    26          0.655              1.785              1.829
 Vibration    27          0.660              1.770              1.763
 Vibration    28          0.670              1.739              1.637
 Vibration    29          0.674              1.728              1.595
 Vibration    30          0.677              1.719              1.562
 Vibration    31          0.683              1.701              1.501
 Vibration    32          0.692              1.674              1.418
 Vibration    33          0.696              1.664              1.389
 Vibration    34          0.701              1.649              1.348
 Vibration    35          0.704              1.640              1.323
 Vibration    36          0.716              1.607              1.239
 Vibration    37          0.726              1.579              1.175
 Vibration    38          0.730              1.568              1.150
 Vibration    39          0.736              1.549              1.111
 Vibration    40          0.741              1.536              1.085
 Vibration    41          0.756              1.498              1.011
 Vibration    42          0.777              1.441              0.914
 Vibration    43          0.779              1.435              0.906
 Vibration    44          0.785              1.422              0.884
 Vibration    45          0.794              1.397              0.847
 Vibration    46          0.803              1.375              0.816
 Vibration    47          0.809              1.361              0.796
 Vibration    48          0.815              1.346              0.776
 Vibration    49          0.820              1.333              0.758
 Vibration    50          0.825              1.321              0.743
 Vibration    51          0.850              1.263              0.673
 Vibration    52          0.852              1.258              0.667
 Vibration    53          0.867              1.224              0.629
 Vibration    54          0.931              1.086              0.496
 Vibration    55          0.941              1.066              0.478
 Vibration    56          0.959              1.030              0.448
 Vibration    57          0.976              0.997              0.422
                       Q            Log10(Q)             Ln(Q)
 Total Bot       0.288472-227       -227.539896       -523.929972
 Total V=0       0.317947D+29         28.502355         65.629098
 Vib (Bot)       0.305469-243       -243.515032       -560.714083
 Vib (Bot)    1  0.629391D+01          0.798921          1.839583
 Vib (Bot)    2  0.570781D+01          0.756469          1.741835
 Vib (Bot)    3  0.486154D+01          0.686774          1.581356
 Vib (Bot)    4  0.382164D+01          0.582250          1.340679
 Vib (Bot)    5  0.357286D+01          0.553016          1.273366
 Vib (Bot)    6  0.311872D+01          0.493976          1.137423
 Vib (Bot)    7  0.291436D+01          0.464544          1.069651
 Vib (Bot)    8  0.217059D+01          0.336577          0.774998
 Vib (Bot)    9  0.210921D+01          0.324119          0.746311
 Vib (Bot)   10  0.202478D+01          0.306378          0.705462
 Vib (Bot)   11  0.179300D+01          0.253580          0.583890
 Vib (Bot)   12  0.145445D+01          0.162699          0.374628
 Vib (Bot)   13  0.143487D+01          0.156812          0.361073
 Vib (Bot)   14  0.133318D+01          0.124890          0.287569
 Vib (Bot)   15  0.125191D+01          0.097574          0.224673
 Vib (Bot)   16  0.118145D+01          0.072416          0.166745
 Vib (Bot)   17  0.115987D+01          0.064411          0.148312
 Vib (Bot)   18  0.107782D+01          0.032545          0.074938
 Vib (Bot)   19  0.102910D+01          0.012456          0.028681
 Vib (Bot)   20  0.981658D+00         -0.008040         -0.018512
 Vib (Bot)   21  0.946157D+00         -0.024037         -0.055347
 Vib (Bot)   22  0.919526D+00         -0.036436         -0.083897
 Vib (Bot)   23  0.877783D+00         -0.056613         -0.130356
 Vib (Bot)   24  0.869661D+00         -0.060650         -0.139652
 Vib (Bot)   25  0.850433D+00         -0.070360         -0.162010
 Vib (Bot)   26  0.830462D+00         -0.080680         -0.185773
 Vib (Bot)   27  0.796855D+00         -0.098621         -0.227083
 Vib (Bot)   28  0.735046D+00         -0.133685         -0.307822
 Vib (Bot)   29  0.715395D+00         -0.145454         -0.334921
 Vib (Bot)   30  0.699628D+00         -0.155133         -0.357207
 Vib (Bot)   31  0.671681D+00         -0.172837         -0.397971
 Vib (Bot)   32  0.634205D+00         -0.197770         -0.455382
 Vib (Bot)   33  0.621578D+00         -0.206504         -0.475494
 Vib (Bot)   34  0.603696D+00         -0.219182         -0.504684
 Vib (Bot)   35  0.592985D+00         -0.226956         -0.522586
 Vib (Bot)   36  0.557537D+00         -0.253726         -0.584226
 Vib (Bot)   37  0.530888D+00         -0.274997         -0.633204
 Vib (Bot)   38  0.520586D+00         -0.283508         -0.652800
 Vib (Bot)   39  0.504612D+00         -0.297042         -0.683965
 Vib (Bot)   40  0.494007D+00         -0.306267         -0.705206
 Vib (Bot)   41  0.464645D+00         -0.332879         -0.766482
 Vib (Bot)   42  0.426537D+00         -0.370043         -0.852055
 Vib (Bot)   43  0.423383D+00         -0.373267         -0.859479
 Vib (Bot)   44  0.414973D+00         -0.381980         -0.879542
 Vib (Bot)   45  0.400886D+00         -0.396979         -0.914079
 Vib (Bot)   46  0.388655D+00         -0.410435         -0.945062
 Vib (Bot)   47  0.381239D+00         -0.418802         -0.964328
 Vib (Bot)   48  0.373627D+00         -0.427562         -0.984498
 Vib (Bot)   49  0.366704D+00         -0.435684         -1.003200
 Vib (Bot)   50  0.360999D+00         -0.442494         -1.018881
 Vib (Bot)   51  0.334277D+00         -0.475894         -1.095786
 Vib (Bot)   52  0.332260D+00         -0.478521         -1.101836
 Vib (Bot)   53  0.317639D+00         -0.498067         -1.146841
 Vib (Bot)   54  0.266676D+00         -0.574016         -1.321720
 Vib (Bot)   55  0.260026D+00         -0.584983         -1.346974
 Vib (Bot)   56  0.248183D+00         -0.605228         -1.393588
 Vib (Bot)   57  0.238110D+00         -0.623222         -1.435022
 Vib (V=0)       0.336681D+13         12.527219         28.844987
 Vib (V=0)    1  0.681374D+01          0.833386          1.918941
 Vib (V=0)    2  0.622967D+01          0.794465          1.829323
 Vib (V=0)    3  0.538719D+01          0.731362          1.684024
 Vib (V=0)    4  0.435421D+01          0.638909          1.471143
 Vib (V=0)    5  0.410768D+01          0.613596          1.412857
 Vib (V=0)    6  0.365855D+01          0.563309          1.297066
 Vib (V=0)    7  0.345694D+01          0.538692          1.240384
 Vib (V=0)    8  0.272743D+01          0.435754          1.003360
 Vib (V=0)    9  0.266766D+01          0.426130          0.981202
 Vib (V=0)   10  0.258560D+01          0.412562          0.949959
 Vib (V=0)   11  0.236141D+01          0.373172          0.859259
 Vib (V=0)   12  0.203799D+01          0.309203          0.711966
 Vib (V=0)   13  0.201949D+01          0.305242          0.702845
 Vib (V=0)   14  0.192386D+01          0.284173          0.654333
 Vib (V=0)   15  0.184807D+01          0.266718          0.614141
 Vib (V=0)   16  0.178290D+01          0.251127          0.578241
 Vib (V=0)   17  0.176306D+01          0.246266          0.567048
 Vib (V=0)   18  0.168815D+01          0.227410          0.523631
 Vib (V=0)   19  0.164413D+01          0.215937          0.497213
 Vib (V=0)   20  0.160166D+01          0.204570          0.471040
 Vib (V=0)   21  0.157015D+01          0.195940          0.451169
 Vib (V=0)   22  0.154667D+01          0.189399          0.436107
 Vib (V=0)   23  0.151020D+01          0.179034          0.412242
 Vib (V=0)   24  0.150315D+01          0.177002          0.407563
 Vib (V=0)   25  0.148653D+01          0.172173          0.396443
 Vib (V=0)   26  0.146936D+01          0.167130          0.384830
 Vib (V=0)   27  0.144073D+01          0.158583          0.365152
 Vib (V=0)   28  0.138898D+01          0.142697          0.328573
 Vib (V=0)   29  0.137281D+01          0.137609          0.316856
 Vib (V=0)   30  0.135993D+01          0.133516          0.307433
 Vib (V=0)   31  0.133735D+01          0.126245          0.290690
 Vib (V=0)   32  0.130760D+01          0.116475          0.268193
 Vib (V=0)   33  0.129772D+01          0.113181          0.260610
 Vib (V=0)   34  0.128387D+01          0.108520          0.249877
 Vib (V=0)   35  0.127565D+01          0.105731          0.243455
 Vib (V=0)   36  0.124890D+01          0.096527          0.222261
 Vib (V=0)   37  0.122928D+01          0.089649          0.206425
 Vib (V=0)   38  0.122181D+01          0.087004          0.200333
 Vib (V=0)   39  0.121038D+01          0.082920          0.190931
 Vib (V=0)   40  0.120288D+01          0.080223          0.184720
 Vib (V=0)   41  0.118256D+01          0.072825          0.167686
 Vib (V=0)   42  0.115722D+01          0.063415          0.146018
 Vib (V=0)   43  0.115517D+01          0.062647          0.144251
 Vib (V=0)   44  0.114977D+01          0.060611          0.139563
 Vib (V=0)   45  0.114087D+01          0.057235          0.131788
 Vib (V=0)   46  0.113329D+01          0.054340          0.125123
 Vib (V=0)   47  0.112876D+01          0.052603          0.121123
 Vib (V=0)   48  0.112418D+01          0.050835          0.117051
 Vib (V=0)   49  0.112006D+01          0.049240          0.113380
 Vib (V=0)   50  0.111670D+01          0.047937          0.110379
 Vib (V=0)   51  0.110145D+01          0.041964          0.096627
 Vib (V=0)   52  0.110033D+01          0.041523          0.095611
 Vib (V=0)   53  0.109236D+01          0.038367          0.088344
 Vib (V=0)   54  0.106667D+01          0.028031          0.064543
 Vib (V=0)   55  0.106357D+01          0.026767          0.061633
 Vib (V=0)   56  0.105821D+01          0.024571          0.056576
 Vib (V=0)   57  0.105380D+01          0.022759          0.052404
 Electronic      0.100000D+01          0.000000          0.000000
 Translational   0.546342D+09          8.737465         20.118756
 Rotational      0.172851D+08          7.237672         16.665355
 ***** Axes restored to original set *****
 -------------------------------------------------------------------
 Center     Atomic                   Forces (Hartrees/Bohr)
 Number     Number              X              Y              Z
 -------------------------------------------------------------------
      1       26           0.000008135   -0.000013443    0.000008129
      2        6           0.000012504   -0.000013244   -0.000017247
      3       46          -0.007775746    0.006156517    0.011415534
      4        6          -0.000001811   -0.000004292    0.000009867
      5        1          -0.000002266    0.000001158    0.000001337
      6        1          -0.000004958   -0.000000388    0.000005711
      7        1           0.000000389    0.000000165   -0.000006660
      8        6           0.000007543    0.000010410    0.000012258
      9        8          -0.000004201    0.000006713    0.000009503
     10        6          -0.000030392    0.000019746   -0.000012091
     11        8           0.018901352    0.013629161   -0.004137240
     12        6           0.000002664    0.000027465   -0.000006802
     13        6           0.000016714   -0.000006581    0.000000654
     14        6           0.000006572    0.000001027    0.000001433
     15        1          -0.000004028   -0.000006912    0.000000848
     16        1          -0.000006361   -0.000000928   -0.000001039
     17        1          -0.000000003   -0.000000637    0.000001038
     18        1          -0.000157508    0.000214605   -0.016856205
     19        6          -0.015100691   -0.018953704    0.015559273
     20        6           0.000006412   -0.000000852   -0.000004795
     21        8           0.002445219   -0.003758274   -0.005776260
     22        6           0.000005881    0.000011781    0.000011037
     23        6           0.000014320   -0.000003606   -0.000000591
     24        6           0.000008739   -0.000009600   -0.000002976
     25        6          -0.000012985   -0.000002418    0.000013986
     26        6          -0.000016322   -0.000001571   -0.000017047
     27        1           0.000003268    0.000002041    0.000007817
     28        7          -0.005677298   -0.002232092    0.000501222
     29        1          -0.000001397    0.000000600    0.000001153
     30        1          -0.000003985    0.000002340   -0.000007470
     31        1           0.000001847    0.000000037    0.000003541
     32        1           0.000010132    0.000003450   -0.000009765
     33        7           0.007352464    0.004910177   -0.000704773
     34        6           0.000000880    0.000005554   -0.000006141
     35        6          -0.000004393    0.000002337    0.000004136
     36        1           0.000000680    0.000002102   -0.000000203
     37        1           0.000001275   -0.000000108    0.000002598
     38        1          -0.000000810   -0.000003084    0.000002265
     39        1           0.000000530   -0.000000718    0.000001094
     40        1           0.000003549   -0.000001145   -0.000001315
     41        1          -0.000001663   -0.000003442   -0.000001922
     42        6           0.000004397    0.000005561    0.000005063
     43        6          -0.000007916    0.000008888   -0.000001898
     44        6          -0.000003723   -0.000001761   -0.000006071
     45        6           0.000004977   -0.000003648    0.000003667
     46        1           0.000002848   -0.000003436   -0.000000412
     47        1           0.000003725   -0.000004492    0.000003636
     48        1          -0.000000925   -0.000000274   -0.000000705
     49        1           0.000000290   -0.000001903    0.000001183
     50        1           0.000000707    0.000002262   -0.000000354
     51        1          -0.000000540    0.000000655    0.000000532
     52        1          -0.000001351   -0.000001220   -0.000000431
     53        1          -0.000002498   -0.000000669   -0.000000790
     54        1          -0.000003027    0.000004192   -0.000004830
     55        8           0.000000273    0.000004737   -0.000011488
     56        6           0.000007410   -0.000000662    0.000007149
     57        6          -0.000003897   -0.000008883    0.000002067
     58        6           0.000001746    0.000007140   -0.000004411
     59        6          -0.000001188    0.000000899    0.000005218
     60        1          -0.000001735    0.000005892    0.000000192
     61        1          -0.000001095   -0.000003117   -0.000000758
     62        1          -0.000003061   -0.000000849   -0.000004544
     63        1           0.000000115   -0.000000989    0.000001206
     64        1          -0.000001396   -0.000000303    0.000002036
     65        1          -0.000004350    0.000001510    0.000003753
     66        1          -0.000002629   -0.000000781   -0.000000852
     67        1           0.000002884   -0.000000745   -0.000001640
     68        1           0.000005706    0.000001651   -0.000000413
 -------------------------------------------------------------------
 Cartesian Forces:  Max     0.018953704 RMS     0.003186972
 Z-matrix is all fixed cartesians, so copy forces.
 Leave Link  716 at Tue Oct 15 00:13:33 2024, MaxMem=   104857600 cpu:               0.1 elap:               0.6
 (Enter /home/echo/g16/l103.exe)

 GradGradGradGradGradGradGradGradGradGradGradGradGradGradGradGradGradGrad
 Berny optimization.
 Search for a local minimum.
 Step number   1 out of a maximum of    2
 All quantities printed in internal units (Hartrees-Bohrs-Radians)
 Second derivative matrix not updated -- analytic derivatives used.
 ITU=  0
     Eigenvalues ---   -0.03452   0.00017   0.00019   0.00026   0.00032
     Eigenvalues ---    0.00054   0.00066   0.00088   0.00109   0.00127
     Eigenvalues ---    0.00152   0.00161   0.00188   0.00205   0.00220
     Eigenvalues ---    0.00240   0.00259   0.00271   0.00294   0.00345
     Eigenvalues ---    0.00352   0.00428   0.00519   0.00609   0.00626
     Eigenvalues ---    0.00695   0.00776   0.00948   0.01047   0.01078
     Eigenvalues ---    0.01108   0.01255   0.01295   0.01371   0.01481
     Eigenvalues ---    0.01539   0.01650   0.01747   0.01768   0.01785
     Eigenvalues ---    0.01976   0.02020   0.02188   0.02200   0.02293
     Eigenvalues ---    0.02398   0.02802   0.03147   0.03417   0.03466
     Eigenvalues ---    0.03922   0.04113   0.04234   0.04301   0.04504
     Eigenvalues ---    0.04685   0.05008   0.05133   0.05181   0.05252
     Eigenvalues ---    0.05289   0.05361   0.05441   0.05539   0.05700
     Eigenvalues ---    0.05743   0.05775   0.06007   0.06061   0.06177
     Eigenvalues ---    0.06265   0.06380   0.06475   0.06491   0.06545
     Eigenvalues ---    0.06566   0.06820   0.06839   0.06875   0.07243
     Eigenvalues ---    0.07583   0.08180   0.08462   0.10077   0.10318
     Eigenvalues ---    0.10692   0.10980   0.11037   0.11201   0.11234
     Eigenvalues ---    0.11267   0.11372   0.11429   0.11530   0.11594
     Eigenvalues ---    0.11724   0.12038   0.12090   0.12311   0.12617
     Eigenvalues ---    0.12713   0.12783   0.12947   0.13735   0.14243
     Eigenvalues ---    0.14385   0.14524   0.14821   0.14984   0.15595
     Eigenvalues ---    0.15932   0.16207   0.18062   0.18492   0.18670
     Eigenvalues ---    0.18737   0.18799   0.18973   0.19099   0.19499
     Eigenvalues ---    0.19804   0.20217   0.21095   0.21604   0.22064
     Eigenvalues ---    0.22754   0.23653   0.23898   0.24305   0.25100
     Eigenvalues ---    0.26106   0.29641   0.30564   0.32774   0.33687
     Eigenvalues ---    0.36445   0.39169   0.39534   0.39928   0.40388
     Eigenvalues ---    0.40992   0.41601   0.42344   0.43471   0.44278
     Eigenvalues ---    0.46337   0.49441   0.51261   0.51872   0.52356
     Eigenvalues ---    0.57424   0.57992   0.59660   0.61102   0.62037
     Eigenvalues ---    0.63842   0.66050   0.67431   0.67826   0.69253
     Eigenvalues ---    0.69684   0.70239   0.70826   0.71039   0.71415
     Eigenvalues ---    0.71685   0.72648   0.73422   0.74087   0.75018
     Eigenvalues ---    0.75092   0.75315   0.75746   0.76149   0.77090
     Eigenvalues ---    0.77232   0.77903   0.77996   0.78410   0.78815
     Eigenvalues ---    0.79230   0.79439   0.79732   0.80436   0.86937
     Eigenvalues ---    0.89943   0.91625   0.98169   1.02618   1.03283
     Eigenvalues ---    1.05040   1.13372   1.17070   1.17379   1.20729
     Eigenvalues ---    1.25765   1.36951   1.49688
 Eigenvalue     1 is  -3.45D-02 should be greater than     0.000000 Eigenvector:
                          Y18       X18       Z18       Y12       Z15
   1                    0.83119   0.43957  -0.21956  -0.09178   0.08421
                          Y19       Z11       Z19       Y8        Y3
   1                   -0.07798   0.07059  -0.06403  -0.06234  -0.05921
 Quadratic step=4.396D+00 exceeds max=3.000D-01 adjusted using Lamda=-5.028D-02.
 Angle between NR and scaled steps=  75.53 degrees.
 Angle between quadratic step and forces=  32.77 degrees.
 Linear search not attempted -- first point.
 B after Tr=    -0.000769    0.000067    0.004230
         Rot=    1.000000    0.000036   -0.000113    0.000016 Ang=   0.01 deg.
 Variable       Old X    -DE/DX   Delta X   Delta X   Delta X     New X
                                 (Linear)    (Quad)   (Total)
    X1       -3.56151   0.00001   0.00000  -0.00161  -0.00234  -3.56385
    Y1        2.26074  -0.00001   0.00000  -0.01929  -0.01912   2.24162
    Z1       -0.15513   0.00001   0.00000   0.00380   0.00867  -0.14646
    X2        2.88491   0.00001   0.00000   0.00067  -0.00091   2.88400
    Y2       -3.88091  -0.00001   0.00000   0.00010  -0.00014  -3.88106
    Z2       -3.03210  -0.00002   0.00000  -0.00642  -0.00256  -3.03466
    X3       -0.76825  -0.00778   0.00000  -0.02731  -0.02806  -0.79631
    Y3       -1.92100   0.00616   0.00000   0.00908   0.00920  -1.91180
    Z3        0.31283   0.01142   0.00000   0.05703   0.06157   0.37440
    X4       -6.09112  -0.00000   0.00000  -0.00907  -0.00971  -6.10083
    Y4       -2.26147  -0.00000   0.00000  -0.00492  -0.00459  -2.26606
    Z4        0.88485   0.00001   0.00000  -0.00674  -0.00097   0.88388
    X5       -6.32438  -0.00000   0.00000  -0.00062  -0.00159  -6.32597
    Y5        6.04707   0.00000   0.00000  -0.00228  -0.00213   6.04493
    Z5       -1.75329   0.00000   0.00000  -0.00037   0.00485  -1.74844
    X6       -7.60537  -0.00000   0.00000  -0.00160  -0.00301  -7.60838
    Y6        1.43096  -0.00000   0.00000  -0.00168  -0.00158   1.42938
    Z6       -3.03042   0.00001   0.00000  -0.00573   0.00011  -3.03031
    X7       -3.36464   0.00000   0.00000   0.00203   0.00028  -3.36436
    Y7       -1.12420   0.00000   0.00000  -0.00070  -0.00083  -1.12503
    Z7       -4.20190  -0.00001   0.00000  -0.00326   0.00181  -4.20009
    X8        2.92766   0.00001   0.00000   0.02934   0.02865   2.95631
    Y8        1.85605   0.00001   0.00000   0.00966   0.00964   1.86569
    Z8        0.09037   0.00001   0.00000  -0.00815  -0.00472   0.08564
    X9        3.94998  -0.00000   0.00000   0.01012   0.00811   3.95809
    Y9       -4.97176   0.00001   0.00000   0.00341   0.00300  -4.96875
    Z9       -4.76003   0.00001   0.00000  -0.00293   0.00076  -4.75927
   X10       -5.11488  -0.00003   0.00000  -0.04189  -0.04216  -5.15705
   Y10        0.02124   0.00002   0.00000  -0.00731  -0.00692   0.01432
   Z10        2.17417  -0.00001   0.00000   0.00833   0.01372   2.18789
   X11        1.00025   0.01890   0.00000   0.09222   0.09173   1.09198
   Y11        3.14186   0.01363   0.00000   0.08458   0.08466   3.22652
   Z11        0.78399  -0.00414   0.00000  -0.01173  -0.00798   0.77601
   X12       -2.66045   0.00000   0.00000   0.00014   0.00024  -2.66021
   Y12        3.25602   0.00003   0.00000  -0.04436  -0.04397   3.21205
   Z12        3.39470  -0.00001   0.00000  -0.01498  -0.01039   3.38432
   X13       -4.94891   0.00002   0.00000   0.00576   0.00572  -4.94319
   Y13        4.25825  -0.00001   0.00000  -0.00977  -0.00936   4.24890
   Z13        2.61827   0.00000   0.00000  -0.00501   0.00003   2.61830
   X14       -6.53033   0.00001   0.00000  -0.01294  -0.01320  -6.54353
   Y14        2.24484   0.00000   0.00000   0.00849   0.00891   2.25375
   Z14        1.93914   0.00000   0.00000  -0.01346  -0.00792   1.93123
   X15       -1.10523  -0.00000   0.00000  -0.00025  -0.00001  -1.10523
   Y15        4.43908  -0.00001   0.00000  -0.04130  -0.04092   4.39816
   Z15        3.88439   0.00000   0.00000  -0.00890  -0.00474   3.87965
   X16       -5.33604  -0.00001   0.00000   0.01547   0.01545  -5.32059
   Y16        6.22236  -0.00000   0.00000  -0.00656  -0.00614   6.21622
   Z16        2.42550  -0.00000   0.00000  -0.00513  -0.00015   2.42535
   X17       -8.36907  -0.00000   0.00000  -0.01090  -0.01133  -8.38040
   Y17        2.40162  -0.00000   0.00000   0.01269   0.01311   2.41473
   Z17        1.13710   0.00000   0.00000  -0.01323  -0.00728   1.12982
   X18       -0.99456  -0.00016   0.00000  -0.01279  -0.01327  -1.00783
   Y18        1.70130   0.00021   0.00000   0.00948   0.00965   1.71096
   Z18        1.21840  -0.01686   0.00000  -0.18593  -0.18159   1.03681
   X19       -2.53936  -0.01510   0.00000  -0.07876  -0.07883  -2.61819
   Y19        0.56469  -0.01895   0.00000  -0.07805  -0.07768   0.48701
   Z19        2.94941   0.01556   0.00000   0.07876   0.08355   3.03296
   X20        4.45004   0.00001   0.00000  -0.01587  -0.01695   4.43309
   Y20       -2.34509  -0.00000   0.00000   0.00545   0.00530  -2.33979
   Z20       -1.05579  -0.00000   0.00000   0.00221   0.00561  -1.05018
   X21        0.50151   0.00245   0.00000   0.00078  -0.00073   0.50079
   Y21       -3.87989  -0.00376   0.00000  -0.00677  -0.00691  -3.88680
   Z21       -2.69783  -0.00578   0.00000  -0.01974  -0.01534  -2.71317
   X22       -3.49645   0.00001   0.00000  -0.00329  -0.00483  -3.50128
   Y22        0.78819   0.00001   0.00000  -0.00166  -0.00174   0.78645
   Z22       -3.55775   0.00001   0.00000  -0.00369   0.00127  -3.55648
   X23       -5.72640   0.00001   0.00000  -0.00099  -0.00238  -5.72878
   Y23        2.15393  -0.00000   0.00000  -0.00405  -0.00402   2.14991
   Z23       -3.06910  -0.00000   0.00000  -0.00235   0.00302  -3.06608
   X24       -5.06284   0.00001   0.00000   0.00012  -0.00105  -5.06389
   Y24        4.64258  -0.00001   0.00000  -0.00647  -0.00641   4.63617
   Z24       -2.44047  -0.00000   0.00000   0.00907   0.01411  -2.42636
   X25       -2.42475  -0.00001   0.00000  -0.00087  -0.00205  -2.42680
   Y25        4.81619  -0.00000   0.00000  -0.00333  -0.00337   4.81283
   Z25       -2.51619   0.00001   0.00000   0.00616   0.01059  -2.50560
   X26       -1.46236  -0.00002   0.00000  -0.00199  -0.00342  -1.46578
   Y26        2.47276  -0.00000   0.00000  -0.00172  -0.00184   2.47092
   Z26       -3.29587  -0.00002   0.00000   0.00398   0.00837  -3.28751
   X27        0.47071   0.00000   0.00000  -0.00192  -0.00344   0.46727
   Y27        2.03665   0.00000   0.00000  -0.00142  -0.00163   2.03502
   Z27       -3.66163   0.00001   0.00000   0.00339   0.00737  -3.65426
   X28        2.70643  -0.00568   0.00000  -0.02920  -0.02999   2.67644
   Y28       -0.55309  -0.00223   0.00000   0.01011   0.01009  -0.54300
   Z28        0.00779   0.00050   0.00000  -0.00009   0.00358   0.01136
   X29        6.00961  -0.00000   0.00000  -0.01375  -0.01501   5.99460
   Y29       -1.37565   0.00000   0.00000   0.00741   0.00714  -1.36850
   Z29       -2.02008   0.00000   0.00000   0.00508   0.00806  -2.01202
   X30       -6.61965  -0.00000   0.00000  -0.00437  -0.00541  -6.62507
   Y30       -1.60307   0.00000   0.00000  -0.00199  -0.00178  -1.60486
   Z30       -0.99464  -0.00001   0.00000  -0.00621  -0.00037  -0.99501
   X31       -7.77435   0.00000   0.00000  -0.00298  -0.00344  -7.77779
   Y31       -3.04743   0.00000   0.00000  -0.02108  -0.02063  -3.06806
   Z31        1.82852   0.00000   0.00000  -0.01264  -0.00643   1.82209
   X32       -1.37574   0.00001   0.00000   0.00119   0.00022  -1.37552
   Y32        6.36813   0.00000   0.00000  -0.00183  -0.00185   6.36628
   Z32       -1.80125  -0.00001   0.00000   0.00059   0.00467  -1.79658
   X33       -4.11669   0.00735   0.00000   0.02600   0.02524  -4.09145
   Y33       -4.15658   0.00491   0.00000   0.02517   0.02542  -4.13117
   Z33        0.63608  -0.00070   0.00000  -0.00371   0.00174   0.63782
   X34       -4.64211   0.00000   0.00000   0.01368   0.01240  -4.62972
   Y34       -5.89944   0.00001   0.00000   0.01345   0.01357  -5.88587
   Z34       -1.42168  -0.00001   0.00000  -0.00050   0.00519  -1.41648
   X35       -3.80617  -0.00000   0.00000   0.00664   0.00637  -3.79981
   Y35       -5.55680   0.00000   0.00000   0.00755   0.00795  -5.54884
   Z35        2.99060   0.00000   0.00000  -0.00690  -0.00141   2.98919
   X36       -6.33260   0.00000   0.00000   0.01184   0.01061  -6.32200
   Y36       -7.03864   0.00000   0.00000   0.01529   0.01549  -7.02315
   Z36       -1.02676  -0.00000   0.00000   0.00544   0.01160  -1.01516
   X37       -4.94065   0.00000   0.00000   0.00611   0.00447  -4.93618
   Y37       -4.85607  -0.00000   0.00000   0.00449   0.00448  -4.85158
   Z37       -3.16875   0.00000   0.00000  -0.00428   0.00141  -3.16734
   X38       -3.03418  -0.00000   0.00000   0.00692   0.00553  -3.02865
   Y38       -7.15137  -0.00000   0.00000   0.00565   0.00570  -7.14567
   Z38       -1.70370   0.00000   0.00000  -0.00255   0.00288  -1.70082
   X39       -5.50815   0.00000   0.00000   0.00358   0.00336  -5.50479
   Y39       -6.67385  -0.00000   0.00000   0.00742   0.00791  -6.66594
   Z39        3.41636   0.00000   0.00000  -0.01554  -0.00959   3.40677
   X40       -2.20282   0.00000   0.00000   0.00330   0.00294  -2.19987
   Y40       -6.84466  -0.00000   0.00000   0.00281   0.00315  -6.84151
   Z40        2.83606  -0.00000   0.00000  -0.00488   0.00034   2.83640
   X41       -3.48275  -0.00000   0.00000   0.00197   0.00209  -3.48066
   Y41       -4.23832  -0.00000   0.00000  -0.00131  -0.00080  -4.23912
   Z41        4.54101  -0.00000   0.00000   0.00116   0.00648   4.54749
   X42        5.55640   0.00000   0.00000  -0.00461  -0.00529   5.55111
   Y42       -4.10084   0.00001   0.00000   0.00384   0.00380  -4.09704
   Z42        1.01601   0.00001   0.00000  -0.00331  -0.00004   1.01598
   X43        3.45147  -0.00001   0.00000  -0.00126  -0.00172   3.44975
   Y43       -5.69898   0.00001   0.00000   0.00053   0.00064  -5.69834
   Z43        2.21011  -0.00000   0.00000  -0.00272   0.00114   2.21125
   X44        6.78225  -0.00000   0.00000  -0.00171  -0.00187   6.78038
   Y44       -2.46587  -0.00000   0.00000   0.00103   0.00110  -2.46477
   Z44        3.06846  -0.00001   0.00000  -0.00290  -0.00002   3.06845
   X45        7.54511   0.00000   0.00000  -0.00259  -0.00359   7.54152
   Y45       -5.82090  -0.00000   0.00000   0.00373   0.00354  -5.81737
   Z45       -0.18107   0.00000   0.00000  -0.00347  -0.00051  -0.18159
   X46        2.02061   0.00000   0.00000  -0.00161  -0.00183   2.01878
   Y46       -4.45121  -0.00000   0.00000   0.00081   0.00103  -4.45018
   Z46        3.08328  -0.00000   0.00000  -0.00231   0.00179   3.08506
   X47        4.23709   0.00000   0.00000  -0.00054  -0.00070   4.23638
   Y47       -6.91111  -0.00000   0.00000   0.00074   0.00094  -6.91017
   Z47        3.67760   0.00000   0.00000  -0.00261   0.00117   3.67877
   X48        2.57475  -0.00000   0.00000  -0.00025  -0.00107   2.57369
   Y48       -6.89931  -0.00000   0.00000   0.00029   0.00033  -6.89898
   Z48        0.77713  -0.00000   0.00000  -0.00305   0.00110   0.77823
   X49        7.66764   0.00000   0.00000  -0.00171  -0.00158   7.66606
   Y49       -3.65626  -0.00000   0.00000  -0.00003   0.00011  -3.65615
   Z49        4.49324   0.00000   0.00000  -0.00323  -0.00046   4.49278
   X50        8.22035   0.00000   0.00000  -0.00080  -0.00111   8.21924
   Y50       -1.24605   0.00000   0.00000   0.00039   0.00035  -1.24570
   Z50        2.24915  -0.00000   0.00000  -0.00218   0.00029   2.24944
   X51        5.37147  -0.00000   0.00000  -0.00067  -0.00058   5.37089
   Y51       -1.27855   0.00000   0.00000   0.00123   0.00141  -1.27714
   Z51        3.98462   0.00000   0.00000  -0.00174   0.00137   3.98599
   X52        6.76174  -0.00000   0.00000  -0.00041  -0.00181   6.75993
   Y52       -6.80432  -0.00000   0.00000   0.00155   0.00127  -6.80305
   Z52       -1.80526  -0.00000   0.00000  -0.00307   0.00013  -1.80512
   X53        9.15245  -0.00000   0.00000  -0.00114  -0.00225   9.15021
   Y53       -4.71487  -0.00000   0.00000   0.00227   0.00198  -4.71289
   Z53       -0.82857  -0.00000   0.00000  -0.00227   0.00024  -0.82833
   X54        8.21305  -0.00000   0.00000  -0.00258  -0.00331   8.20974
   Y54       -7.20605   0.00000   0.00000   0.00367   0.00356  -7.20249
   Z54        1.18548  -0.00000   0.00000  -0.00249   0.00041   1.18590
   X55        5.11354   0.00000   0.00000   0.03681   0.03601   5.14955
   Y55        2.94899   0.00000   0.00000  -0.01027  -0.01041   2.93858
   Z55       -0.58232  -0.00001   0.00000  -0.00893  -0.00607  -0.58839
   X56        8.24903   0.00001   0.00000   0.00719   0.00641   8.25544
   Y56        6.05466  -0.00000   0.00000   0.00450   0.00424   6.05890
   Z56       -0.92483   0.00001   0.00000  -0.00202  -0.00008  -0.92492
   X57        5.62205  -0.00000   0.00000   0.00945   0.00889   5.63094
   Y57        5.52265  -0.00001   0.00000  -0.00291  -0.00302   5.51963
   Z57        0.15399   0.00000   0.00000  -0.00520  -0.00264   0.15135
   X58        3.67933   0.00000   0.00000   0.00705   0.00630   3.68564
   Y58        7.35009   0.00001   0.00000  -0.00102  -0.00114   7.34895
   Z58       -0.95637  -0.00000   0.00000  -0.00499  -0.00213  -0.95850
   X59        5.64386  -0.00000   0.00000   0.00307   0.00317   5.64703
   Y59        5.69826   0.00000   0.00000  -0.00106  -0.00096   5.69730
   Z59        3.03917   0.00001   0.00000  -0.00421  -0.00167   3.03750
   X60        9.59061  -0.00000   0.00000   0.00528   0.00461   9.59522
   Y60        4.67195   0.00001   0.00000   0.00305   0.00279   4.67474
   Z60       -0.21454   0.00000   0.00000  -0.00163   0.00010  -0.21444
   X61        8.20478  -0.00000   0.00000   0.00489   0.00365   8.20842
   Y61        5.92253  -0.00000   0.00000   0.00281   0.00239   5.92493
   Z61       -2.97326  -0.00000   0.00000  -0.00176   0.00019  -2.97307
   X62        8.86928  -0.00000   0.00000   0.00434   0.00374   8.87302
   Y62        7.93394  -0.00000   0.00000   0.00434   0.00409   7.93803
   Z62       -0.38195  -0.00000   0.00000  -0.00092   0.00074  -0.38122
   X63        3.42942   0.00000   0.00000   0.00329   0.00208   3.43150
   Y63        6.97681  -0.00000   0.00000  -0.00026  -0.00052   6.97629
   Z63       -2.96122   0.00000   0.00000  -0.00430  -0.00134  -2.96256
   X64        4.33341  -0.00000   0.00000   0.00879   0.00816   4.34156
   Y64        9.28075  -0.00000   0.00000  -0.00169  -0.00182   9.27893
   Z64       -0.70980   0.00000   0.00000  -0.00393  -0.00135  -0.71115
   X65        1.87895  -0.00000   0.00000   0.00770   0.00716   1.88612
   Y65        7.09647   0.00000   0.00000   0.00473   0.00474   7.10121
   Z65        0.00025   0.00000   0.00000  -0.00299   0.00030   0.00055
   X66        7.04730  -0.00000   0.00000   0.00173   0.00197   7.04926
   Y66        4.41342  -0.00000   0.00000  -0.00035  -0.00024   4.41318
   Z66        3.81623  -0.00000   0.00000  -0.00101   0.00131   3.81754
   X67        6.09274   0.00000   0.00000   0.00123   0.00153   6.09427
   Y67        7.61437  -0.00000   0.00000  -0.00050  -0.00037   7.61399
   Z67        3.62293  -0.00000   0.00000  -0.00413  -0.00182   3.62111
   X68        3.79654   0.00001   0.00000   0.00248   0.00273   3.79926
   Y68        5.18426   0.00000   0.00000  -0.00006   0.00015   5.18441
   Z68        3.77726  -0.00000   0.00000  -0.00508  -0.00208   3.77518
         Item               Value     Threshold  Converged?
 Maximum Force            0.018954     0.000450     NO 
 RMS     Force            0.003187     0.000300     NO 
 Maximum Displacement     0.181595     0.001800     NO 
 RMS     Displacement     0.020884     0.001200     NO 
 Predicted change in Energy=-8.137766D-03
 GradGradGradGradGradGradGradGradGradGradGradGradGradGradGradGradGradGrad

 Leave Link  103 at Tue Oct 15 00:13:33 2024, MaxMem=   104857600 cpu:               0.0 elap:               0.1
 (Enter /home/echo/g16/l9999.exe)
 Unable to Open any file for archive entry.
 1\1\GINC-ECHO\Freq\External='./xtb.sh'\ZDO\C24H36Fe1N2O4Pd1\ECHO\15-Oc
 t-2024\0\\#p freq external='./xtb.sh'\\Generate automatically by rxnb\
 \0,1\Fe,-1.88467,1.19633,-0.08209\C,1.52663,-2.05369,-1.60452\Pd,-0.40
 654,-1.01655,0.16554\C,-3.22328,-1.19672,0.46824\H,-3.34672,3.19997,-0
 .9278\H,-4.02459,0.75723,-1.60363\H,-1.78049,-0.5949,-2.22355\C,1.5492
 5,0.98218,0.04782\O,2.09024,-2.63094,-2.5189\C,-2.70668,0.01124,1.1505
 2\O,0.52931,1.6626,0.41487\C,-1.40785,1.72301,1.7964\C,-2.61885,2.2533
 7,1.38553\C,-3.4557,1.18792,1.02615\H,-0.58486,2.34906,2.05553\H,-2.82
 371,3.29273,1.28352\H,-4.42872,1.27088,0.60173\H,-0.5263,0.90029,0.644
 75\C,-1.34377,0.29882,1.56076\C,2.35486,-1.24097,-0.5587\O,0.26539,-2.
 05315,-1.42763\C,-1.85024,0.41709,-1.88268\C,-3.03028,1.13981,-1.6241\
 C,-2.67914,2.45675,-1.29144\C,-1.28312,2.54862,-1.33151\C,-0.77385,1.3
 0853,-1.7441\H,0.24909,1.07775,-1.93765\N,1.43218,-0.29268,0.00412\H,3
 .18015,-0.72796,-1.06898\H,-3.50297,-0.84831,-0.52634\H,-4.11401,-1.61
 263,0.96761\H,-0.72801,3.36987,-0.95318\N,-2.17846,-2.19957,0.3366\C,-
 2.4565,-3.12185,-0.75232\C,-2.01414,-2.94053,1.58256\H,-3.35107,-3.724
 69,-0.54334\H,-2.61448,-2.56972,-1.67683\H,-1.60562,-3.78434,-0.90156\
 H,-2.91479,-3.53165,1.80786\H,-1.16568,-3.62204,1.50078\H,-1.84299,-2.
 24282,2.403\C,2.94032,-2.17007,0.53765\C,1.82644,-3.01577,1.16954\C,3.
 58901,-1.30488,1.62376\C,3.9927,-3.08029,-0.09582\H,1.06926,-2.35548,1
 .6316\H,2.24217,-3.6572,1.9461\H,1.3625,-3.65096,0.41124\H,4.05754,-1.
 93481,2.37772\H,4.35002,-0.65938,1.1902\H,2.84246,-0.67658,2.10857\H,3
 .57816,-3.60069,-0.9553\H,4.84327,-2.495,-0.43846\H,4.34616,-3.81328,0
 .62733\O,2.70597,1.56054,-0.30815\C,4.3652,3.20399,-0.4894\C,2.97506,2
 .92246,0.08149\C,1.94702,3.8895,-0.50609\C,2.9866,3.01539,1.60826\H,5.
 07513,2.47229,-0.11353\H,4.34178,3.13407,-1.57338\H,4.69342,4.19846,-0
 .20212\H,1.81477,3.69197,-1.56701\H,2.29314,4.91116,-0.37561\H,0.9943,
 3.75529,0.00013\H,3.72927,2.33548,2.01946\H,3.22414,4.02935,1.91717\H,
 2.00904,2.74339,1.99884\\Version=ES64L-G16RevC.01\HF=-99.7250687\RMSD=
 0.000e+00\RMSF=3.187e-03\ZeroPoint=0.5566527\Thermal=0.5902997\ETot=-9
 9.1347691\HTot=-99.1338249\GTot=-99.230382\Dipole=0.,0.,0.\PG=C01 [X(C
 24H36Fe1N2O4Pd1)]\NImag=1\\0.46397345,-0.01646738,0.45964165,-0.000160
 28,-0.12235235,0.78515291,-0.00067666,-0.00229157,-0.00043536,0.672460
 30,-0.00090312,0.00012172,-0.00035512,-0.10369866,0.35261864,-0.001440
 60,0.00075048,0.00010185,-0.21067427,0.23084356,0.56121953,-0.02874824
 ,0.02970150,-0.00218127,-0.00632050,0.00471514,0.00916452,0.22009898,0
 .03493129,-0.05105849,0.00677245,0.00688967,0.00448190,0.00567772,-0.0
 1191767,0.18537600,-0.00053150,0.00290065,-0.01515952,0.01275576,0.004
 72563,0.00409984,-0.03896411,0.04661591,0.16149245,-0.00780678,-0.0044
 5006,-0.00273745,-0.00176987,0.00019039,0.00078726,-0.00711024,-0.0004
 0805,0.00149219,0.46028740,0.00149196,0.00043931,-0.00771907,0.0003519
 8,-0.00003288,-0.00039733,-0.00369828,0.00293637,0.00083017,0.00919397
 ,0.49853554,0.00241165,0.00403358,-0.00273653,0.00002775,-0.00016096,-
 0.00016916,0.00268698,-0.00051731,0.00086999,0.01282471,-0.01449211,0.
 51435113,-0.00307830,-0.00002247,0.00120417,0.00012732,-0.00008415,-0.
 00004516,0.00014685,-0.00055036,0.00022504,0.00000074,-0.00030932,0.00
 004538,0.17394227,0.00016384,-0.00283891,-0.00199680,-0.00019398,-0.00
 001540,-0.00002477,-0.00054895,0.00063456,-0.00027170,0.00027629,0.000
 56171,-0.00005212,-0.14483835,0.20402988,-0.00284278,0.00300763,-0.000
 63925,-0.00031881,0.00005729,0.00013651,0.00067095,-0.00084412,-0.0001
 0782,-0.00007856,-0.00048182,-0.00002318,-0.07354853,0.08689898,0.0664
 1869,-0.00189601,0.00046474,0.00270900,0.00006449,-0.00010103,-0.00008
 735,-0.00077716,-0.00029559,-0.00017546,-0.00016046,-0.00064424,-0.000
 04269,0.00025881,-0.00013659,-0.00049010,0.32651871,0.00172085,-0.0009
 4785,0.00024560,0.00007243,0.00002379,-0.00005627,0.00054613,-0.000133
 00,0.00023494,0.00039149,-0.00087648,0.00141446,0.00001141,-0.00038994
 ,0.00035907,0.10884686,0.08770587,-0.00297056,-0.00183298,0.00026161,-
 0.00002829,0.00006893,0.00008366,0.00021892,-0.00040625,0.00009454,-0.
 00071700,-0.00014905,-0.00079894,-0.00046526,0.00020929,-0.00096743,-0
 .00873519,0.00048114,0.02471460,-0.00160273,-0.00144898,-0.00018147,-0
 .00180387,0.00045669,-0.00013399,0.00060032,0.00023502,-0.00296172,0.0
 0013142,-0.00012901,0.00052274,0.00034609,0.00089387,0.00039637,-0.000
 04113,0.00011326,-0.00021661,0.04369115,-0.00067982,0.00287024,0.00276
 626,0.00039309,0.00032975,-0.00002721,-0.00083659,0.00124438,-0.001969
 67,-0.00042395,-0.00019755,0.00020367,-0.00045130,-0.00029211,-0.00054
 623,0.00015949,0.00024123,0.00016906,-0.01764268,0.32361776,-0.0011828
 5,-0.00458409,0.00297008,-0.00107907,0.00035934,0.00052435,-0.00437132
 ,0.00081443,-0.00598936,0.00019369,-0.00045016,-0.00047911,-0.00018423
 ,0.00021165,0.00057582,-0.00000754,0.00002811,-0.00091119,-0.00748058,
 0.09928933,0.05479761,0.00998701,-0.00115089,-0.00018274,0.00978172,0.
 00188390,0.00027870,0.00274838,-0.01282471,-0.00296827,0.00012003,-0.0
 0075301,0.00038148,0.00021373,0.00006425,-0.00017924,0.00033399,0.0001
 1356,-0.00027180,0.00006343,-0.00017860,-0.00000483,0.56110809,-0.0060
 0213,-0.00785781,0.00080240,-0.00637173,-0.00463557,-0.00823516,-0.013
 82976,0.00067071,0.00446536,-0.00212719,0.00147861,-0.00011597,0.00010
 465,-0.00015834,-0.00010440,-0.00019080,-0.00024204,0.00052211,-0.0006
 9906,-0.00055782,-0.00062332,-0.03503524,0.81486375,-0.00229250,-0.000
 59217,-0.00184608,0.00134033,-0.00423814,-0.00095740,-0.00141442,0.002
 41774,0.00162352,-0.00009225,0.00038314,-0.00017929,0.00012729,-0.0001
 1834,0.00009022,0.00012368,-0.00004804,0.00020441,-0.00032278,-0.00016
 666,-0.00009193,-0.13569007,0.06587841,0.20554701,0.00016106,0.0007432
 3,0.00028327,-0.18093970,0.11952894,0.19105830,-0.00297867,-0.00242448
 ,-0.00295951,0.00058486,-0.00019979,-0.00008955,-0.00003170,0.00007210
 ,0.00012653,-0.00000381,-0.00004505,0.00004511,0.00047553,-0.00011700,
 0.00042878,-0.00339002,-0.00017873,0.00054104,0.23428322,0.00042937,-0
 .00006528,0.00020710,0.11845462,-0.19440769,-0.20648815,0.00010235,0.0
 0068141,-0.00164636,-0.00028373,0.00008590,0.00013436,0.00003916,-0.00
 001489,-0.00007884,0.00007244,0.00002928,-0.00005581,-0.00028289,-0.00
 000420,-0.00023146,0.00029829,0.00340982,-0.00062936,-0.14675170,0.194
 59574,0.00090102,-0.00075897,0.00024682,0.18769246,-0.20754760,-0.3918
 1542,0.00050069,-0.00177362,-0.00146863,-0.00059316,0.00011611,0.00011
 935,0.00000585,0.00001143,-0.00011188,0.00001039,0.00004937,-0.0000676
 8,-0.00007288,0.00005738,-0.00049824,0.00161133,0.00580268,-0.00261997
 ,-0.24053561,0.26637832,0.44741324,-0.02052345,-0.04091055,0.03987829,
 -0.00056655,0.00006179,-0.00001804,-0.01096266,0.00178503,0.00527603,-
 0.08546766,-0.05543363,-0.04032921,0.00000724,0.00022386,-0.00048534,-
 0.00065036,0.00001037,0.00004918,-0.00009121,0.00036794,-0.00113122,-0
 .00127855,-0.00094071,0.00065027,0.00024839,-0.00018383,-0.00042110,0.
 48767956,-0.04966538,-0.07604755,0.06389459,0.00021090,0.00004031,-0.0
 0002447,0.00806993,0.00345614,-0.00019966,-0.05449250,-0.17455028,-0.0
 7417384,-0.00044845,0.00014699,-0.00043640,-0.00054323,-0.00014126,-0.
 00014352,0.00032555,-0.00066421,0.00031976,-0.00034285,0.00098882,-0.0
 0000019,-0.00011386,0.00002256,0.00019837,0.02973389,0.69021706,0.0364
 8024,0.05381036,-0.08263618,-0.00075568,0.00018767,0.00059102,0.006674
 98,-0.00182692,-0.00190254,-0.03567497,-0.06958280,-0.08782491,0.00010
 666,-0.00030324,0.00044041,-0.00014644,-0.00010563,0.00025871,0.000025
 61,0.00018649,-0.00007931,-0.00096272,-0.00099591,0.00039399,0.0002174
 7,-0.00012131,-0.00055010,0.09636985,0.06272083,0.25510550,-0.03744161
 ,-0.01299135,-0.00085196,-0.01784904,-0.00416515,-0.00616868,-0.015064
 45,0.00226265,0.00246587,-0.00058141,0.00285430,-0.00067869,0.00060675
 ,-0.00080822,0.00085728,0.00054162,0.00003216,0.00125871,-0.00059990,0
 .00027320,0.00047169,-0.24159492,0.12816233,0.06974327,0.00336995,0.00
 313971,0.00450516,0.00256152,0.00222198,0.00095413,0.37093769,-0.01415
 799,-0.00203937,0.00064258,0.00441456,0.00094555,0.00274028,-0.0055843
 1,-0.01134753,-0.00149999,0.00038907,-0.00014282,-0.00022643,-0.000048
 13,0.00003071,-0.00002663,0.00019062,0.00011535,-0.00028107,0.00025103
 ,-0.00000554,0.00009197,0.15750570,-0.20069086,-0.05751549,-0.00014969
 ,-0.00174622,-0.00309162,0.00121126,-0.00017814,0.00214679,-0.18136580
 ,0.32057751,-0.00331697,0.00182066,-0.01011130,0.00252348,0.00233804,0
 .00159588,0.00348483,-0.00143246,-0.00394954,0.00057209,-0.00005580,0.
 00021776,0.00006390,-0.00018276,0.00017151,0.00004744,0.00004220,0.000
 17769,0.00019731,0.00016406,0.00035541,0.06928101,-0.04897447,-0.07381
 757,-0.00062281,-0.00033549,-0.00002681,0.00006774,0.00029522,-0.00171
 745,-0.11653397,0.07879071,0.10643252,-0.02091021,-0.02529800,-0.02781
 406,0.00180311,0.00013644,-0.00013755,0.00392890,-0.00067938,-0.003753
 09,-0.00382218,0.00110299,-0.00266488,-0.00013315,-0.00014718,-0.00012
 392,0.00044253,0.00012966,0.00062820,-0.00021081,0.00002907,0.00044988
 ,-0.00271581,-0.00138863,0.00120511,-0.00074799,0.00028456,0.00037158,
 -0.01280534,-0.02294073,-0.01052283,-0.01733885,0.00855765,0.01941947,
 0.67465722,-0.02064114,-0.01130451,-0.01679653,0.00000822,-0.00014387,
 -0.00017916,-0.00191312,-0.00259333,0.00022645,-0.00163283,0.00032471,
 -0.00471550,0.00025937,-0.00027340,0.00059303,0.00016614,-0.00047475,0
 .00071467,-0.00013604,0.00001169,-0.00018272,0.00207934,0.00027021,-0.
 00143658,0.00004027,-0.00006866,0.00035580,-0.02812673,-0.02265711,-0.
 02228163,-0.00659738,-0.00452092,-0.00281838,0.06828838,0.54209342,-0.
 01924433,-0.03188029,-0.08508175,-0.00013515,0.00030561,0.00055823,0.0
 0098477,0.00320273,-0.00086244,-0.00052873,0.00082488,0.00098389,0.000
 31706,-0.00042755,0.00045376,0.00039642,0.00012596,0.00064940,-0.00000
 336,0.00017940,0.00073872,-0.00299669,0.00468216,0.00074357,0.00014962
 ,-0.00022712,-0.00047932,0.00162348,-0.00809489,-0.00031013,0.02021811
 ,-0.00646768,-0.00951321,0.18632942,0.08828577,0.22997373,-0.02628211,
 0.02381211,0.03756505,0.00090591,0.00017049,0.00004637,-0.00036869,-0.
 00140656,0.00071931,-0.00113052,0.00085526,-0.00284774,-0.00003211,0.0
 0076185,-0.00116814,-0.00011724,-0.00049159,-0.00051140,-0.00015849,-0
 .00028544,0.00027385,0.00016693,0.00144456,0.00078564,-0.00032402,0.00
 001096,0.00001124,0.02468641,-0.01538119,-0.00232156,0.00200152,-0.001
 94371,-0.00092179,-0.28778025,0.07419014,-0.10973743,0.53838535,0.0213
 8262,-0.04853542,-0.04047574,-0.00120894,-0.00018301,-0.00000523,-0.00
 132236,-0.00027546,0.00105784,0.00456845,-0.00218915,-0.00145652,0.000
 86786,-0.00026226,0.00267131,0.00024023,-0.00026386,0.00031357,-0.0001
 1806,0.00011698,0.00063034,0.00114114,-0.00135593,-0.00063852,0.000419
 08,-0.00004596,-0.00005543,0.00578961,-0.05302205,-0.01271733,-0.00305
 272,-0.00002557,0.00115624,0.11771259,-0.11501072,0.04093516,-0.070938
 65,0.79120565,0.03557607,-0.03341386,-0.07086874,0.00015896,0.00018757
 ,0.00016360,-0.00096260,0.00103487,0.00021478,-0.00129031,0.00072471,0
 .00091662,0.00023878,-0.00001772,-0.00238048,0.00030266,-0.00024491,0.
 00054297,-0.00062409,0.00059096,-0.00085089,0.00032272,0.00147888,-0.0
 0009620,-0.00012666,-0.00007373,-0.00010061,0.00081399,-0.00203556,0.0
 0298987,-0.00048571,-0.00342455,-0.00352983,-0.07610079,0.01768100,-0.
 06070170,0.13162603,0.03689849,0.20179568,-0.09162012,0.00232759,0.063
 50936,0.00027253,-0.00008597,-0.00011743,-0.00283337,-0.00108444,-0.00
 039172,0.00585179,-0.00611075,-0.00046662,0.00016533,0.00088187,-0.000
 53935,-0.00057405,-0.00042999,-0.00208582,0.00015000,-0.00012761,-0.00
 076253,0.00033871,-0.00058178,-0.00016025,-0.00002764,0.00006306,-0.00
 000352,-0.13864570,0.13913717,-0.03085865,-0.00051146,-0.00048190,0.00
 162669,-0.04474251,-0.01237202,-0.01219051,-0.16084519,-0.14104010,-0.
 06648715,0.75073375,0.00417134,-0.00211770,-0.00015193,-0.00043133,-0.
 00004520,0.00001197,0.00221789,0.00066274,-0.00118114,0.01459574,-0.02
 826900,-0.00223969,-0.00014123,-0.00068449,0.00050457,-0.00003386,0.00
 041213,-0.00008192,0.00010915,0.00009627,-0.00027756,-0.00041718,0.000
 15857,0.00001351,0.00013626,-0.00007065,0.00000943,0.09023974,-0.25112
 703,0.01791901,0.00088842,0.00147159,0.00008757,-0.03034788,0.01570635
 ,0.00113931,-0.09801061,-0.22647317,-0.05712255,-0.01588801,0.55526128
 ,0.04890048,-0.00427130,-0.05496525,-0.00007818,0.00002576,0.00010598,
 -0.00225522,-0.00103681,-0.00019017,0.00502119,-0.00740811,-0.00226154
 ,0.00057844,0.00032301,-0.00055446,0.00088040,-0.00012785,-0.00191096,
 -0.00024766,0.00015815,0.00060819,0.00022463,-0.00069029,0.00020814,0.
 00003206,-0.00001814,-0.00006900,-0.02205969,0.01310027,-0.03484481,-0
 .00040542,0.00059106,0.00234688,-0.03248211,0.00107771,-0.00244432,-0.
 04293189,-0.05039561,-0.04728899,0.16897456,0.03731471,0.21876419,0.00
 016144,0.00122867,0.00281201,0.00004031,0.00004799,0.00008710,0.000457
 94,-0.00015886,-0.00020579,0.00013755,0.00027612,-0.00028563,-0.000070
 36,-0.00018643,0.00002748,0.00014421,0.00011221,0.00029014,-0.00003525
 ,0.00005684,0.00001583,-0.00082593,0.00083143,0.00141028,-0.00000792,-
 0.00003204,-0.00006548,-0.00117913,-0.00009043,-0.00082701,-0.00460101
 ,0.00211052,0.00547942,-0.21314882,-0.13362028,-0.06234225,-0.02101950
 ,-0.01433752,-0.00651776,-0.00509211,0.00020850,-0.00412919,0.24386078
 ,0.00099623,-0.00168047,0.00185768,-0.00044654,-0.00004626,-0.00008740
 ,-0.00043592,-0.00081264,-0.00076492,-0.00121436,0.00030886,-0.0008046
 9,0.00008685,0.00005977,0.00011759,-0.00001404,-0.00013764,0.00008923,
 -0.00002190,-0.00004606,0.00017371,0.00129828,-0.00047135,-0.00123281,
 0.00009171,0.00007188,0.00006634,-0.00156514,-0.00549823,-0.00317474,0
 .00073107,0.00010252,0.00020443,-0.13487590,-0.14148721,-0.04476350,0.
 00888276,0.00688819,0.00332153,0.00157622,-0.00117347,0.00062875,0.143
 21777,0.15506097,-0.00167861,-0.00258377,0.00399115,-0.00028198,-0.000
 06531,-0.00012516,-0.00015381,0.00007671,-0.00006752,0.00031418,0.0004
 5012,0.00084965,0.00019128,-0.00031441,0.00024800,0.00017573,0.0002325
 0,0.00023331,0.00014589,0.00028943,0.00005746,0.00211450,-0.00179832,-
 0.00168647,0.00004580,0.00008588,0.00012547,0.00109484,0.00133083,0.00
 128123,0.00271624,-0.00192895,-0.00336306,-0.06083987,-0.04241905,-0.0
 4139825,-0.00602820,-0.00296873,-0.00276428,-0.00067662,0.00115538,0.0
 0271309,0.06228041,0.05008471,0.04441784,-0.00288312,0.00108176,-0.003
 37502,0.00034845,-0.00000837,-0.00002976,0.00036971,-0.00063236,-0.000
 45257,0.00064293,-0.00082836,-0.00015987,0.00053962,0.00025412,-0.0010
 1808,-0.00009492,-0.00023261,-0.00022056,-0.00012809,-0.00014896,0.000
 02360,0.00000651,0.00062099,0.00012080,-0.00009946,0.00002946,0.000047
 38,-0.00191145,-0.00340791,-0.00217113,0.00088828,-0.00036540,0.000008
 46,-0.00557712,0.02374122,-0.00049004,-0.04644442,0.05666429,-0.009786
 45,0.00556637,-0.01708375,0.00281939,-0.00022429,0.00043014,0.00006873
 ,0.05266194,-0.00148454,-0.00126967,0.00358430,-0.00042025,0.00001020,
 0.00010670,-0.00052215,0.00013371,0.00028357,0.00091678,-0.00021428,-0
 .00004126,-0.00024847,0.00080905,-0.00036153,0.00017403,-0.00007777,0.
 00018602,-0.00015233,0.00016077,0.00012488,-0.00002129,-0.00042491,-0.
 00001933,0.00013678,-0.00003804,-0.00011860,-0.00075421,-0.00441964,-0
 .00173145,-0.00077827,0.00013304,-0.00007833,0.00315110,-0.00876871,0.
 00085589,0.05581015,-0.32599426,0.02776544,0.00455636,-0.01695144,0.00
 133467,0.00036228,0.00044316,-0.00008685,-0.06216919,0.35769040,0.0004
 5618,-0.00381871,0.00201860,0.00032247,0.00006238,0.00002005,-0.000165
 93,0.00072808,-0.00083425,0.00012047,0.00031887,0.00037301,-0.00112685
 ,-0.00024086,-0.00301681,0.00026571,-0.00002491,0.00026770,-0.00009613
 ,0.00031210,0.00014517,0.00007380,0.00000584,-0.00010413,-0.00013883,0
 .00001496,0.00008495,-0.00185959,0.00068624,0.00138360,-0.00107962,0.0
 0012450,-0.00006570,0.00018224,0.01073309,-0.00145096,-0.01032024,0.02
 666041,-0.02675350,0.00147070,-0.00476001,-0.00182221,0.00028516,-0.00
 009628,-0.00132265,0.01511271,-0.03181722,0.02903142,-0.00081152,0.001
 47427,-0.00438926,0.00028142,-0.00008540,-0.00017234,-0.00025122,-0.00
 053980,-0.00006786,-0.00018952,-0.00099820,0.00009365,-0.00024151,-0.0
 0063662,0.00017648,0.00059833,0.00043552,0.00075214,0.00013929,-0.0001
 9940,-0.00025300,0.00020660,0.00016395,-0.00011093,-0.00005774,0.00006
 434,0.00011972,-0.01095909,0.00180242,-0.00349885,0.00116770,0.0000332
 8,0.00046476,-0.00274135,-0.00091554,-0.00101465,-0.01195321,0.0009416
 1,-0.00392865,-0.28572700,0.02110885,-0.11476969,-0.00029484,0.0004716
 9,0.00015245,-0.00032334,-0.00031642,0.00049402,0.31289350,-0.00040781
 ,-0.00205492,0.00045762,-0.00016127,0.00002610,0.00005263,0.00124307,0
 .00008061,0.00011552,0.00060331,0.00008456,0.00060164,-0.00039684,-0.0
 0084048,0.00060832,-0.00003100,0.00056371,-0.00099281,0.00015375,-0.00
 006574,0.00003334,-0.00007673,-0.00024545,0.00001630,0.00003225,-0.000
 01234,-0.00003468,0.02070435,0.00011869,0.00853968,0.00025319,0.000303
 28,0.00003099,-0.00343047,-0.00325656,-0.00101687,-0.01946788,0.003677
 98,-0.00779440,0.02251129,-0.03964572,0.00925976,-0.00102821,0.0003797
 2,-0.00022217,-0.00020356,-0.00004373,-0.00028042,-0.02352952,0.045538
 66,0.00241279,-0.00144818,0.00069448,0.00013455,-0.00003615,-0.0000735
 4,-0.00088426,0.00031824,-0.00041833,0.00102876,0.00051986,-0.00052163
 ,0.00038601,0.00046465,0.00009138,0.00051196,-0.00093005,-0.00279173,0
 .00002432,0.00012217,0.00013376,0.00066061,-0.00060949,-0.00038391,-0.
 00007180,0.00003239,0.00009545,-0.00352524,-0.00092353,-0.00389636,-0.
 00197616,-0.00018045,0.00044958,-0.00443831,-0.00081633,0.00109395,-0.
 00728881,0.00216457,-0.00516399,-0.11407611,0.00897860,-0.06969380,-0.
 00086342,0.00005619,0.00023805,0.00053566,-0.00026329,-0.00065049,0.12
 736267,-0.00800751,0.07964935,-0.03961012,0.01517376,-0.02897650,0.008
 25939,0.00270920,0.00345517,0.01425362,-0.00610870,-0.00557133,0.00143
 500,-0.00018019,-0.00034788,-0.00002550,-0.00032246,0.00052124,0.00024
 048,-0.00006476,0.00071985,0.00046792,0.00016855,0.00071264,-0.0473853
 4,0.03576765,0.01864353,-0.00159479,-0.00144289,-0.00193681,-0.0095464
 8,0.00138154,-0.00197881,0.03686121,-0.00689983,-0.01796963,-0.0064880
 4,0.02007360,0.00642687,-0.00182614,0.00209890,0.00116639,0.00041724,-
 0.00227832,-0.00231841,0.00209355,-0.00202502,-0.00304235,0.00028995,0
 .00016557,-0.00064859,0.00013279,-0.00001156,-0.00018498,0.05085285,0.
 01829534,-0.00984981,0.00360310,0.00724582,0.00103541,0.00016564,0.006
 83168,0.01084054,-0.00782598,-0.00034267,-0.00007624,0.00015301,-0.000
 23078,0.00019775,-0.00026445,-0.00024918,-0.00039601,0.00025723,-0.000
 20949,-0.00039888,-0.00033952,-0.02057795,0.03723929,0.00894338,-0.001
 91474,-0.00017553,0.00018663,-0.00472483,-0.00019719,-0.00565928,0.014
 31672,-0.02797170,-0.00972460,-0.00438332,0.00666164,-0.00187361,0.006
 56216,-0.00046920,0.00598860,0.00092712,-0.00324968,0.00142823,0.00101
 629,-0.00312702,-0.00542039,0.00029478,-0.00026125,0.00052854,-0.00023
 506,-0.00089129,0.00053785,-0.02994778,-0.00632757,-0.02476504,0.00387
 884,-0.01741430,-0.00302120,-0.00107545,-0.00038797,-0.00379629,-0.001
 84242,0.01044427,0.00006101,0.00101645,-0.00057578,0.00026309,-0.00007
 509,-0.00013265,0.00055952,0.00009715,-0.00016437,-0.00037045,0.000214
 00,0.00003915,0.01154893,-0.00874897,-0.00212798,0.00085151,0.00021979
 ,-0.00026744,0.00050402,-0.00067543,0.00716220,-0.00324899,0.00725200,
 -0.00019401,0.00691191,-0.01141164,-0.01285177,0.00393534,-0.00111136,
 0.00320075,-0.00107713,-0.00043658,-0.00398478,0.00004892,-0.00185375,
 -0.00259653,0.00029348,-0.00011719,-0.00030280,-0.00009695,0.00028741,
 -0.00097339,0.01590949,0.00595004,0.04047154,-0.02913591,0.02449185,-0
 .02299219,-0.00043867,-0.00011144,-0.00029498,-0.02823118,0.00833352,0
 .02183306,-0.00284469,-0.00213600,0.00008249,0.00009499,-0.00079367,0.
 00065022,0.00042764,0.00024300,0.00041502,-0.00003853,-0.00004886,0.00
 109537,0.00753696,-0.00673447,-0.00273984,0.00014691,-0.00024093,-0.00
 000662,-0.21186015,-0.02855071,-0.04636338,-0.01561869,-0.00816249,0.0
 1249766,-0.05931313,0.01320896,-0.00737052,-0.00927146,0.02091834,-0.0
 0401241,-0.03260530,0.03301602,-0.01800510,0.00088318,-0.01732904,0.00
 328557,-0.00340333,0.00088636,-0.00325252,-0.00174013,0.00373888,-0.00
 251234,-0.00024484,0.00542886,-0.00064868,0.37679399,0.03568180,-0.052
 55689,0.04526447,-0.00333243,-0.00122562,-0.00098740,0.00379117,-0.030
 20925,-0.01994158,-0.01510726,-0.00161872,-0.00583492,-0.00059839,0.00
 076591,-0.00105059,-0.00018940,-0.00000977,-0.00102124,0.00000107,-0.0
 0047294,0.00038435,0.00408308,-0.00372612,-0.00022070,0.00165879,-0.00
 034731,-0.00052831,-0.01726890,-0.06164029,-0.01008661,-0.00472469,-0.
 00096904,0.00635526,0.02011025,-0.25431572,-0.04801564,0.03130194,-0.0
 3021601,0.01526606,0.00967425,0.00542996,0.00174230,-0.00000123,-0.009
 78046,0.00180556,0.00277233,-0.00159180,0.00204082,0.00009468,-0.00277
 626,-0.00038681,-0.01494983,0.01556270,0.00121505,-0.04793666,0.419269
 62,-0.04713206,0.06580045,-0.08288588,-0.00443760,-0.00059696,-0.00026
 306,0.01562153,-0.02160998,-0.02724109,-0.00399301,0.00024154,-0.00635
 369,0.00016343,-0.00060011,0.00052732,0.00053602,-0.00010699,0.0008797
 8,0.00003681,0.00012823,0.00107111,-0.00388903,0.00082300,0.00069905,0
 .00212640,-0.00050895,-0.00063514,-0.06455481,-0.02327284,-0.04549927,
 0.00150106,0.00199352,-0.00020465,-0.00033570,-0.02129516,-0.02927002,
 0.01493006,-0.00262897,0.01160397,-0.00386823,-0.00433368,0.00028828,0
 .00158318,-0.00508712,-0.00418142,-0.00033705,-0.00088511,0.00321660,-
 0.00027353,-0.00100418,0.00305395,0.01313776,0.00629158,-0.01500340,0.
 06982861,0.01222109,0.18969716,0.00084089,-0.00015008,0.00009192,-0.06
 432518,-0.01187183,-0.01452528,-0.00194364,0.00400286,0.00252280,0.000
 22565,0.00007152,-0.00001625,0.00002008,0.00003670,-0.00003580,0.00006
 936,-0.00001119,-0.00002215,0.00015902,-0.00023270,0.00016978,0.002408
 93,0.00990296,-0.00359073,0.00968876,0.00403760,0.00919170,-0.00029340
 ,0.00020727,-0.00019689,0.00618811,-0.00125086,0.00280526,-0.00014925,
 0.00038227,-0.00030539,-0.00005064,0.00005048,-0.00014789,0.00001465,-
 0.00002037,-0.00009858,-0.00009763,0.00003002,0.00005312,-0.00000069,-
 0.00002796,0.00002152,0.00006173,-0.00001769,0.00007945,-0.00272558,-0
 .00071023,0.00016674,-0.00018173,-0.00024628,0.00056850,0.48862442,0.0
 0015681,0.00060716,0.00006760,-0.02308012,-0.07426281,-0.00990703,0.00
 086241,0.00167849,-0.00045075,0.00033318,-0.00019656,-0.00001976,-0.00
 003163,0.00004702,0.00000335,-0.00001927,0.00000178,0.00000458,0.00012
 727,-0.00003698,0.00009770,0.01723562,-0.02208050,-0.01183043,-0.00342
 539,-0.00759396,-0.03271151,0.00020430,0.00017821,-0.00011182,0.009207
 63,-0.00979305,-0.00420684,-0.00018062,-0.00007865,-0.00036300,-0.0001
 5930,0.00019758,-0.00002681,-0.00006542,0.00002676,0.00004867,-0.00001
 937,0.00009374,0.00015901,-0.00007749,0.00007126,-0.00002707,-0.000019
 44,0.00002008,-0.00001768,-0.00182247,-0.00127509,0.00047357,0.0003582
 9,-0.00002935,0.00061442,0.01918921,0.42881634,0.00005253,0.00039348,0
 .00017592,-0.01575350,-0.00105764,-0.07214078,0.00356350,-0.00238639,-
 0.00469435,0.00020142,-0.00005996,0.00002062,0.00000656,0.00001322,0.0
 0003370,0.00000186,0.00000414,0.00000161,0.00007827,-0.00006673,0.0000
 4006,-0.00373481,0.00129121,-0.00706264,-0.00306658,-0.03777347,-0.035
 05029,0.00034892,-0.00004064,0.00006286,0.00674543,-0.00124211,0.00746
 269,-0.00017275,-0.00007226,-0.00003379,-0.00025517,0.00016377,-0.0000
 8600,0.00001317,0.00009526,-0.00000114,-0.00005990,0.00004428,0.000151
 29,-0.00006450,0.00006055,-0.00006926,-0.00002046,0.00004014,-0.000044
 38,-0.00170857,-0.00148369,0.00062441,0.00000703,0.00059822,0.00025108
 ,-0.06291542,-0.00387601,0.40878847,0.00061013,0.00108756,0.00082762,-
 0.40169714,-0.00869109,0.03416262,-0.02108149,0.00686858,0.01335027,0.
 00081433,-0.00004526,-0.00007354,-0.00007081,0.00008528,0.00022137,0.0
 0000229,-0.00007839,0.00008008,0.00012780,0.00071899,0.00034405,-0.007
 10014,0.00463963,0.00113088,-0.06116693,0.02366011,0.04529037,0.000674
 44,-0.00035968,0.00057351,0.01079365,-0.00168155,-0.00233188,-0.001687
 85,-0.00013630,0.00043596,-0.00058187,0.00100145,-0.00000536,-0.000075
 81,0.00021465,-0.00010407,-0.00006232,0.00028734,0.00001934,-0.0002667
 7,0.00028402,-0.00036840,-0.00014398,0.00004331,-0.00019020,-0.0065540
 0,-0.00544923,0.00304016,0.00508520,0.00354005,0.00172620,-0.05483047,
 -0.01282373,-0.01304136,0.54343796,-0.00062479,0.00002194,-0.00085533,
 -0.00495882,-0.06448595,-0.01140491,-0.00245070,-0.03772398,-0.0311306
 6,0.00020966,-0.00040128,0.00017288,0.00002522,-0.00002038,-0.00007579
 ,0.00002725,0.00001326,-0.00005938,0.00025479,-0.00114757,-0.00008920,
 0.00122375,-0.00120282,0.00061101,0.03327204,0.01094189,-0.01500131,0.
 00013803,-0.00071531,-0.00057281,-0.00196067,0.00046832,0.00017227,0.0
 0026645,0.00087475,-0.00046139,0.00051175,-0.00016239,0.00011518,0.000
 45174,-0.00049774,0.00075300,0.00006136,0.00002334,0.00005173,0.000011
 71,0.00000132,0.00023821,0.00000449,-0.00013958,0.00016622,0.00219877,
 -0.00043948,-0.00080375,0.00031832,0.00405413,0.00091280,-0.02128258,0
 .00666271,-0.00944936,-0.00305429,0.08157410,0.00032592,0.00021309,0.0
 0070811,0.03755187,-0.01263201,-0.07908235,0.00475150,-0.03837435,-0.0
 5961114,-0.00004041,-0.00018114,0.00008173,-0.00002208,0.00007982,0.00
 005310,0.00000299,0.00003587,-0.00002162,0.00102097,0.00038925,0.00029
 994,0.00100760,-0.00158854,-0.00082504,0.05917888,-0.01407040,-0.00929
 224,0.00045353,-0.00127838,-0.00069213,-0.00174214,-0.00017962,0.00070
 591,0.00174441,0.00047344,-0.00011044,0.00007188,-0.00044277,-0.000108
 71,0.00058846,-0.00002072,0.00062211,0.00005032,0.00008132,0.00007418,
 0.00018875,-0.00009603,0.00034112,0.00010508,-0.00022891,0.00020940,0.
 00215700,0.00289453,-0.00268938,-0.00239402,0.00141289,0.00354490,-0.0
 2180123,-0.00948351,0.00783822,-0.07802808,0.07118781,0.14188708,-0.00
 535498,0.00160711,-0.00625124,0.00039649,0.00035018,0.00029448,0.00015
 239,0.00314152,-0.00595734,-0.00007351,0.00110186,0.00050041,-0.000862
 29,-0.00030021,0.00236458,-0.01806005,0.01232976,0.00564104,-0.0384034
 5,0.01798125,0.01015116,-0.00166331,0.00041854,0.00061268,-0.00014905,
 -0.00015240,-0.00007894,0.00705594,0.00069873,-0.00037597,0.00195219,0
 .00172619,0.00068899,0.00142462,-0.00432933,-0.00704635,-0.01119913,-0
 .00139222,-0.00152666,-0.00018597,0.01026047,0.00451907,0.00004722,0.0
 0001568,-0.00006810,-0.00029743,-0.00014504,0.00028818,-0.00025330,0.0
 0020997,0.00031671,-0.00147723,-0.00227720,-0.00276459,0.00144698,-0.0
 0731875,0.00933337,-0.00012569,0.00005138,-0.00005372,-0.00124342,0.00
 087689,-0.00035079,0.53707920,0.00060031,-0.04925117,-0.04444323,-0.00
 022528,-0.00011124,0.00015217,0.00128261,0.00094296,0.00291094,-0.0013
 0430,-0.00138723,-0.00012287,-0.00199791,-0.00444954,-0.00374234,-0.00
 819903,0.00638290,0.00502626,0.01789925,-0.29194428,-0.10164551,-0.000
 02509,-0.00074762,-0.00036255,0.00001500,-0.00004976,-0.00005788,-0.00
 264658,0.00546149,-0.00055610,0.00074247,-0.00031017,0.00110791,0.0017
 6673,-0.00082836,0.00228365,-0.00043793,0.00217487,-0.00138770,-0.0013
 2757,-0.00031365,0.00173544,0.00013172,-0.00017726,0.00040589,-0.00053
 974,0.00035413,0.00100575,-0.00021402,-0.00008674,0.00027249,0.0009701
 4,0.00043628,0.00001080,0.00261539,0.00445237,0.00174196,0.00014110,-0
 .00000072,-0.00002725,0.00121999,-0.00110515,-0.00037798,-0.00496309,0
 .72237904,-0.00357404,-0.04265901,-0.09492668,0.00178164,-0.00000528,-
 0.00079803,-0.00385608,0.00466102,-0.00437041,0.00065624,-0.00063349,0
 .00008417,-0.00009472,-0.00126289,0.00199362,-0.00029055,0.00059595,-0
 .00223430,0.00799987,-0.09164968,-0.05382238,-0.00011674,0.00286596,-0
 .00029476,-0.00056543,0.00013559,0.00074449,-0.00575563,0.00303934,-0.
 00078255,0.00444056,-0.00123871,-0.00089305,0.00642314,-0.00634211,0.0
 0795318,-0.00193978,-0.00134209,-0.00273372,-0.00200550,-0.00152326,0.
 00104407,0.00016465,0.00010907,0.00032392,0.00029011,0.00032144,-0.000
 07730,-0.00069665,0.00003247,0.00073341,-0.00123408,0.00102285,-0.0001
 4957,0.00468344,0.00726612,0.00158687,0.00002333,-0.00022362,-0.000220
 60,-0.00157555,0.00022763,0.00039867,-0.04004928,0.22063207,0.22168980
 ,-0.05676923,-0.00678218,-0.06553959,-0.00057088,-0.00011112,-0.000245
 45,-0.00200874,0.00137664,-0.00149612,-0.00128698,-0.00153649,-0.00091
 155,0.00672500,0.01530142,0.00563589,-0.29758088,-0.09744793,0.0040362
 1,0.00013711,0.00081246,-0.00056444,0.00024727,-0.00097820,-0.00049263
 ,0.00026678,-0.00001194,0.00014232,0.00382202,-0.00178073,0.00264340,0
 .00019997,0.00032937,0.00015549,-0.00194163,0.00676280,0.00122620,0.00
 446635,0.00194943,0.00321556,-0.00280270,-0.00114041,-0.00050402,-0.00
 010131,0.00005506,0.00076291,-0.00026969,0.00021399,0.00052202,-0.0011
 3073,0.00030053,0.00299062,0.00065291,-0.00010460,-0.00010713,-0.00195
 739,-0.00407909,-0.00220848,0.00022883,0.00008384,0.00006849,0.0006221
 4,-0.00049026,0.00038653,-0.24497063,0.12110484,0.06319974,0.76829000,
 -0.01425764,-0.00684537,-0.00645645,-0.00006049,0.00004569,0.00018399,
 0.00241312,-0.00125606,0.00208016,-0.00002647,-0.00058980,0.00007089,-
 0.00544969,-0.01658199,-0.00358301,-0.09971486,-0.07373656,-0.00326315
 ,0.02127111,-0.01115619,-0.00007156,-0.00060199,0.00074078,0.00039333,
 0.00002407,-0.00009142,-0.00019011,0.00549871,0.00219121,-0.00226185,0
 .00255726,0.00076645,-0.00120208,0.00659647,-0.00861741,0.00011240,-0.
 00910778,-0.00249796,-0.00572728,-0.00326482,0.00955269,-0.00080221,0.
 00018579,-0.00022691,0.00039994,-0.00019608,-0.00025116,-0.00015336,0.
 00002721,0.00066840,0.00061899,-0.00153288,-0.00113648,0.00071891,0.00
 332128,0.00115386,0.00785434,-0.00012989,-0.00000079,0.00004733,-0.000
 16709,0.00000119,-0.00020302,0.09401473,-0.13533608,-0.05064699,0.0880
 9255,0.54383605,-0.05578409,0.00816536,-0.09811861,0.00052132,0.000010
 94,-0.00019732,0.00089640,0.00051976,-0.00005460,0.00029385,0.00002556
 ,0.00040490,-0.00281793,-0.00639019,-0.00468191,0.00571606,-0.00199154
 ,-0.02091235,0.00661790,-0.00322443,-0.00178800,-0.00010038,0.00017468
 ,0.00010442,-0.00017510,0.00005321,0.00016106,0.00366512,-0.00175317,0
 .00237143,-0.00012834,0.00041142,0.00184613,-0.00049135,-0.00020678,-0
 .00330903,-0.00618602,-0.00005691,-0.00210768,0.00007704,0.00393476,-0
 .00036820,0.00066034,-0.00003902,-0.00017567,-0.00057161,0.00029219,0.
 00086197,-0.00012274,-0.00004752,-0.00232774,0.00284890,-0.00127816,0.
 00030957,-0.00254925,-0.00709023,0.00254970,0.00002803,-0.00011548,-0.
 00005542,-0.00021666,-0.00031113,0.00003879,0.02473752,-0.03093338,-0.
 04211888,0.01725518,0.11728791,0.20086209,-0.02644521,0.03849309,-0.03
 537956,0.00010679,-0.00012854,-0.00011818,-0.00044129,-0.00000099,-0.0
 0034805,0.00019703,-0.00010887,0.00054678,-0.15836210,0.13321775,0.066
 49662,-0.00425734,-0.02523246,-0.00367818,-0.00352314,0.00135334,-0.00
 005288,0.00056804,0.00024920,-0.00056063,-0.00005464,-0.00002188,0.000
 09417,-0.00109916,-0.00329109,0.00689489,-0.00105102,-0.00096070,0.001
 10731,-0.00531695,0.00877483,-0.00179250,0.00669627,0.00754039,0.00364
 218,0.00358862,-0.00752429,0.00039377,-0.00013354,0.00015464,0.0003051
 2,0.00013451,0.00039093,0.00134332,-0.00071302,-0.00079422,0.00052772,
 0.00082309,0.00025859,-0.00133006,-0.00364066,-0.00614028,-0.00469913,
 0.00012257,-0.00002735,-0.00007776,-0.00001164,-0.00010300,-0.00003463
 ,0.00816094,0.01128885,0.01239213,-0.08963323,-0.03991517,-0.01135830,
 0.65887739,0.03782698,-0.06450774,0.06222890,-0.00029376,0.00009020,0.
 00001448,-0.00005801,0.00019853,-0.00016639,0.00076437,0.00117748,-0.0
 0012486,0.13357981,-0.18547821,-0.07868125,-0.00245962,-0.00849110,-0.
 00124230,0.00240907,-0.00205641,0.00008549,0.00052217,-0.00099911,-0.0
 0035111,0.00004556,-0.00000524,-0.00007831,0.00558066,-0.00265273,0.00
 455393,-0.00259508,0.00043562,0.00020613,-0.00457236,0.00547053,-0.003
 42893,0.00397722,0.00125555,0.00219298,0.00388141,-0.00035554,0.001097
 90,-0.00022247,0.00025675,-0.00072277,0.00013259,-0.00030262,-0.001746
 06,0.00031309,0.00024951,-0.00032414,-0.00057471,-0.00011575,-0.001295
 31,-0.00572675,-0.00510946,-0.00288844,-0.00003762,0.00004272,0.000009
 71,0.00015336,-0.00000662,0.00015204,0.03098880,-0.04148440,-0.0009741
 2,-0.08107874,-0.29638012,-0.08505815,-0.12189344,0.66985023,-0.027936
 13,0.04841896,-0.06224356,0.00019020,0.00003672,-0.00028216,0.00070290
 ,-0.00150773,0.00034097,-0.00053991,-0.00060506,-0.00045690,0.06660494
 ,-0.07840267,-0.05708582,-0.00027595,0.00110213,-0.00224361,0.00185318
 ,-0.00227089,0.00183525,0.00114087,-0.00030256,-0.00037023,-0.00010272
 ,0.00006247,0.00031214,-0.00638626,0.00154521,-0.00010593,-0.00106072,
 -0.00057713,0.00041806,-0.00034455,0.00433116,0.00228103,0.00059141,-0
 .00158544,-0.00136035,0.00139606,0.00027462,0.00018479,-0.00010197,-0.
 00001890,0.00093920,-0.00005504,0.00031529,-0.00258130,0.00001288,0.00
 045127,-0.00057395,0.00218040,0.00043087,0.00049646,-0.00068242,0.0044
 6458,-0.00632261,0.00007938,-0.00001197,-0.00004729,-0.00023724,0.0001
 3222,0.00035456,0.01891850,-0.01817014,0.00021304,-0.01318791,-0.05662
 310,-0.04405402,-0.05175572,0.12918361,0.20405346,-0.02064703,-0.03751
 220,0.01683263,0.00030559,0.00005161,0.00016664,-0.00021442,0.00091546
 ,-0.00091942,-0.00003537,0.00043018,-0.00048747,-0.01433082,-0.0015729
 3,0.00057706,-0.00149680,-0.00321733,0.00194790,-0.00282163,-0.0018174
 4,0.00092349,-0.00101062,0.00027217,0.00043959,-0.00002382,0.00000011,
 -0.00010545,-0.00766379,0.00619144,-0.00298252,-0.00115282,0.00294356,
 -0.00500148,0.00523178,-0.00236298,0.00575902,0.00119856,-0.00587848,-
 0.00166180,-0.00375280,-0.00436084,0.00491375,-0.00013170,-0.00008245,
 0.00005993,0.00041939,0.00010383,-0.00071057,0.00024657,-0.00027188,0.
 00001092,-0.00063886,0.00316278,-0.00116957,0.00324784,0.00824378,-0.0
 0051434,0.00003206,-0.00008292,-0.00003647,-0.00038246,0.00016527,0.00
 006895,0.00950580,-0.00482851,-0.01215235,-0.02416626,-0.04831528,0.00
 130955,-0.33471790,0.00231815,0.00328416,0.62998618,-0.03698920,-0.078
 86099,0.05299458,-0.00048371,-0.00027071,0.00020662,-0.00027367,-0.001
 63812,0.00131960,-0.00014172,0.00035147,-0.00054230,0.01859653,0.00400
 717,-0.00114863,-0.00046117,-0.00465456,-0.00081083,-0.00323236,-0.002
 73528,0.00071331,0.00015093,-0.00037269,0.00030965,0.00015147,0.000118
 57,-0.00019612,0.00380922,-0.00020756,0.00519743,-0.00032277,-0.001479
 89,0.00203306,-0.00418436,0.00785964,-0.00287127,0.00633861,0.00570296
 ,0.00231753,0.00468849,-0.00262378,-0.00395570,-0.00035699,0.00024497,
 -0.00061290,0.00060445,-0.00018698,-0.00016483,0.00057831,-0.00008912,
 -0.00089931,0.00094115,-0.00063514,0.00176855,-0.00525788,-0.00323468,
 -0.00557280,-0.00010167,0.00000514,0.00015236,0.00029529,0.00049968,-0
 .00021411,-0.02055075,-0.04486454,0.00131584,-0.02485068,-0.00688040,-
 0.00277152,-0.04401000,-0.07189376,-0.01265674,0.12878525,0.69172518,0
 .02030209,0.04811295,-0.06435042,-0.00020066,-0.00019147,-0.00019862,-
 0.00034845,-0.00072778,-0.00004079,0.00076244,0.00058411,0.00069482,0.
 00800723,0.00250368,-0.00310701,-0.00047210,-0.00300476,0.00202409,-0.
 00108490,-0.00248032,0.00194935,0.00166375,-0.00212215,-0.00112802,0.0
 0003625,0.00008933,0.00004706,0.00438683,-0.00206850,-0.00078817,-0.00
 585077,0.00438983,-0.00376444,-0.00003861,-0.00015429,-0.00020314,-0.0
 0363293,0.00067678,0.00206520,-0.00072096,0.00877675,-0.00113287,0.000
 23341,0.00018966,0.00057798,-0.00011486,0.00041576,0.00024729,-0.00054
 491,-0.00008567,0.00054801,-0.00191931,-0.00192570,0.00016546,0.003345
 14,-0.00232491,0.00403735,0.00020333,0.00003858,0.00006925,0.00031389,
 -0.00022231,0.00007821,-0.01731300,-0.02126242,0.00308206,-0.00568975,
 -0.01237884,-0.00020978,0.01722004,-0.01413266,-0.03128452,0.00736112,
 0.15675407,0.21063001,-0.05647445,0.00025918,0.04230373,0.00056492,0.0
 0054998,0.00019199,0.00244600,-0.00097415,0.00067473,0.00041382,0.0007
 7684,-0.00071248,-0.00556660,-0.00134741,0.00160056,-0.00463821,0.0020
 1837,0.00360820,0.00345209,0.00137203,-0.00057639,-0.00223736,0.001213
 53,-0.00409154,-0.00031604,-0.00009403,-0.00007810,-0.00263883,0.00380
 301,-0.00242024,-0.00218492,0.00060207,-0.00712123,0.00410887,-0.00349
 842,0.00171991,0.00068484,-0.00219829,-0.00275065,0.00014847,-0.002247
 94,0.00229758,0.00018953,-0.00010335,-0.00071651,0.00027598,-0.0002870
 2,-0.00092111,0.00084227,0.00011836,-0.00077858,-0.00376884,0.00139186
 ,-0.00172226,0.00601695,0.00205658,0.00318053,-0.00028350,-0.00017813,
 -0.00014831,-0.00075131,0.00075806,-0.00020667,-0.22327806,-0.13869574
 ,-0.03219412,-0.05326070,0.00153447,0.01476488,-0.03361305,0.01897913,
 0.01218560,-0.10659619,0.10081044,0.03139238,0.78233429,0.00051557,-0.
 00821160,0.00312444,0.00049907,0.00021435,0.00021720,0.00179615,-0.003
 85881,0.00598128,0.00038943,0.00050766,-0.00021159,0.00140151,-0.00001
 479,-0.00318404,0.00098173,-0.00181454,-0.00028201,-0.01846801,-0.0141
 7337,0.00281552,-0.00025582,0.00180818,0.00050477,-0.00024324,-0.00008
 992,-0.00008569,-0.00934770,0.00366377,0.00058161,0.00064448,-0.001270
 82,-0.00204960,0.00550624,-0.00264472,0.00805005,0.00403892,-0.0032301
 3,-0.00543305,-0.00345754,-0.00897265,0.00211065,0.00005054,-0.0002179
 3,0.00009264,0.00037422,0.00006272,-0.00084137,0.00004043,-0.00027777,
 0.00024741,0.00219995,0.00483625,0.00056478,-0.00021270,0.01004243,-0.
 00485350,-0.00028531,-0.00013559,-0.00015633,-0.00048305,-0.00011066,-
 0.00009038,-0.11690884,-0.16881579,-0.04511132,-0.01106465,0.00877156,
 0.01113340,0.04714496,0.00279812,-0.01470131,0.06041359,-0.26616874,-0
 .06596722,-0.03470268,0.51628683,0.04011935,0.00517868,-0.05193511,0.0
 0081941,-0.00041975,-0.00124688,-0.00276451,0.00338197,-0.00144988,-0.
 00129958,-0.00112304,-0.00002805,-0.00005718,-0.00069621,0.00175646,-0
 .00013181,-0.00093554,0.00219775,-0.00636217,-0.00444426,-0.00098250,0
 .00217034,-0.00160099,-0.00408381,-0.00028341,0.00027651,0.00088095,-0
 .00074425,-0.00393699,0.00396746,-0.01058620,-0.00011784,-0.01124417,-
 0.00231479,0.00614412,0.00264334,0.00625082,0.00340182,0.00266733,0.00
 118984,-0.00502968,-0.00308681,0.00003233,0.00022482,0.00145970,-0.000
 49374,0.00016021,0.00089594,-0.00032305,-0.00018376,0.00023951,-0.0004
 4071,-0.00041182,-0.00209260,-0.00499810,-0.00062094,-0.00747535,0.000
 52364,-0.00024110,-0.00016107,-0.00061450,0.00003979,0.00056084,0.0087
 4529,-0.01625239,-0.03592750,-0.00980903,0.01390397,0.00891287,0.00060
 943,-0.00792504,-0.00342712,0.03697738,-0.09841400,-0.05705904,-0.1118
 7524,0.13042121,0.19213121,0.00230957,-0.00094806,-0.00321898,0.000828
 07,-0.00016892,0.00009728,-0.00086951,-0.00237649,0.00271417,0.0000695
 0,0.00038067,-0.00008490,-0.00019942,-0.00040728,0.00026492,-0.0004731
 4,0.00049725,0.00065502,0.00008660,-0.00021411,-0.00025783,0.00076146,
 -0.00019200,-0.00225235,-0.00022728,0.00002634,0.00003261,-0.00000133,
 0.00014555,-0.00014753,-0.00076742,0.00001863,-0.00275297,-0.00003417,
 0.00007732,-0.00035264,0.00025422,-0.00017091,-0.00014968,0.00026198,-
 0.00009228,-0.00031720,-0.00002200,0.00003312,-0.00024117,0.00012577,-
 0.00010254,-0.00026444,0.00029677,0.00000072,-0.00025617,-0.00073804,0
 .00011565,0.00039367,-0.00024045,0.00025567,-0.00053026,0.00002814,-0.
 00003982,-0.00008286,-0.00020809,0.00034063,-0.00052060,-0.01792964,0.
 00462561,0.00290989,-0.00402181,-0.00175787,0.00128697,-0.00174133,0.0
 0079165,0.00137532,-0.00737419,0.00225925,0.00113746,-0.31187172,0.061
 15305,0.05413137,0.34282461,-0.00208067,-0.00033259,-0.00028871,0.0008
 4652,-0.00078169,0.00012660,-0.00080556,-0.00077733,0.00172592,-0.0000
 8657,0.00001503,0.00009207,0.00119800,0.00027086,-0.00034070,-0.000800
 91,0.00047674,-0.00004296,-0.00002082,0.00015476,0.00015914,-0.0000259
 3,0.00333990,0.00034618,-0.00009586,0.00020125,-0.00010853,-0.00003527
 ,0.00000365,-0.00018331,0.00056787,-0.00106536,-0.00114048,0.00024483,
 -0.00015262,0.00024392,-0.00008847,-0.00000686,0.00029889,-0.00012122,
 -0.00032505,0.00026664,0.00006594,-0.00002134,0.00002033,-0.00003812,0
 .00012682,0.00017135,-0.00007268,-0.00016909,0.00001130,0.00003256,0.0
 0044984,0.00001378,0.00010184,-0.00007983,0.00007268,0.00022173,-0.000
 18736,0.00001805,-0.00039013,0.00000774,-0.00044801,-0.01573139,0.0051
 1018,0.00308853,-0.00257320,-0.00186820,-0.00067903,0.00292017,-0.0038
 2463,-0.00316784,0.02374739,-0.00434125,-0.00296504,0.05894603,-0.0505
 4096,-0.01554750,-0.06581083,0.05627317,0.00207926,-0.00090990,0.00399
 592,-0.00000944,0.00038376,0.00071624,0.00152695,0.00269732,-0.0022430
 7,-0.00011847,-0.00024729,0.00012665,-0.00006921,0.00010494,0.00050227
 ,-0.00060029,-0.00000649,0.00059347,0.00017092,0.00049456,-0.00113429,
 -0.00333149,0.00007646,-0.00309208,0.00005728,-0.00014585,-0.00049235,
 -0.00003065,-0.00047935,0.00057823,-0.00087682,-0.00215516,-0.00355504
 ,-0.00028532,0.00055107,0.00097639,-0.00019133,0.00017582,0.00011823,-
 0.00024258,0.00009614,-0.00089168,0.00008360,0.00004306,0.00023206,-0.
 00022427,0.00008410,0.00013885,-0.00008136,-0.00001572,0.00017666,0.00
 353105,0.00070090,-0.00064950,-0.00106468,-0.00062312,0.00025672,-0.00
 025620,0.00007118,-0.00015278,0.00003379,-0.00007766,-0.00004577,-0.00
 591979,0.00225995,-0.00013023,-0.00278482,-0.00109408,0.00211535,-0.00
 062403,-0.00079338,0.00160232,0.00356643,0.00030158,-0.00176447,0.0590
 5555,-0.01843166,-0.03400582,-0.05266451,0.01718041,0.03659491,0.00191
 073,0.00058067,-0.00128861,0.00528877,-0.00204864,0.00000220,-0.067139
 25,-0.03499727,-0.00014268,0.00004373,-0.00006801,0.00014039,0.0000731
 6,-0.00006160,0.00010122,0.00016771,-0.00006220,0.00008767,-0.00011283
 ,0.00012096,0.00009484,-0.07150739,-0.03278795,0.01259478,0.00139106,-
 0.00106785,-0.00292903,0.00082574,0.00053245,-0.00002037,-0.01195401,0
 .05698267,0.00808028,-0.00077976,0.00017378,-0.00111858,0.00043915,0.0
 0003831,-0.00028827,0.00041789,-0.00050456,-0.00002021,-0.00014242,-0.
 00015943,-0.00040503,0.00006740,-0.00003758,-0.00006484,0.00006709,-0.
 00009296,-0.00008200,-0.00224946,0.00165141,0.00110886,-0.00036368,0.0
 0040828,0.00432098,-0.13841471,0.04987195,0.05296252,0.00083987,-0.003
 11135,-0.00083020,-0.00031678,0.00106032,-0.00033045,0.00042558,-0.000
 26588,0.00010677,0.00002171,0.00003736,-0.00015189,0.00003771,-0.00025
 231,0.00025749,-0.00100447,0.00101103,-0.00014779,-0.00060973,0.000475
 20,-0.00044410,0.34217478,0.00124043,0.00382417,-0.00054692,0.01730897
 ,-0.02151909,-0.01258309,-0.01757753,-0.03937107,-0.00681731,0.0000293
 2,-0.00150177,0.00046330,-0.00009559,0.00011279,-0.00007636,0.00011094
 ,0.00007513,-0.00020907,0.00000053,0.00025344,0.00008282,-0.04356749,-
 0.50159265,-0.01416628,-0.00317910,-0.00421478,-0.00902802,0.00122308,
 -0.00150975,0.00066566,0.04028083,-0.06290986,-0.01920545,-0.00108406,
 0.00048216,-0.00208533,-0.00012777,0.00097353,0.00003378,0.00018289,-0
 .00069326,0.00049145,0.00011524,0.00061356,0.00081218,-0.00031361,0.00
 035040,-0.00002274,-0.00007933,0.00000593,0.00022725,-0.01225099,-0.01
 211207,0.00346756,0.00397662,0.00202484,0.00015546,0.05994022,-0.12130
 676,-0.04642815,-0.00211163,0.00144439,0.00063648,-0.00061059,0.000261
 52,-0.00094139,0.00002089,-0.00029274,-0.00069229,-0.00029670,0.000506
 61,-0.00007318,0.00050997,0.00036302,0.00096571,-0.00015710,-0.0006847
 4,0.00085816,0.00111102,-0.00082881,0.00052025,-0.02339044,0.82774414,
 -0.00088812,0.00005146,-0.00183335,0.01034892,-0.01987972,-0.01044119,
 0.01000834,-0.00340189,-0.02323058,-0.00022050,0.00011520,-0.00004055,
 -0.00008539,-0.00002729,0.00005895,-0.00003468,0.00002180,0.00006464,0
 .00007402,0.00000925,0.00022578,0.01161637,-0.02405983,-0.04189571,-0.
 00333292,-0.00405403,-0.00633211,0.00010129,-0.00011707,0.00009336,0.0
 0939173,-0.02519510,0.00429319,-0.00061595,0.00011236,-0.00039906,-0.0
 0014532,0.00016941,0.00013767,0.00006330,-0.00004578,0.00012758,-0.000
 06725,0.00025453,0.00008187,-0.00005430,0.00002123,0.00001895,0.000071
 13,-0.00000989,0.00001366,-0.00061598,-0.00167815,-0.00113930,0.002848
 72,0.00109584,0.00231815,0.04751672,-0.03608647,-0.07619321,0.00031112
 ,-0.00264914,0.00033686,-0.00011008,0.00076100,0.00014780,0.00022159,-
 0.00007149,0.00020455,-0.00006320,-0.00007663,0.00026659,-0.00004328,-
 0.00057128,-0.00006336,-0.00026850,0.00097471,-0.00104581,-0.00119173,
 0.00041108,0.00009680,-0.09879904,0.09505420,0.13683377,0.00017099,0.0
 0015119,0.00002688,-0.01304757,-0.00953424,0.00749774,-0.00101350,0.00
 119422,0.00153447,0.00019680,-0.00002887,-0.00003055,0.00002605,-0.000
 00299,0.00001446,0.00003945,-0.00001269,0.00000989,0.00003676,-0.00002
 913,0.00008082,-0.00155848,-0.00226679,0.00052897,0.00144869,0.0018369
 0,-0.00026842,0.00013820,-0.00001262,0.00000896,0.00084921,-0.00011852
 ,-0.00067151,-0.00004400,-0.00001091,-0.00006604,0.00002504,-0.0000000
 7,-0.00003058,0.00005499,-0.00005384,0.00000323,-0.00001333,-0.0000388
 0,-0.00002255,-0.00000031,0.00000276,-0.00000683,0.00001130,-0.0000027
 3,-0.00000676,0.00002013,-0.00010536,0.00004138,-0.00003341,-0.0001309
 6,-0.00004935,-0.15788583,-0.08222834,0.07423428,-0.00375898,-0.000983
 40,-0.00325621,0.00002595,-0.00000724,-0.00010063,0.00009594,0.0000004
 7,-0.00002185,0.00000905,-0.00005313,-0.00003819,0.00006215,0.00002634
 ,0.00002652,-0.00019929,-0.00002242,-0.00008732,-0.00021907,0.00010405
 ,0.00002117,-0.02845618,0.00059649,0.01651836,0.19524652,0.00007749,-0
 .00010009,0.00005365,-0.01075573,-0.00565920,0.00907147,-0.00030845,-0
 .00183735,-0.00119730,0.00001559,0.00001851,-0.00000913,0.00000130,-0.
 00000418,0.00001121,0.00000810,-0.00000268,0.00001317,0.00003231,-0.00
 001921,0.00002564,0.00057113,0.00181132,-0.00035340,0.00137168,0.00114
 975,-0.00041047,0.00000661,-0.00006235,-0.00001675,-0.00058594,0.00023
 785,0.00046745,-0.00005645,0.00006275,0.00004167,-0.00002973,0.0000037
 5,-0.00000907,0.00003659,0.00003359,-0.00001375,-0.00000365,0.00001493
 ,0.00000689,-0.00000018,-0.00000481,0.00000229,0.00001978,-0.00000496,
 0.00000275,0.00011664,0.00008656,0.00002508,-0.00004754,0.00007620,-0.
 00013683,-0.07969777,-0.09430443,0.04747676,-0.00514094,-0.00086019,-0
 .00269540,-0.00006888,0.00002604,-0.00000074,0.00003717,0.00000673,0.0
 0001646,0.00001732,-0.00003678,0.00000831,-0.00002353,-0.00001178,0.00
 000741,-0.00005829,-0.00002202,0.00002289,0.00005613,0.00005955,-0.000
 03152,0.01854073,0.00701725,-0.01042460,0.08579562,0.10676557,-0.00000
 711,-0.00013595,0.00009185,-0.00821340,-0.00770667,0.00797971,-0.00025
 427,-0.00128215,-0.00101391,-0.00011082,0.00002248,0.00000383,-0.00000
 466,0.00000469,-0.00001096,0.00000095,-0.00000535,-0.00000586,0.000035
 85,-0.00002880,-0.00000773,0.00140436,0.00185360,0.00017958,-0.0009933
 9,0.00124700,0.00029319,-0.00007393,-0.00002434,-0.00002820,-0.0004345
 6,0.00004521,0.00019677,0.00000159,0.00009834,0.00001931,-0.00002710,0
 .00002661,0.00000457,-0.00001791,0.00005661,-0.00002722,0.00000225,0.0
 0000234,0.00001612,-0.00000210,-0.00000710,0.00001853,0.00000059,-0.00
 000592,0.00001527,0.00006691,0.00000447,-0.00000686,-0.00000072,0.0001
 0270,-0.00008566,0.07284477,0.04583678,-0.08418877,-0.00563273,-0.0010
 4805,-0.00275160,-0.00003266,-0.00002290,0.00006748,0.00000056,0.00001
 965,0.00003663,-0.00000049,-0.00001621,0.00001950,0.00000446,-0.000023
 56,0.00000113,-0.00002851,0.00005446,0.00004341,-0.00001063,-0.0000030
 7,0.00000247,0.01861547,-0.00013677,-0.00793600,-0.08953772,-0.0558613
 9,0.10195748,-0.00153378,0.00311439,-0.00008170,-0.00024831,0.00007836
 ,-0.00010828,-0.00239792,0.00053492,-0.00134071,-0.05164135,0.02005214
 ,-0.04591692,-0.00001657,0.00032225,-0.00002879,0.00038702,0.00096265,
 -0.00103220,-0.00101656,0.00008781,0.00147062,0.00006366,0.00003093,-0
 .00009855,0.00015465,-0.00009231,-0.00005078,-0.00465667,-0.00505673,-
 0.01439818,0.00094789,0.00003155,0.00036309,-0.00048927,-0.00041873,0.
 00047863,-0.00081135,-0.00009975,0.00033803,0.00049279,0.00219259,0.00
 067191,0.00002154,0.00000272,0.00027902,0.00000789,0.00016375,0.000156
 27,-0.00022552,0.00047906,0.00030071,0.00007899,-0.00022603,-0.0001631
 5,0.00044517,-0.00116112,-0.00044208,0.00014520,0.00001466,-0.00002309
 ,0.00021256,-0.00023495,0.00017892,-0.00109419,-0.00168379,0.00052143,
 0.00175033,-0.00029731,-0.00032112,-0.00043913,-0.00007205,-0.00030049
 ,0.00011981,0.00020915,-0.00015009,-0.00045757,-0.00032666,-0.00025146
 ,0.00006351,-0.00008031,-0.00018209,-0.00009420,-0.00019951,0.00018314
 ,0.00002894,0.00000112,0.00001356,0.06773532,0.00310017,0.00291688,-0.
 00036710,0.00051670,-0.00001548,-0.00013352,-0.00005660,0.00033366,-0.
 00013840,0.02081663,-0.05713488,0.06898342,-0.00022876,0.00021196,-0.0
 0046361,0.00235558,-0.00318606,0.00308204,-0.00004290,0.00014362,-0.00
 014478,-0.00012519,0.00066742,0.00012460,-0.00012525,0.00004000,0.0001
 1518,-0.01204779,-0.00308577,-0.02298680,0.00188451,-0.00028397,0.0003
 3186,-0.00024861,-0.00154446,0.00114826,-0.00107412,0.00010154,0.00052
 056,-0.00193584,-0.00044022,-0.00151628,0.00020785,-0.00016820,0.00060
 649,-0.00021412,0.00031868,0.00050991,0.00030258,-0.00092957,-0.000349
 47,0.00057684,0.00031565,0.00011403,0.00182041,-0.00075300,-0.00079066
 ,0.00000377,-0.00005480,-0.00004902,-0.00024320,-0.00013166,0.00003017
 ,-0.00223068,-0.00079989,0.00098094,-0.00268000,-0.00366837,0.00159445
 ,-0.00016171,-0.00000641,-0.00136696,-0.00011174,0.00063156,0.00016459
 ,0.00044475,-0.00026680,-0.00112578,0.00039878,-0.00002682,-0.00022501
 ,0.00005878,-0.00042291,0.00010243,-0.00000111,0.00000422,0.00001162,-
 0.02643768,0.08649759,0.00164444,0.00128906,-0.00249553,-0.00007835,-0
 .00002789,0.00003422,-0.00187496,-0.00008828,0.00079190,-0.05076741,0.
 07234353,-0.23872210,0.00003667,-0.00017178,0.00006187,-0.00119418,0.0
 0293989,-0.00060411,0.00123525,0.00014025,-0.00063182,0.00020083,-0.00
 028864,-0.00017934,0.00006772,-0.00001349,-0.00005016,-0.01129752,-0.0
 0480920,-0.01985116,-0.00048850,0.00016102,-0.00005534,-0.00096510,-0.
 00076650,0.00018149,-0.00039424,-0.00050566,-0.00019390,0.00003083,0.0
 0014860,-0.00027398,0.00005506,-0.00010773,0.00024010,-0.00008658,0.00
 002702,-0.00004385,0.00079720,-0.00062036,0.00002443,-0.00044640,-0.00
 051087,-0.00024392,0.00131270,-0.00087483,-0.00198831,0.00007334,0.000
 04956,-0.00000093,-0.00009472,0.00004444,-0.00009356,0.00241430,0.0022
 9488,-0.00137439,0.00131537,0.00393575,-0.00141120,-0.00047777,-0.0000
 6574,0.00045627,-0.00001918,-0.00039483,0.00000706,0.00007404,-0.00023
 589,0.00017264,-0.00009020,0.00004756,0.00012196,0.00007162,0.00024408
 ,-0.00005246,0.00001758,-0.00000156,-0.00001259,0.06065586,-0.08119389
 ,0.28173640,0.00011463,0.00021286,-0.00043279,0.00040083,-0.00013768,-
 0.00030411,-0.00161213,0.00190061,0.00116550,-0.16079366,-0.06489672,0
 .07280596,-0.00000229,0.00003964,-0.00005917,0.00010506,-0.00011893,0.
 00011388,-0.00008527,-0.00003815,0.00001236,0.00018217,0.00073537,0.00
 002101,-0.00012518,0.00008262,0.00014560,-0.01072345,-0.01057382,0.002
 94402,0.00042015,0.00003647,-0.00010464,-0.00021268,-0.00012467,-0.000
 27936,-0.00019844,-0.00023834,-0.00020277,0.00031837,0.00101765,0.0002
 7166,0.00010269,0.00000087,0.00004677,-0.00002129,0.00008169,0.0000469
 7,0.00012588,-0.00020840,0.00025361,-0.00034561,-0.00020109,0.00020841
 ,-0.00030736,-0.00081954,0.00022319,0.00012615,-0.00010228,-0.00008336
 ,-0.00016948,-0.00021871,-0.00014979,-0.00008135,0.00020921,-0.0002544
 2,-0.00013890,0.00008930,-0.00022782,-0.00016797,-0.00001970,-0.000013
 33,0.00012997,0.00022648,0.00007619,0.00009467,-0.00008426,-0.00009069
 ,0.00010317,0.00003498,-0.00009231,-0.00071093,-0.00095927,-0.00001923
 ,-0.00002709,0.00000825,0.00002283,0.00412724,0.00047346,-0.00047418,0
 .20511785,-0.00106212,-0.00261974,-0.00128784,0.00036533,-0.00010791,-
 0.00006341,0.00012822,-0.00103892,-0.00003474,-0.06148450,-0.07428418,
 0.03934593,-0.00006924,0.00007460,-0.00005879,-0.00011898,-0.00009203,
 0.00017607,0.00006112,-0.00014767,-0.00008552,0.00044218,-0.00016196,-
 0.00007583,-0.00008539,0.00009140,0.00008443,-0.02032486,-0.01303900,0
 .00662797,-0.00007685,0.00002452,0.00001012,-0.00032993,-0.00022673,-0
 .00016673,-0.00021982,-0.00006653,0.00010174,-0.00029127,0.00084493,-0
 .00068215,0.00019812,-0.00009299,-0.00002194,-0.00003616,0.00012989,0.
 00010943,0.00023011,-0.00055253,0.00043962,0.00031461,0.00001076,0.000
 15377,-0.00049567,-0.00129897,0.00091376,0.00000835,-0.00002037,-0.000
 02295,-0.00029275,0.00014604,0.00004778,0.00013521,0.00006258,-0.00011
 588,-0.00049920,0.00019054,-0.00001369,-0.00032073,0.00001014,-0.00015
 980,0.00032752,-0.00010658,0.00042451,0.00030087,0.00018691,-0.0003088
 1,0.00010692,0.00002437,-0.00003027,0.00012642,0.00050712,-0.00000688,
 -0.00000139,0.00000991,0.00000634,-0.00823177,-0.00275554,0.00717229,0
 .06979594,0.08658464,-0.00095739,-0.00081699,-0.00002587,-0.00017303,0
 .00006020,0.00011353,-0.00002289,-0.00052524,0.00014296,0.07176010,0.0
 3804551,-0.08884367,0.00001714,-0.00000820,0.00000820,0.00024481,0.000
 09933,-0.00009496,-0.00003958,0.00013905,0.00020849,0.00000640,-0.0004
 0157,-0.00006106,0.00008598,-0.00005099,-0.00008104,-0.01034933,-0.005
 05130,0.00742514,-0.00011779,0.00009543,-0.00004632,-0.00040785,-0.000
 08810,-0.00005535,0.00012950,0.00010281,-0.00015109,-0.00016229,-0.000
 05266,0.00034742,-0.00001826,-0.00015217,0.00002193,-0.00003368,-0.000
 03096,-0.00002872,-0.00003561,0.00028122,0.00002471,0.00018849,-0.0001
 4304,0.00000876,-0.00072712,-0.00122520,-0.00043126,-0.00001130,0.0000
 6265,0.00003518,-0.00000223,0.00004138,0.00005128,0.00036955,0.0005025
 2,-0.00017664,0.00044369,0.00052111,-0.00018855,0.00003963,-0.00008695
 ,0.00004051,0.00001659,-0.00009664,-0.00002170,-0.00020145,-0.00011418
 ,-0.00003249,-0.00007383,-0.00001016,0.00002920,0.00016069,0.00025086,
 -0.00001135,0.00002318,-0.00000908,-0.00001349,0.02200248,0.01234527,-
 0.01690657,-0.08953860,-0.04192196,0.09900801,-0.00154806,0.00072603,-
 0.00072191,0.00027015,0.00001198,0.00006274,-0.00009177,0.00045673,-0.
 00015909,0.00003261,0.00032570,-0.00001646,-0.00042056,0.00002745,-0.0
 0007476,-0.00004147,-0.00128163,0.00025502,0.00045114,0.00054836,0.000
 07229,0.00018904,0.00137974,-0.00023637,-0.00006871,-0.00001819,-0.000
 01441,-0.00026734,0.00036437,-0.00009564,-0.00181436,0.00010323,-0.000
 73842,0.00009039,-0.00023883,-0.00013826,0.00003406,-0.00062024,-0.000
 19746,0.00019708,-0.00017855,-0.00039573,0.00019226,-0.00004007,-0.000
 23938,-0.00041535,0.00008001,0.00040272,0.00028867,-0.00005270,-0.0002
 1293,0.00107847,0.00068556,-0.00025242,-0.00035531,0.00048890,-0.00010
 369,-0.00002266,-0.00004388,-0.00003318,-0.00016539,0.00005058,0.00000
 131,-0.00108985,0.00244035,0.00042659,-0.00523556,-0.00194275,0.000809
 27,-0.01355322,-0.02148496,-0.00758542,-0.12150173,-0.12668707,-0.0580
 5754,0.00761955,0.00760919,0.00293364,0.00019238,0.00010324,0.00024712
 ,-0.00026714,-0.00024418,-0.00005023,-0.00002122,0.00000666,0.00002023
 ,-0.00000088,0.00042174,-0.00007044,0.00004243,0.00011261,-0.00002404,
 0.14107051,0.00001325,-0.00385836,-0.00364536,-0.00039321,-0.00009902,
 -0.00006613,-0.00036752,-0.00010282,0.00016007,0.00027085,0.00049316,-
 0.00009661,0.00000161,0.00002311,0.00077316,0.00049346,0.00022025,0.00
 005975,-0.00096275,-0.00032795,0.00031882,0.00127517,-0.00160126,0.000
 11768,0.00011343,0.00006101,0.00008248,0.00028379,0.00014782,0.0001532
 2,-0.00022319,0.00041399,-0.00044320,-0.00014720,-0.00014790,-0.000743
 33,0.00027402,-0.00016521,-0.00042939,0.00048256,0.00022204,-0.0001915
 1,-0.00004543,0.00001992,0.00013653,0.00005047,-0.00002786,-0.00020067
 ,0.00030430,0.00013547,-0.00021437,-0.00167705,-0.00099919,0.00044553,
 -0.00009249,0.00061386,-0.00111265,0.00003061,0.00014054,0.00011164,0.
 00014431,0.00009214,0.00006586,0.00051468,-0.00364569,-0.00114916,0.00
 066990,0.00008347,-0.00043450,-0.00074643,0.00100418,0.00123833,-0.126
 94740,-0.22141997,-0.09191134,-0.01127278,-0.01637718,-0.00450983,0.00
 013625,-0.00023025,0.00021178,-0.00037265,0.00067462,0.00000302,0.0000
 0884,0.00000835,0.00000243,0.00031305,0.00042444,-0.00019470,0.0000641
 9,0.00004631,-0.00001072,0.13879284,0.24261119,0.00135739,0.00542474,0
 .00141278,-0.00011358,0.00002267,0.00008493,0.00036897,-0.00110977,-0.
 00020444,-0.00035794,-0.00063436,-0.00013373,-0.00007514,0.00079254,-0
 .00075776,-0.00026326,-0.00047053,0.00039208,-0.00032110,-0.00070573,0
 .00055610,-0.00023267,0.00035366,0.00034528,0.00005766,-0.00005628,-0.
 00007398,-0.00027893,-0.00056726,-0.00084659,-0.00014739,0.00090886,-0
 .00058880,0.00045048,0.00024019,0.00051397,-0.00052350,0.00053641,0.00
 031997,-0.00078708,0.00004542,0.00036635,0.00000031,0.00025829,-0.0005
 1485,0.00040569,0.00008934,0.00000482,-0.00036836,-0.00013923,0.000137
 94,0.00119356,0.00045077,0.00014038,0.00056948,-0.00084163,0.00135510,
 0.00002409,-0.00004202,0.00001269,0.00009343,-0.00002751,0.00010200,-0
 .00102376,-0.00443250,0.00119020,-0.00078240,-0.00327964,0.00133249,0.
 00064366,0.00055685,-0.00176459,-0.05718647,-0.09303607,-0.06164424,-0
 .00660484,-0.00493356,-0.00481905,0.00025076,0.00035722,-0.00096426,0.
 00020787,-0.00022497,-0.00010129,0.00002504,0.00000614,0.00000118,-0.0
 0009003,-0.00039124,0.00007288,-0.00004646,-0.00007251,0.00000481,0.06
 587771,0.10190516,0.06440054,0.00132788,0.00001380,-0.00083564,-0.0018
 2697,-0.00095685,-0.00117913,-0.03898121,0.00199522,0.00396694,-0.1433
 1766,0.06212269,0.00916131,0.00000795,0.00000137,-0.00006899,0.0001941
 5,0.00000433,-0.00001636,-0.00008640,-0.00021147,0.00005796,-0.0037307
 7,0.00552189,0.00127412,0.00023896,0.00020251,0.00043550,0.00586534,0.
 00003902,0.00144286,0.00326865,-0.00024301,-0.00050918,0.00045267,0.00
 036592,-0.00010737,-0.00025678,-0.00007958,0.00006726,0.00022980,-0.00
 087035,0.00011208,0.00001281,0.00023367,0.00015774,0.00005340,0.000013
 45,-0.00005837,0.00020541,-0.00039013,0.00022793,-0.00271486,-0.001417
 14,0.00058522,0.00207657,0.00111896,-0.00261076,0.00019180,-0.00066901
 ,0.00039842,-0.00013618,0.00106935,0.00115877,-0.00004117,-0.00091129,
 0.00053564,-0.00028361,0.00037415,-0.00018540,0.00006572,-0.00012033,0
 .00037449,-0.00008556,0.00023291,0.00023068,0.00013667,0.00016277,0.00
 042741,0.00022709,-0.00003077,-0.00021252,0.00655189,-0.01062876,-0.00
 023840,-0.00016639,0.00026032,0.00027817,-0.00927843,0.00892687,-0.002
 39353,-0.03778623,0.01991856,0.00980736,-0.00000662,0.00018885,-0.0000
 5874,0.36697563,0.00137726,0.00603829,-0.00065660,0.00020896,-0.000822
 16,-0.00117436,-0.01143372,-0.01580940,-0.00179323,0.08647765,-0.12283
 075,-0.01275645,-0.00003685,0.00018625,-0.00022174,-0.00008446,-0.0001
 0680,-0.00015873,-0.00012769,-0.00027495,0.00042920,-0.00113885,0.0031
 6826,0.00056915,-0.00022237,0.00022332,0.00040849,0.02117400,-0.030814
 01,-0.00820529,0.00232596,-0.00039133,-0.00042847,0.00050677,0.0001322
 4,0.00051601,0.00040154,-0.00153172,0.00059190,-0.00207917,-0.00488888
 ,-0.00210372,0.00003154,0.00023339,0.00020668,-0.00039179,-0.00013323,
 0.00009986,-0.00023483,0.00003030,0.00011355,-0.00128162,-0.00137749,0
 .00048811,0.00009951,0.00174438,-0.00177095,-0.00062667,-0.00086441,0.
 00002535,0.00022748,0.00286890,0.00165883,0.00019824,-0.00144265,0.000
 18694,-0.00026851,-0.00032678,-0.00016662,-0.00013993,0.00012088,0.000
 17147,0.00003346,0.00049651,-0.00025369,0.00025552,0.00006938,0.000306
 46,0.00003637,0.00002431,-0.00016613,0.00549775,0.00293410,0.00015009,
 -0.00020837,0.00035581,0.00027401,0.01213822,-0.01197258,0.00305689,0.
 00444644,0.00488318,-0.00183591,-0.00000995,0.00014988,-0.00015284,-0.
 08028973,0.47119227,-0.00049011,0.00011157,-0.00102501,0.00113649,-0.0
 0010659,-0.00034452,0.00761531,-0.00115719,-0.02152690,0.00739716,-0.0
 0866599,-0.07541748,0.00001327,-0.00005646,-0.00002836,0.00023287,0.00
 001545,-0.00000415,-0.00011333,0.00022625,-0.00068030,-0.00003490,0.00
 007504,0.00035201,-0.00015219,0.00000388,0.00017288,0.01268449,-0.0158
 8378,-0.00193903,0.00036930,0.00000518,0.00027484,0.00021921,-0.000758
 81,-0.00013771,0.00025978,-0.00119864,0.00055528,-0.00103337,-0.002853
 53,-0.00132192,-0.00001022,0.00009725,-0.00007360,-0.00026398,-0.00018
 681,-0.00003539,0.00005312,0.00001242,-0.00018577,-0.00014172,-0.00011
 107,0.00029100,-0.00077487,-0.00053423,0.00091096,-0.00067398,-0.00035
 516,0.00027148,0.00091816,0.00172263,0.00068352,-0.00019478,0.00062959
 ,-0.00023484,-0.00013405,0.00042519,-0.00055302,-0.00006345,-0.0000523
 4,-0.00007972,0.00024099,-0.00002220,0.00004027,0.00002421,-0.00001857
 ,-0.00000303,0.00010088,0.00000228,0.00002280,-0.00067999,0.00065567,0
 .00659390,-0.00009524,0.00016828,0.00014599,-0.02175025,0.01902372,-0.
 00102814,0.01363169,-0.00905635,-0.00216429,0.00003828,-0.00003872,0.0
 0000774,0.02694150,0.02852414,0.50074817,-0.00003894,0.00018094,-0.000
 40240,0.00017506,-0.00031318,0.00014440,0.00127824,-0.00245467,-0.0041
 8874,0.00100144,0.01721319,0.01781825,0.00001189,0.00000513,0.00002875
 ,0.00002001,0.00000317,-0.00001513,0.00003487,-0.00008771,0.00007906,-
 0.00038879,0.00025483,0.00017113,-0.00008903,0.00019870,0.00007096,-0.
 00196699,0.00235307,0.00095974,0.00050241,0.00008847,-0.00002549,0.000
 04422,0.00011462,0.00007316,-0.00009966,0.00033013,-0.00013272,0.00038
 411,0.00070202,0.00062035,0.00001367,0.00004281,-0.00000974,0.00006855
 ,0.00008458,-0.00005126,-0.00002690,-0.00000261,-0.00001046,-0.0003242
 6,-0.00035255,0.00019656,-0.00041329,-0.00027990,-0.00034743,-0.000254
 83,-0.00009882,0.00004193,-0.00222724,-0.00035530,0.00056377,-0.000206
 11,-0.00002588,0.00008507,-0.00006512,-0.00008045,-0.00009281,-0.00001
 857,-0.00004905,-0.00001767,0.00002779,0.00008120,-0.00008468,0.000046
 84,-0.00008429,-0.00001621,0.00001672,0.00000613,-0.00001015,-0.000433
 87,-0.00008356,0.00088264,-0.00002824,0.00005223,0.00001483,0.00067252
 ,0.00047917,0.00141402,-0.00053370,0.00145920,0.00083772,-0.00000893,0
 .00002393,-0.00001468,-0.07337391,-0.02200578,-0.03549936,0.50189381,-
 0.00021293,0.00136327,-0.00005572,-0.00017937,0.00053283,0.00056305,0.
 00078252,-0.00192397,-0.00310993,-0.00060685,-0.02241273,-0.01793422,-
 0.00000830,0.00004228,0.00002416,-0.00001486,-0.00004547,-0.00005645,-
 0.00017120,-0.00107850,0.00023044,-0.00023157,-0.00036601,0.00008743,-
 0.00005396,-0.00021602,-0.00014716,0.00428290,-0.00345839,-0.00092264,
 0.00018152,0.00004904,0.00003350,0.00003327,-0.00011188,0.00016288,0.0
 0009110,-0.00026124,0.00016848,-0.00053234,-0.00123702,-0.00051486,0.0
 0001686,0.00004160,-0.00000050,-0.00011187,-0.00003753,-0.00001250,-0.
 00007431,0.00000362,-0.00002846,0.00000472,-0.00040508,0.00018845,-0.0
 0001396,0.00014470,-0.00023133,-0.00022054,0.00015700,0.00002229,-0.00
 091913,-0.00086264,0.00033589,-0.00020304,0.00066271,-0.00007075,0.000
 04838,-0.00011631,-0.00025673,-0.00001158,0.00006719,-0.00001176,0.000
 04473,0.00003295,-0.00000570,0.00005103,-0.00031460,-0.00015792,-0.000
 02339,0.00000228,-0.00000714,-0.00014194,0.00035750,0.00054689,-0.0000
 0211,-0.00000157,-0.00003503,-0.00048271,-0.00037406,-0.00194705,-0.00
 070141,0.00098380,0.00073846,-0.00000528,0.00002606,0.00003388,-0.0126
 6472,-0.13080083,-0.07382617,-0.03729608,0.48820765,-0.00060432,0.0002
 3657,-0.00038109,-0.00052566,0.00053864,0.00090397,0.00043176,0.000287
 74,0.00097808,0.00087905,-0.00798467,-0.00662023,0.00002240,0.00000288
 ,0.00003930,-0.00011302,0.00008572,0.00004279,0.00057260,0.00114687,-0
 .00029666,-0.00030937,-0.00067239,0.00012883,0.00006236,-0.00023325,-0
 .00043689,0.00059335,0.00037708,0.00047670,-0.00000654,0.00008512,-0.0
 0007655,0.00006830,-0.00027415,0.00010817,0.00010004,-0.00003495,-0.00
 003308,-0.00010216,-0.00041460,0.00002037,0.00003014,0.00006896,-0.000
 03534,-0.00002100,0.00004126,-0.00006697,-0.00003753,0.00002772,-0.000
 02924,-0.00000218,-0.00045237,0.00032944,0.00013793,0.00014654,-0.0001
 0829,-0.00005327,0.00023109,0.00005559,0.00078222,-0.00004107,-0.00062
 931,-0.00009255,-0.00054175,-0.00024379,-0.00014601,-0.00004978,-0.000
 19008,-0.00008795,0.00022113,-0.00007773,0.00014336,0.00015570,0.00000
 240,0.00017350,-0.00011870,-0.00034836,-0.00001732,0.00004923,0.000014
 44,0.00038097,0.00039080,-0.00012072,0.00003595,-0.00005290,-0.0000612
 0,-0.00111971,0.00173070,0.00153838,-0.00037553,0.00025852,0.00057235,
 -0.00003253,-0.00001746,0.00000013,-0.01918635,-0.06215272,-0.14560173
 ,-0.01068579,-0.03611752,0.49871396,-0.00017740,0.00038926,0.00012061,
 -0.00027665,-0.00017330,0.00013374,-0.00020129,-0.00287789,0.00390833,
 -0.01014621,0.01618689,-0.02090548,-0.00000379,-0.00001014,0.00000369,
 0.00001584,0.00004100,-0.00000905,0.00004691,0.00006210,0.00003220,-0.
 00015728,0.00021112,0.00006454,0.00008463,0.00005534,-0.00009242,0.000
 00969,-0.00042262,-0.00037567,0.00013577,0.00011867,-0.00007369,0.0001
 3237,-0.00010955,0.00008547,-0.00003791,-0.00005889,0.00002917,0.00017
 119,0.00011773,0.00027981,0.00000568,0.00003179,0.00003171,0.00001335,
 0.00003165,-0.00001281,-0.00000636,0.00001738,-0.00002781,-0.00008766,
 -0.00010149,0.00008332,-0.00001496,-0.00100575,-0.00022030,0.00002065,
 -0.00001136,-0.00000900,-0.00001969,0.00022083,-0.00003817,0.00008263,
 0.00010531,-0.00022158,0.00002898,0.00027068,-0.00026505,-0.00003104,-
 0.00000777,-0.00000878,0.00002177,0.00013433,-0.00005745,0.00002874,-0
 .00020827,-0.00005386,0.00000890,0.00000051,-0.00004032,-0.00056501,-0
 .00020435,-0.00074471,0.00003085,0.00004447,0.00000900,-0.00329660,0.0
 0421715,-0.00093072,0.00132904,0.00204585,-0.00242113,-0.00000767,0.00
 004180,-0.00001450,-0.06171043,0.00279496,0.00311100,-0.00280488,0.001
 13015,-0.00806251,0.49807937,-0.00044244,0.00079672,-0.00013959,-0.000
 98393,0.00021086,0.00023220,-0.00057589,-0.00097929,0.00260882,0.00661
 456,-0.01667011,0.02148959,0.00001296,0.00003368,0.00001828,-0.0001239
 5,-0.00001566,-0.00005210,0.00001419,-0.00003350,0.00012227,-0.0002101
 2,-0.00064306,0.00000881,0.00033847,-0.00017959,-0.00026444,-0.0001724
 7,0.00000967,0.00033997,-0.00012246,0.00005158,0.00005281,0.00024905,-
 0.00032437,0.00027373,0.00008030,-0.00009176,0.00002849,-0.00021351,-0
 .00027363,0.00005524,-0.00000519,-0.00000989,0.00004367,0.00001121,0.0
 0001920,-0.00004339,-0.00008892,0.00003910,-0.00000854,0.00004450,-0.0
 0036510,0.00015460,-0.00010269,-0.00153034,-0.00051169,-0.00000410,0.0
 0020541,0.00009204,0.00051423,0.00009895,0.00046906,0.00018208,0.00007
 391,-0.00028223,0.00004910,-0.00031137,-0.00006793,-0.00008595,0.00015
 728,0.00001100,0.00010722,0.00016207,0.00000540,0.00002412,-0.00038362
 ,-0.00018132,0.00001688,0.00003186,-0.00002404,-0.00000972,0.00042329,
 -0.00036774,0.00004786,-0.00004010,-0.00003723,0.00335433,-0.00325783,
 0.00027144,-0.00135943,0.00198749,-0.00047013,-0.00002821,0.00003000,-
 0.00000397,0.01697231,-0.10959434,0.06398005,-0.00338327,0.00619610,-0
 .01678654,-0.02364251,0.49853875,0.00004426,-0.00005435,0.00007036,0.0
 0100699,-0.00028460,-0.00057343,-0.00018206,0.00059157,0.00037973,-0.0
 0241837,0.00441108,-0.00174796,0.00001525,0.00000238,-0.00004982,0.000
 00538,0.00004875,-0.00002632,-0.00006129,-0.00000928,-0.00020288,0.000
 30705,0.00095650,0.00009200,-0.00036855,0.00018313,0.00034676,0.001161
 17,-0.00088887,-0.00008652,0.00006755,-0.00013345,-0.00030644,-0.00005
 393,0.00001343,-0.00023740,0.00006305,-0.00012139,-0.00008629,0.000155
 15,-0.00024395,-0.00007603,-0.00003155,-0.00006966,0.00000574,-0.00000
 759,-0.00006244,0.00005033,0.00003473,-0.00000649,0.00005270,-0.000194
 41,0.00021284,0.00006485,-0.00036271,0.00139030,0.00004142,0.00002107,
 -0.00023028,-0.00010296,-0.00049409,-0.00035091,-0.00031536,-0.0000784
 8,-0.00008052,0.00032954,-0.00000563,-0.00009274,0.00020963,-0.0001029
 6,-0.00004454,0.00002124,0.00004319,-0.00006009,0.00009993,0.00002297,
 0.00005164,0.00000274,-0.00004320,0.00004185,-0.00000722,-0.00039750,-
 0.00049588,0.00002943,-0.00006513,0.00005113,0.00007074,0.00034296,0.0
 0005494,0.00046844,0.00126544,-0.00172734,0.00096270,0.00000958,-0.000
 00789,-0.00003342,-0.01621328,0.05509424,-0.17143677,-0.00477747,0.010
 83407,-0.03359458,0.00771174,0.05056384,0.47048840,0.00037322,0.000233
 03,0.00001881,0.00092358,-0.00009259,-0.00031641,0.00056294,0.00006324
 ,-0.00055601,0.00121936,0.00106629,0.00015761,0.00000832,-0.00000457,-
 0.00003724,0.00006371,-0.00004125,-0.00001033,-0.00017810,-0.00007157,
 -0.00005508,0.00019654,0.00075745,0.00003020,-0.00038735,0.00021028,0.
 00031446,0.00014389,-0.00005641,0.00002211,0.00016697,-0.00008233,-0.0
 0005630,0.00004944,0.00005747,-0.00000413,-0.00003372,-0.00001703,0.00
 002605,-0.00000297,0.00003040,0.00002242,0.00001632,0.00001671,0.00003
 124,0.00000238,0.00000077,0.00002304,0.00002822,-0.00003827,0.00001712
 ,-0.00011784,0.00006323,0.00000948,0.00000527,0.00003681,-0.00013288,-
 0.00008710,-0.00010576,-0.00007606,-0.00059843,-0.00021810,-0.00004383
 ,-0.00005436,-0.00002183,0.00000736,-0.00008033,0.00002989,0.00000771,
 -0.00000699,-0.00000612,-0.00001486,-0.00003594,0.00008888,0.00000488,
 0.00004113,0.00004987,0.00007849,0.00004156,0.00002641,-0.00004241,-0.
 00026053,-0.00036636,0.00013953,-0.00007116,0.00000602,0.00000972,-0.0
 0014803,-0.00008739,-0.00001075,0.00052755,-0.00048412,-0.00038591,0.0
 0001898,0.00002009,-0.00002485,-0.01076704,-0.01628958,-0.01002926,-0.
 18245880,-0.08599407,0.04167102,0.00072666,0.00008256,0.00099289,0.214
 53028,0.00043017,0.00023208,-0.00008639,0.00028565,-0.00024749,-0.0002
 6391,0.00094178,-0.00018026,-0.00135586,-0.00147392,0.00101906,0.00078
 690,0.00000445,0.00000600,-0.00002583,0.00003270,-0.00006285,0.0000124
 9,-0.00000362,0.00006787,-0.00007921,0.00010504,0.00073010,0.00003674,
 -0.00010098,0.00012894,0.00017944,0.00020092,-0.00003005,-0.00004699,0
 .00030656,-0.00013252,-0.00006269,0.00006643,0.00011559,-0.00001510,-0
 .00002677,-0.00000508,0.00002457,0.00003098,0.00001473,0.00003396,0.00
 002026,0.00003080,0.00001778,0.00001849,0.00001188,0.00001426,0.000030
 55,-0.00006317,0.00002414,-0.00022853,0.00004809,0.00000225,-0.0001481
 4,0.00007370,-0.00008928,-0.00000844,-0.00014020,-0.00001278,0.0001099
 7,0.00046675,-0.00000800,-0.00019000,-0.00005905,0.00009846,-0.0000877
 0,-0.00004827,0.00000166,0.00000434,-0.00002745,0.00003747,-0.00001164
 ,0.00006779,0.00001684,0.00005828,0.00000969,0.00006561,0.00004812,0.0
 0001829,-0.00003457,-0.00035287,-0.00036809,0.00030534,-0.00004943,0.0
 0003945,0.00005092,-0.00018864,-0.00032404,0.00018161,0.00051718,0.000
 23326,-0.00048535,0.00001260,0.00000868,0.00000042,-0.02454354,-0.0246
 5432,-0.00917046,-0.08793447,-0.10045129,0.02811032,0.00099154,0.00092
 477,0.00103677,0.11275660,0.12388639,0.00009102,0.00000691,-0.00003757
 ,-0.00051418,-0.00006390,-0.00005722,0.00040184,-0.00056601,-0.0014550
 6,-0.00103147,0.00017666,0.00068771,-0.00000383,0.00001960,0.00000288,
 0.00002902,0.00001198,-0.00000220,-0.00007765,-0.00020493,0.00017137,-
 0.00004404,0.00007675,-0.00002945,0.00024230,-0.00006807,-0.00011556,0
 .00018325,-0.00011392,-0.00009427,0.00010511,0.00002690,-0.00007738,-0
 .00002413,0.00003925,0.00001459,-0.00001648,0.00003098,0.00001477,0.00
 002379,0.00001381,-0.00000639,0.00000060,0.00001184,0.00000708,-0.0000
 0386,0.00000864,0.00000126,-0.00001478,0.00000468,-0.00000206,-0.00010
 706,-0.00005918,-0.00006967,-0.00003026,0.00002458,0.00019655,0.000078
 03,-0.00003749,0.00004777,0.00066169,0.00045316,0.00022381,0.00008839,
 -0.00006766,-0.00006494,0.00011800,0.00004060,0.00001041,-0.00000054,-
 0.00002106,0.00005168,0.00001268,-0.00004151,0.00002691,-0.00008833,0.
 00009668,0.00011510,-0.00004001,-0.00001876,0.00000316,-0.00020769,-0.
 00005328,0.00032877,0.00000455,0.00003873,0.00003940,0.00019067,0.0001
 2308,-0.00023915,-0.00003028,0.00039385,0.00001564,-0.00001000,0.00000
 941,0.00001454,-0.02170345,-0.01799677,-0.00159642,0.03803165,0.025595
 47,-0.05498495,-0.00219609,-0.00254093,0.00191062,-0.04050126,-0.02388
 623,0.06276543,-0.00031825,0.00029187,0.00010587,-0.00111839,0.0000787
 5,-0.00004134,-0.00026442,-0.00038280,-0.00116715,0.00042696,0.0001760
 7,0.00138753,-0.00000935,0.00004856,0.00002904,-0.00010596,0.00009958,
 0.00001474,0.00032813,-0.00117893,0.00056369,-0.00000630,-0.00008178,-
 0.00009495,0.00038665,-0.00015064,-0.00011898,-0.00003393,-0.00003090,
 0.00009607,-0.00004148,0.00014876,0.00008376,-0.00007058,0.00003030,0.
 00002077,-0.00003578,0.00006231,0.00000227,-0.00002243,0.00008114,-0.0
 0000785,-0.00000757,0.00000632,0.00002709,-0.00001045,-0.00000662,-0.0
 0000238,-0.00004323,0.00004562,0.00002808,0.00011994,-0.00004017,-0.00
 014681,0.00004468,-0.00021823,0.00017225,0.00019258,0.00007295,0.00008
 754,0.00078534,0.00013686,0.00054174,0.00005591,-0.00043904,-0.0002101
 2,0.00027423,0.00010594,-0.00007150,-0.00007481,0.00010959,0.00005537,
 0.00000688,-0.00001487,0.00000648,-0.00015224,-0.00003515,0.00001704,-
 0.00007976,-0.00004274,0.00000415,-0.00003958,-0.00013329,0.00005762,0
 .00002821,0.00002831,0.00003213,0.00015390,0.00082413,0.00043762,-0.00
 018120,-0.00010333,0.00005893,-0.00002348,0.00004931,0.00000169,-0.001
 94624,0.00334636,-0.00797590,-0.04774031,0.01713057,-0.02721803,0.0004
 1430,-0.00103983,-0.00137111,0.00182520,-0.01586781,0.02183067,0.05199
 848,0.00006659,0.00135040,0.00052676,0.00013096,0.00014420,0.00012385,
 -0.00007518,0.00021278,-0.00014996,-0.00068616,0.00069776,-0.00204528,
 -0.00000551,0.00009747,0.00000695,0.00017171,-0.00010121,-0.00004067,-
 0.00126836,-0.00131595,0.00103480,-0.00011742,0.00006460,0.00001442,-0
 .00009668,-0.00004791,-0.00007244,-0.00029499,0.00010196,0.00000560,0.
 00039877,-0.00010120,0.00008108,-0.00000976,0.00016384,0.00004351,0.00
 014338,0.00014766,0.00009972,-0.00009886,0.00000925,0.00008493,-0.0000
 0360,0.00006714,-0.00001525,0.00005588,0.00004622,0.00000328,-0.000077
 78,-0.00001037,0.00000170,-0.00015398,-0.00002556,0.00006562,0.0000986
 7,-0.00018763,0.00000195,-0.00001534,0.00000892,-0.00004440,-0.0003875
 5,-0.00035311,-0.00028485,-0.00009741,-0.00113829,-0.00002371,0.000082
 65,-0.00022226,-0.00004617,0.00001594,0.00008202,-0.00009154,0.0000073
 3,0.00020641,-0.00004222,-0.00015538,0.00002471,-0.00005448,0.00002361
 ,-0.00000082,-0.00003971,0.00000114,0.00000690,0.00009853,-0.00000565,
 -0.00001784,-0.00002771,0.00077993,-0.00075662,-0.00097320,0.00004244,
 -0.00019855,0.00024385,0.00000052,0.00008093,0.00004515,-0.00226922,0.
 00840204,-0.01592333,0.01805248,-0.10947516,0.10829846,-0.00016615,-0.
 00143743,-0.00283366,0.00051306,-0.01086922,0.01567672,-0.01954370,0.1
 2603736,0.00022499,0.00058555,0.00009044,-0.00072954,0.00003974,0.0001
 5292,-0.00124667,-0.00050790,-0.00080691,-0.00051043,0.00132916,0.0003
 1961,-0.00001491,0.00003541,-0.00001960,0.00008528,-0.00010861,0.00005
 584,0.00010762,0.00027914,0.00089078,-0.00004563,0.00014508,-0.0000450
 6,0.00034163,-0.00014339,-0.00023483,-0.00023962,0.00013648,0.00015527
 ,0.00016109,0.00012982,-0.00007402,0.00005322,0.00010114,0.00005271,-0
 .00009626,0.00013629,0.00001857,0.00000554,0.00003581,0.00004696,0.000
 03371,0.00004297,0.00005036,-0.00001067,0.00004769,0.00004372,0.000034
 19,-0.00004593,0.00000043,-0.00009630,-0.00015266,-0.00012644,0.000040
 32,-0.00025830,0.00025974,0.00013280,0.00003215,0.00002992,0.00068690,
 0.00015674,0.00018917,0.00006460,0.00043955,-0.00038182,0.00008851,-0.
 00011674,-0.00007266,-0.00004869,-0.00002246,0.00000875,0.00005816,0.0
 0007395,0.00003614,-0.00011645,-0.00015601,0.00001185,0.00003257,-0.00
 000457,-0.00001200,0.00002200,-0.00017242,0.00004837,0.00004322,0.0000
 1740,0.00001413,0.00072424,-0.00119266,0.00012602,-0.00012717,0.000071
 74,-0.00001442,0.00001827,0.00004976,-0.00001461,-0.00560247,0.0092021
 1,-0.02873458,-0.02697294,0.10375116,-0.20862834,-0.00113189,-0.004199
 46,-0.00533501,0.00091723,0.00826265,-0.00808682,0.03435593,-0.1195103
 0,0.24930028,-0.00007611,-0.00006901,-0.00003912,-0.00067376,-0.000301
 68,0.00026273,0.00135231,0.00037836,-0.00005920,0.00084318,0.00000082,
 -0.00055431,-0.00000035,-0.00000938,0.00000884,0.00001583,-0.00003178,
 0.00000413,-0.00004564,0.00015034,-0.00005118,0.00008495,-0.00022992,-
 0.00005125,-0.00003108,0.00016588,-0.00007618,0.00015769,-0.00014609,-
 0.00006248,-0.00007731,0.00003785,0.00006806,0.00000346,0.00007362,0.0
 0000644,-0.00002665,-0.00003460,-0.00000604,-0.00003710,-0.00004398,-0
 .00004644,0.00000218,-0.00000268,0.00000265,-0.00000257,-0.00000643,-0
 .00000160,0.00001437,-0.00001548,-0.00000153,-0.00011367,-0.00006694,0
 .00004494,0.00007465,0.00004770,0.00001042,0.00007282,0.00001876,0.000
 04135,-0.00049032,-0.00032869,-0.00002297,-0.00004780,0.00001526,0.000
 09022,-0.00004549,-0.00004427,0.00005386,0.00000517,-0.00006378,0.0000
 1282,-0.00002356,0.00000081,-0.00002508,0.00001153,-0.00000185,-0.0000
 0931,0.00001328,-0.00000602,0.00000488,-0.00001403,0.00022377,0.000028
 33,0.00000275,0.00002049,0.00000648,0.00003805,-0.00014664,0.00024480,
 0.00048588,-0.00027092,-0.00028498,0.00000191,-0.00000337,-0.00000367,
 0.00423919,-0.00070967,0.00074380,-0.19487394,0.11557990,0.02399097,0.
 00060268,-0.00081965,-0.00011609,-0.02616951,0.01383304,0.00337088,-0.
 00522837,0.00504311,-0.00118362,0.22021782,-0.00059492,0.00050872,0.00
 010867,-0.00195479,-0.00022662,0.00052438,-0.00009954,-0.00206056,-0.0
 0095656,-0.00020133,-0.00293831,-0.00447058,-0.00001423,0.00004723,0.0
 0000128,-0.00008634,0.00002232,-0.00003054,0.00026143,-0.00014130,0.00
 009412,0.00016820,-0.00025785,-0.00007051,0.00064179,-0.00014553,-0.00
 044516,0.00107905,-0.00084666,-0.00013322,-0.00034105,0.00027532,0.000
 05389,-0.00005249,-0.00011472,0.00010356,0.00003528,-0.00000185,0.0001
 1373,-0.00020901,-0.00012141,-0.00023156,0.00001039,0.00001424,0.00002
 303,-0.00004404,0.00000619,0.00000014,-0.00008571,0.00004355,0.0000018
 7,0.00046613,-0.00001933,-0.00010187,0.00002910,0.00005702,0.00034937,
 0.00029657,0.00001074,0.00017928,0.00092957,0.00102299,0.00007516,0.00
 006486,-0.00019538,-0.00015046,-0.00000501,-0.00000123,-0.00005617,-0.
 00002092,0.00017060,-0.00002447,0.00001797,0.00000577,0.00001859,0.000
 03533,-0.00005242,-0.00014337,-0.00000967,-0.00003860,-0.00001274,-0.0
 0000992,0.00001241,-0.00009724,0.00008132,0.00007556,0.00003787,-0.000
 36734,0.00038473,-0.00036513,0.00009351,-0.00019688,-0.00002355,0.0000
 0214,0.00003194,-0.00000153,0.01645509,-0.01885661,-0.00702442,0.11192
 586,-0.12635986,-0.01668398,0.00009561,0.00063180,0.00081315,-0.012386
 79,0.00922484,0.00225886,0.01627325,-0.01234442,0.00132706,-0.13225191
 ,0.15168577,-0.00013490,0.00017703,0.00001143,0.00028548,0.00023102,0.
 00046955,-0.00014063,-0.00065902,0.00031058,-0.00052616,-0.00288554,-0
 .00348993,0.00000141,0.00000558,-0.00001158,0.00004458,-0.00004567,-0.
 00002189,-0.00024677,-0.00001206,0.00008816,0.00014769,-0.00011408,-0.
 00002019,-0.00007815,-0.00015757,-0.00020671,0.00094796,-0.00096166,-0
 .00006555,-0.00012259,0.00006058,-0.00004493,-0.00000641,0.00003171,0.
 00001829,0.00000748,-0.00005706,0.00005200,-0.00014714,-0.00023721,-0.
 00017332,0.00000565,0.00000526,0.00001833,-0.00002965,-0.00000607,0.00
 001409,-0.00001223,0.00000225,-0.00001000,0.00007912,-0.00011700,-0.00
 002093,0.00011344,0.00012920,0.00016510,-0.00009355,-0.00007010,-0.000
 06387,-0.00024528,-0.00019079,-0.00038263,0.00010462,0.00005921,-0.000
 06275,-0.00003002,-0.00001911,0.00003651,0.00004200,-0.00001544,-0.000
 01845,-0.00001806,0.00000768,0.00002570,-0.00003161,0.00003419,-0.0000
 1590,0.00002857,0.00000707,-0.00000274,-0.00000094,0.00014108,-0.00008
 503,0.00001764,0.00000510,-0.00003914,-0.00028796,0.00021999,0.0000562
 5,0.00016832,-0.00000055,0.00012494,0.00000708,0.00000845,-0.00000433,
 0.01728450,-0.01789802,-0.00645505,0.02149336,-0.01505128,-0.04696087,
 0.00098355,-0.00113707,0.00042772,0.00824897,-0.00352366,0.00007188,-0
 .02119644,0.01701452,0.00140194,-0.02610623,0.02479948,0.05559437,0.00
 049042,0.00008246,0.00010834,0.00057910,-0.00010976,-0.00032255,0.0001
 2611,0.00001237,0.00044201,0.00234647,0.00079628,-0.00124131,0.0000041
 1,-0.00000110,-0.00002064,0.00002182,-0.00001935,0.00000397,-0.0000285
 6,-0.00005354,-0.00004448,0.00033349,0.00055063,-0.00008991,-0.0002174
 8,0.00014709,0.00024791,-0.00022948,-0.00002792,-0.00006461,-0.0000245
 9,-0.00008725,0.00000744,0.00001994,0.00017713,-0.00001461,-0.00005900
 ,-0.00002294,0.00000894,0.00000293,0.00006890,0.00004548,0.00001726,-0
 .00000165,0.00003270,0.00001950,-0.00001126,0.00004762,0.00003370,-0.0
 0003200,0.00005457,-0.00011777,0.00009407,-0.00007486,0.00001406,-0.00
 014110,-0.00019928,0.00004196,-0.00010199,-0.00010875,-0.00029368,0.00
 012319,0.00021242,-0.00007675,-0.00003845,0.00002787,-0.00002274,0.000
 01852,0.00000083,0.00003051,-0.00001512,-0.00000073,-0.00007875,0.0000
 7342,-0.00002806,0.00001627,0.00000698,0.00011710,0.00006247,0.0000057
 8,-0.00004716,-0.00023937,-0.00024220,0.00005799,-0.00003522,0.0000089
 6,0.00002529,-0.00002851,0.00008068,-0.00017504,0.00046736,-0.00072726
 ,0.00018501,0.00002011,0.00002584,-0.00000353,0.00091739,-0.00713538,0
 .01053034,0.00124350,0.00090470,-0.00080509,-0.18737601,-0.08538900,0.
 02425594,0.00040394,0.00034584,0.00086842,-0.00001206,0.00026207,-0.00
 025781,-0.00045553,-0.00015417,0.00003973,0.21604263,0.00042467,0.0001
 2234,-0.00008183,0.00020070,-0.00015043,-0.00010138,0.00036562,0.00003
 856,0.00160946,-0.00267866,0.00085786,0.00059059,-0.00000360,0.0000004
 0,-0.00002554,0.00000205,-0.00001279,0.00001736,-0.00000346,-0.0000284
 9,-0.00006557,0.00024668,0.00038820,-0.00005139,-0.00009510,0.00008027
 ,0.00010081,-0.00008947,-0.00012280,-0.00025154,0.00006627,-0.00007013
 ,-0.00003588,0.00005313,0.00016493,0.00001283,-0.00007742,-0.00004336,
 0.00001441,0.00007216,0.00004413,0.00007177,0.00002474,0.00002084,0.00
 002863,0.00002735,0.00001273,0.00003131,0.00003501,-0.00003616,0.00005
 997,-0.00009392,0.00000551,-0.00006281,-0.00022441,-0.00011991,-0.0001
 0146,0.00002636,-0.00009505,-0.00005592,-0.00012924,-0.00000534,-0.000
 06429,-0.00009439,-0.00008095,0.00010719,-0.00004158,0.00003026,-0.000
 00155,0.00002360,-0.00004712,0.00006976,-0.00002167,0.00002283,-0.0000
 3511,0.00004423,0.00009357,0.00010370,0.00004240,0.00000528,-0.0000298
 0,-0.00029417,-0.00016097,-0.00023845,-0.00001246,0.00002095,0.0000179
 8,-0.00001750,0.00034960,-0.00034624,0.00136002,-0.00006378,-0.0002542
 8,0.00001154,0.00000983,-0.00000248,-0.01442701,-0.01940615,0.01795766
 ,0.00080375,0.00113171,-0.00123689,-0.08820549,-0.09896593,0.01382471,
 0.00032487,0.00038286,0.00039282,-0.00000016,0.00010545,-0.00039994,0.
 00013255,-0.00014341,0.00005385,0.10827847,0.11950011,-0.00007968,-0.0
 0007651,-0.00001009,-0.00014333,0.00012662,0.00011783,-0.00054274,0.00
 045239,-0.00150455,0.00112017,-0.00085414,0.00016186,-0.00000154,-0.00
 000849,0.00001551,0.00002284,0.00000051,0.00000483,0.00000155,0.000046
 17,0.00005445,-0.00006253,-0.00038039,-0.00006264,0.00007502,-0.000064
 28,-0.00006129,-0.00035472,0.00002975,0.00000534,-0.00014324,-0.000013
 25,0.00002600,0.00005165,-0.00006360,0.00005502,-0.00001741,-0.0000366
 2,0.00000631,-0.00007975,0.00003659,-0.00003452,0.00001176,-0.00000150
 ,0.00000021,0.00000905,-0.00001240,-0.00000839,0.00000729,0.00000440,-
 0.00001259,0.00004530,-0.00001982,-0.00006383,-0.00002530,-0.00055233,
 0.00033105,-0.00001934,0.00009616,0.00003329,-0.00001136,-0.00008799,0
 .00010331,0.00001024,0.00005244,-0.00007114,0.00001192,-0.00001110,-0.
 00000321,0.00000698,-0.00000093,-0.00000734,0.00000028,-0.00001778,-0.
 00001563,-0.00004134,0.00000162,-0.00002645,-0.00001911,-0.00001626,0.
 00001628,0.00039615,0.00010907,0.00039794,0.00000104,-0.00001920,-0.00
 001253,0.00018976,-0.00034702,0.00022570,-0.00053159,-0.00015595,0.000
 46009,0.00000041,-0.00000218,-0.00000104,0.02216829,0.02453363,-0.0200
 9474,0.00231495,0.00261571,0.00125102,0.02832808,0.01547321,-0.0487185
 4,-0.00104926,-0.00059157,0.00005777,-0.00006553,-0.00019482,0.0005651
 8,-0.00007228,-0.00002740,-0.00009925,-0.03798511,-0.02909308,0.062872
 46,-0.00016835,-0.00006568,0.00014226,0.00035189,-0.00002772,0.0000060
 1,0.00148314,0.00123063,-0.00015575,0.00024009,0.00110583,-0.00170808,
 0.00000802,-0.00001749,-0.00000698,0.00001894,0.00000110,0.00000816,0.
 00000558,0.00000791,-0.00003285,0.00014274,-0.00023894,-0.00001825,-0.
 00012495,0.00003484,-0.00000944,-0.00008657,-0.00000984,-0.00005812,-0
 .00011577,-0.00001978,-0.00005777,0.00007660,-0.00005905,0.00002620,-0
 .00002060,-0.00011547,-0.00000747,0.00003417,-0.00006402,0.00002772,0.
 00000713,-0.00000692,-0.00000036,0.00000313,-0.00000055,-0.00001517,0.
 00002443,-0.00001842,-0.00000826,-0.00014346,-0.00005114,0.00009720,-0
 .00000649,0.00008838,-0.00016034,0.00000562,-0.00001224,-0.00003598,-0
 .00021774,-0.00012208,-0.00003698,0.00000777,-0.00008894,0.00011350,-0
 .00007354,0.00003376,0.00004414,-0.00006603,-0.00003230,0.00000044,0.0
 0003831,0.00005375,-0.00004660,0.00006928,0.00000905,-0.00003407,-0.00
 004062,0.00001011,0.00000067,-0.00002963,0.00041413,-0.00014902,-0.000
 02179,0.00001440,-0.00001190,-0.00002079,0.00030255,0.00001823,0.00065
 088,-0.00019923,-0.00019407,-0.00000150,-0.00001506,-0.00003360,-0.003
 85922,0.00566782,-0.00232597,0.00027450,-0.00023718,0.00028424,-0.1848
 8041,0.11173785,0.01627312,-0.00040219,0.00010864,0.00015132,0.0001117
 0,-0.00017789,0.00026220,0.00035138,-0.00014927,-0.00045596,-0.0267675
 8,0.01471274,0.00507696,0.21189665,-0.00041969,0.00035553,-0.00006627,
 -0.00033370,0.00001740,0.00054875,-0.00026273,-0.00283090,0.00098914,0
 .00131986,-0.00156265,0.00411392,-0.00001127,0.00003106,-0.00000600,-0
 .00008745,-0.00000592,-0.00003551,0.00002920,-0.00004906,-0.00003440,0
 .00020386,-0.00040835,0.00000598,0.00013088,-0.00009292,-0.00023523,0.
 00017005,0.00022466,0.00023463,-0.00036440,0.00029989,0.00009019,-0.00
 012088,0.00002132,0.00007197,-0.00002608,0.00017038,0.00006428,-0.0001
 4492,0.00015769,-0.00011876,0.00000958,-0.00001150,0.00003473,-0.00003
 717,0.00003476,0.00001512,-0.00009380,0.00003581,0.00000983,0.00041306
 ,-0.00019059,-0.00003219,0.00006022,0.00028708,0.00024866,-0.00006990,
 -0.00010732,0.00009215,0.00004432,0.00029858,-0.00021703,0.00007515,-0
 .00003108,-0.00009395,-0.00001703,-0.00002254,0.00000872,0.00006255,0.
 00007905,-0.00002448,-0.00005966,-0.00005195,0.00001762,0.00002697,0.0
 0003095,-0.00011356,0.00005111,-0.00002158,-0.00001727,-0.00012877,0.0
 0000362,-0.00007675,0.00007118,0.00006366,-0.00002487,0.00089822,-0.00
 077569,-0.00004773,-0.00048475,0.00006792,0.00012909,0.00000279,0.0000
 2313,0.00000297,0.01450782,-0.01486923,0.00243034,-0.00049402,0.000734
 46,-0.00082931,0.11221711,-0.13048148,-0.01448266,-0.00014285,-0.00015
 440,0.00006827,-0.00013320,-0.00003449,-0.00030123,-0.00006642,0.00044
 834,-0.00000668,-0.01203214,0.00909910,0.00124706,-0.13164811,0.153784
 67,0.00038641,-0.00025103,-0.00011034,0.00037384,0.00023645,-0.0001310
 7,-0.00039408,0.00067461,0.00032013,-0.00172640,0.00263487,-0.00464260
 ,0.00000151,-0.00001964,-0.00000210,0.00005204,-0.00000510,0.00001695,
 -0.00002949,0.00002719,0.00002201,-0.00014418,0.00006276,0.00003113,-0
 .00011738,-0.00007399,0.00006321,0.00004459,-0.00000226,0.00006040,0.0
 0009951,-0.00009409,-0.00008115,0.00002917,0.00007316,-0.00004268,-0.0
 0001691,0.00000352,-0.00000655,0.00000329,0.00007531,0.00004160,-0.000
 00375,-0.00000845,-0.00000755,-0.00000217,-0.00001171,-0.00000166,0.00
 002452,-0.00003639,-0.00001682,-0.00009618,0.00003752,-0.00002695,0.00
 007079,0.00008340,0.00018617,-0.00005627,0.00002968,-0.00001640,-0.000
 16377,-0.00040888,0.00005102,-0.00006179,0.00010642,-0.00001688,0.0000
 3767,0.00010074,-0.00006678,0.00002799,-0.00008905,0.00003039,-0.00001
 528,-0.00003819,0.00001146,-0.00004221,0.00004329,0.00009856,0.0000022
 9,0.00000112,0.00000847,-0.00001697,-0.00016996,-0.00002423,-0.0000323
 1,-0.00001942,-0.00001724,-0.00129416,0.00116010,0.00003744,0.00004981
 ,-0.00022865,-0.00011595,0.00000253,-0.00001468,0.00001684,-0.02106544
 ,0.01889262,-0.00134006,-0.00096527,0.00130714,0.00081121,0.02025404,-
 0.01725705,-0.04467559,0.00008082,-0.00008602,-0.00017221,0.00014800,0
 .00002218,0.00035233,-0.00001848,-0.00011171,-0.00098203,0.00420133,-0
 .00306377,0.00066958,-0.01781620,0.01172400,0.05242399,-0.00044580,0.0
 0003939,-0.00003423,0.00010753,0.00005398,0.00010100,-0.00021944,-0.00
 103431,0.00116908,0.00015021,-0.00019943,-0.00077945,0.00000675,0.0000
 0234,-0.00000328,-0.00002350,0.00000878,-0.00003853,-0.00001006,-0.000
 03604,-0.00001220,0.00004647,-0.00033133,0.00009080,-0.00000248,-0.000
 02287,-0.00006216,0.00035777,0.00025925,0.00019220,-0.00025150,0.00014
 877,-0.00008333,0.00004459,-0.00016730,0.00005691,0.00003478,0.0000394
 0,0.00003679,-0.00015986,0.00009090,-0.00007694,-0.00002443,-0.0000621
 2,-0.00000208,-0.00003490,-0.00000263,-0.00001556,-0.00006754,0.000011
 49,-0.00002164,0.00024748,-0.00000337,0.00004718,0.00027611,-0.0002859
 1,-0.00004672,-0.00006304,0.00000092,0.00005211,-0.00008815,0.00009146
 ,-0.00012118,0.00009158,0.00001091,0.00000404,-0.00000890,0.00008139,0
 .00002897,0.00001623,-0.00000773,-0.00001898,-0.00006604,-0.00004450,0
 .00006321,0.00002410,-0.00002148,-0.00005199,-0.00000374,0.00001000,-0
 .00000681,-0.00007397,0.00007642,-0.00015069,0.00002174,0.00000314,-0.
 00002864,-0.00003138,-0.00017147,0.00010519,-0.00056477,-0.00026123,-0
 .00031473,-0.00000503,-0.00000113,0.,-0.00070078,-0.00141272,-0.003886
 46,0.00060578,0.00054074,-0.00125131,-0.04943500,-0.02150106,-0.025859
 08,0.00015845,0.00021968,0.00021243,0.00026532,-0.00018324,-0.00029200
 ,0.00003398,-0.00002536,-0.00003344,-0.00698186,-0.02075283,-0.0187301
 9,0.00328929,0.01734677,0.01802143,0.05379706,-0.00037218,0.00049964,-
 0.00035363,-0.00004834,-0.00003999,-0.00001028,0.00019395,0.00007656,0
 .00027307,0.00009319,0.00067243,0.00062793,-0.00000044,0.00003628,-0.0
 0003510,-0.00006480,0.00001283,-0.00006240,0.00001391,-0.00004587,-0.0
 0006783,-0.00012269,-0.00000585,0.00008646,0.00003506,0.00001258,-0.00
 003467,0.00043380,-0.00016319,0.00059516,0.00037019,-0.00001289,-0.000
 15598,-0.00005637,-0.00022263,-0.00001001,-0.00006023,-0.00012430,0.00
 008802,0.00018237,-0.00003370,0.00008549,-0.00001465,-0.00003889,0.000
 02488,-0.00002015,0.00004150,0.00004326,-0.00004263,0.00001077,0.00004
 234,-0.00013748,-0.00010017,0.00016684,-0.00043324,-0.00144314,-0.0000
 7239,0.00002681,0.00004046,-0.00001977,0.00003933,0.00013191,-0.000087
 00,0.00007336,-0.00007241,-0.00003034,-0.00001611,0.00011822,-0.000010
 09,0.00008972,0.00000214,-0.00001041,-0.00010093,-0.00001411,-0.000007
 13,-0.00000495,0.00006311,-0.00000832,-0.00000079,0.00003245,-0.000039
 96,0.00008157,0.00009636,-0.00000768,0.00000596,-0.00001873,0.00000386
 ,-0.00014739,-0.00001256,0.00007920,0.00003803,-0.00009662,0.00009506,
 -0.00001371,0.00001927,-0.00005248,0.00220145,0.00880975,0.01098504,0.
 00088720,-0.00046489,0.00199636,-0.02406896,-0.14492156,-0.11778232,0.
 00035048,0.00021592,0.00012403,0.00024168,0.00063235,0.00079577,-0.000
 15925,0.00003194,0.00007932,-0.00537630,-0.01287086,-0.01222342,-0.001
 59050,-0.01478521,-0.01506661,0.02736543,0.16387548,0.00033063,-0.0010
 3294,0.00016503,-0.00001078,-0.00009832,-0.00017200,0.00164735,0.00027
 804,-0.00228999,0.00020816,-0.00066653,0.00076272,0.00001530,-0.000034
 10,0.00004603,0.00004420,-0.00000132,0.00001410,-0.00002364,-0.0000302
 3,0.00007443,0.00010361,0.00007844,-0.00011172,-0.00004045,0.00014508,
 0.00014809,-0.00039178,0.00032419,-0.00007705,-0.00011339,-0.00023795,
 -0.00006900,0.00003634,0.00034762,-0.00003604,-0.00001000,-0.00007651,
 -0.00006581,-0.00013143,0.00026175,-0.00015032,-0.00002523,-0.00003487
 ,-0.00004950,0.00003588,-0.00009156,-0.00002289,0.00004726,-0.00001086
 ,-0.00002016,0.00005872,0.00048707,-0.00033834,0.00025299,-0.00020538,
 0.00068060,0.00002551,0.00001848,-0.00003720,0.00004021,0.00037955,0.0
 0032201,-0.00008547,0.00011516,0.00018939,0.00013031,0.00003882,0.0001
 0729,0.00006993,-0.00015335,0.00014072,-0.00005894,-0.00012359,0.00004
 130,-0.00012742,0.00011170,0.00021392,-0.00008281,0.00000951,0.0000416
 8,-0.00000960,0.00007438,-0.00008512,-0.00006394,-0.00000997,0.0000320
 4,0.00027527,-0.00040562,0.00017138,-0.00020655,-0.00006346,-0.0001135
 4,-0.00001133,-0.00004903,0.00005652,-0.00479071,-0.01563228,-0.028608
 31,-0.00132189,0.00343191,-0.00634568,-0.02739556,-0.11204857,-0.16856
 620,0.00034146,0.00045416,0.00030844,-0.00052545,-0.00111097,-0.001640
 95,-0.00015517,0.00034169,0.00037427,-0.00033962,0.00040540,0.00340792
 ,0.00067684,-0.00505917,-0.00294037,0.03171478,0.13000046,0.20426168,0
 .00014613,-0.00049214,-0.00021355,-0.00563281,0.00461767,-0.01592356,-
 0.00254440,0.00094511,0.00054334,-0.00009913,0.00006833,-0.00002352,0.
 00002327,-0.00001863,-0.00003996,0.00003308,0.00000276,-0.00001600,-0.
 00003034,0.00002456,-0.00003760,-0.00156772,0.00036083,-0.00161471,-0.
 00144497,0.00013165,0.00157132,0.00006818,-0.00005830,-0.00007205,-0.0
 0123375,0.00085710,0.00161695,0.00015763,-0.00009345,0.00003690,0.0001
 7964,-0.00010145,0.00006943,0.00002211,-0.00002406,-0.00002266,0.00000
 024,-0.00003690,-0.00003520,0.00003500,-0.00003130,0.00000948,0.000006
 99,-0.00001911,0.00000852,0.00067026,0.00085855,-0.00011767,-0.0000659
 4,-0.00011024,-0.00038720,-0.06637124,0.01859668,-0.02402779,-0.000636
 10,-0.00226216,0.00093399,-0.00000696,-0.00012823,0.00015303,-0.000074
 70,0.00002529,0.00004614,0.00008373,0.00002598,0.00000798,-0.00001943,
 -0.00004308,0.00003989,0.00005940,0.00016008,0.00014651,-0.00000331,0.
 00005631,0.00000855,-0.01174108,0.02067504,-0.00790060,0.00513048,-0.0
 1165846,0.01435220,0.00000688,0.00000404,0.00002239,0.00008010,0.00002
 574,-0.00004710,0.00001985,-0.00006967,-0.00000140,0.00005942,0.000128
 98,0.00003124,-0.00005971,-0.00003497,-0.00004147,-0.00012958,-0.00011
 923,0.00016961,0.00009460,0.00005366,-0.00003459,-0.00001580,0.0000089
 3,0.00001339,-0.00004277,-0.00009378,-0.00002789,0.00001981,0.00007310
 ,-0.00002659,-0.00002145,-0.00012030,0.00005313,-0.00002370,-0.0000095
 6,0.00000285,0.47801411,-0.00006481,-0.00017172,-0.00001432,0.00276310
 ,0.01505907,-0.00031348,0.00130885,0.00087745,-0.00078714,-0.00002811,
 -0.00004918,-0.00002050,-0.00001982,-0.00000371,0.00002864,-0.00003056
 ,-0.00000864,0.00001707,0.00005107,-0.00001988,0.00001600,0.00392175,-
 0.00052748,0.00154364,0.00172516,-0.00477035,-0.00192221,-0.00008863,0
 .00006752,0.00005923,-0.00114731,-0.00071011,-0.00132408,-0.00009662,0
 .00009584,0.00005774,-0.00005271,0.00005114,-0.00000383,-0.00006795,0.
 00008106,-0.00004730,0.00001523,-0.00003344,-0.00000946,-0.00000943,-0
 .00000816,-0.00000058,0.00000044,0.00000363,-0.00000877,0.00039646,0.0
 0005185,-0.00007090,0.00010969,-0.00007809,0.00031695,0.00913384,-0.08
 310813,0.03453214,-0.00524415,-0.00312604,0.00124268,0.00004628,0.0000
 8545,0.00002673,0.00001338,0.00002810,0.00002060,0.00000026,-0.0000270
 8,-0.00000277,0.00001766,-0.00007435,-0.00004391,-0.00004084,0.0000444
 2,0.00001735,0.00000077,-0.00006977,0.00001449,0.01669988,-0.02500479,
 0.00797053,0.00286243,-0.01158940,0.01521416,0.00003710,-0.00001217,0.
 00000108,-0.00002451,-0.00002051,0.00000365,0.00001475,0.00000515,0.00
 000702,-0.00033394,-0.00025243,-0.00011723,-0.00010731,-0.00001591,0.0
 0001606,0.00006465,0.00009617,-0.00001890,-0.00003857,-0.00003853,-0.0
 0000421,0.00004921,-0.00001256,0.00005118,-0.00000125,0.00001644,-0.00
 004486,0.00001445,-0.00001432,0.00004770,-0.00008611,-0.00021234,-0.00
 003912,-0.00008050,0.00007349,0.00003530,0.00184682,0.47504965,-0.0002
 0590,0.00011022,-0.00017933,-0.01357933,0.00581263,-0.01854114,-0.0006
 0835,-0.00029237,0.00163488,-0.00009361,0.00008064,0.00001113,0.000008
 11,-0.00000825,-0.00004407,0.00002583,0.00001506,-0.00002616,-0.000047
 54,0.00002180,-0.00003854,0.00122892,0.00063492,0.00061108,0.00089807,
 -0.00157999,0.00162661,0.00009631,-0.00002257,0.00001120,0.00138029,-0
 .00167472,-0.00174393,0.00016163,-0.00021731,-0.00011468,0.00011705,-0
 .00007896,0.00005934,0.00001755,-0.00007285,-0.00001255,-0.00000612,-0
 .00003758,0.00001611,0.00000012,0.00000092,0.00001484,-0.00001700,-0.0
 0000206,0.00000780,-0.00024420,-0.00007095,0.00019902,-0.00022717,0.00
 005982,-0.00047063,-0.01861683,0.04557600,-0.10833197,0.00220081,-0.00
 181180,-0.00026170,-0.00000356,-0.00009318,-0.00000370,-0.00007481,-0.
 00001260,0.00002313,0.00000181,0.00004089,-0.00000823,0.00000953,0.000
 03502,0.00006031,0.00013938,-0.00002821,0.00006464,0.00000724,0.000026
 44,-0.00003105,-0.00029848,-0.00244707,0.00986503,-0.00249816,0.011238
 89,-0.01297247,-0.00002300,0.00001631,-0.00001373,0.00004037,0.0000069
 1,-0.00000949,-0.00000714,-0.00001306,-0.00002568,0.00028850,0.0002965
 7,-0.00003200,0.00000680,0.00000825,-0.00003161,0.00002752,-0.00000143
 ,0.00014580,0.00005456,0.00002859,0.00000253,-0.00004416,0.00002030,-0
 .00004936,0.00001426,-0.00004156,0.00005517,0.00001581,0.00001418,-0.0
 0004322,0.00015731,0.00000792,-0.00006000,0.00003084,0.00001228,-0.000
 00480,-0.01564554,0.01366206,0.46563219,0.00004962,0.00000341,0.000150
 81,-0.00073182,0.00107862,0.00014464,-0.00361614,0.00188631,-0.0042748
 5,0.00008594,0.00003875,-0.00012127,0.00001552,-0.00001481,0.00001881,
 0.00006405,-0.00000837,0.00004102,0.00002176,0.00009711,0.00014607,-0.
 00012309,-0.00069814,-0.00048891,0.00053723,-0.00052902,-0.00035165,-0
 .00018280,0.00013745,-0.00012800,-0.00020266,0.00027296,0.00024205,-0.
 00021163,0.00011353,-0.00014630,0.00001483,-0.00001468,-0.00009453,0.0
 0008887,0.00001981,-0.00005450,-0.00002897,0.00002994,-0.00006533,0.00
 002209,-0.00003566,-0.00000918,0.00006872,-0.00001033,-0.00000432,-0.0
 0005260,0.00026729,-0.00016715,0.00027068,-0.00014379,0.00065908,0.006
 15386,0.00184478,-0.00159812,0.00050052,0.00004840,-0.00078409,-0.0001
 0790,0.00021969,-0.00006767,0.00018065,-0.00004441,0.00009233,0.000087
 24,-0.00009492,0.00006988,-0.00003978,-0.00016884,0.00007854,-0.000159
 19,0.00004062,0.00003423,-0.00008053,-0.00002718,0.00008386,0.00054190
 ,0.00093230,0.00095322,-0.00015245,0.00149235,-0.00181619,0.00004560,0
 .00008616,0.00006012,-0.00000429,0.00004324,-0.00000650,-0.00002435,-0
 .00006101,0.00003638,-0.00029662,-0.00011576,-0.00003499,0.00009959,0.
 00001646,0.00009461,0.00071412,-0.00018698,-0.00016801,-0.00000840,-0.
 00000458,-0.00003303,0.00000760,0.00001023,0.00004849,-0.00002754,0.00
 005528,0.00003929,0.00001018,0.00014394,0.00006066,-0.00022072,0.00007
 428,-0.00000117,-0.00010721,0.00009029,0.00007358,-0.12647960,-0.04579
 944,0.03265575,0.45391477,0.00013988,0.00004699,-0.00032498,0.00003545
 ,0.00033058,-0.00073946,0.00316369,-0.00221645,0.00493166,0.00022287,-
 0.00012697,-0.00005403,0.00000002,0.00001044,0.00000662,-0.00004607,0.
 00000858,-0.00001569,-0.00004764,-0.00003208,-0.00009998,-0.00028316,-
 0.00041093,0.00026582,-0.00011790,-0.00007715,0.00015523,0.00022954,-0
 .00023930,0.00004466,0.00005197,0.00015674,-0.00000983,0.00013709,-0.0
 0006427,0.00010295,-0.00004577,0.00003564,0.00004806,-0.00002225,-0.00
 002512,0.00009317,0.00002280,-0.00000445,0.00004529,-0.00000579,0.0000
 4062,-0.00000927,-0.00004063,0.00001154,-0.00000068,-0.00031529,-0.000
 37223,0.00022110,-0.00005312,0.00017167,-0.00075607,-0.01083158,-0.013
 07852,0.01244501,-0.00011905,-0.00044192,0.00106971,0.00006716,-0.0001
 2758,0.00000898,-0.00009873,0.00006337,-0.00010525,-0.00003855,0.00004
 299,-0.00004919,-0.00000904,0.00015541,-0.00005789,0.00004811,-0.00003
 138,-0.00001899,0.00007022,0.00004656,-0.00003507,-0.00067699,-0.00042
 345,-0.00005845,0.00089854,-0.00228671,0.00268550,-0.00013304,-0.00004
 388,0.00000026,0.00000046,0.00000117,0.00001044,0.00000333,0.00005109,
 -0.00000432,0.00017390,0.00019423,0.00006144,0.00006625,0.00013917,0.0
 0007353,-0.00037873,-0.00049858,0.00019097,0.00001111,-0.00001660,-0.0
 0001989,-0.00008275,-0.00001807,-0.00009062,-0.00006987,-0.00006470,0.
 00004531,-0.00023391,0.00007101,-0.00008805,-0.00008635,0.00042625,0.0
 0021388,0.00014842,-0.00020366,-0.00023283,-0.04864559,-0.09944321,0.0
 2607265,-0.02134254,0.48474790,-0.00029369,0.00019676,-0.00013716,-0.0
 0021982,0.00093999,0.00019266,-0.00103905,0.00185618,0.00046456,-0.000
 00569,0.00004506,0.00003306,-0.00000971,-0.00000362,-0.00000451,0.0000
 0347,0.00000344,0.00001282,-0.00001390,0.00006112,-0.00003714,-0.00039
 940,-0.00023862,0.00004321,0.00009217,-0.00006472,-0.00020349,0.000163
 12,-0.00002554,0.00013955,0.00014730,0.00002464,-0.00010214,-0.0000419
 1,-0.00022900,-0.00003080,0.00009960,0.00000780,-0.00001046,0.00001458
 ,-0.00007864,-0.00004498,-0.00000407,0.00003109,-0.00001738,-0.0000159
 6,0.00002041,-0.00003586,-0.00001378,0.00001288,-0.00004488,0.00000092
 ,-0.00017935,-0.00002244,-0.00048824,0.00071377,0.00048302,0.01242571,
 0.01514550,-0.01315138,0.00058774,0.00007803,-0.00201375,0.00003279,-0
 .00001885,-0.00005598,-0.00008464,-0.00002653,0.00001168,-0.00004643,0
 .00005945,0.00001074,0.00008167,-0.00001427,0.00003028,0.00010523,0.00
 005769,-0.00015880,-0.00000173,-0.00000570,0.00001243,0.00108506,0.000
 60716,-0.00049800,-0.00096165,0.00329120,-0.00290663,0.00001982,0.0000
 2916,-0.00001436,-0.00003934,-0.00001557,0.00001968,-0.00000753,-0.000
 01949,0.00000205,-0.00025274,-0.00024089,0.00004546,0.00003551,0.00008
 345,0.00011917,-0.00024949,0.00013320,-0.00025852,-0.00004361,-0.00005
 200,-0.00001960,0.00000477,-0.00000308,0.00001455,-0.00003235,-0.00004
 845,-0.00009621,-0.00003698,-0.00005098,0.00003236,-0.00029522,0.00001
 530,0.00016746,0.00000275,-0.00004950,-0.00011535,0.03594798,0.0266136
 5,-0.08348612,0.03485440,0.01208569,0.49946426,0.00020609,-0.00011257,
 0.00000470,0.00002740,0.00255265,-0.00058517,-0.00033800,-0.00020371,-
 0.00054889,0.00002302,-0.00001083,0.00000076,-0.00000372,0.00000379,0.
 00000213,0.00000438,-0.00000975,0.00000710,0.00002167,-0.00002384,0.00
 002370,0.00045159,-0.00013963,-0.00068786,0.00030810,-0.00100382,-0.00
 041897,-0.00009103,0.00005710,-0.00003915,-0.00014070,0.00010865,0.000
 27109,-0.00011797,0.00011913,-0.00000792,-0.00005463,0.00003331,-0.000
 01762,0.00000724,0.00002314,-0.00000122,-0.00002001,0.00004767,-0.0000
 0876,-0.00000687,-0.00000040,0.00000932,0.00001308,-0.00000179,0.00001
 250,-0.00006688,-0.00001843,-0.00013172,0.00010999,-0.00014547,0.00022
 226,-0.00836737,-0.00307909,-0.01455677,-0.00069925,-0.00043268,0.0001
 5746,-0.00006938,0.00003550,0.00004416,0.00006026,0.00002192,0.0000201
 6,0.00003556,-0.00004216,0.00001808,-0.00006621,-0.00004960,-0.0000095
 8,-0.00003720,0.00005539,0.00004390,-0.00001683,-0.00001839,-0.0000115
 6,-0.00041139,-0.00022498,-0.00113542,0.00050156,-0.00021686,0.0008658
 3,0.00001225,0.00002003,-0.00001174,-0.00000130,0.00001276,-0.00000182
 ,-0.00000592,0.00000036,-0.00000345,0.00001967,-0.00000507,-0.00002333
 ,0.00000638,-0.00001728,-0.00001163,0.00001498,-0.00002483,0.00000956,
 0.00000152,0.00001366,0.00000830,0.00000463,0.00000611,0.00000260,0.00
 002189,0.00003624,0.00002879,0.00001292,0.00002775,-0.00000323,0.00003
 270,0.00002283,-0.00004265,-0.00003401,-0.00000190,-0.00000660,-0.0840
 3155,-0.02973850,-0.03477634,-0.01514303,-0.01746166,-0.01328760,0.509
 55580,-0.00017264,0.00002111,-0.00006854,-0.00023960,-0.00335144,0.000
 47876,-0.00003468,-0.00008614,0.00071438,-0.00002586,-0.00000648,-0.00
 001180,-0.00000188,0.00000301,-0.00001155,0.00000331,0.00000418,-0.000
 00578,-0.00002265,-0.00001178,-0.00003258,-0.00023415,0.00069518,0.000
 76274,-0.00050659,0.00126866,0.00054310,0.00003299,-0.00001274,0.00000
 287,0.00061710,-0.00026564,-0.00035200,0.00008011,-0.00012402,-0.00004
 287,0.00005571,0.00000433,0.00002042,0.00000475,-0.00001227,-0.0000063
 6,-0.00000333,-0.00001449,0.00001307,-0.00000247,0.00001179,0.00000265
 ,-0.00001243,0.00000250,-0.00000320,-0.00020065,-0.00010339,0.00011830
 ,0.00000411,0.00010562,-0.00014951,0.00633609,0.00675364,0.01151857,0.
 00132923,0.00080756,-0.00028787,0.00003829,-0.00007088,-0.00000584,-0.
 00005418,0.00000069,0.00001313,-0.00000365,0.00004096,-0.00000237,0.00
 004543,0.00000732,0.00001688,0.00004818,0.00001412,0.00002609,0.000010
 05,0.00002655,-0.00001777,0.00077797,0.00008995,0.00041477,0.00057803,
 0.00044428,0.00046795,-0.00001975,0.00000571,-0.00000066,0.00000801,0.
 00001010,-0.00000296,0.00000070,0.00000606,0.00000166,0.00014110,0.000
 12621,0.00002112,0.00002528,-0.00000793,-0.00003424,0.00002327,-0.0000
 0940,0.00004636,0.00001693,0.00002139,-0.00000205,-0.00002659,-0.00000
 312,-0.00000659,0.00000868,-0.00001178,0.00002962,-0.00001204,0.000016
 33,-0.00002019,0.00004684,0.00001576,-0.00002564,0.00002030,-0.0000034
 5,-0.00001120,-0.02809480,-0.10149136,-0.04657435,-0.01319506,-0.01447
 610,-0.01123966,-0.01847741,0.49931305,-0.00016273,-0.00002136,-0.0000
 5502,0.00023372,0.00447637,-0.00089195,0.00000728,0.00040501,-0.000052
 17,-0.00003984,0.00000860,0.00000126,-0.00001284,0.00000506,-0.0000026
 8,-0.00000700,0.00000451,-0.00000779,0.00002982,0.00001438,-0.00000106
 ,-0.00023357,-0.00062731,0.00038291,0.00035669,-0.00123002,-0.00064042
 ,0.00001906,0.00002044,0.00004644,-0.00012943,0.00006918,-0.00018179,0
 .00001385,-0.00010852,0.00003033,0.00004464,-0.00000531,0.00002620,-0.
 00001826,-0.00001243,-0.00000596,0.00000531,-0.00001798,-0.00001126,-0
 .00000732,0.00001136,-0.00000191,-0.00002174,0.00000677,-0.00000807,0.
 00022945,0.00003430,0.00001117,-0.00010791,0.00008524,0.00001586,-0.01
 561161,-0.00550912,-0.02454678,-0.00174630,-0.00123244,0.00008467,0.00
 002577,-0.00003562,-0.00000097,-0.00003308,-0.00000436,0.00000209,-0.0
 0002107,0.00004236,-0.00001195,0.00002129,-0.00000901,-0.00000141,0.00
 005037,0.00001565,-0.00001988,-0.00001182,-0.00004695,0.00000531,-0.00
 006764,-0.00073974,-0.00081849,-0.00009210,-0.00080849,0.00055762,0.00
 001204,-0.00000017,-0.00001192,-0.00000833,-0.00001095,0.00000503,-0.0
 0001009,-0.00000863,-0.00000264,-0.00000268,-0.00001219,0.00002256,-0.
 00002412,-0.00002603,-0.00000050,0.00000833,0.00002201,-0.00001625,-0.
 00001232,0.00000027,0.00000797,0.00002265,-0.00000605,0.00001208,-0.00
 000116,0.00000792,-0.00003963,-0.00000461,-0.00001380,0.00001255,-0.00
 004014,-0.00005136,0.00000712,-0.00000902,0.00001150,0.00001716,-0.035
 43654,-0.04933802,-0.12082549,0.00304812,0.00333359,0.00481092,-0.0242
 3073,-0.03450785,0.48063955,-0.00010598,0.00003906,0.00000844,-0.00024
 814,-0.00029253,-0.00018573,-0.00031591,-0.00011379,0.00003744,-0.0000
 0740,0.00000237,-0.00001383,-0.00000539,0.00000297,-0.00001054,0.00000
 513,0.00000157,-0.00000289,-0.00000597,0.00001544,0.00000618,-0.000544
 25,0.00063741,-0.00009898,-0.00090318,0.00074761,-0.00056432,0.0000395
 4,-0.00001271,0.00000604,0.00006662,0.00018900,0.00020210,0.00002897,-
 0.00006954,0.00000446,0.00004613,0.00000435,0.00000875,-0.00000009,-0.
 00002682,-0.00001173,-0.00001167,0.00000668,-0.00000603,-0.00000642,0.
 00000700,-0.00000226,-0.00000589,0.00000356,-0.00000513,0.00006380,0.0
 0007193,-0.00004720,-0.00002548,-0.00002927,-0.00005456,-0.01122594,0.
 01157692,0.00193847,0.00012631,0.00023793,-0.00012047,0.00003227,-0.00
 003443,0.00001604,-0.00002926,-0.00001846,0.00001110,-0.00000570,0.000
 03623,0.00000307,0.00002767,-0.00002065,0.00000927,0.00003394,0.000014
 03,0.00001067,-0.00001674,-0.00000450,0.00001795,-0.00051087,0.0016126
 9,-0.00167242,0.00060284,-0.00080836,0.00068716,-0.00000084,0.00001785
 ,-0.00000265,0.00000643,0.00000910,-0.00000118,-0.00000191,-0.00001035
 ,-0.00000795,0.00004374,0.00004663,0.00003153,0.00001719,0.00000460,0.
 00000136,-0.00004335,-0.00003625,0.00001098,0.00000531,0.00000733,-0.0
 0000153,-0.00001050,0.00000570,-0.00000057,-0.00001289,0.00001309,0.00
 002449,-0.00002309,0.00002068,-0.00001745,0.00002380,0.00007705,0.0000
 2800,0.00003259,-0.00004057,-0.00004837,-0.12219311,0.05184459,0.03666
 640,-0.02284103,0.01016086,0.01364436,0.00498651,-0.00403294,-0.002309
 18,0.48878402,0.00010856,0.00004818,-0.00001206,-0.00093615,0.00011800
 ,-0.00020955,0.00015956,-0.00038274,0.00006940,0.00003614,-0.00000684,
 0.00000097,0.00000677,-0.00000243,0.00000461,0.00000639,-0.00000191,0.
 00000435,-0.00000942,-0.00000545,-0.00000160,0.00065484,-0.00020216,0.
 00004279,0.00089780,-0.00043481,0.00039667,-0.00000459,-0.00001552,-0.
 00000710,0.00021427,-0.00031577,-0.00036377,-0.00004361,0.00001992,-0.
 00004558,-0.00003026,0.00001104,-0.00001257,0.00002232,0.00000868,0.00
 001537,-0.00000145,0.00002621,0.00000952,0.00000045,0.00000235,-0.0000
 0191,0.00001122,-0.00000112,0.00000318,-0.00026488,-0.00016310,0.00006
 152,0.00004500,0.00003832,0.00001825,0.01509524,-0.01461588,-0.0023752
 1,0.00046926,0.00003057,-0.00020306,-0.00002958,0.00000700,-0.00002614
 ,0.00001737,0.00001456,-0.00000586,0.00000761,-0.00001871,0.00000144,-
 0.00002134,0.00002172,0.00000628,-0.00002265,-0.00001889,0.00001317,0.
 00000408,0.00001798,-0.00004354,0.00201206,-0.00289604,0.00238926,0.00
 089073,0.00014176,-0.00089261,-0.00000957,-0.00000267,0.00000388,0.000
 00024,0.00000492,0.00000260,-0.00000473,0.00002024,0.00000061,-0.00000
 289,0.00004215,-0.00000579,0.00000705,0.00000654,-0.00000272,-0.000045
 10,-0.00002155,-0.00001380,0.00000045,0.00000255,0.00000244,-0.0000121
 9,0.00000378,-0.00000708,0.00001364,0.00000222,0.00002565,-0.00002036,
 0.00001524,-0.00001115,0.00004409,0.00006961,0.00000876,0.00002384,-0.
 00002479,-0.00002326,0.05076340,-0.10759583,-0.03218118,-0.00840110,0.
 00642813,0.00512881,0.01095887,-0.01473064,-0.01283908,0.03088332,0.49
 732696,-0.00001833,-0.00003321,0.00001976,0.00055941,0.00020317,-0.000
 38318,0.00017318,0.00024327,-0.00019080,0.00001235,-0.00001724,-0.0000
 0883,-0.00000265,-0.00000292,0.00000777,-0.00000394,-0.00000150,0.0000
 0683,0.00001923,0.00000739,0.00001324,-0.00074955,-0.00081516,-0.00024
 503,-0.00196728,0.00066054,-0.00073807,-0.00001787,-0.00000076,0.00000
 341,-0.00061958,0.00070979,0.00067030,-0.00002754,0.00002710,0.0000491
 0,-0.00001482,0.00000762,-0.00000559,-0.00000579,0.00002867,-0.0000013
 7,-0.00000217,0.00000511,-0.00001523,0.00000144,-0.00000349,-0.0000034
 2,0.00000580,-0.00000219,-0.00000266,0.00023054,0.00001991,-0.00007690
 ,0.00000437,0.00003526,0.00010891,-0.01048803,0.00939846,0.00536292,-0
 .00056954,0.00014608,0.00008319,0.00001678,0.00002273,0.00000339,0.000
 00352,0.00000741,-0.00000167,-0.00000103,-0.00000305,0.00000307,-0.000
 00824,-0.00001839,-0.00001746,-0.00000951,0.00002497,-0.00003668,0.000
 00587,-0.00002601,0.00004485,-0.00212989,0.00375119,-0.00199764,-0.000
 93902,0.00046710,0.00056962,0.00001266,-0.00000593,0.00000750,-0.00000
 509,-0.00000842,0.00000524,0.00000118,-0.00001581,0.00000391,-0.000061
 88,-0.00007915,-0.00000302,-0.00001647,0.00000144,0.00001175,0.0000138
 8,0.00001665,-0.00001867,-0.00001034,-0.00001000,0.00000258,0.00001501
 ,0.00000155,0.00001386,-0.00000458,0.00000272,-0.00000276,0.00000857,-
 0.00001331,0.00001974,-0.00001355,-0.00004236,-0.00000649,-0.00002888,
 0.00001663,0.00001343,0.03463852,-0.03049434,-0.08519543,0.01252154,-0
 .00540206,-0.00684593,0.01324028,-0.01765566,-0.01400804,0.02302246,-0
 .01675518,0.51939474,0.00024904,-0.00032158,-0.00075591,-0.00066614,0.
 00017087,0.00085115,0.00047497,0.00132544,0.00224311,-0.00003616,0.000
 19043,0.00004733,-0.00001564,-0.00000464,0.00001936,-0.00001246,-0.000
 01355,0.00004380,-0.00007078,0.00004148,-0.00011716,-0.00019166,-0.000
 74011,0.00032473,0.00018171,-0.00022359,-0.00014319,0.00018694,-0.0000
 7743,0.00013415,-0.00005470,0.00003474,-0.00008391,0.00006332,-0.00017
 060,-0.00002121,0.00009569,0.00002377,-0.00000252,-0.00004932,-0.00008
 255,-0.00007242,0.00002844,0.00000168,-0.00001984,-0.00000457,0.000015
 06,-0.00004980,-0.00001978,0.00000408,-0.00007570,-0.00015348,-0.00008
 573,-0.00001982,-0.00053974,0.00080101,0.00041682,-0.00018512,0.000772
 47,-0.00033540,0.00062892,-0.00020014,-0.00104885,-0.00012702,0.000100
 81,-0.00005710,-0.00006946,-0.00005786,-0.00003088,-0.00004425,0.00002
 665,0.00004212,0.00013268,-0.00000868,-0.00001137,0.00004352,0.0002165
 2,-0.00017678,0.00002786,0.00004060,0.00003579,0.00072615,0.00104747,-
 0.00153909,-0.00001002,0.00015654,-0.00009626,-0.00004953,0.00001828,-
 0.00003567,-0.00003651,-0.00004302,-0.00000146,0.00000371,-0.00003646,
 0.00005585,-0.00052031,-0.00025192,-0.00015281,-0.00001887,-0.00001563
 ,0.00002950,-0.00100420,-0.00037780,-0.00004694,0.00000044,-0.00000939
 ,-0.00000052,-0.00002166,-0.00001695,0.00001279,0.00005908,-0.00004871
 ,-0.00001774,-0.00003150,0.00002389,0.00003999,-0.00112459,-0.00083752
 ,-0.00008502,-0.00046162,0.00007073,0.00020541,-0.01827410,0.01078189,
 0.01108744,-0.12913674,0.08064642,0.05448600,0.00052052,0.00093907,0.0
 0042245,-0.00353529,-0.00279693,0.00204905,0.15492010,-0.00057895,0.00
 041431,0.00055677,0.00113578,-0.00014761,-0.00028951,0.00033692,0.0012
 3743,-0.00220421,-0.00013831,-0.00000536,0.00004573,-0.00000045,-0.000
 01083,-0.00002887,0.00000307,0.00003818,-0.00005459,0.00008337,0.00002
 842,0.00007621,-0.00000987,-0.00074064,0.00038634,-0.00025408,0.000121
 17,-0.00002584,-0.00004928,0.00009894,0.00005601,-0.00058116,0.0003381
 6,-0.00010540,0.00012011,-0.00010120,0.00011542,0.00002740,-0.00006992
 ,0.00007814,-0.00006733,0.00006437,0.00002157,-0.00001725,-0.00007404,
 -0.00001192,-0.00001183,-0.00000991,0.00003235,-0.00002434,0.00000969,
 0.00003660,0.00073428,0.00029785,0.00005926,0.00052908,-0.00076051,-0.
 00052432,0.00031016,0.00038493,-0.00032142,-0.00075017,-0.00001839,0.0
 0094803,0.00023076,-0.00010471,-0.00001628,-0.00004391,0.00004722,0.00
 000921,-0.00003943,0.00003545,-0.00008561,-0.00002049,0.00000772,0.000
 00551,0.00009476,-0.00023033,0.00008126,-0.00004388,-0.00005137,0.0000
 2093,-0.00129606,-0.00192589,0.00169110,0.00003246,0.00001171,-0.00015
 920,0.00008257,-0.00012953,0.00007319,0.00003065,-0.00002764,-0.000022
 10,0.00001649,0.00000189,-0.00004752,-0.00013071,-0.00004807,0.0000703
 1,-0.00010486,-0.00016909,-0.00010561,-0.00000967,0.00032923,0.0000330
 9,-0.00000607,0.00000204,0.00000161,0.00007793,0.00000139,0.00007953,0
 .00003163,-0.00007609,-0.00013050,0.00018086,-0.00016654,0.00005226,-0
 .00073390,-0.00065139,-0.00016873,0.00003189,0.00025537,0.00013361,-0.
 00849538,0.00852009,0.00490107,0.08208310,-0.11461139,-0.05200243,-0.0
 0052689,0.00069068,0.00073689,-0.00205084,-0.00072908,0.00109239,-0.09
 535191,0.13340847,0.00071040,-0.00092983,0.00033132,0.00221085,-0.0006
 4299,-0.00131519,-0.00466379,0.00378059,-0.00325684,-0.00026653,0.0000
 8061,0.00002232,0.00002370,-0.00002104,-0.00001580,0.00006004,-0.00000
 460,0.00002229,-0.00001350,0.00004656,0.00002293,0.00059978,0.00150649
 ,-0.00024464,-0.00074944,0.00049488,0.00056152,-0.00022976,0.00015615,
 -0.00021431,-0.00010715,-0.00049065,-0.00004356,-0.00007245,0.00029604
 ,-0.00018167,0.00003373,-0.00012261,-0.00005632,0.00010616,0.00006032,
 -0.00004926,-0.00005114,-0.00006134,-0.00003044,0.00005092,-0.00008428
 ,0.00003665,0.00008860,-0.00004499,0.00005167,-0.00008449,0.00051518,-
 0.00008065,-0.00004219,0.00012363,0.00007480,0.00050864,-0.00092971,0.
 00007720,-0.00120053,-0.00024013,0.00005901,-0.00013171,0.00008505,0.0
 0019847,0.00013431,-0.00002597,0.00010724,0.00009819,-0.00012842,0.000
 09519,-0.00007960,-0.00011767,0.00004671,-0.00012833,0.00004477,0.0002
 7270,-0.00002419,0.00001648,-0.00001402,0.00044213,0.00060137,0.000323
 64,-0.00020257,-0.00014063,0.00013227,0.00006885,0.00004061,0.00001164
 ,0.00014518,0.00004373,-0.00004028,0.00000162,-0.00003977,0.00002347,-
 0.00029391,0.00015548,-0.00022380,-0.00015797,-0.00015279,-0.00018680,
 0.00012978,0.00012982,0.00013175,0.00013246,0.00006484,-0.00000574,0.0
 0003728,0.00000857,0.00001748,0.00001317,-0.00012623,-0.00008841,0.000
 29191,0.00001556,-0.00003692,-0.00001564,-0.00038958,0.00035300,0.0002
 1417,-0.00001543,0.00021674,0.01045400,-0.00682834,-0.00613439,0.05788
 108,-0.05447614,-0.07538353,-0.00105520,-0.00034881,0.00022901,0.00238
 366,0.00184420,-0.00091064,-0.06708292,0.05935875,0.08699369,-0.000144
 98,0.00015673,0.00009094,-0.00085906,-0.00001959,-0.00002392,-0.000536
 73,0.00065467,-0.00068748,0.00004007,0.,0.00002157,-0.00000986,0.00000
 761,0.00000404,-0.00000102,-0.00000402,0.00000519,0.00002386,-0.000004
 61,0.00002860,-0.00021655,-0.00038170,0.00007945,0.00012323,-0.0000223
 0,-0.00005653,0.00002829,0.00000691,0.00003305,-0.00004567,0.00017059,
 -0.00005160,-0.00005081,-0.00001708,-0.00001651,0.00001356,0.00001400,
 -0.00001356,0.00000348,-0.00002211,-0.00001822,-0.00000532,-0.00000666
 ,-0.00000776,-0.00000818,0.00000506,-0.00000253,-0.00000301,0.00000155
 ,-0.00000990,0.00006292,-0.00002285,-0.00004452,-0.00004553,0.00005440
 ,0.00028089,-0.00260229,-0.00187983,0.00204655,0.00033417,0.00010279,-
 0.00058224,0.00003208,0.00000651,-0.00002476,0.00001509,-0.00002872,-0
 .00000569,-0.00002742,0.00000999,-0.00000198,0.00004583,-0.00002313,0.
 00000073,0.00000612,-0.00001752,-0.00004954,-0.00002961,-0.00001761,0.
 00001116,0.00015189,0.00029779,-0.00036328,0.00025294,-0.00082911,0.00
 089866,0.00004226,-0.00000784,0.00000778,-0.00002603,-0.00001127,0.000
 01391,-0.00000107,0.00000226,0.00000458,-0.00010331,-0.00017576,0.0000
 6825,0.00000534,-0.00000407,0.00002029,-0.00011938,0.00010443,-0.00003
 364,-0.00004718,-0.00000943,0.00001576,0.00003199,-0.00000762,0.000048
 35,0.00004237,0.00007443,-0.00000398,-0.00000131,-0.00004174,-0.000001
 99,-0.00019899,0.00011034,-0.00020620,0.00001807,0.00003921,-0.0000656
 6,0.00698713,-0.01245862,0.01486454,-0.07934001,0.05512693,-0.06762740
 ,0.00057834,-0.00007380,0.00081393,0.00079460,-0.00098102,0.00035174,-
 0.01008921,0.01452162,-0.01434153,0.09186091,0.00006976,-0.00004677,0.
 00001253,-0.00019673,-0.00053364,-0.00043343,0.00046747,-0.00062490,0.
 00057934,-0.00007753,0.00001722,0.00000449,0.00000573,-0.00000517,-0.0
 0001660,0.00001346,0.00000140,-0.00000877,-0.00001965,-0.00000560,-0.0
 0002112,0.00014848,0.00069195,0.00005377,-0.00013058,0.00028275,0.0001
 9292,-0.00003822,0.00002166,-0.00002197,0.00017062,-0.00018145,-0.0001
 0173,0.00007822,-0.00004249,-0.00002949,0.00001111,-0.00003306,0.00001
 331,0.00000545,0.00001037,-0.00000484,0.00000177,0.00000660,0.00001954
 ,0.00000198,-0.00000379,0.00000901,0.00000143,-0.00000430,0.00000913,-
 0.00012255,-0.00000484,0.00002676,0.00004094,-0.00003419,-0.00021978,-
 0.00305720,-0.00186821,0.00187956,0.00008138,0.00003851,-0.00000178,-0
 .00002206,-0.00005593,0.00002213,-0.00002571,0.00001439,0.00002139,0.0
 0000645,0.00000291,0.00000438,-0.00002278,0.00002327,0.00001370,0.0000
 0617,0.00000206,0.00005514,0.00000344,0.00001932,-0.00003127,-0.000231
 58,-0.00011014,0.00003630,0.00031828,-0.00056585,0.00070693,-0.0000226
 0,0.00001549,-0.00001771,0.00001969,0.00002229,-0.00001316,0.00000087,
 0.00000727,-0.00000787,0.00013314,0.00008746,-0.00004824,-0.00001420,-
 0.00002787,-0.00003523,0.00000844,-0.00005572,0.00006819,0.00002376,0.
 00003719,-0.00000130,-0.00002340,0.00000050,-0.00002296,0.00002943,-0.
 00000720,0.00002440,-0.00001042,0.00003485,-0.00001486,0.00012896,0.00
 001432,0.00004017,0.00000531,-0.00003741,0.00005190,0.00434757,-0.0132
 9497,0.01520773,0.05509543,-0.12279185,0.09681104,0.00060052,0.0003115
 2,0.00044696,0.00071185,0.00058203,-0.00074751,0.01122064,-0.01319786,
 0.01336927,-0.06206164,0.14118788,-0.00002045,-0.00003338,0.00004524,-
 0.00009285,0.00043917,0.00054347,0.00025637,0.00014439,-0.00061226,0.0
 0007965,-0.00004282,-0.00001584,-0.00000742,0.00000376,0.00002301,-0.0
 0001342,-0.00000612,0.00001164,0.00002963,0.00001312,0.00003663,-0.000
 02498,-0.00078427,-0.00016874,0.00011807,-0.00020122,-0.00016051,-0.00
 004317,-0.00000482,0.00000980,-0.00036587,0.00024540,0.00016468,-0.000
 04919,0.00007834,0.00005722,-0.00002982,0.00000999,-0.00000473,-0.0000
 1267,0.00004413,-0.00000079,0.00000474,-0.00000403,-0.00000553,-0.0000
 0023,0.00000047,-0.00000714,0.00000087,-0.00000157,-0.00000664,0.00023
 773,-0.00002468,-0.00006682,0.00006640,-0.00009290,0.00017125,0.002675
 36,0.00159581,-0.00125909,0.00010003,0.00019573,-0.00000083,0.00002268
 ,0.00004442,-0.00002760,0.00004346,-0.00000033,-0.00002270,0.00001883,
 -0.00001034,-0.00000322,-0.00001321,-0.00003189,-0.00002477,-0.0000372
 3,-0.00000686,-0.00002872,-0.00000690,-0.00002674,0.00002275,0.0000227
 1,-0.00000333,0.00022934,-0.00024701,0.00062721,-0.00058519,0.00001966
 ,-0.00002930,0.00001815,-0.00002457,-0.00001611,0.00000867,-0.00000115
 ,0.00000009,0.00001174,-0.00008466,-0.00012327,-0.00002684,-0.00000993
 ,0.00001672,0.00001793,0.00001267,0.00008680,-0.00004311,-0.00004923,-
 0.00001154,0.00001443,0.00003644,-0.00001889,0.00004504,0.00005341,0.0
 0007737,-0.00000889,0.00002681,-0.00004022,0.00003011,-0.00014815,0.00
 001289,-0.00011165,-0.00001462,0.00002579,0.00001830,-0.00298207,0.011
 20728,-0.01254965,-0.06722736,0.09626253,-0.16068026,-0.00060789,-0.00
 087242,0.00062145,-0.00074416,0.00027621,0.00016953,0.00405311,-0.0060
 5504,0.00787896,0.07695371,-0.11475218,0.18641097,0.00003809,-0.000048
 89,0.00013278,0.00159890,-0.00054009,-0.00052569,0.00041234,-0.0000805
 0,-0.00036183,-0.00000422,0.00011780,0.00001522,-0.00000014,-0.0000087
 8,0.00000957,0.00000030,0.00000334,0.00001174,0.00000757,0.00001918,-0
 .00000711,-0.00030694,-0.00012132,0.00005052,-0.00061388,0.00070268,0.
 00037632,0.00003783,0.00004893,0.00000063,0.00000821,0.00009741,0.0000
 0259,-0.00000475,-0.00002418,-0.00003922,0.00002021,-0.00002175,-0.000
 03471,0.00000507,-0.00001669,-0.00003950,-0.00001129,-0.00000612,-0.00
 002964,0.00000496,-0.00001293,-0.00001082,0.00001070,0.00000191,-0.000
 01000,-0.00002364,0.00009736,-0.00004640,-0.00001909,-0.00001309,0.000
 03412,0.00034389,0.00056909,-0.00041509,-0.00054852,0.00037562,-0.0004
 9614,0.00001474,0.00005398,0.00004111,0.00002630,-0.00002756,0.0000289
 9,0.00000177,-0.00001486,0.00001617,0.00000968,-0.00004882,0.00003114,
 -0.00002405,-0.00002463,0.00004710,-0.00001137,-0.00001088,0.00001461,
 -0.00007879,-0.00003011,-0.00001807,-0.00003181,0.00020376,-0.00016683
 ,0.00002383,0.00000263,-0.00001735,0.00001810,-0.00002964,-0.00000827,
 -0.00000486,-0.00002076,0.00002025,-0.00011584,0.00001597,0.00004457,-
 0.00011439,0.00005430,0.00005078,-0.00024002,0.00011991,-0.00005302,0.
 00004310,-0.00005693,-0.00001554,0.00006812,-0.00004354,-0.00000638,-0
 .00021159,-0.00010799,-0.00023102,0.00005832,-0.00007413,-0.00000797,-
 0.00049871,-0.00005173,0.00048190,0.00013520,-0.00006573,-0.00001518,-
 0.01217976,-0.01505815,-0.01414505,-0.08138050,-0.05215128,-0.06608712
 ,-0.00345416,-0.00306220,0.00182491,0.00063946,-0.00029507,-0.00069274
 ,0.00899676,0.01185043,0.01471424,-0.00630813,-0.00692371,-0.01283889,
 0.09440388,-0.00029217,0.00058239,0.00004761,-0.00194950,-0.00151719,0
 .00177408,0.00205865,-0.00343785,-0.00027255,0.00012342,-0.00004283,-0
 .00001619,-0.00001739,0.00001663,0.00001664,-0.00002015,-0.00000780,-0
 .00000297,0.00002919,-0.00001994,0.00000993,-0.00037395,-0.00047003,-0
 .00010348,0.00019485,0.00032439,-0.00011074,-0.00006333,-0.00000482,0.
 00007546,0.00016596,0.00037421,0.00009794,-0.00005394,-0.00001615,0.00
 004083,-0.00005754,0.00007550,-0.00002719,-0.00003347,0.00001356,0.000
 00545,0.00001850,0.00005894,0.00001406,-0.00002072,0.00003687,-0.00001
 362,-0.00002891,0.00001576,-0.00001551,-0.00004703,-0.00017735,-0.0001
 2451,-0.00005233,-0.00002825,0.00038956,-0.00001429,0.00065208,-0.0005
 8998,0.00132952,0.00075279,-0.00030349,-0.00000220,-0.00000581,-0.0000
 8530,0.00000286,0.00000624,-0.00002108,-0.00002704,0.00002664,0.000003
 07,0.00000179,0.00001405,0.00000741,0.00001868,-0.00000821,-0.00007028
 ,0.00000451,-0.00003642,-0.00001575,0.00021352,-0.00004439,0.00008191,
 0.00015395,0.00024890,-0.00008449,-0.00002130,0.00000741,-0.00002247,-
 0.00008599,-0.00000442,0.00002804,-0.00000187,0.00002786,0.00000501,0.
 00010294,-0.00013362,-0.00000720,0.00012484,-0.00001520,0.00006189,0.0
 0000138,-0.00009983,-0.00011139,-0.00010571,-0.00000937,0.00003429,0.0
 0002359,-0.00003284,0.00000939,0.00004843,0.00030536,0.00007559,-0.000
 16646,0.00003160,0.00001050,0.00009136,0.00041851,-0.00015813,-0.00002
 266,-0.00004970,-0.00001859,-0.01006452,-0.01217327,-0.01128158,-0.054
 47959,-0.11955974,-0.09549637,-0.00337114,-0.00225610,0.00163994,0.000
 99341,0.00055520,-0.00023283,-0.00656681,-0.01216676,-0.01574213,0.007
 33142,0.00991280,0.01252404,0.06513555,0.13760897,0.00007029,0.0001305
 3,0.00007654,0.00000971,0.00177062,-0.00049125,0.00112011,-0.00274198,
 0.00030993,0.00007887,0.00000521,-0.00005795,0.00000349,-0.00000819,0.
 00002083,0.00000494,-0.00001194,0.00002353,-0.00002550,-0.00000775,-0.
 00000031,-0.00018000,-0.00000882,-0.00001282,0.00024742,-0.00034017,-0
 .00031900,-0.00004881,0.00000735,-0.00005613,0.00031453,0.00003390,-0.
 00004026,-0.00005153,0.00006961,-0.00007811,-0.00002585,0.00001208,-0.
 00006831,0.00003094,0.00002348,-0.00001622,-0.00000226,0.00002253,-0.0
 0001476,0.00001097,-0.00000108,-0.00001165,0.00001656,-0.00000514,-0.0
 0000845,-0.00017143,-0.00007121,-0.00010406,-0.00009940,0.00008104,0.0
 0018579,0.00003419,-0.00017254,0.00058733,-0.00059585,0.00080052,-0.00
 131075,-0.00005181,0.00008418,0.00001114,0.00004226,0.00001968,0.00004
 203,0.00004629,-0.00005721,0.00004447,-0.00004472,-0.00003897,0.000044
 90,-0.00006459,0.00005073,0.00004395,0.00001679,0.00001138,-0.00000156
 ,0.00015087,-0.00015683,-0.00009279,-0.00000303,-0.00003732,-0.0000432
 9,-0.00003492,0.00006164,-0.00001601,-0.00002059,0.00001094,0.00000788
 ,-0.00000532,-0.00000656,0.00003245,0.00009958,0.00005363,-0.00000663,
 0.00008854,0.00006021,0.00004683,0.00011917,-0.00025658,0.00003135,0.0
 0004204,-0.00000687,-0.00001600,-0.00004284,0.00002427,-0.00004045,-0.
 00013777,0.00003597,0.00016307,-0.00013993,0.00012727,-0.00002152,0.00
 055597,0.00017364,-0.00012460,-0.00008612,-0.00001802,-0.00006813,0.00
 338968,0.00506915,0.00754157,-0.06847574,-0.09435980,-0.15855336,0.001
 27586,0.00091098,-0.00000648,0.00009336,0.00052224,0.00053496,-0.00444
 823,-0.00848740,-0.01017862,-0.01224203,-0.01225758,-0.02064501,0.0783
 9923,0.10821108,0.18232774,-0.00010223,-0.00000023,-0.00000156,0.00048
 532,0.00115836,0.00014902,0.00019482,0.00020923,-0.00024072,0.00001273
 ,-0.00000851,-0.00000792,-0.00000405,0.00000136,0.00000721,-0.00000625
 ,-0.00000207,0.00000277,0.00002193,0.00000463,0.00001558,0.00007593,-0
 .00046007,0.00008483,0.00006585,-0.00039054,-0.00023719,0.00000453,0.0
 0000388,0.00002182,-0.00019926,0.00011606,-0.00002484,-0.00001730,0.00
 000670,0.00004078,0.00000106,-0.00000305,0.00000790,-0.00001166,0.0000
 1293,-0.00000079,0.00001184,-0.00002251,-0.00001461,0.00000106,-0.0000
 0036,-0.00000409,-0.00000312,-0.00000026,-0.00000686,0.00015232,0.0000
 5726,-0.00004865,0.00005925,-0.00004627,0.00012274,-0.00162438,-0.0014
 0029,-0.00282522,-0.00049883,-0.00025502,0.00010805,0.00003639,0.00001
 152,-0.00001111,-0.00000043,-0.00000148,-0.00001119,-0.00000127,0.0000
 0975,-0.00000950,0.00001393,-0.00001709,-0.00001521,0.00000469,-0.0000
 0010,-0.00003346,-0.00001119,-0.00002232,0.00002502,0.00001558,-0.0002
 3770,-0.00020062,-0.00002450,-0.00007723,0.00008566,0.00001755,-0.0000
 1130,0.00000626,-0.00001333,-0.00001502,0.00000633,0.00000268,-0.00000
 964,0.00000346,-0.00007558,-0.00005334,-0.00000140,-0.00000948,-0.0000
 0384,0.00000326,-0.00001699,0.00001962,-0.00001740,-0.00002002,-0.0000
 1036,0.00000855,0.00002081,-0.00000098,0.00001861,0.00000636,0.0000181
 8,-0.00001372,-0.00000599,-0.00001850,0.00001105,-0.00001421,-0.000011
 42,-0.00003090,-0.00001052,0.00002851,-0.00000769,-0.00711279,0.006757
 54,-0.01158618,0.00015924,0.00055668,-0.00038907,-0.08683049,0.0601160
 0,-0.06839332,0.00044294,0.00041266,0.00095175,-0.00019173,0.00007371,
 -0.00014346,-0.00021977,-0.00089655,0.00011972,0.00013154,0.00009477,0
 .00024643,0.09856029,0.00018405,-0.00000215,0.00001220,-0.00013157,0.0
 0051718,-0.00047604,-0.00021082,-0.00010747,0.00003918,-0.00000667,0.0
 0000899,0.00000410,0.00000428,-0.00000253,-0.00000651,0.00001269,-0.00
 000140,-0.00000085,0.00000285,-0.00000538,-0.00000118,-0.00041015,0.00
 038311,-0.00016685,0.00006616,-0.00007267,0.00008660,-0.00002857,0.000
 00113,-0.00003379,0.00016369,-0.00004242,0.00000268,0.00000264,0.00000
 949,-0.00004473,-0.00001733,-0.00000843,-0.00000535,0.00001765,0.00000
 695,0.00000160,-0.00001089,0.00002340,0.00002119,-0.00000083,-0.000002
 37,0.00000582,0.00000905,-0.00000482,0.00000712,-0.00019495,-0.0000752
 7,0.00001003,0.00004626,0.00001160,-0.00000437,-0.00124746,-0.00092685
 ,-0.00233139,-0.00001154,-0.00010121,0.00010939,-0.00004226,-0.0000199
 1,0.00001122,0.00001008,0.00001130,0.00001214,0.00000343,-0.00001379,0
 .00001184,-0.00002790,0.00001287,0.00001119,-0.00001427,0.00000820,0.0
 0004546,-0.00000187,-0.00001200,-0.00002546,0.00029192,-0.00022064,0.0
 0052397,0.00011906,0.00001073,-0.00017698,0.00000050,0.00000366,-0.000
 00076,0.00002078,0.00001269,-0.00000830,-0.00000606,0.00001257,-0.0000
 0285,0.00008138,0.00005765,-0.00002799,-0.00000541,-0.00000665,-0.0000
 1108,0.00000059,-0.00001026,0.00001880,0.00001868,0.00001652,-0.000000
 16,-0.00000019,-0.00000544,0.00000080,-0.00000180,0.00000417,0.0000015
 2,0.00001772,0.00001700,-0.00001222,-0.00000452,0.00001105,0.00000281,
 0.00000084,-0.00001243,0.00000380,-0.00626137,0.00829089,-0.00996097,-
 0.00007307,0.00042852,-0.00077136,0.05951103,-0.12573695,0.09598025,-0
 .00059560,0.00070828,-0.00047730,0.00005273,-0.00016031,0.00013205,-0.
 00030840,-0.00007508,-0.00009688,0.00003563,-0.00003586,-0.00001420,-0
 .06912878,0.14569079,-0.00002397,-0.00000674,0.00001478,0.00044448,0.0
 0192694,0.00020934,0.00023982,0.00012552,-0.00039136,0.00005838,-0.000
 02594,-0.00002060,-0.00000709,-0.00000034,0.00001939,-0.00000937,-0.00
 000716,0.00001367,0.00002510,0.00000797,0.00002605,0.00025345,-0.00061
 264,-0.00019584,0.00018039,-0.00070384,-0.00040853,-0.00000721,-0.0000
 1256,0.00001530,-0.00051089,0.00022666,0.00022721,-0.00006275,0.000056
 48,0.00005268,-0.00001693,0.00001818,-0.00000528,-0.00001227,0.0000335
 4,-0.00000556,0.00000414,0.00000594,-0.00001106,-0.00000225,0.00000190
 ,-0.00000869,0.00000414,-0.00000226,-0.00001095,0.00032160,0.00005217,
 -0.00009963,-0.00003211,-0.00002509,0.00017537,-0.00316085,-0.00301989
 ,-0.00478203,-0.00084443,-0.00040544,0.00015331,0.00002199,0.00004449,
 -0.00000102,0.00003091,0.00000188,-0.00001137,0.00001851,-0.00001304,-
 0.00000199,-0.00001027,-0.00003979,-0.00001909,-0.00002650,0.00000399,
 -0.00001755,0.00000371,-0.00002905,0.00001996,0.00040298,-0.00029027,0
 .00046916,-0.00002348,-0.00018095,0.00032433,0.00001655,-0.00001034,0.
 00000552,-0.00002322,-0.00001571,0.00001026,0.00000212,-0.00000303,0.0
 0000697,-0.00012617,-0.00011428,-0.00001020,-0.00000289,0.00001914,0.0
 0002412,-0.00000429,0.00003699,-0.00004812,-0.00003317,-0.00002368,0.0
 0000777,0.00002536,-0.00000255,0.00001930,0.00000744,0.00002938,-0.000
 01180,-0.00001249,-0.00002214,0.00002069,-0.00001638,-0.00000379,-0.00
 001661,-0.00000845,0.00001527,0.00000030,-0.01208241,0.01116897,-0.019
 92795,0.00079830,0.00066524,0.00061631,-0.06827853,0.09686901,-0.15314
 923,-0.00022315,0.00092935,0.00064829,-0.00006590,-0.00006628,-0.00009
 551,-0.00013215,-0.00048049,0.00046736,0.00022304,0.00016372,0.0001246
 6,0.08181213,-0.11132590,0.17883225,0.00009999,0.00014694,0.00002503,-
 0.00027115,-0.00031174,-0.00007153,-0.00007068,-0.00030012,0.00022145,
 0.00005827,0.00001119,-0.00000176,0.00000954,-0.00000219,0.00000291,0.
 00002051,0.00000152,0.00000280,-0.00000052,0.00000618,0.00000737,-0.00
 179699,-0.00049295,0.00000413,0.00013436,0.00022373,0.00009659,0.00006
 412,-0.00002934,0.00001570,0.00045804,0.00006890,-0.00009002,-0.000004
 37,-0.00007151,-0.00003843,-0.00000069,-0.00001079,-0.00001583,0.00004
 088,-0.00003488,0.00001513,-0.00001692,0.00000715,0.00001504,-0.000002
 53,0.00000700,-0.00001209,0.00001179,0.00000230,-0.00000799,-0.0002582
 3,-0.00017094,0.00009748,-0.00003715,0.00006797,-0.00009903,0.00011729
 ,-0.00031691,0.00084727,0.00026726,0.00021641,0.00001049,-0.00001163,-
 0.00002732,-0.00004758,0.00001365,0.00000280,-0.00000851,-0.00001982,-
 0.00000033,-0.00001189,-0.00000333,0.00004441,0.00002146,-0.00001333,-
 0.00004470,-0.00000121,-0.00001529,-0.00000590,-0.00003295,0.00001281,
 0.00037803,0.00000904,0.00019687,0.00017605,-0.00078534,-0.00001024,0.
 00000587,0.00000007,0.00000506,0.00000728,0.00000458,-0.00002006,0.000
 02057,-0.00000333,0.00004241,0.00004512,-0.00000704,0.00002061,0.00001
 318,0.00000347,0.00002694,-0.00000367,0.00001819,0.00000001,0.00000204
 ,0.00000488,-0.00000821,0.00000611,-0.00001190,0.00000661,0.00001930,0
 .00002531,-0.00001377,0.00000721,-0.00002098,0.00002268,0.00007048,-0.
 00000215,0.00003971,-0.00002104,-0.00003115,-0.01258359,-0.01082319,0.
 00342013,-0.00157740,-0.00249336,-0.00279665,-0.15907747,-0.09655061,0
 .06922478,0.00060050,0.00091065,0.00052710,0.00035816,0.00001320,-0.00
 007246,-0.00001211,0.00024595,-0.00016568,-0.00063284,-0.00082556,0.00
 029380,0.00865818,0.00703152,-0.00483915,0.18383238,0.00002082,0.00005
 746,0.00000735,-0.00029234,-0.00025834,0.00013355,-0.00010761,-0.00024
 149,-0.00001400,0.00003843,-0.00000793,-0.00000632,0.00000326,-0.00000
 216,0.00000647,0.00000551,-0.00000208,0.00000267,-0.00000572,0.0000105
 8,0.00001338,0.00000645,0.00006281,-0.00004902,0.00018616,0.00006956,-
 0.00004488,0.00003170,-0.00004011,0.00001374,-0.00005142,0.00004763,0.
 00003149,-0.00001992,-0.00000429,0.00001402,-0.00000379,-0.00000201,-0
 .00000558,0.00001335,-0.00000548,0.00001024,0.00000589,0.00002194,0.00
 000295,0.00000046,0.00000542,-0.00001124,0.00000448,-0.00000067,-0.000
 00828,-0.00004147,-0.00009045,0.00003949,0.00001853,-0.00000343,0.0000
 0004,0.00063508,0.00054023,0.00081038,0.00028918,0.00018215,-0.0000063
 2,-0.00000434,0.00000285,-0.00003457,0.00000731,-0.00000281,-0.0000176
 6,0.00000068,-0.00000481,-0.00000967,-0.00000810,0.00002625,0.00000458
 ,-0.00002101,-0.00003030,-0.00001956,0.00000027,0.00001044,-0.00000729
 ,-0.00000762,0.00005207,0.00003975,0.00004728,0.00038913,-0.00031338,-
 0.00000858,-0.00000221,0.00000109,-0.00000839,-0.00000084,0.00000390,0
 .00000013,0.00000700,0.00000058,-0.00004531,0.00001346,-0.00001254,0.0
 0001653,0.00001747,0.00001395,0.00001297,-0.00000508,0.00000367,-0.000
 00797,-0.00000547,0.00000354,-0.00000486,0.00000808,-0.00000778,0.0000
 1151,0.00001271,0.00002116,-0.00000971,0.00000111,-0.00000229,0.000031
 55,0.00003303,-0.00000832,0.00000780,-0.00000857,-0.00001294,-0.014630
 20,-0.01284070,0.00516398,-0.00216647,-0.00236762,-0.00312916,-0.09658
 531,-0.12618308,0.05869586,-0.00060850,0.00025207,0.00063894,0.0001760
 1,-0.00000624,-0.00005904,0.00010200,0.00028358,-0.00021835,-0.0009994
 5,-0.00062343,0.00033486,-0.01405973,-0.01442489,0.01237020,0.11496905
 ,0.14532904,0.00006122,-0.00004530,0.00002381,-0.00008558,-0.00011090,
 -0.00003347,-0.00016578,-0.00003377,-0.00015769,-0.00001892,-0.0000008
 6,0.00000247,0.00000209,0.00000034,-0.00000378,0.00000226,-0.00000362,
 -0.00000174,0.00000311,-0.00000910,0.00000424,0.00004721,0.00035996,0.
 00011940,0.00000318,0.00007665,0.00005981,-0.00003907,-0.00000043,-0.0
 0003117,0.00020039,-0.00016079,-0.00004037,0.00000529,0.00006103,-0.00
 001413,-0.00001368,-0.00000334,-0.00000081,-0.00000087,0.00002013,-0.0
 0000085,0.00001121,0.00000083,0.00000304,0.00000396,-0.00000629,0.0000
 1105,0.00000260,-0.00000697,0.00001044,0.00001607,0.00000398,-0.000027
 51,-0.00003191,-0.00001449,-0.00000581,-0.00053556,-0.00068021,0.00092
 030,0.00018203,0.00002274,0.00006968,-0.00001500,0.00000078,0.00001680
 ,0.00001022,0.00000156,0.00000414,0.00001352,-0.00001110,0.00000884,-0
 .00000883,-0.00000609,-0.00000148,-0.00001988,0.00001622,0.00002152,-0
 .00001234,-0.00000197,0.00000399,0.00023878,-0.00022709,-0.00004512,-0
 .00016398,-0.00002700,-0.00049347,0.00000898,-0.00000354,0.00000452,0.
 00001015,0.00000171,-0.00000345,0.00000504,-0.00000025,0.00000352,0.00
 005603,0.00002162,0.00002703,-0.00000215,-0.00001072,-0.00001613,-0.00
 001384,-0.00000705,0.00000326,0.00000980,0.00001136,0.00000571,0.00000
 245,-0.00000101,0.00000801,0.00000826,0.00000181,0.00000636,0.00001487
 ,0.00000881,0.00000045,0.00001024,-0.00000585,-0.00002014,-0.00002009,
 0.00000709,0.00000247,-0.01373877,-0.01171699,0.00715626,-0.00196778,-
 0.00245185,-0.00207597,0.06900821,0.05857300,-0.08418116,-0.00080897,-
 0.00000150,0.00048618,-0.00012389,0.00000079,-0.00009163,0.00005204,-0
 .00017618,-0.00002251,-0.00087303,-0.00074027,0.00043406,0.01556520,0.
 01585761,-0.01184157,-0.07943673,-0.06634787,0.09708003,0.00003851,-0.
 00009864,-0.00002755,-0.00030379,0.00001874,0.00012578,0.00011086,0.00
 031621,0.00059685,-0.00002053,0.00003668,-0.00000767,0.00000598,0.0000
 0443,-0.00000027,-0.00000413,-0.00000538,-0.00000830,-0.00001510,0.000
 00569,-0.00000049,0.00055243,0.00112437,-0.00020359,0.00009590,-0.0000
 3260,-0.00000345,0.00005874,-0.00006085,0.00000785,0.00000608,-0.00024
 615,-0.00012384,0.00008048,-0.00012128,0.00001459,0.00005671,-0.000018
 67,0.00001162,0.00001791,-0.00003679,0.00000452,0.00002609,0.00005742,
 0.00001562,0.00001261,0.00000203,-0.00001264,-0.00001230,-0.00000035,-
 0.00000506,-0.00014288,-0.00002794,0.00005733,0.00004482,0.00004750,-0
 .00012012,0.00004884,0.00014805,0.00039985,0.00019482,-0.00006833,-0.0
 0010207,0.00002607,-0.00005533,0.00000530,-0.00005050,-0.00003755,-0.0
 0003170,0.00000292,0.00006718,-0.00001677,0.00002561,0.00003426,0.0000
 2397,0.00001233,-0.00001297,-0.00000822,0.00000929,0.00001313,0.000013
 29,-0.00024019,-0.00039318,-0.00137542,-0.00011810,0.00007442,0.000083
 44,-0.00000066,0.00000223,-0.00001432,-0.00000382,-0.00000172,-0.00000
 157,0.00000187,-0.00001241,0.00000362,0.00007047,0.00000464,0.00002190
 ,0.00000475,0.00001694,0.00000205,-0.00001213,0.00000651,-0.00002050,0
 .00000660,0.00000490,0.00000153,-0.00000232,0.00000467,-0.00000308,-0.
 00000026,-0.00000818,-0.00000087,0.00000234,0.00000150,0.00001173,0.00
 001193,-0.00001951,0.00001010,-0.00001568,-0.00001379,0.00002129,0.007
 36694,-0.00534433,-0.00314395,0.00080717,-0.00071539,-0.00086848,-0.15
 724379,0.09295676,0.07163051,-0.00010531,-0.00102674,-0.00121306,-0.00
 016590,-0.00063820,-0.00031602,-0.00013095,0.00010633,0.00005581,-0.00
 005234,-0.00001175,-0.00003812,-0.01236836,0.01078774,0.00516141,-0.02
 035659,0.01222483,0.01243095,0.18172152,0.00010614,-0.00013650,-0.0000
 3696,0.00057779,-0.00028832,-0.00027657,-0.00058717,-0.00006775,-0.000
 65511,0.00000680,-0.00002771,0.00001199,0.00000371,-0.00000345,0.00000
 562,-0.00000084,-0.00000403,0.00000490,0.00001062,-0.00000590,0.000013
 02,0.00041143,0.00025102,0.00013546,-0.00026767,0.00022086,0.00013079,
 -0.00009741,0.00000766,-0.00004120,-0.00004361,-0.00010552,-0.00001468
 ,-0.00004074,0.00022806,0.00003317,-0.00005989,-0.00002217,0.00000090,
 -0.00001566,0.00005456,0.00000904,0.00003300,-0.00003555,-0.00000472,0
 .00000942,-0.00001685,0.00000744,0.00001428,-0.00001387,0.00000907,0.0
 0008167,0.00008835,-0.00010872,0.00009448,-0.00013391,0.00022833,0.000
 67332,-0.00002144,0.00052633,-0.00026868,0.00009852,0.00024515,-0.0000
 4889,0.00004677,0.00000490,0.00003446,0.00001940,-0.00000828,0.0000275
 2,-0.00004618,0.00001688,-0.00003802,-0.00000013,-0.00002538,-0.000041
 86,0.00002558,0.00001307,-0.00000797,0.00000976,-0.00000678,0.00022555
 ,0.00037925,0.00130001,-0.00009528,-0.00008637,-0.00003145,0.00000872,
 -0.00002004,0.00001776,0.00000727,-0.00000473,-0.00000747,0.00000940,-
 0.00000175,0.00000855,-0.00006554,-0.00000786,-0.00003619,-0.00000845,
 -0.00002361,-0.00000779,-0.00001365,-0.00000969,-0.00002129,0.00000621
 ,0.00000559,0.00000227,0.00001280,0.00000130,0.00001501,0.00000688,-0.
 00000182,-0.00001084,0.00004590,0.00000173,0.00001933,-0.00001490,-0.0
 0005939,-0.00003478,-0.00006212,0.00003490,0.00003189,0.01094868,-0.01
 268436,-0.01100908,0.00080013,0.00038167,-0.00011512,0.09348106,-0.120
 22939,-0.05735832,-0.00174214,-0.00236163,-0.00352951,-0.00097359,-0.0
 0042311,-0.00010067,0.00014487,-0.00028226,0.00002265,0.00009453,0.000
 25752,0.00022105,0.01760754,-0.01389391,-0.00685976,-0.01291080,0.0100
 3055,0.00808516,-0.10826777,0.13964858,0.00049418,-0.00010369,0.000028
 16,0.00055614,-0.00046114,-0.00040793,-0.00095462,-0.00038341,-0.00041
 003,0.00005892,0.00000189,0.00001097,0.00002137,-0.00000462,0.00000697
 ,0.00002263,-0.00000506,0.00000561,0.00000484,0.00000004,0.00001011,-0
 .00085145,0.00162176,-0.00112195,-0.00032140,0.00042275,0.00035595,-0.
 00005265,-0.00000566,-0.00007890,0.00055526,-0.00019824,0.00023549,-0.
 00004762,0.00014340,-0.00009684,-0.00004768,-0.00001858,-0.00003473,0.
 00005559,0.00001683,0.00002016,-0.00001948,0.00004052,0.00004130,0.000
 01578,-0.00001806,-0.00000198,0.00003509,-0.00001221,0.00001850,-0.000
 57803,-0.00017251,0.00001426,0.00004387,0.00000664,-0.00004613,0.00081
 300,-0.00041553,0.00032343,-0.00029295,0.00016804,0.00022022,-0.000104
 22,0.00000908,0.00001511,0.00006487,0.00000720,0.00000364,0.00004661,-
 0.00003853,0.00003486,-0.00008542,0.00002468,0.00003071,-0.00007350,-0
 .00000928,0.00011655,0.00000798,0.00000245,-0.00006284,-0.00035071,-0.
 00021705,0.00007234,0.00004499,-0.00008219,-0.00005818,-0.00000121,-0.
 00000038,0.00000949,0.00003193,0.00002044,-0.00001026,-0.00001589,0.00
 002218,0.00000669,0.00009539,0.00006001,-0.00004435,0.00000882,-0.0000
 0370,-0.00000955,0.00001734,0.00000377,0.00000479,0.00002446,0.0000177
 9,-0.00000022,0.00000237,-0.00000309,-0.00000147,-0.00000146,0.0000067
 7,0.00000059,0.00004682,0.00001908,-0.00000723,-0.00001530,-0.00000509
 ,-0.00000404,-0.00001114,-0.00000675,0.00002526,0.01419146,-0.01489666
 ,-0.01240253,0.00073710,0.00089377,0.00056901,0.07203420,-0.05766076,-
 0.08753038,-0.00198756,-0.00309643,-0.00367677,-0.00041445,-0.00016939
 ,0.00048372,-0.00012064,0.00002783,-0.00003466,0.00015568,0.00022526,0
 .00001212,-0.01546165,0.01298950,0.00868820,0.01349730,-0.00730748,-0.
 00710897,-0.08250904,0.06952081,0.10190576,0.00003462,-0.00006085,-0.0
 0002933,-0.00215882,0.00289106,0.00146300,-0.00013039,0.00016845,0.000
 16455,-0.00003234,0.00000105,-0.00000106,0.00000398,-0.00000337,-0.000
 00792,0.00000029,0.00000289,-0.00000407,-0.00001925,0.00000246,-0.0000
 0986,0.00015625,0.00008214,0.00002241,-0.00035477,-0.00107899,-0.00127
 986,0.00000509,-0.00000121,-0.00002169,0.00000241,-0.00004023,-0.00001
 059,0.00002576,0.00001861,-0.00000693,0.00000389,-0.00001376,0.0000081
 2,-0.00000139,-0.00000215,0.00000539,-0.00000185,-0.00001412,0.0000006
 5,0.00000539,-0.00000853,0.00000937,0.00000219,-0.00000341,0.00000920,
 0.00000901,0.00003521,0.00000934,0.00003837,-0.00007528,-0.00010825,0.
 00042132,-0.00040775,-0.00005221,0.00050847,-0.00021246,-0.00033816,-0
 .00000721,0.00001097,0.00001410,-0.00000811,-0.00000111,0.00000299,0.0
 0000643,-0.00000841,0.00000232,-0.00000501,0.00000188,-0.00000174,0.00
 000364,0.00000598,0.00001089,0.00001290,0.00001243,0.00000224,-0.00005
 684,-0.00025322,-0.00005594,-0.00006631,-0.00020135,-0.00007309,-0.000
 00165,-0.00000277,0.00000444,0.00001982,0.00000248,-0.00000674,0.00000
 283,-0.00000426,-0.00000375,0.00000617,0.00004523,0.00001425,-0.000023
 75,0.00001109,-0.00000816,-0.00002187,-0.00001324,0.00002963,0.0000328
 9,0.00000015,-0.00001280,-0.00001037,0.00000181,-0.00000674,-0.0000339
 3,-0.00003019,0.00001541,0.00002231,0.00000670,-0.00000680,0.00000106,
 -0.00000399,0.00002377,0.00000840,-0.00000819,-0.00000780,0.00730423,0
 .00956448,0.01531512,0.00059622,0.00064496,0.00020038,-0.00209125,0.00
 248146,0.00182716,-0.08132715,-0.04625195,-0.07562059,-0.00006878,-0.0
 0002498,-0.00006334,-0.00013115,-0.00004696,-0.00008064,-0.00038446,-0
 .00013093,0.00030221,-0.00009899,-0.00006955,0.00009466,-0.00004298,0.
 00012441,-0.00006233,0.00042016,0.00082275,0.00087215,0.09531037,-0.00
 003905,0.00008207,0.00004681,0.00354273,-0.00185515,-0.00176837,0.0001
 6769,-0.00005157,-0.00021529,0.00000402,0.00000201,-0.00000594,-0.0000
 1095,0.00000716,0.00000504,-0.00000806,0.00000065,0.00000173,0.0000327
 7,0.00000221,0.00001174,-0.00023377,-0.00020626,-0.00010645,-0.0017494
 2,0.00110676,0.00100752,-0.00001841,0.00001341,0.00001862,-0.00013688,
 0.00026291,0.00011029,-0.00002370,-0.00001257,0.00001623,-0.00001372,0
 .00002791,-0.00001124,-0.00001361,-0.00000186,-0.00001024,-0.00000106,
 0.00001647,-0.00000274,-0.00000890,0.00000881,-0.00000320,-0.00000657,
 0.00000559,-0.00000530,0.00000942,-0.00001718,-0.00004440,0.00003350,-
 0.00002998,0.00012363,-0.00020676,0.00046964,-0.00034422,-0.00106286,0
 .00005197,0.00042844,0.00000794,0.00000681,0.00000267,0.00001351,-0.00
 001449,-0.00000081,-0.00001792,0.00001271,0.00000378,0.00000702,-0.000
 01998,-0.00000481,0.00001165,-0.00001609,-0.00000735,-0.00000651,-0.00
 003697,-0.00000227,-0.00011310,0.00021319,0.00021980,-0.00019934,-0.00
 036722,0.00001261,0.00001095,0.00000151,-0.00000536,-0.00001854,-0.000
 00542,0.00000646,-0.00000375,0.00000406,-0.00000082,-0.00001932,-0.000
 04084,-0.00001296,0.00000517,-0.00000658,0.00000158,0.00000035,0.00000
 221,-0.00002723,-0.00002868,-0.00000533,0.00001385,0.00002000,-0.00000
 587,0.00001133,0.00000891,0.00004478,-0.00000894,-0.00002241,-0.000006
 72,0.00000712,-0.00000162,0.00000854,-0.00001007,-0.00000766,0.0000048
 5,0.00000858,-0.00493102,-0.01171245,-0.01631042,-0.00049473,0.0004006
 3,0.00058801,0.00305171,-0.00251343,-0.00232338,-0.04600836,-0.0973185
 2,-0.08954281,-0.00012098,-0.00003476,0.00004044,0.00010173,-0.0000809
 1,0.00007074,0.00006572,0.00036104,0.00004761,0.00011724,-0.00005929,0
 .00020933,0.00016243,0.00024082,0.00006147,-0.00030125,-0.00071157,-0.
 00109124,0.05115478,0.11302559,0.00000925,0.00002197,0.00004953,-0.001
 50093,0.00136934,0.00222473,0.00016791,-0.00020184,-0.00008765,-0.0000
 1906,-0.00001051,-0.00000883,-0.00000450,0.00000214,-0.00000600,0.0000
 0296,-0.00000255,0.00000015,-0.00000853,-0.00000004,0.00000476,-0.0000
 5087,-0.00011864,-0.00006111,-0.00013921,-0.00031303,-0.00140021,-0.00
 005443,0.00001890,-0.00001783,-0.00005678,0.00011540,0.00008317,-0.000
 01059,0.00003393,-0.00001988,-0.00001200,0.00000261,-0.00000707,0.0000
 0285,0.00001738,-0.00000468,-0.00000409,0.00000098,0.00000101,-0.00000
 216,-0.00000006,0.00001129,-0.00000001,-0.00000376,0.00000910,0.000060
 92,-0.00003362,-0.00005833,-0.00004528,0.00001390,0.00007033,-0.000641
 46,0.00027688,-0.00022933,0.00096007,-0.00006289,-0.00057052,-0.000007
 51,0.00000373,0.00001830,0.00000576,0.00000430,0.00001283,0.00000405,-
 0.00001040,0.00000856,-0.00000845,-0.00001910,-0.00000178,-0.00000576,
 0.00001768,0.00001506,0.00000151,-0.00000735,0.00001127,-0.00015362,0.
 00019775,-0.00016598,0.00005129,-0.00006096,0.00009715,-0.00000137,0.0
 0001192,-0.00000093,0.00000163,0.00001136,-0.00000020,0.00000112,-0.00
 000137,0.00000034,0.00004800,0.00001763,-0.00000115,0.00002607,-0.0000
 2595,-0.00002037,0.00002397,-0.00004029,0.00000549,0.00000585,0.000016
 97,0.00000265,-0.00001706,0.00000725,-0.00000134,0.00001827,0.00000816
 ,0.00002769,-0.00000280,0.00001972,-0.00000700,0.00002070,0.00001609,-
 0.00002183,-0.00001283,-0.00000092,0.00000166,-0.00245914,-0.01000810,
 -0.01263379,-0.00052598,0.00011933,0.00017175,0.00205563,-0.00185677,-
 0.00115571,-0.07608249,-0.09076395,-0.19652519,-0.00018702,0.00014866,
 0.00026668,-0.00010038,-0.00003855,-0.00020617,0.00072664,0.00014851,0
 .00006455,0.00015551,0.00000571,0.00032094,0.00015793,0.00016310,-0.00
 000627,-0.00028995,-0.00054503,-0.00043153,0.08718134,0.10650182,0.224
 89007,0.00002814,0.00009817,0.00000958,-0.00127136,-0.00016631,0.00016
 249,-0.00005050,-0.00035952,0.00007035,0.00005489,-0.00000297,-0.00000
 237,0.00000553,0.00000065,0.00000539,0.00001044,-0.00000241,0.00000241
 ,-0.00000204,-0.00000005,0.00001151,-0.00038858,-0.00030420,0.00011578
 ,0.00066033,0.00021312,-0.00019006,0.00003572,-0.00002530,0.00000953,0
 .00015408,0.00001966,-0.00004959,-0.00002254,-0.00001340,-0.00001196,-
 0.00000736,-0.00000335,-0.00000761,0.00002608,-0.00002032,0.00001934,0
 .00000009,0.00000440,0.00000158,-0.00000074,0.00000841,-0.00000546,0.0
 0000406,0.00000019,-0.00000485,-0.00006902,-0.00010165,0.00005630,-0.0
 0002852,0.00002818,-0.00004319,-0.00014182,-0.00067303,0.00070666,0.00
 058998,0.00020819,-0.00006262,-0.00001346,-0.00000530,-0.00004338,0.00
 001709,0.00000351,-0.00001750,-0.00001066,-0.00000922,-0.00001687,0.00
 000199,0.00003338,0.00000824,-0.00002308,-0.00002433,-0.00002762,-0.00
 000990,0.00000616,-0.00000430,0.00048055,-0.00001099,-0.00021134,-0.00
 005327,0.00099344,-0.00051727,-0.00000615,0.00000191,-0.00000002,-0.00
 000242,0.00000184,0.00000769,-0.00000633,0.00000894,0.00000417,0.00000
 571,0.00005235,0.00000979,0.00002286,0.00001201,0.00000480,0.00000564,
 -0.00001702,0.00000156,-0.00000345,0.00000045,0.00000694,-0.00000725,0
 .00000715,-0.00000904,0.00001519,0.00001675,0.00002540,-0.00001631,0.0
 0000728,-0.00001758,0.00002792,0.00007371,-0.00000368,0.00003238,-0.00
 001762,-0.00002775,-0.02146446,-0.00997213,0.00932303,-0.00366866,0.00
 312685,0.00220031,0.00081053,-0.00089407,-0.00091691,-0.18685058,-0.10
 249626,0.05708602,-0.00102841,-0.00061465,0.00085411,0.00004695,0.0002
 2901,-0.00022847,0.00032736,0.00023428,0.00005059,-0.00000803,0.000035
 07,0.00012068,0.00047576,0.00060299,0.00015551,0.00014777,-0.00026640,
 -0.00033863,-0.01325669,-0.01161431,0.00256155,0.21744641,-0.00000489,
 -0.00000450,-0.00002245,-0.00012971,-0.00025188,0.00001922,0.00005534,
 -0.00015500,-0.00001631,0.00002636,-0.00000729,-0.00000189,-0.00000033
 ,0.00000073,0.00000658,-0.00000266,-0.00000133,0.00000183,-0.00000193,
 0.00000176,0.00000235,0.00002279,-0.00008746,-0.00001018,0.00004348,0.
 00017551,-0.00017637,0.00000375,0.00000043,0.00001027,-0.00008626,0.00
 007824,0.00003430,-0.00002341,0.00000400,0.00000933,-0.00000247,0.0000
 0302,-0.00000214,0.00000364,0.00000236,0.00000443,0.00000525,0.0000066
 8,-0.00000247,-0.00000087,0.00000649,-0.00000734,-0.00000286,0.0000027
 0,-0.00000707,0.00001401,-0.00001899,0.00001755,0.00005157,-0.00002850
 ,0.00001808,0.00055332,0.00035717,-0.00068852,0.00000526,0.00006729,-0
 .00006621,-0.00001037,0.00000656,-0.00001390,0.00000653,0.00000543,-0.
 00000706,0.00000377,-0.00000642,-0.00000479,-0.00000823,0.00000782,0.0
 0000106,-0.00000399,-0.00000064,-0.00001499,0.00000771,0.00000637,0.00
 000050,-0.00009330,0.00020239,0.00003790,0.00030269,-0.00015007,0.0001
 1894,-0.00000763,0.00000106,-0.00000217,-0.00001253,-0.00000204,0.0000
 0331,-0.00000012,0.00000039,0.00000336,-0.00003086,0.00002603,-0.00000
 479,0.00001450,0.00000468,0.00001357,0.00003242,0.00000028,-0.00000313
 ,-0.00000930,-0.00000398,0.00000009,-0.00000442,0.00000357,-0.00000486
 ,0.00001100,-0.00000256,0.00000090,-0.00000466,-0.00000270,0.00000454,
 0.00000233,-0.00001312,-0.00000993,-0.00000735,0.00000949,0.00000700,0
 .01210612,0.00829383,-0.00482359,0.00205170,-0.00100127,-0.00122156,0.
 00094852,0.00077978,-0.00011162,-0.10214601,-0.11636472,0.04171522,0.0
 0069255,0.00041250,-0.00040213,-0.00001226,-0.00000219,-0.00023109,0.0
 0019650,-0.00001915,0.00006988,-0.00013849,-0.00012205,0.00012345,0.00
 015631,-0.00022319,-0.00033543,0.00007119,-0.00000891,0.00007422,-0.01
 485757,-0.01069748,0.00351679,0.11790358,0.13417533,0.00000926,-0.0000
 6310,0.00002070,-0.00005474,0.00006089,0.00012302,0.00002809,0.0000738
 0,-0.00010718,-0.00002447,-0.00000658,-0.00000336,-0.00000065,-0.00000
 098,-0.00000370,0.00000005,-0.00000229,-0.00000045,-0.00000077,-0.0000
 0432,-0.00000210,0.00019680,0.00008897,-0.00001064,0.00002442,0.000138
 88,-0.00016269,-0.00003438,0.00001725,-0.00001901,-0.00006150,-0.00002
 163,0.00005193,0.00000376,0.00004000,-0.00000631,-0.00000475,-0.000002
 24,0.00000020,-0.00000810,0.00002647,-0.00001365,0.00000097,-0.0000090
 8,0.00000143,0.00000064,-0.00000625,0.00000750,0.00000156,-0.00000417,
 0.00000619,0.00010908,0.00001886,-0.00003819,-0.00003743,0.00000517,0.
 00001466,-0.00066625,0.00008904,0.00024134,0.00008997,-0.00007867,-0.0
 0000223,-0.00000316,0.00000294,0.00002670,0.00000329,0.00000585,0.0000
 1110,0.00001377,-0.00000932,0.00000877,-0.00000753,-0.00001960,-0.0000
 0370,-0.00001182,0.00002206,0.00002207,-0.00000390,-0.00000002,0.00000
 781,-0.00009752,0.00003028,-0.00011703,-0.00017550,0.00019348,0.000235
 75,0.00000547,0.00000097,0.00000249,0.00000624,0.00000313,-0.00000397,
 0.00000440,-0.00000392,0.00000209,0.00000951,-0.00001173,0.00001410,-0
 .00000841,-0.00000898,-0.00000623,0.00000713,0.00000398,0.00000724,0.0
 0000436,0.00000661,-0.00000114,0.00000243,-0.00000639,0.00000796,0.000
 00369,-0.00000589,-0.00001223,0.00001432,0.00000221,0.00000552,-0.0000
 1609,-0.00002856,-0.00001052,-0.00001782,0.00001014,0.00001145,0.01212
 462,0.00567935,-0.00549199,0.00260741,-0.00183273,-0.00106862,0.000563
 65,0.00059846,0.00020089,0.05622326,0.04138578,-0.06684168,0.00074934,
 0.00037947,-0.00027860,-0.00007573,-0.00014441,0.00019559,-0.00008285,
 -0.00008537,-0.00008913,0.00006039,0.00016250,-0.00032211,-0.00002690,
 -0.00083564,-0.00009174,-0.00022075,0.00015958,0.00014178,-0.01987954,
 -0.01503713,0.00692404,-0.06862063,-0.04706526,0.07527263,-0.00006597,
 -0.00001204,-0.00000407,0.00040741,0.00050328,0.00035188,0.00011082,0.
 00022434,-0.00016250,0.00001995,-0.00000807,-0.00000985,-0.00000333,0.
 00000048,0.00000751,-0.00000639,-0.00000308,0.00000376,0.00002112,0.00
 000457,0.00001330,-0.00020209,-0.00050000,-0.00015825,-0.00005728,-0.0
 0014231,-0.00012794,0.00000969,-0.00000008,0.00001210,-0.00041255,0.00
 033877,0.00026403,-0.00001194,0.00000643,0.00004162,-0.00000001,-0.000
 00045,0.00000582,-0.00000960,0.00001310,-0.00000020,0.00000540,-0.0000
 1079,-0.00001271,0.00000058,0.00000019,-0.00000235,-0.00000284,-0.0000
 0060,-0.00000613,0.00019393,0.00008167,-0.00005708,0.00006227,-0.00005
 984,0.00006370,-0.00271317,0.00224614,0.00168736,-0.00022330,-0.000051
 89,0.00012492,0.00002535,0.00001269,-0.00000241,0.00000524,0.00000333,
 -0.00000738,0.00000323,0.00000101,-0.00000787,0.00000510,-0.00001987,-
 0.00001366,-0.00000170,0.00000804,-0.00002985,-0.00000320,-0.00001992,
 0.00002847,-0.00056587,0.00125362,-0.00070423,-0.00008791,-0.00004455,
 0.00015873,0.00001734,-0.00001056,0.00000410,-0.00000926,-0.00001340,0
 .00000545,0.00000432,-0.00001108,0.00000441,-0.00007546,-0.00005457,0.
 00000287,-0.00001536,0.00001070,0.00000791,-0.00002310,0.00003034,-0.0
 0001402,-0.00001845,-0.00001247,0.00000555,0.00002275,-0.00000723,0.00
 001861,0.00000004,0.00001957,-0.00001795,-0.00000425,-0.00001930,0.000
 00892,-0.00002484,0.00000265,-0.00001397,0.00000273,0.00001293,-0.0000
 0650,-0.00991925,0.01653899,-0.01331384,0.00044705,0.00062677,-0.00085
 006,0.00037351,-0.00063009,-0.00039753,-0.06642886,0.04904036,-0.05061
 625,0.00023627,-0.00018519,-0.00014219,-0.00045013,-0.00015890,0.00095
 870,-0.00025194,0.00000048,-0.00015016,0.00030392,-0.00000631,0.000221
 16,-0.00007907,-0.00004073,0.00012218,0.00000709,-0.00013291,-0.000115
 75,-0.00450327,0.00869967,-0.01189872,0.00659704,-0.01769027,0.0174477
 5,0.07714221,0.00007101,0.00001031,0.00001345,-0.00054150,-0.00031432,
 -0.00019855,-0.00025033,-0.00017220,0.00022690,-0.00004626,0.00001868,
 0.00000931,0.00000503,-0.00000211,-0.00001618,0.00001419,0.00000354,-0
 .00000813,-0.00001631,-0.00000356,-0.00001393,0.00016174,0.00076300,0.
 00018774,0.00009676,0.00019808,-0.00004589,-0.00000803,0.00000180,-0.0
 0002219,0.00043500,-0.00032903,-0.00030173,0.00004095,-0.00002960,-0.0
 0005198,0.00001101,-0.00001334,0.00000024,0.00001163,-0.00001445,-0.00
 000661,-0.00000606,0.00000897,0.00001693,-0.00000075,-0.00000368,0.000
 00617,0.00000428,-0.00000175,0.00000798,-0.00021922,-0.00006023,0.0000
 5020,0.00001396,-0.00001439,-0.00010898,0.00258035,-0.00187190,-0.0018
 5256,0.00034314,0.00002360,-0.00009460,-0.00002575,-0.00003728,0.00001
 199,-0.00001363,-0.00000483,0.00001343,-0.00000474,0.00000488,0.000010
 25,-0.00000415,0.00002213,0.00001897,0.00000835,-0.00000914,0.00004398
 ,-0.00000722,0.00001325,-0.00003028,0.00082126,-0.00120515,0.00058056,
 0.00007168,0.00022208,-0.00030986,-0.00001044,0.00001028,-0.00000344,0
 .00002105,0.00001759,-0.00001074,-0.00000409,0.00001055,-0.00000845,0.
 00008684,0.00009904,-0.00000439,0.00000252,-0.00001618,-0.00001534,0.0
 0000705,-0.00003266,0.00003753,0.00002735,0.00002309,-0.00000327,-0.00
 001380,-0.00000243,-0.00001136,-0.00000240,-0.00000854,0.00000652,0.00
 001660,0.00002270,-0.00001580,0.00001084,0.00000714,0.00000846,0.00000
 058,-0.00001406,0.00000630,0.00971621,-0.01630361,0.01229202,-0.001193
 66,0.00068390,0.00043342,0.00010995,0.00024591,0.00073138,0.04881083,-
 0.14842153,0.10654405,-0.00031301,0.00005859,0.00014795,0.00014789,0.0
 0049981,-0.00042139,0.00007351,0.00000336,-0.00004877,-0.00012680,-0.0
 0011682,-0.00096935,0.00002111,-0.00011044,0.00008388,-0.00022834,0.00
 027749,0.00006552,-0.00420733,0.00931443,-0.00875875,0.00356206,-0.015
 48691,0.01614598,-0.05989314,0.17212452,0.00001806,-0.00005470,0.00000
 789,0.00093424,0.00002918,-0.00022945,0.00019203,0.00013251,-0.0002563
 3,0.00003555,-0.00002975,-0.00001608,-0.00000862,0.00000310,0.00001334
 ,-0.00001210,-0.00000612,0.00000929,0.00001816,0.00000132,0.00001058,0
 .00011080,-0.00037843,-0.00005868,-0.00066195,0.00008027,-0.00021002,-
 0.00003476,0.00001823,0.00000820,-0.00020882,0.00008199,0.00005011,-0.
 00006475,0.00007623,0.00001571,-0.00002742,0.00000987,-0.00000019,-0.0
 0000597,0.00004262,0.00000063,0.00000466,-0.00000601,-0.00000130,-0.00
 000331,0.00000336,0.00000015,-0.00000196,-0.00000335,-0.00000184,0.000
 18079,-0.00004638,-0.00004745,-0.00001656,0.00004819,0.00016559,0.0010
 5009,-0.00068197,-0.00026425,-0.00045578,-0.00004898,0.00020400,-0.000
 00537,0.00003453,0.00000045,0.00003065,0.00001331,-0.00000720,0.000017
 88,-0.00001738,-0.00000045,-0.00002325,-0.00003217,-0.00001812,-0.0000
 1562,0.00001496,-0.00000073,0.00000370,-0.00001799,-0.00000291,0.00006
 632,-0.00033657,0.00035692,-0.00012712,-0.00030481,0.00009331,0.000010
 04,-0.00000384,-0.00000133,-0.00001735,-0.00000980,0.00000938,0.000000
 94,0.00000204,0.00000958,-0.00009587,-0.00007690,-0.00000787,-0.000003
 68,0.00001617,0.00001093,-0.00001026,0.00002709,-0.00003744,-0.0000265
 6,-0.00001859,0.00000535,0.00001650,-0.00000605,0.00000871,0.00000548,
 0.00001651,-0.00001490,-0.00001284,-0.00001661,0.00001459,-0.00001063,
 0.00000328,0.00000386,0.00000501,0.00000349,0.00000343,0.00272795,-0.0
 0618599,0.00669178,0.00035944,-0.00076575,0.00053392,0.00065537,-0.000
 39905,0.00056370,-0.05009027,0.10663899,-0.15037545,0.00001900,-0.0001
 1480,-0.00006489,0.00028514,-0.00011468,0.00016051,-0.00019279,0.00012
 117,-0.00021225,0.00006065,-0.00022879,0.00003766,-0.00006589,0.000046
 42,-0.00014605,0.00002508,0.00000239,-0.00006839,-0.00987503,0.0173281
 0,-0.02163963,-0.00211408,0.00947062,-0.00884473,0.05731208,-0.1244281
 4,0.17354667,-0.00354692,0.00001276,0.00047629,-0.00049973,0.00136692,
 0.00277241,-0.00194242,0.00044910,0.00070437,0.00061393,-0.00015742,-0
 .00018969,0.00000317,-0.00005685,0.00018119,0.00001906,-0.00005647,0.0
 0014371,0.00006736,0.00004024,0.00019342,-0.19847712,-0.04735429,0.054
 91437,0.00151181,-0.00165762,-0.00314489,0.00085401,0.00012199,0.00047
 174,-0.07216161,-0.00764059,0.02990986,-0.00286384,-0.00041089,0.00184
 440,0.00052884,-0.00030032,0.00052855,-0.00011546,0.00007281,-0.000077
 23,-0.00044979,-0.00030362,-0.00042353,-0.00002642,0.00003015,-0.00017
 520,-0.00003909,0.00002671,-0.00032189,0.01150579,0.00615250,-0.001829
 55,-0.00159565,-0.00073839,0.00191029,-0.00144554,-0.00136977,-0.00154
 641,0.00142620,-0.00006666,-0.00039851,0.00069833,0.00009354,-0.000024
 76,0.00009402,0.00058482,-0.00051537,-0.00026542,-0.00034949,-0.000361
 97,0.00058654,-0.00017349,-0.00065985,0.00027553,0.00045851,-0.0015458
 6,-0.00049953,-0.00042208,-0.00014074,-0.01821199,-0.03119741,0.009364
 80,0.00171359,0.00030537,-0.00150508,0.00008083,0.00000525,0.00004399,
 -0.00025320,-0.00008888,0.00011280,-0.00043563,-0.00016488,0.00019337,
 -0.00124355,-0.00071752,0.00016942,0.00017210,0.00029241,0.00038711,0.
 00006336,0.00035757,-0.00054522,-0.00029607,-0.00024890,0.00000504,0.0
 0004961,0.00003923,0.00009927,-0.00000864,0.00010789,0.00003376,-0.000
 27276,-0.00018848,0.00011854,-0.00006677,0.00012504,-0.00002449,0.0000
 5200,0.00006102,-0.00018346,-0.00052000,0.00017597,-0.00106599,0.00049
 461,0.00010927,0.00028575,-0.00026225,-0.00021110,0.00032703,-0.000110
 34,-0.00005117,0.00042518,0.00010737,0.00016291,-0.00060283,0.00020407
 ,-0.00025891,0.00024501,0.00014133,0.00040194,0.00004557,0.00003702,0.
 00022746,0.00017395,0.00119749,0.00019088,-0.00017130,-0.00052844,-0.0
 0018508,0.00015540,-0.00013680,0.00022868,0.00005826,0.00036782,0.0000
 2556,-0.00017990,0.00016287,-0.00021726,0.00007678,0.35720643,-0.00072
 939,0.00183373,-0.00004887,0.00176013,0.00211741,0.00343631,0.00360130
 ,-0.00084420,-0.00073368,0.00072196,-0.00039494,-0.00010378,-0.0000686
 2,-0.00001590,0.00015549,0.00006518,-0.00000784,0.00005599,0.00015116,
 0.00004745,0.00020480,-0.05570616,-0.09449495,0.00837031,0.00050914,-0
 .00136056,-0.00240141,0.00050053,-0.00011779,0.00040446,0.01030538,0.0
 1246010,-0.00378516,-0.00021860,-0.00060626,-0.00003242,-0.00030159,-0
 .00006850,-0.00032363,0.00011545,-0.00001242,0.00018927,0.00005727,-0.
 00004612,-0.00006183,-0.00017437,0.00015962,-0.00013544,-0.00000423,0.
 00004691,-0.00014945,0.00233644,-0.00239437,-0.00006389,0.00046062,0.0
 0046695,0.00134819,-0.00196515,-0.00160490,-0.00041009,-0.00088089,0.0
 0008175,-0.00015617,0.00036221,0.00013528,-0.00069066,0.00012698,0.000
 17394,-0.00018151,-0.00037645,-0.00017542,-0.00024259,0.00024439,0.000
 21200,-0.00011382,-0.00013871,-0.00019232,-0.00084468,-0.00032236,-0.0
 0053432,-0.00004394,-0.05286840,-0.05104463,0.01392579,0.00024822,-0.0
 0126799,-0.00065097,-0.00000497,-0.00010401,0.00006349,-0.00032767,0.0
 0001551,0.00014453,-0.00038053,0.00004555,0.00011176,-0.00272167,-0.00
 119017,0.00015755,0.00009300,0.00027916,0.00040496,0.00000996,0.000365
 82,-0.00058879,-0.00031407,-0.00027507,-0.00001747,0.00004245,-0.00000
 272,0.00005008,0.00001996,0.00016249,0.00005430,-0.00026401,-0.0001754
 9,0.00012314,-0.00001016,0.00018801,-0.00005305,0.00009123,0.00000813,
 -0.00013703,-0.00052251,0.00084525,-0.00093723,0.00030586,-0.00013634,
 0.00019185,0.00029290,-0.00038736,0.00031888,-0.00012229,0.00007209,0.
 00013903,0.00012617,0.00012565,-0.00045992,0.00018607,-0.00021932,0.00
 022198,0.00004380,0.00026769,0.00001111,0.00007238,-0.00013132,0.00031
 820,0.00008475,0.00001938,-0.00013620,-0.00025195,-0.00012070,-0.00017
 047,-0.00010220,0.00013494,0.00003988,0.00009926,0.00008262,-0.0000582
 9,0.00011105,-0.00019236,0.00014935,0.10722901,0.37213034,0.00317078,0
 .00001127,0.00008113,-0.00038802,-0.00019167,-0.00193135,0.00109079,-0
 .00005965,0.00302150,-0.00013377,-0.00000870,0.00002343,-0.00005263,0.
 00002691,-0.00005209,-0.00005329,-0.00001546,-0.00006642,-0.00003180,-
 0.00003024,-0.00006569,0.05147730,0.00312257,-0.06621769,-0.00045851,0
 .00063745,0.00179846,-0.00039300,-0.00007781,-0.00002078,0.02762393,0.
 00069454,0.00227825,0.00024172,0.00055748,-0.00059305,-0.00006812,0.00
 011333,0.00018085,-0.00005749,0.00000479,-0.00020116,-0.00004639,0.000
 15586,0.00013500,-0.00000103,0.00001268,0.00003463,-0.00003600,-0.0000
 2034,0.00010242,-0.00250864,-0.00117826,0.00071508,0.00018729,-0.00030
 833,-0.00108866,-0.00006330,0.00187248,-0.00069212,-0.00013801,-0.0000
 2529,0.00035079,-0.00032137,-0.00010474,0.00011344,-0.00016751,-0.0001
 7470,0.00028686,0.00025190,0.00021085,0.00010820,-0.00049436,0.0000872
 2,0.00042012,0.00053239,-0.00027192,0.00135823,0.00027498,0.00043809,0
 .00011731,0.00588332,0.00516433,0.01019748,-0.00083035,-0.00046090,0.0
 0005108,-0.00001605,-0.00002270,-0.00002137,0.00006167,0.00000914,-0.0
 0002026,0.00028770,-0.00004866,-0.00014234,-0.00000045,-0.00008498,-0.
 00052663,-0.00013214,-0.00011455,-0.00008948,0.00002935,-0.00001788,0.
 00007626,0.00006674,0.00003929,-0.00001976,0.00000032,-0.00000402,-0.0
 0002309,0.00000822,-0.00001706,-0.00000768,0.00008575,0.00006852,-0.00
 005386,-0.00000265,-0.00002888,0.00000801,-0.00002837,-0.00005128,0.00
 003975,-0.00055536,-0.00045964,0.00027757,0.00002646,-0.00019788,0.000
 13067,0.00003540,0.00004038,-0.00005259,0.00004756,0.00012871,-0.00018
 044,-0.00010310,-0.00009841,0.00017085,-0.00007633,0.00003688,-0.00005
 117,0.00001979,-0.00004021,-0.00001533,0.00005219,0.00010402,-0.000107
 26,0.00013177,-0.00004829,-0.00006807,-0.00012639,0.00010172,0.0002691
 1,0.00002210,0.00002935,-0.00000590,-0.00011072,-0.00001894,-0.0000284
 1,-0.00005845,0.00005942,0.00001862,-0.08934927,0.05105669,0.12372592,
 -0.00009323,0.00000470,-0.00008724,-0.00005227,0.00009847,0.00015746,0
 .00011404,0.00001473,0.00002157,-0.00001974,-0.00000184,0.00001214,0.0
 0000953,0.00000137,-0.00000264,-0.00002154,-0.00000607,-0.00001409,-0.
 00000663,-0.00000476,-0.00000255,0.00050532,-0.00197506,-0.00066466,0.
 00003586,-0.00006984,-0.00011968,0.00002395,-0.00001139,0.00003373,-0.
 00002755,0.00025342,0.00024634,0.00001824,0.00001200,0.00006518,0.0000
 0226,-0.00000179,0.00000482,-0.00001454,-0.00001516,0.00002310,-0.0000
 2043,0.00000855,-0.00005172,0.00002101,-0.00000062,-0.00001266,-0.0000
 2376,0.00000608,-0.00000203,0.00011306,0.00000050,-0.00000515,-0.00008
 059,-0.00002205,0.00002689,-0.00002191,0.00006312,-0.00000835,0.000035
 23,-0.00004355,-0.00004079,0.00001816,0.00000609,-0.00001027,-0.000034
 30,-0.00001415,-0.00001948,-0.00001203,-0.00001598,-0.00002753,-0.0000
 2193,0.00006964,-0.00000484,0.00004299,-0.00002822,-0.00003234,-0.0000
 2559,0.00001017,0.00004424,-0.00082104,-0.00066610,0.00023232,0.000002
 04,0.00000904,0.00004574,-0.00000254,-0.00001557,0.00000426,-0.0000129
 0,-0.00001588,0.00000434,0.00006510,-0.00002969,0.00002142,-0.00005288
 ,-0.00003245,0.00000354,-0.00000242,-0.00000061,0.00000868,-0.00000170
 ,0.00000452,0.00000177,-0.00001338,-0.00001164,0.00000147,-0.00000128,
 0.00000341,-0.00000085,0.00000365,-0.00000522,-0.00000031,-0.00001500,
 -0.00001108,0.00000413,0.00001016,-0.00000660,0.00000031,0.00000230,0.
 00000561,-0.00000111,-0.00002140,0.00005848,-0.00001054,0.00000963,-0.
 00000012,0.00000290,0.00000203,0.00002347,-0.00003169,-0.00001308,-0.0
 0000330,0.00000824,0.00000930,0.00000225,-0.00002181,0.00000313,-0.000
 01931,0.00001184,-0.00000741,-0.00000616,0.00000024,0.00000655,-0.0000
 3733,0.00002000,-0.00001896,0.00007288,-0.00002801,-0.00000431,-0.0000
 2170,-0.00002607,-0.00000056,-0.00000750,-0.00000634,-0.00000791,0.000
 01297,0.00000943,0.00001360,-0.00001602,-0.00000048,-0.01548091,-0.014
 44979,0.00307316,0.46196564,-0.00018597,0.00021885,0.00004609,-0.00001
 609,0.00013226,0.00017339,0.00023096,0.00004351,0.00009143,0.00003666,
 -0.00001323,-0.00000071,-0.00003105,0.00000347,0.00000804,0.00000052,0
 .00001386,0.00000308,0.00001686,0.00001822,0.00001850,0.00049727,-0.00
 442679,-0.00196718,0.00004103,-0.00009422,-0.00011760,0.00007672,-0.00
 000693,0.00005881,-0.00092888,0.00044265,0.00044080,-0.00010297,-0.000
 07016,0.00003935,-0.00000009,0.00000400,0.00000165,-0.00001368,-0.0000
 2680,-0.00000283,-0.00001275,-0.00002958,0.00003697,-0.00004310,0.0000
 2420,-0.00000689,-0.00000666,0.00001061,-0.00001713,0.00049160,-0.0000
 0698,-0.00002853,0.00005080,-0.00005164,0.00005269,-0.00000893,0.00008
 442,-0.00003676,0.00005355,-0.00001128,-0.00004414,0.00004517,0.000040
 73,-0.00003807,-0.00000547,0.00000523,-0.00002974,-0.00007350,0.000042
 02,-0.00001078,0.00010622,-0.00002777,0.00001263,0.00009018,-0.0000585
 8,-0.00013461,0.00005424,-0.00004642,0.00006456,-0.00191058,-0.0016367
 7,0.00062893,-0.00007217,0.00004100,0.00000979,0.00000090,-0.00000486,
 -0.00000397,-0.00002775,0.00000095,0.00001158,-0.00015939,-0.00001234,
 -0.00005299,-0.00023246,-0.00008258,-0.00000105,-0.00000645,0.00000984
 ,0.00002853,-0.00001052,0.00001351,-0.00002953,-0.00002441,-0.00001935
 ,-0.00000030,0.00000468,0.00000191,0.00000087,0.00000337,0.00001243,0.
 00000197,-0.00002297,-0.00001338,0.00000771,0.00000333,0.00000893,-0.0
 0000496,0.00000819,0.00000646,-0.00000303,-0.00004137,0.00005949,-0.00
 004107,0.00003963,-0.00001913,0.00002874,0.00004356,0.00004256,0.00001
 843,0.00000868,0.00000766,0.00002341,0.00001443,0.00000587,-0.00004846
 ,0.,-0.00002636,0.00002196,0.00000073,0.00002178,0.00000891,-0.0000035
 4,-0.00003651,0.00003197,-0.00001184,-0.00004341,-0.00004650,-0.000025
 27,-0.00001655,-0.00004963,-0.00000592,0.00001218,0.00001027,-0.000000
 81,0.00000456,-0.00001494,0.00000653,-0.00002887,0.00000799,-0.0363882
 1,-0.02038996,0.00846864,-0.00951939,0.53631323,-0.00003598,0.00001479
 ,-0.00001871,0.00002221,0.00002412,0.00006976,0.00000036,0.00001459,0.
 00005264,0.00001865,-0.00000118,0.00000274,0.00000573,-0.00000381,0.00
 000450,0.00000204,-0.00000120,0.00000924,0.00000066,0.00000163,0.00000
 691,0.00011487,-0.00115571,-0.00019547,0.00000643,-0.00000297,-0.00004
 780,0.00002284,-0.00001068,0.00001742,-0.00018312,-0.00006646,0.000430
 84,-0.00005624,-0.00007668,0.00001856,0.00002177,0.00003796,0.00000303
 ,0.00001620,-0.00001794,0.00000584,-0.00007816,0.00004535,-0.00004399,
 0.00000172,0.00000985,-0.00001520,0.00000998,0.00000810,-0.00000577,0.
 00014375,0.00004133,-0.00004087,-0.00000524,-0.00004230,-0.00009372,-0
 .00001514,-0.00001734,-0.00006269,0.00001283,0.00000001,-0.00002968,0.
 00001144,-0.00001456,0.00000773,-0.00000978,-0.00000154,0.00000713,0.0
 0000413,-0.00000545,-0.00000589,-0.00004023,-0.00001007,-0.00002834,-0
 .00002953,0.00000897,-0.00004804,0.00000099,-0.00000206,0.00003723,-0.
 00041489,-0.00035436,0.00009374,0.00001196,0.00001171,0.00006455,0.000
 00172,0.00000567,0.00000210,-0.00000720,0.00000089,0.00000515,0.000093
 48,0.00002679,0.00001647,-0.00005904,-0.00003009,0.00004075,0.00000244
 ,0.00000277,0.00001495,0.00000008,0.00000576,-0.00001824,-0.00000448,-
 0.00000374,0.00000160,0.00000203,0.00000311,0.00000227,0.,0.00000574,0
 .00000182,-0.00000518,-0.00000311,0.00000553,0.00000058,0.00000286,-0.
 00000124,-0.00000094,-0.00000095,-0.00000047,0.00001003,0.00000380,-0.
 00002874,0.00000434,-0.00001863,0.00001658,0.00005259,-0.00002951,0.00
 000928,0.00002100,0.00000813,-0.00000176,-0.00000738,-0.00000257,-0.00
 000888,0.00000172,-0.00000211,0.00000176,0.00000264,0.00001191,0.00000
 196,-0.00000668,-0.00000425,0.00000543,-0.00001953,0.00001934,-0.00003
 256,-0.00002123,-0.00002018,-0.00000404,-0.00001005,0.00000351,0.00000
 571,-0.00001424,0.00001334,0.00001277,-0.00000595,0.00000002,0.0000039
 2,-0.00568871,-0.00200880,0.00466726,0.02867870,0.00773020,0.51795385,
 0.00096956,0.00049433,0.00012472,0.00006849,-0.00031615,-0.00037369,0.
 00035984,-0.00022075,0.00082293,-0.00000204,0.00000307,0.00003919,0.00
 005034,-0.00002833,-0.00001808,0.00009416,0.00003275,-0.00003333,-0.00
 000080,0.00001644,-0.00000808,-0.00872765,-0.03248712,-0.00771765,-0.0
 0022629,0.00036372,0.00043946,0.00015247,-0.00007900,-0.00000088,0.002
 93253,0.00215539,-0.00171429,0.00008696,-0.00026281,-0.00046949,-0.000
 01307,0.00001608,-0.00010909,0.00010351,-0.00003758,-0.00001239,-0.000
 04596,0.00012245,0.00034564,-0.00003200,0.00000963,-0.00002318,0.00004
 071,0.00002415,0.00001950,-0.00204676,-0.00132206,0.00071356,0.0001493
 6,0.00031188,-0.00049388,0.00012724,0.00101002,0.00027843,-0.00017554,
 0.00016003,0.00002159,-0.00000298,-0.00013890,-0.00006890,0.00002376,-
 0.00002938,0.00003017,-0.00018883,-0.00008692,0.00007185,-0.00013471,0
 .00015793,0.00009379,-0.00006690,-0.00015795,0.00020135,-0.00007977,-0
 .00036613,-0.00030331,-0.00406134,-0.00191082,0.00191223,0.00017652,0.
 00012742,0.00002159,-0.00002351,-0.00000649,0.00000206,0.00003406,0.00
 004959,-0.00000667,-0.00010911,0.00042099,0.00011911,-0.00005836,0.000
 05252,-0.00010929,-0.00004439,-0.00004819,-0.00003117,0.00001471,-0.00
 001587,0.00005842,0.00004410,0.00002120,-0.00001358,-0.00001091,-0.000
 02038,-0.00001589,-0.00000936,0.00001396,0.00000916,0.00004293,0.00002
 965,-0.00002268,0.00000317,0.00001406,-0.00000512,0.00000917,-0.000024
 80,0.00001484,0.00005817,0.00002015,0.00012798,-0.00008255,0.00001305,
 -0.00007701,0.00009434,0.00007959,-0.00017530,-0.00000625,0.00007853,-
 0.00008922,-0.00001298,-0.00002398,0.00005326,-0.00001208,0.00005830,-
 0.00005028,-0.00003482,-0.00004759,-0.00000511,-0.00007871,0.00000030,
 -0.00005006,-0.00008701,0.00009266,0.00003630,0.00003499,-0.00001686,0
 .00008683,0.00002600,-0.00004846,-0.00000480,-0.00006058,0.00000420,0.
 00004614,-0.00004324,0.00006434,-0.00002436,-0.06113151,0.00791645,0.0
 0759632,-0.16389348,-0.01438193,0.04300458,0.48722651,0.00142129,-0.00
 122711,-0.00020612,-0.00177908,-0.00155571,-0.00214993,-0.00175063,-0.
 00060309,0.00001354,-0.00038664,0.00009821,0.00005417,0.00011446,0.000
 01273,-0.00010046,0.00000913,-0.00002036,-0.00007332,-0.00007775,-0.00
 003997,-0.00007153,-0.03249883,-0.02396234,0.00910800,-0.00007921,0.00
 108670,0.00153063,-0.00031965,0.00000726,-0.00039360,0.00829429,-0.000
 83467,-0.00183078,0.00051132,0.00042723,-0.00049005,0.00008415,0.00004
 910,0.00006525,0.00005150,0.00003548,0.00000267,-0.00006807,0.00019328
 ,0.00004886,0.00017081,-0.00012917,0.00009306,0.00003047,-0.00004720,0
 .00016608,-0.00510836,-0.00138660,0.00082356,0.00043761,0.00005844,-0.
 00099391,0.00074385,0.00159341,0.00074098,0.00104697,0.00013999,0.0002
 0001,-0.00034776,-0.00019843,0.00028935,0.00006941,-0.00018623,0.00016
 937,0.00047517,0.00009058,0.00017464,-0.00042918,-0.00003188,0.0001441
 4,-0.00021664,0.00019363,0.00103805,-0.00018228,0.00013839,-0.00026323
 ,0.00060315,0.00286116,-0.00103211,0.00018017,-0.00047828,-0.00026302,
 0.00001964,0.00002903,0.00002122,0.00019369,0.00003710,-0.00007859,0.0
 0059238,0.00014077,-0.00001414,0.00093994,0.00070178,-0.00005584,-0.00
 007673,-0.00014614,-0.00022355,-0.00001220,-0.00018526,0.00032718,0.00
 018483,0.00014988,-0.00000025,-0.00002841,-0.00001095,-0.00000379,-0.0
 0002741,-0.00006980,-0.00000686,0.00016960,0.00011256,-0.00007071,-0.0
 0000277,-0.00007593,0.00001654,-0.00004872,-0.00001730,0.00004956,-0.0
 0017497,-0.00046775,0.00034250,-0.00010908,0.00012189,-0.00000314,-0.0
 0025970,0.00030481,-0.00031519,0.00000469,0.00009745,-0.00008589,-0.00
 001204,-0.00013081,0.00012513,-0.00004315,0.00012977,-0.00015713,0.000
 01178,-0.00002669,0.00004495,-0.00008610,0.00029289,-0.00024297,0.0005
 2251,-0.00015195,0.00017979,-0.00007637,-0.00005992,0.00046295,0.00005
 938,-0.00004673,0.00001749,0.00006273,-0.00008171,0.00000715,-0.000093
 33,0.00018249,-0.00011919,0.00375015,-0.14501166,-0.03923026,-0.016524
 51,-0.06204607,0.00903748,-0.02253236,0.41700285,-0.00001458,-0.000084
 95,0.00004321,-0.00035455,-0.00019248,0.00043612,-0.00073143,-0.000470
 70,0.00076097,-0.00009905,0.00004789,0.00001583,0.00004026,-0.00000172
 ,-0.00003553,0.00005388,0.00001252,-0.00004040,-0.00001840,-0.00000514
 ,-0.00002572,-0.00634709,0.00736945,0.00295431,0.00009871,0.00016031,-
 0.00023838,0.00001626,0.00001610,-0.00004474,-0.00036556,0.00094739,-0
 .00321858,0.00028318,0.00001837,-0.00009018,0.00007726,-0.00012044,0.0
 0001633,0.00002901,0.00000677,-0.00003707,0.00017014,-0.00019444,-0.00
 003167,0.00002102,-0.00003950,0.00003659,-0.00002162,-0.00000971,0.000
 01490,-0.00066177,-0.00016177,0.00066682,-0.00025903,0.00016889,-0.000
 53456,-0.00010719,-0.00002201,0.00029135,-0.00004505,0.00008990,-0.000
 23879,-0.00002105,-0.00013888,-0.00007500,0.00003237,-0.00000304,-0.00
 003330,-0.00008353,0.00002084,0.00003200,0.00014300,0.00022580,0.00012
 722,0.00000312,0.00007631,0.00001458,-0.00026102,-0.00032418,-0.000182
 08,0.00422751,0.00257324,0.00013954,0.00012504,-0.00022412,-0.00001206
 ,-0.00002383,-0.00000445,-0.00000232,0.00005835,0.00001767,-0.00002025
 ,-0.00029175,0.00005169,-0.00002139,0.00033091,0.00021285,-0.00004928,
 -0.00002852,-0.00005402,-0.00004512,0.00002546,-0.00004484,0.00013633,
 0.00004381,0.00003074,-0.00000478,-0.00002238,-0.00000716,-0.00001729,
 -0.00000574,-0.00000926,0.00000744,0.00002893,0.00003143,-0.00003215,0
 .00001492,0.00000743,0.00001003,0.00002133,-0.00000744,-0.00000640,0.0
 0032842,0.00007683,0.00021699,-0.00011465,0.00011827,-0.00013993,-0.00
 021055,-0.00001867,-0.00009282,-0.00004032,-0.00006149,-0.00003682,0.0
 0010120,0.00002437,0.00001637,-0.00001800,0.00007843,-0.00005602,-0.00
 004010,-0.00009296,-0.00001656,-0.00002275,-0.00004106,-0.00007250,-0.
 00019799,0.00006790,0.00019565,0.00030254,0.00009990,-0.00023104,0.000
 02765,-0.00008628,-0.00001760,0.00002661,-0.00001238,0.00004694,-0.000
 00171,0.00004927,-0.00005875,0.00443950,-0.04193008,-0.06394241,0.0425
 5761,0.00778114,-0.08235348,-0.01520625,-0.01768440,0.47381804,0.00063
 669,0.00046075,-0.00026265,-0.00024745,-0.00002093,0.00000216,0.000024
 12,0.00005684,-0.00010399,0.00004466,0.00005900,0.00002596,-0.00000281
 ,-0.00005794,-0.00000128,0.00000763,-0.00005109,0.00002404,-0.00005663
 ,-0.00000371,0.00003205,-0.00035495,-0.00029281,0.00078665,0.00010451,
 -0.00000992,-0.00002129,0.00004163,0.00003599,0.00003119,0.00069214,-0
 .00195659,0.00056954,-0.00001244,0.00001075,-0.00016938,-0.00003075,-0
 .00000375,-0.00012343,0.00006069,-0.00002130,0.00006029,-0.00006924,-0
 .00006887,0.00016170,-0.00003429,-0.00001155,-0.00001653,0.00003227,0.
 00001218,0.00000012,-0.00005174,0.00002054,-0.00017854,-0.00020392,-0.
 00005738,-0.00002324,-0.00011550,0.00001712,0.00005332,0.00018520,-0.0
 0001795,0.00000090,0.00001511,-0.00001005,0.00009751,-0.00003166,-0.00
 003113,0.00012105,0.00008320,-0.00031500,-0.00015624,0.00026713,0.0009
 6377,0.00094457,-0.00023076,-0.00000871,0.00009164,-0.00008176,0.00000
 357,-0.00001396,0.00011707,-0.00037056,-0.00010254,0.00001595,0.000019
 22,-0.00003588,0.00002628,0.00002280,-0.00000286,-0.00000403,-0.000012
 40,-0.00000227,-0.00190663,-0.00105074,-0.00149233,0.00000962,-0.00002
 069,0.00001204,0.00001537,0.00002080,0.00001219,0.00000057,0.00001806,
 -0.00002940,-0.00000329,-0.00000365,-0.00000093,0.00000684,0.00000796,
 0.00000871,0.00000180,-0.00000304,-0.00000317,-0.00000146,-0.00000540,
 0.00000378,0.00000234,-0.00000523,0.00000103,-0.00000389,0.00000421,-0
 .00000875,-0.00003621,-0.00003154,-0.00003616,0.00000218,-0.00000290,0
 .00002655,-0.00000703,-0.00005423,0.00005475,0.00000288,-0.00001674,0.
 00001351,0.00001205,-0.00001144,-0.00002977,0.00001016,-0.00000232,-0.
 00000177,0.00001266,0.00002753,0.00000331,0.00001056,0.00001172,-0.000
 00186,0.00002810,0.00000026,-0.00000739,-0.00001529,0.00000992,-0.0000
 0254,-0.00000610,0.00001939,0.00000375,0.00001574,-0.00000237,-0.00001
 221,0.00000138,0.00000200,0.00000107,0.00542143,-0.00063796,0.00130308
 ,-0.02750366,0.01647552,-0.00842597,-0.12224273,0.04992013,-0.03277087
 ,0.49284878,-0.00015790,0.00032379,-0.00018762,0.00009276,0.00024157,0
 .00033839,0.00023155,-0.00001549,-0.00020520,0.00002314,-0.00000473,0.
 00002530,-0.00003650,-0.00001182,0.00002070,-0.00002205,0.00003049,-0.
 00002657,0.00000561,0.00002854,0.00002849,0.00184410,0.00277607,-0.000
 25080,0.00001499,-0.00018112,-0.00023633,0.00009227,0.00000751,0.00014
 707,-0.00406891,-0.00700635,0.00296100,-0.00017469,0.00002487,0.000174
 67,0.00005533,-0.00007579,-0.00001898,-0.00005508,0.00003276,0.0000558
 2,-0.00003717,-0.00009881,-0.00006602,-0.00003418,0.00000327,-0.000027
 05,-0.00004271,0.00003619,-0.00000650,0.00176163,0.00041855,-0.0003139
 5,-0.00028424,-0.00015348,0.00022020,-0.00013994,-0.00011961,-0.000087
 33,-0.00001334,-0.00002996,-0.00004783,0.00011147,0.00018108,0.0000002
 2,-0.00001749,-0.00000153,-0.00004728,-0.00004757,-0.00003508,-0.00003
 381,-0.00025131,0.00020002,0.00003394,0.00031408,-0.00017639,-0.000161
 75,-0.00004164,0.00007861,0.00011123,-0.00018055,-0.00072627,-0.000249
 57,-0.00009865,0.00009759,0.00009176,0.00001361,-0.00002893,0.00000680
 ,-0.00002549,-0.00002096,0.00001459,-0.00047917,-0.00054006,-0.0001358
 7,-0.00012214,-0.00002809,0.00001486,0.00000218,0.00000594,0.00002029,
 -0.00000781,0.00000812,-0.00000850,-0.00002861,-0.00002141,0.00000345,
 0.00000456,0.00000557,-0.00000102,0.00001063,0.00000037,-0.00000136,-0
 .00003056,-0.00001881,0.00001021,0.00001962,-0.00000484,-0.00000263,0.
 00000669,0.00001252,-0.00000110,-0.00006735,0.00008932,-0.00007182,0.0
 0003283,-0.00000180,0.00003019,0.00001406,-0.00002215,0.00004370,-0.00
 000221,-0.00001963,0.00004531,0.00001621,0.00001220,-0.00004705,0.0000
 0324,-0.00004120,0.00003410,-0.00000053,0.00001061,0.00000027,0.000014
 37,-0.00005488,0.00003806,-0.00006577,0.00001161,-0.00004532,0.0000051
 8,-0.00000814,-0.00008681,-0.00000426,0.00001140,0.00000410,-0.0000124
 7,0.00000887,-0.00000291,0.00002253,-0.00004014,0.00001054,0.01749176,
 -0.04333629,0.00630230,0.00160367,0.00133706,-0.00070029,0.04839264,-0
 .10065520,0.02968192,0.04253295,0.49819762,-0.00000438,-0.00020147,-0.
 00039269,-0.00007534,-0.00007030,-0.00005346,-0.00019555,0.00015269,0.
 00020845,-0.00000862,0.00002656,0.00000119,0.00002136,-0.00003465,0.00
 000265,-0.00000271,-0.00004670,0.00001531,-0.00004939,-0.00002587,0.00
 000199,0.00003757,0.00020744,0.00024614,0.00003266,0.00002069,0.000005
 16,0.00004839,-0.00000072,0.00003458,0.00101437,0.00153247,0.00064803,
 -0.00005735,-0.00009935,-0.00002583,0.00010495,0.00000380,0.00001795,0
 .00006302,-0.00002363,0.00000411,-0.00002912,0.00002263,-0.00007121,0.
 00004814,-0.00001598,-0.00004071,0.00000699,0.00000940,-0.00001196,-0.
 00039576,0.00002735,0.00004723,0.00007223,0.00000337,-0.00025395,0.000
 00241,0.00000183,-0.00001494,0.00009428,-0.00002929,-0.00008376,0.0000
 3209,-0.00016418,0.00005493,-0.00015198,-0.00007369,0.00008120,0.00003
 139,-0.00014043,-0.00007718,-0.00056263,0.00024861,-0.00025023,-0.0000
 1962,0.00016473,-0.00000113,-0.00009408,-0.00014379,0.00003960,-0.0000
 7085,-0.00001135,0.00004498,0.00001800,0.00001717,0.00001099,0.0000039
 8,0.00001416,-0.00000798,-0.00000396,-0.00001333,-0.00000033,0.0004528
 1,-0.00008767,0.00031898,0.00000177,-0.00000250,0.00004578,0.00000451,
 -0.00000173,0.00001695,0.00000124,0.00000993,-0.00000959,0.00000057,-0
 .00000037,0.00000066,-0.00000029,0.00000896,0.00000497,-0.00000268,-0.
 00000021,-0.00000111,-0.00000886,-0.00000800,0.00000426,0.00000761,-0.
 00001200,-0.00000210,-0.00000479,0.00000442,-0.00000560,-0.00000974,-0
 .00002029,-0.00001685,0.00000695,-0.00001086,0.00003570,0.00003148,0.0
 0001120,0.00005394,0.00001835,-0.00000373,0.00001199,-0.00000170,-0.00
 000854,-0.00002071,0.00000499,-0.00000691,-0.00000388,0.00001090,0.000
 01955,0.00000464,0.00000308,-0.00000899,0.00000251,0.00003885,-0.00000
 474,-0.00005971,-0.00006336,-0.00003049,-0.00000440,-0.00000733,0.0000
 1294,0.00000645,0.00000177,0.00000554,-0.00000821,-0.00000267,-0.00000
 199,-0.00000086,0.00372047,-0.00552662,0.00435714,0.00662526,-0.004419
 42,0.00350169,-0.03315186,0.02929702,-0.08335176,-0.02265280,0.0207348
 9,0.51756416,0.00025962,0.00013998,0.00018403,0.00004580,0.00008498,0.
 00014384,0.00020717,-0.00008730,-0.00014823,0.00002011,0.00001119,0.00
 000868,0.00000583,-0.00000550,0.00000100,0.00000084,-0.00000231,0.0000
 0604,0.00000378,0.00000955,0.00001657,0.00050114,0.00043912,-0.0012647
 6,0.00000525,-0.00003864,-0.00008164,-0.00001765,0.00000066,-0.0000114
 6,-0.00089704,-0.00114317,-0.00061657,0.00005042,0.00013245,0.00003053
 ,-0.00005801,0.00000943,-0.00003511,-0.00001044,0.00002003,0.00000293,
 -0.00027298,0.00002447,-0.00003641,-0.00001052,-0.00000372,-0.00000476
 ,0.00001495,-0.00000204,0.00000293,0.00031389,0.00016322,-0.00025263,-
 0.00007905,-0.00007527,0.00018913,-0.00012818,-0.00002419,-0.00002165,
 -0.00005411,0.00000369,0.00002003,-0.00000607,0.00006253,0.00003817,0.
 00004370,0.00002414,0.00002155,0.00002836,-0.00007046,-0.00000833,-0.0
 0004882,-0.00003716,0.00005879,-0.00007600,-0.00001859,-0.00000331,0.0
 0000143,0.00003361,0.00003482,0.00004692,-0.00036728,-0.00003972,-0.00
 003415,0.00002750,0.00004698,0.00001192,0.00000594,0.00000490,-0.00000
 246,0.00000009,-0.00000269,0.00007053,0.00000685,-0.00006991,-0.000014
 08,-0.00001834,-0.00002768,0.00000238,0.00000430,-0.00000108,-0.000002
 35,-0.00000489,-0.00000905,-0.00000362,-0.00000304,-0.00000075,0.00000
 321,0.00000226,0.00000047,0.00000490,-0.00000086,0.00000061,0.00000565
 ,0.00000228,0.00000068,-0.00000415,0.00000711,0.00000057,-0.00000377,-
 0.00000367,-0.00000053,0.00002737,0.00002700,-0.00000080,-0.00000040,-
 0.00000865,-0.00001709,-0.00006144,-0.00014766,-0.00006238,-0.00001874
 ,-0.00001664,-0.00000699,0.00000627,-0.00000418,-0.00000153,0.00000128
 ,0.00000427,0.00000191,-0.00000642,-0.00000615,-0.00000118,0.00000704,
 -0.00000049,-0.00000257,-0.00013326,0.00007579,0.00011299,0.00017155,0
 .00004116,-0.00003449,0.00000130,-0.00001007,-0.00000847,-0.00001013,0
 .00000190,0.00001881,0.00000509,0.00000331,0.00000109,0.00184265,-0.00
 554787,-0.00840592,-0.00465926,-0.00002746,0.02703326,-0.06483883,0.00
 100089,0.00140202,-0.00315690,0.00251444,-0.02060426,0.52934347,-0.000
 13729,0.00006261,0.00009066,0.00011973,0.00023855,0.00043472,0.0003207
 0,0.00006890,-0.00015593,0.00003461,-0.00001940,-0.00000572,-0.0000205
 4,0.00000965,0.00000501,-0.00000432,0.00000596,0.00000165,0.00002180,0
 .00000826,0.00002403,0.00275189,0.00168256,-0.00208317,0.00003303,-0.0
 0016762,-0.00029262,0.00002333,0.00005392,0.00004937,-0.00183798,-0.00
 012088,-0.00096203,-0.00011197,0.00009210,0.00008403,-0.00002418,-0.00
 000999,-0.00000818,-0.00002366,0.00002418,-0.00000440,-0.00006766,-0.0
 0018662,-0.00002329,-0.00003655,0.00001655,-0.00000017,-0.00000843,0.0
 0000798,-0.00000391,0.00089626,0.00022632,-0.00016272,-0.00003013,-0.0
 0008572,0.00024955,-0.00023852,-0.00007689,0.00002851,-0.00006609,0.00
 000130,-0.00001870,0.00002010,0.00006231,-0.00001242,0.00002460,0.0000
 2839,-0.00003146,-0.00005764,-0.00000685,-0.00001162,0.00000559,-0.000
 04291,-0.00007190,0.00003904,-0.00002623,-0.00017832,0.00005939,-0.000
 06468,0.00010326,-0.00017380,-0.00066231,0.00015915,-0.00008478,0.0001
 2249,0.00001041,0.00000796,-0.00000225,-0.00000233,-0.00001896,0.00000
 012,0.00000768,-0.00010991,-0.00000823,0.00002500,-0.00012776,-0.00005
 158,-0.00000700,-0.00000366,0.00000501,0.00001408,-0.00000611,0.000002
 75,-0.00001596,-0.00002349,-0.00001724,0.00000065,0.00000402,0.0000021
 9,-0.00000150,0.00000709,0.00000956,0.00000131,-0.00001792,-0.00001009
 ,0.00000341,-0.00000214,0.00001573,-0.00000359,0.00000834,0.00000526,-
 0.00000878,0.00004892,0.00009222,-0.00000960,0.00002672,0.00002338,-0.
 00000507,-0.00006489,0.00017477,0.00011424,-0.00002859,-0.00002907,0.0
 0002364,0.00002539,0.00002545,-0.00004458,0.00000256,-0.00003272,0.000
 02397,-0.00000054,0.00000383,0.00000885,0.00003533,-0.00009023,0.00000
 924,-0.00007349,-0.00007906,-0.00003857,0.00002849,-0.00004783,-0.0001
 3020,0.00001089,-0.00000099,-0.00000082,-0.00000156,0.00000584,-0.0000
 1056,0.00002455,-0.00004069,0.00000884,-0.00666748,-0.02265624,-0.0370
 2989,-0.00062875,0.00109282,0.00527520,0.00050495,-0.05814867,0.001733
 48,0.00327736,-0.00020414,0.01759680,0.00228894,0.53558965,-0.00031406
 ,0.00009828,-0.00013158,0.00010177,0.00018029,0.00025496,0.00008222,0.
 00008200,0.00001262,-0.00000027,0.00000749,0.00002663,-0.00001003,0.00
 000713,0.00000082,-0.00003080,0.00000417,-0.00001738,0.00000524,-0.000
 00207,-0.00000197,0.00134464,0.00091510,0.00031494,0.00000143,-0.00014
 991,-0.00016108,0.00004228,0.00001310,0.00006066,-0.00163539,-0.000875
 38,-0.00085952,-0.00006671,-0.00004548,0.00016535,-0.00000834,0.000002
 40,-0.00000990,-0.00003340,-0.00004017,0.00004454,0.00019908,0.0000043
 0,-0.00014629,-0.00000022,0.00001631,-0.00001364,-0.00003161,0.0000194
 9,-0.00000155,0.00054490,0.00014170,-0.00012973,-0.00009758,-0.0001124
 5,0.00001166,-0.00001273,-0.00006549,-0.00002577,-0.00004377,-0.000029
 14,-0.00004909,0.00005501,0.00003716,-0.00003757,-0.00003998,-0.000015
 81,-0.00004113,-0.00003531,0.00002903,-0.00003779,0.00006504,0.0000373
 5,0.00002020,0.00009396,-0.00006577,-0.00011764,0.00001582,0.00002087,
 0.00003990,-0.00010039,-0.00005585,0.00010649,-0.00006289,0.00004188,0
 .00002277,-0.00000030,-0.00002038,0.00000572,-0.00002207,-0.00001994,0
 .00001226,-0.00002574,-0.00004195,-0.00003597,-0.00005533,-0.00002502,
 0.00003316,0.00000107,-0.00000311,0.00000761,-0.00000343,0.00000529,-0
 .00001170,-0.00002296,-0.00001560,0.00000823,0.00000239,0.00000091,0.0
 0000094,0.00000599,-0.00000459,-0.00000202,-0.00002410,-0.00001457,0.0
 0001227,0.00001438,-0.00000918,0.00000183,0.00000239,0.00001078,0.0000
 0707,-0.00005779,0.00007292,-0.00008754,0.00003745,0.00000469,-0.00000
 232,0.00006497,-0.00008799,-0.00008280,-0.00000084,0.00000826,0.000040
 39,-0.00000343,0.00000563,-0.00002567,0.00000286,-0.00004260,0.0000342
 9,-0.00000748,-0.00000002,0.00000084,0.00001939,-0.00006349,0.00005529
 ,-0.00007516,0.00006777,0.00003628,0.00000211,0.00005376,-0.00006494,-
 0.00000624,0.00000599,0.00000022,-0.00001081,0.00000327,-0.00000191,0.
 00002269,-0.00003912,0.00000834,-0.00378036,-0.01690078,-0.01726749,0.
 00572437,0.00082543,-0.01855541,0.00017820,0.00020599,-0.18028682,-0.0
 0460690,0.00357529,-0.01931873,0.00099350,-0.00296615,0.44260480,0.000
 03822,-0.00015733,-0.00005760,-0.00022661,-0.00008573,-0.00015389,-0.0
 0015986,0.00008359,0.00004402,-0.00001016,-0.00000732,-0.00001360,0.00
 002153,-0.00000433,0.00000022,-0.00000312,-0.00001063,0.00000557,-0.00
 000629,-0.00000827,-0.00000652,-0.00108557,0.00060084,0.00003167,0.000
 09972,0.00004675,0.00006250,-0.00002773,-0.00000770,-0.00002186,0.0007
 2331,-0.00044333,-0.00014011,0.00002007,0.00002181,0.00000550,0.000021
 86,0.00001054,0.00001149,0.00001037,0.00001993,0.00000071,-0.00000919,
 0.00003443,-0.00004197,0.00002914,-0.00001311,-0.00000291,0.00000731,-
 0.00000441,0.00000168,-0.00006097,0.00009002,-0.00004808,-0.00000555,-
 0.00000756,-0.00001833,-0.00010791,0.00001449,0.00010980,0.00018433,0.
 00000081,0.00002993,-0.00001013,-0.00002823,0.00003346,-0.00000341,0.0
 0000797,0.00001710,0.00006446,-0.00001616,0.00000017,-0.00005392,0.000
 00192,-0.00000054,-0.00005830,0.00005693,0.00006503,-0.00002484,0.0000
 5635,-0.00000029,0.00033765,0.00004045,0.00002562,0.00005143,-0.000089
 13,-0.00014560,0.00000536,0.00000425,0.00000088,0.00000874,-0.00000428
 ,-0.00000240,0.00010940,-0.00001406,0.00001264,0.00004721,-0.00000920,
 0.00000418,0.00000096,-0.00000097,-0.00000603,0.00000069,-0.00000302,0
 .00000087,0.00000659,0.00000447,0.00000014,0.00000124,0.00000201,0.000
 00542,-0.00000322,-0.00000394,-0.00000038,0.00000833,0.00000287,-0.000
 00102,-0.00000820,-0.00000572,-0.00000065,-0.00000679,0.00000092,-0.00
 000464,-0.00004041,-0.00008286,-0.00005830,0.00002924,0.00002428,0.000
 01923,-0.00009801,0.00000361,0.00006308,0.00000317,0.00000276,0.000017
 61,-0.00001903,-0.00000339,0.00000131,0.00001319,0.00000254,-0.0000057
 7,0.00001569,0.00002149,-0.00000039,0.00002404,0.00008146,-0.00003599,
 0.00022011,-0.00011619,0.00001656,-0.00007393,-0.00001680,0.00004993,-
 0.00000916,0.00001528,0.00000596,0.00005859,-0.00001841,-0.00002140,-0
 .00000122,0.00001480,-0.00000769,0.00210302,0.00040226,0.00014330,-0.1
 4270553,0.10665012,-0.05531430,-0.02466575,0.01929455,-0.00846490,-0.0
 0596510,-0.00108368,0.00244564,0.00085551,0.00026937,-0.00104354,0.166
 85316,-0.00004257,0.00000644,-0.00000228,-0.00000424,-0.00002259,-0.00
 005693,-0.00007420,-0.00005761,0.00002760,-0.00001572,0.00000018,0.000
 00387,-0.00000016,0.00000063,-0.00000611,0.00000417,0.00000670,-0.0000
 1043,0.00000014,0.00000621,-0.00000186,-0.00039551,-0.00014911,0.00012
 751,-0.00000617,0.00002543,0.00003418,0.00001778,-0.00001618,-0.000000
 61,0.00004380,0.00010177,-0.00007001,0.00002371,-0.00001392,-0.0000031
 9,0.00000962,-0.00000269,0.00000291,-0.00001012,-0.00000387,-0.0000037
 7,0.00000845,-0.00000749,0.00000723,-0.00000342,-0.00000165,0.00000235
 ,-0.00000290,0.00000052,0.00000590,-0.00009862,-0.00005699,0.00004649,
 0.00005626,-0.00002012,-0.00004055,-0.00000913,-0.00000479,0.00003644,
 0.00002921,0.00001679,0.00000488,0.00000369,-0.00000126,-0.00001118,-0
 .00001159,-0.00000848,-0.00000791,-0.00001464,0.00001324,0.00000197,0.
 00000873,0.00000323,-0.00000377,0.00001492,-0.00001719,-0.00000559,0.0
 0000736,-0.00000028,0.00000739,-0.00000639,0.00005193,0.00001478,-0.00
 002798,0.00001940,-0.00005355,-0.00000389,-0.00000867,0.00000557,0.000
 00861,0.00000490,-0.00000471,-0.00001796,-0.00000619,0.00000806,0.0000
 0988,0.00005006,-0.00000080,-0.00000592,-0.00000544,-0.00000589,-0.000
 00312,-0.00000588,0.00001878,0.00001044,0.00000756,-0.00000204,-0.0000
 0233,-0.00000260,-0.00000114,-0.00000320,-0.00000179,-0.00000014,0.000
 00961,0.00000583,-0.00000373,0.00000066,-0.00000324,0.00000018,-0.0000
 0130,-0.00000070,0.00000285,-0.00001012,-0.00001709,0.00000440,0.00000
 306,0.00001360,0.00001376,-0.00007052,-0.00003632,0.00001864,-0.000004
 06,-0.00001442,0.00000366,-0.00000074,0.00000281,0.00000267,-0.0000005
 5,0.00000734,-0.00000732,0.00000693,0.00000388,-0.00000197,0.00003731,
 0.00003236,-0.00002381,-0.00001084,-0.00006351,0.00007147,0.00002358,0
 .00003956,-0.00000809,0.00001069,0.00000592,-0.00000495,0.00001557,-0.
 00002412,-0.00001484,0.00000453,0.00001056,-0.00000644,0.00004666,0.00
 089137,-0.00004759,0.10672961,-0.15679526,0.05809291,-0.00044459,0.002
 51529,-0.00149122,-0.00020163,0.00024073,0.00000391,-0.00029836,0.0000
 6044,-0.00018495,-0.12439938,0.17767645,0.00004370,0.00000320,0.000013
 17,-0.00015525,0.00001221,0.00001972,-0.00006011,-0.00001545,-0.000008
 41,0.00000443,0.00000508,0.00000184,0.00000046,-0.00000143,0.00000136,
 -0.00000078,-0.00000330,0.00000377,-0.00000348,-0.00000613,0.00000025,
 -0.00015523,-0.00000096,0.00005158,0.00008532,-0.00000629,-0.00004384,
 -0.00000493,0.00000550,-0.00001360,0.00013954,-0.00013706,0.00002329,0
 .00000709,0.00002377,-0.00001137,-0.00000607,-0.00000118,-0.00000532,0
 .00000240,-0.00000167,-0.00000103,0.00000192,-0.00000620,0.00000624,-0
 .00000101,-0.00000146,0.00000311,0.00000242,-0.00000178,-0.00000067,0.
 00008166,0.00006393,-0.00001387,-0.00006533,-0.00005111,-0.00010681,-0
 .00012470,0.00000429,0.00009248,0.00014368,0.00001617,0.00000190,-0.00
 001481,0.00000756,0.00001669,0.00001465,0.00000142,0.00000706,0.000012
 56,-0.00001588,0.00000075,0.00000606,0.00000318,0.00001862,-0.00001586
 ,0.00000170,0.00002060,-0.00000635,0.00001904,-0.00001132,0.00005691,-
 0.00002238,-0.00006972,-0.00000243,-0.00004275,-0.00003822,0.00000220,
 0.00000464,-0.00000190,0.00000102,-0.00000203,0.00000097,-0.00000522,-
 0.00000319,-0.00002131,0.00000996,0.00000313,0.00004207,0.00000176,0.0
 0000212,0.00000257,0.00000206,0.00000316,-0.00000264,-0.00000006,-0.00
 000189,0.00000101,-0.00000098,0.00000130,-0.00000080,-0.00000016,-0.00
 000412,0.00000115,0.00000083,-0.00000033,0.00000101,-0.00000178,0.,0.0
 0000353,0.00000112,-0.00000080,-0.00000084,-0.00001825,-0.00001979,0.0
 0003403,-0.00000151,-0.00000094,-0.00003320,-0.00001262,-0.00002746,-0
 .00003290,-0.00003009,-0.00002368,-0.00000347,0.00001139,0.00000311,-0
 .00000117,0.00000713,0.00001139,-0.00000504,-0.00000822,-0.00000920,-0
 .00000297,-0.00000763,0.00001597,-0.00001541,0.00000837,0.00007475,0.0
 0011579,0.00005204,0.00000035,-0.00001959,-0.00000151,-0.00001177,-0.0
 0001135,0.00002915,-0.00001609,0.00001285,0.00000761,0.00001989,-0.000
 01278,-0.00051176,-0.00051024,-0.00012183,-0.05540704,0.05846722,-0.07
 437791,0.00634661,-0.00672374,0.00358591,0.00174347,0.00020910,-0.0000
 7969,0.00083376,-0.00042511,0.00062779,0.06303452,-0.06825458,0.083486
 35,-0.00000071,-0.00000246,0.00000347,0.00001988,-0.00004970,0.0000007
 3,-0.00002543,-0.00000581,0.00004822,-0.00000330,-0.00000050,-0.000003
 31,0.00000930,0.00000034,-0.00000022,0.00001192,0.00000319,-0.00000122
 ,0.00000184,-0.00000228,-0.00000367,-0.00042734,-0.00007276,0.00050961
 ,-0.00000818,0.00003681,-0.00000298,0.00001068,0.00000378,-0.00000096,
 0.00021787,-0.00002711,-0.00017855,0.00001710,-0.00000699,-0.00001393,
 0.00000431,-0.00002043,-0.00000106,0.00001403,0.00000496,-0.00000948,0
 .00003655,-0.00001414,0.00000302,0.00000547,-0.00000618,0.00000546,0.0
 0000224,-0.00000142,-0.00000020,0.00001297,-0.00000741,0.00004798,-0.0
 0008236,0.00006425,-0.00004746,0.00000172,-0.00001756,0.00000705,-0.00
 002165,0.00000708,-0.00001599,0.00000761,-0.00003296,-0.00001641,0.000
 00833,0.00001118,-0.00000632,-0.00002208,0.00000948,0.00000514,0.00002
 106,0.00001432,-0.00002023,-0.00001597,0.00003373,-0.00002215,-0.00003
 571,-0.00006723,0.00000970,0.00009105,0.00019843,-0.00008681,0.0000491
 6,-0.00002431,0.00000146,-0.00000276,-0.00000054,0.,0.00000767,0.00000
 604,-0.00000141,-0.00002786,0.00001412,0.00004090,0.00002904,-0.000004
 09,0.00001419,-0.00000268,-0.00000562,-0.00000379,0.00000318,-0.000001
 24,0.00000498,0.00000715,0.00000474,-0.00000097,-0.00000275,-0.0000020
 5,0.00000003,-0.00000289,0.00000152,0.00000200,0.00000663,0.00000469,-
 0.00000291,-0.00000385,0.00000521,0.00000050,0.00000266,-0.00000241,-0
 .00000317,0.00002207,-0.00000367,0.00001049,-0.00001272,0.00001154,-0.
 00000366,-0.00001035,-0.00000177,0.00000440,0.00000586,0.00000663,-0.0
 0001013,0.00000271,0.00000075,0.00000673,-0.00000146,0.00000836,-0.000
 00728,0.00000074,-0.00000458,-0.00000210,0.,0.00000347,-0.00000999,-0.
 00000592,-0.00003276,-0.00000813,-0.00000072,0.00002113,0.00000104,0.0
 0000326,-0.00000446,0.00000007,0.00000353,-0.00000066,-0.00000740,-0.0
 0000808,0.00000489,-0.00000198,0.00124738,0.00119684,-0.00089370,-0.04
 313330,-0.00014395,-0.00953458,-0.00208564,0.00139567,0.02882655,0.001
 02017,-0.00026342,0.00072276,-0.00480024,-0.00125598,0.00244461,-0.001
 60581,0.00011247,-0.02191123,0.05013409,0.00001462,-0.00003622,-0.0000
 2313,-0.00015964,-0.00005694,-0.00001075,-0.00010777,-0.00003845,0.000
 08258,-0.00000973,0.00000697,0.00000230,0.00000976,-0.00000319,-0.0000
 0548,0.00000501,-0.00000274,-0.00000334,-0.00000898,-0.00000728,-0.000
 00458,-0.00060129,-0.00007116,0.00040838,0.00007479,0.00004650,-0.0000
 2764,0.00000934,-0.00000788,-0.00000920,0.00032147,-0.00011623,-0.0001
 0613,0.00002336,-0.00000365,-0.00001254,0.00001430,-0.00000198,0.00000
 123,0.00000525,-0.00000520,-0.00000378,0.00000568,-0.00000037,-0.00000
 428,0.00000631,-0.00000499,-0.00000060,0.00000223,-0.00000087,0.000001
 94,-0.00008748,0.00002009,0.00002649,0.00003569,-0.00004964,-0.0000848
 7,-0.00008964,-0.00000176,0.00007452,0.00012341,0.00002009,-0.00002759
 ,0.00000052,-0.00002585,0.00000539,-0.00000659,0.00000167,0.00000592,0
 .00001747,-0.00000432,-0.00000057,0.00000646,0.00002440,0.00001999,-0.
 00003175,0.00002633,0.00001675,-0.00003745,0.00000307,0.00000674,0.000
 10659,0.00008247,-0.00006452,0.00004383,-0.00005144,0.00002094,-0.0000
 0205,-0.00000009,0.00000180,0.00000848,0.00000173,-0.00000460,0.000017
 71,0.00000404,-0.00001048,0.00002079,0.00004101,0.00001220,-0.00000196
 ,-0.00000242,-0.00000251,-0.00000074,-0.00000249,0.00001063,0.00000948
 ,0.00000576,-0.00000196,-0.00000380,0.00000028,-0.00000029,-0.00000264
 ,-0.00000522,0.00000124,0.00000844,0.00000484,-0.00000348,-0.00000097,
 -0.00000271,0.00000181,-0.00000083,-0.00000052,-0.00000144,0.00001098,
 -0.00001842,0.00002038,-0.00001294,0.00000774,-0.00002021,-0.00001536,
 -0.00002454,0.00000023,-0.00000820,-0.00001381,-0.00001084,0.00000740,
 -0.00000033,-0.00000003,0.00000502,0.00001768,-0.00001502,-0.00000226,
 -0.00000443,0.00000006,-0.00000675,0.00001179,-0.00002152,0.00001109,0
 .00004843,0.00004079,0.00002758,0.00000932,-0.00001516,-0.00000250,-0.
 00001136,-0.00000284,0.00001946,-0.00000674,0.00001536,-0.00000265,0.0
 0002312,-0.00001528,0.00047271,0.00046024,-0.00027280,-0.00003861,-0.0
 4525000,-0.01683235,-0.00037525,0.00059608,0.00566609,0.00040606,0.000
 04893,-0.00029489,-0.00095444,0.00018814,0.00039267,0.00282358,0.00054
 918,0.02330343,0.00016896,0.04777483,-0.00003972,-0.00003670,-0.000000
 61,0.00005679,0.00002488,-0.00001760,-0.00002079,-0.00008055,-0.000160
 95,-0.00001346,-0.00001394,0.00000774,-0.00000818,0.00000518,-0.000004
 18,-0.00001629,0.00000078,-0.00000699,0.00000276,-0.00000071,0.0000058
 9,0.00018491,-0.00010513,-0.00046754,-0.00007363,-0.00002845,0.0000542
 9,-0.00001704,-0.00001052,0.00000013,-0.00022548,0.00013690,0.00042418
 ,-0.00003323,0.00004817,0.00001989,-0.00000968,0.00005214,-0.00000763,
 -0.00003703,0.00000177,0.00000844,-0.00003677,0.00001108,-0.00001530,-
 0.00000466,0.00000097,0.00000441,-0.00000378,0.00000401,0.00001556,-0.
 00002256,-0.00000711,-0.00005461,0.00001191,-0.00008919,-0.00001526,0.
 00013800,0.00000899,-0.00008031,-0.00003646,0.00000922,0.00003268,0.00
 000685,0.00004935,0.00001913,-0.00000034,-0.00002622,0.00000498,0.0000
 2004,-0.00000297,0.00000114,-0.00000885,-0.00003284,0.00000983,0.00000
 315,-0.00001697,0.00001415,0.00003100,0.00004457,0.00002936,-0.0001722
 5,-0.00009776,0.00010973,-0.00005051,0.00008642,0.00003488,0.00000510,
 -0.00000751,0.00000770,-0.00000174,-0.00000239,0.00000075,0.00002985,-
 0.00001608,-0.00002818,0.00000137,0.00001163,0.00003446,-0.00000269,-0
 .00000203,-0.00000617,-0.00000598,-0.00000509,-0.00000237,-0.00000007,
 0.00000194,0.00000319,0.00000220,-0.00000201,0.00000330,0.00000044,-0.
 00000100,-0.00000045,0.00000380,0.00000259,0.00000446,-0.00000173,-0.0
 0000132,0.00000223,-0.00000492,0.00000048,0.00000679,-0.00001766,0.000
 02164,-0.00003914,0.00001172,-0.00001427,0.00002203,0.00003964,0.00001
 645,0.00001573,0.00001648,0.00001242,0.00001588,-0.00001214,-0.0000030
 8,-0.00000389,-0.00000881,-0.00001650,0.00000753,0.00000640,0.00001319
 ,0.00001577,-0.00000166,-0.00003012,0.00002483,-0.00000044,-0.00000535
 ,-0.00007895,-0.00004744,-0.00001571,0.00001325,-0.00000015,0.00001200
 ,0.00001158,-0.00002751,0.00001062,-0.00000760,0.00000090,-0.00002077,
 0.00000725,-0.00044062,-0.00007303,0.00119210,-0.00932539,-0.01716260,
 -0.28598043,0.00413908,-0.00005401,-0.01687840,-0.00105505,-0.00003582
 ,0.00075095,0.00342524,0.00079660,-0.00110617,-0.00337233,0.00118884,-
 0.01614295,0.00870750,0.01895951,0.33031614,-0.00013093,0.00008576,0.0
 0000749,0.00003482,0.00007399,0.00005955,0.00014126,0.00005979,0.00001
 525,0.00001404,-0.00000943,-0.00000818,-0.00000779,0.00000163,0.000004
 47,0.00000088,0.00000391,0.00000446,0.00001380,0.00001036,0.00000815,0
 .00009673,-0.00139012,-0.00043801,0.00000516,-0.00003261,-0.00003752,0
 .00002285,0.00000300,0.00002522,0.00003419,0.00013476,0.00005167,-0.00
 002928,-0.00004289,0.00002858,0.00000404,-0.00000007,0.00000582,-0.000
 00358,-0.00000757,-0.00000042,0.00000097,-0.00002556,-0.00000934,-0.00
 001291,0.00000817,-0.00000362,-0.00000187,0.00000367,-0.00000732,0.000
 16374,-0.00001687,-0.00001409,-0.00003221,0.00004479,0.00003429,-0.000
 03434,-0.00000181,-0.00000369,-0.00001198,-0.00001854,-0.00001034,0.00
 002248,0.00001768,-0.00000719,0.00000269,0.00000711,-0.00000908,-0.000
 02368,0.00000808,-0.00001384,0.00001683,-0.00002291,-0.00001547,0.0000
 2196,-0.00001837,-0.00005687,0.00001840,0.00000973,0.00004748,-0.00053
 924,-0.00029962,0.00016112,-0.00005528,0.00002343,0.00000599,0.0000050
 3,0.00000080,-0.00000188,-0.00000958,-0.00000145,0.00000798,-0.0000261
 1,-0.00003658,-0.00001040,-0.00005592,-0.00005295,0.00000305,0.0000006
 7,0.00000325,0.00000623,0.00000117,0.00000350,-0.00001117,-0.00001052,
 -0.00000710,0.00000277,0.00000421,0.00000179,0.00000170,0.00000092,0.0
 0000879,0.00000137,-0.00001068,-0.00000559,0.00000117,-0.00000107,0.00
 000857,-0.00000281,0.00000558,0.00000192,-0.00000571,-0.00001067,0.000
 02013,-0.00000689,0.00001030,-0.00000512,0.00000850,0.00001177,-0.0000
 0911,0.00002046,0.00000833,-0.00000452,0.00000109,0.00000125,0.0000114
 8,-0.00001467,0.00000822,-0.00000687,0.00000702,0.00000287,0.00000939,
 -0.00000446,0.00001680,-0.00000016,0.00000124,-0.00003309,-0.00004742,
 0.00001474,-0.00000251,0.00000951,-0.00003262,-0.00000197,0.00000867,0
 .,-0.00000082,-0.00000985,-0.00000411,0.00000567,-0.00000449,0.0000053
 6,-0.00655670,-0.00307575,0.00203380,-0.06297755,-0.06495328,-0.019522
 01,-0.00935652,-0.02463638,-0.00654731,0.00024840,-0.00057398,0.000016
 22,0.00055641,-0.00008492,-0.00066317,0.00567016,0.01934167,0.00491785
 ,0.00014389,-0.00236908,-0.00183373,0.07324469,-0.00010949,0.00011210,
 0.00002303,0.00012746,0.00011607,0.00013753,0.00019231,0.00002955,-0.0
 0005153,0.00003681,-0.00000873,-0.00001361,-0.00001351,0.00000182,0.00
 001458,-0.00000569,-0.00000036,0.00001545,0.00001148,0.00000538,0.0000
 1303,0.00111315,-0.00013158,-0.00062059,-0.00003337,-0.00008895,-0.000
 07239,0.00001984,0.00001516,0.00002409,-0.00060158,0.00016536,0.000244
 10,-0.00006259,-0.00002304,0.00003720,-0.00000264,0.00000984,-0.000003
 73,-0.00000174,-0.00000531,-0.00000688,-0.00000617,-0.00001496,-0.0000
 1081,-0.00001332,0.00001226,-0.00000663,0.00000167,0.00000415,-0.00001
 514,0.00034423,0.00010170,-0.00008911,0.00001408,-0.00007298,0.0000860
 3,-0.00000030,0.00000745,-0.00007314,-0.00007769,-0.00001138,-0.000010
 07,0.00002863,0.00003754,0.00000394,0.00002253,-0.00000143,-0.00000353
 ,-0.00001572,-0.00000354,-0.00000687,0.00001761,-0.00004855,-0.0000240
 6,0.00000777,-0.00002192,-0.00005425,0.00002719,-0.00000764,0.00002403
 ,-0.00038154,-0.00034705,0.00009977,-0.00003246,0.00005610,0.00006861,
 0.00000820,0.00001004,-0.00000731,-0.00002430,-0.00000607,0.00001243,-
 0.00002335,-0.00001130,-0.00000280,-0.00010632,-0.00003974,0.00000061,
 0.00000781,0.00001387,0.00001760,0.00000281,0.00000987,-0.00002567,-0.
 00002544,-0.00001690,0.00000550,0.00000629,0.00000425,0.00000163,0.000
 00642,0.00000935,-0.00000009,-0.00002267,-0.00001285,0.00000632,0.0000
 0183,0.00000839,-0.00000293,0.00000688,0.00000793,-0.00000320,-0.00000
 031,0.00005248,-0.00002667,0.00000316,-0.00001649,0.00001337,0.0000393
 2,-0.00000336,0.00001896,0.00000766,-0.00000103,0.00000719,0.00000562,
 0.00000793,-0.00002019,0.00000733,-0.00001899,0.00002171,-0.00000035,0
 .00000834,-0.00000472,-0.00000343,-0.00003137,0.00002545,-0.00005632,0
 .00002223,-0.00005722,0.00000115,-0.00001520,-0.00004038,-0.00000729,0
 .00001112,0.00000346,-0.00002732,0.00001994,0.00000409,0.00000598,-0.0
 0002290,0.00002030,-0.00358262,-0.00081182,0.00130289,-0.06603893,-0.2
 4824937,-0.06039544,-0.00424106,-0.00877357,-0.00173805,0.00089862,0.0
 0033774,-0.00012907,0.00055239,0.00031420,-0.00028708,-0.00438128,-0.0
 2561588,-0.00583643,-0.00123907,-0.00437746,-0.00337278,0.07685257,0.2
 8649885,-0.00000338,0.00004384,0.00001420,0.00006255,0.00003854,0.0000
 3163,-0.00000496,-0.00003450,-0.00003208,0.00000961,0.00000731,0.00000
 443,-0.00000277,0.00000085,0.00000579,-0.00000221,0.00000268,0.0000027
 0,0.00000268,0.00000360,0.00000239,0.00051251,0.00058364,0.00013355,-0
 .00001551,-0.00002947,-0.00001546,0.00001216,0.00000020,0.00000196,-0.
 00021987,0.00003235,0.00012181,0.00000761,-0.00000482,0.00000787,-0.00
 000241,0.00000062,-0.00000660,-0.00000169,-0.00001129,0.00000178,0.000
 00202,0.00000572,0.00000384,-0.00000165,0.00000236,0.00000096,-0.00000
 123,0.00000254,-0.00000409,0.00012664,0.00009503,-0.00002029,-0.000078
 24,-0.00007075,-0.00011598,0.00001558,-0.00000393,-0.00002214,-0.00002
 431,0.00002135,-0.00000116,-0.00000941,0.00001591,0.00000305,0.0000129
 3,-0.00000850,-0.00000214,-0.00001210,-0.00000355,0.00000090,0.0000014
 4,-0.00000626,-0.00000286,0.00001430,-0.00002765,-0.00000237,0.0000152
 4,0.00000662,-0.00001799,0.00007510,0.00001929,-0.00008687,-0.00001477
 ,0.00001513,-0.00002555,0.00000018,0.00000155,-0.00000246,-0.00000643,
 -0.00000259,0.00000334,-0.00000993,-0.00000213,0.00000440,-0.00000384,
 -0.00000546,0.00004781,0.00000458,0.00000409,0.00000902,0.00000270,0.0
 0000447,-0.00000518,-0.00000653,-0.00000493,0.00000252,0.00000080,0.00
 000095,-0.00000238,0.00000099,-0.00000023,-0.00000083,-0.00000521,-0.0
 0000397,0.00000386,-0.00000062,0.00000014,0.00000135,0.00000077,0.0000
 0151,0.00000215,-0.00000072,0.00000428,0.00000424,0.00000542,0.0000014
 9,0.00000185,-0.00000149,0.00002258,-0.00001673,-0.00000245,0.00000462
 ,0.00000487,-0.00000272,0.00000110,0.00000568,-0.00000090,-0.00000705,
 0.00000819,-0.00000161,-0.00000373,-0.00000125,0.00000579,0.00000244,0
 .00000656,-0.00000638,-0.00003181,0.00000166,-0.00000521,-0.00000570,0
 .00001185,0.00000193,0.00000062,-0.00000204,-0.00000546,-0.00000059,-0
 .00000548,0.00000266,-0.00000816,0.00000630,0.00207766,0.00121339,-0.0
 0004631,-0.01996127,-0.06098848,-0.06049722,0.00277528,0.00845316,0.00
 241654,-0.00026344,0.00005616,-0.00002286,0.00042238,0.00045076,0.0001
 1427,0.00247221,0.01076941,0.00331125,-0.00963418,-0.03133689,-0.01236
 284,0.02146154,0.07049660,0.06739836,0.00031867,0.00028323,-0.00008191
 ,0.00014085,-0.00000723,-0.00002647,-0.00000461,-0.00006805,-0.0000139
 4,0.00000507,-0.00001278,-0.00000614,0.00002303,0.00000531,0.00002875,
 0.00004020,0.00003805,-0.00000339,0.00003192,0.00001991,0.00000952,0.0
 0047568,0.00003731,-0.00001802,-0.00006899,0.00000250,0.00004450,0.000
 03737,-0.00001386,0.00000374,-0.00040954,-0.00029566,-0.00012223,0.000
 00767,-0.00003794,-0.00003067,-0.00000360,-0.00004900,-0.00004052,0.00
 003133,0.00008682,-0.00001645,0.00002029,0.00005178,-0.00010331,0.0000
 3789,-0.00002886,0.00000028,0.00000824,0.00001688,-0.00001130,0.000081
 44,-0.00002091,0.00007317,-0.00008339,0.00011949,-0.00004697,0.0000475
 6,-0.00001653,-0.00003168,-0.00009509,0.00001868,0.00001671,-0.0000203
 6,-0.00005319,0.00000692,0.00006391,0.00002616,0.00000041,-0.00013485,
 0.00009639,0.00010454,-0.00004150,-0.00010553,-0.00030394,0.00000504,-
 0.00009888,-0.00014093,0.00015201,-0.00026403,-0.00006101,-0.00012784,
 -0.00005376,-0.00002939,-0.00002677,0.00002860,-0.00000569,0.00000698,
 0.00000081,-0.00000910,0.00000447,0.00000542,-0.00000122,-0.00094659,0
 .00011368,0.00073426,0.00002123,-0.00000366,0.00001046,-0.00000451,-0.
 00001030,-0.00000973,0.00000247,-0.00000515,0.00000512,0.00000516,0.00
 000450,-0.00000113,-0.00000031,-0.00000178,-0.00000247,-0.00000042,0.0
 0000497,0.00000066,0.00000777,0.00000557,-0.00000312,-0.00000652,0.000
 00921,-0.00000246,0.00000207,-0.00000258,-0.00000221,-0.00000641,0.000
 00978,-0.00000233,-0.00000683,0.00000471,0.00000392,0.00001082,0.00002
 106,0.00000273,0.00000208,0.00000873,0.00000178,-0.00000413,0.00000005
 ,-0.00000009,-0.00000599,-0.00000380,0.00000163,0.00000070,0.00000113,
 0.00000214,-0.00000050,-0.00000832,0.00000481,0.00000719,-0.00001250,-
 0.00002328,-0.00002499,-0.00000841,0.00000868,0.00000389,0.00000243,0.
 00000131,-0.00000866,0.00000086,-0.00000488,-0.00000139,-0.00000552,0.
 00000263,0.00076609,-0.00155419,0.00089450,0.00049511,0.00002985,-0.00
 071874,-0.00382439,-0.00236222,-0.02146774,-0.04646914,-0.00553126,-0.
 02581252,-0.00238186,0.00247392,-0.00176553,0.00017613,-0.00008775,0.0
 0020891,-0.00069607,0.00025268,0.00027329,-0.00006026,-0.00000146,-0.0
 0004022,0.05202181,0.00034901,-0.00000564,-0.00013538,0.00000803,-0.00
 009789,-0.00002490,-0.00009895,-0.00008994,0.00011470,0.00000586,0.000
 00430,0.00000145,0.00005651,-0.00002270,-0.00000086,0.00004503,-0.0000
 0509,-0.00000797,-0.00000775,-0.00001450,0.00000439,-0.00009256,-0.000
 74983,0.00058432,-0.00000584,0.00007000,0.00001780,0.00003927,-0.00002
 794,0.00001244,0.00012061,0.00034999,-0.00023727,-0.00000261,0.0000026
 2,-0.00009934,0.00003794,0.00000166,-0.00003467,0.00003207,0.00003053,
 -0.00000149,0.00000200,-0.00001539,-0.00002197,0.00002511,-0.00002122,
 -0.00002971,0.00001166,0.00001398,-0.00000440,-0.00031525,-0.00013019,
 0.00015149,0.00001402,0.00003820,-0.00015560,0.00002251,-0.00000990,0.
 00002127,-0.00002283,0.00004809,-0.00002768,0.00000301,-0.00011484,0.0
 0001736,0.00004883,0.00002934,0.00003473,-0.00001652,-0.00006463,0.000
 02818,-0.00005322,0.00012898,0.00011168,-0.00020707,0.00011289,-0.0000
 4082,-0.00011359,-0.00041766,-0.00006400,0.00000513,0.00017531,-0.0001
 2465,0.00004238,-0.00001825,0.00002585,0.00000622,0.00000954,-0.000006
 17,0.00001412,0.00000567,-0.00000571,-0.00004350,0.00026809,-0.0000140
 2,0.00004514,0.00004362,0.00001001,-0.00000134,-0.00000555,-0.00000544
 ,0.00000573,-0.00000082,0.00000949,0.00001459,0.00000954,-0.00000388,-
 0.00000640,0.00000114,-0.00000281,-0.00000268,-0.00000299,0.00000261,0
 .00001398,0.00000946,-0.00000530,-0.00000311,0.00000294,0.00000095,0.0
 0000093,-0.00000255,-0.00000291,0.00001497,-0.00000796,0.00002788,-0.0
 0002626,0.00001172,-0.00001968,-0.00000673,-0.00001028,-0.00001577,-0.
 00000359,0.00000460,-0.00002029,0.00000361,-0.00000168,0.00001045,-0.0
 0000332,0.00001910,-0.00001454,-0.00000416,-0.00001017,-0.00000064,-0.
 00000910,0.00000787,-0.00001746,-0.00001351,0.00001221,0.00002210,0.00
 002113,0.00001975,-0.00000013,0.00000303,-0.00001209,-0.00000177,0.000
 00252,-0.00000190,0.00000737,-0.00001041,0.00001811,-0.00000783,-0.000
 35313,0.00200084,-0.00012101,-0.00052787,0.00011262,0.00009350,0.00376
 608,0.00203446,0.01912173,-0.00616720,-0.05254282,-0.04633528,0.002691
 25,-0.00210789,0.00187759,-0.00007352,-0.00003787,0.00004382,0.0000357
 8,0.00025001,0.00001994,-0.00000113,-0.00012277,-0.00014649,0.00483225
 ,0.05789801,-0.00031809,-0.00037828,-0.00014082,-0.00010205,0.00008239
 ,0.00002723,-0.00000675,-0.00000766,-0.00024852,-0.00003624,-0.0000415
 5,0.00001137,-0.00001007,0.00001370,-0.00001271,-0.00006285,-0.0000299
 5,-0.00001939,-0.00000696,-0.00002683,0.,-0.00036113,0.00062902,-0.000
 82973,0.00000744,-0.00005816,-0.00000312,-0.00008073,-0.00003270,0.000
 02223,0.00017580,0.00005326,0.00079138,-0.00006351,0.00014816,0.000075
 73,0.00002953,0.00012548,0.00000941,-0.00011287,-0.00000528,0.00004423
 ,-0.00005572,-0.00002895,-0.00001590,-0.00000551,0.00001220,-0.0000143
 5,-0.00002701,0.00000438,0.00002762,-0.00002717,0.00003040,-0.00015273
 ,0.00014135,-0.00016061,0.00006848,0.00005471,0.00000538,-0.00002163,0
 .00007628,-0.00000957,0.00003808,0.00002370,0.00009393,0.00004261,-0.0
 0006330,-0.00006997,0.00002516,0.00004029,-0.00014563,-0.00008773,-0.0
 0027793,0.00007377,0.00021857,-0.00011134,-0.00001370,0.00001653,0.000
 00560,0.00026606,0.00021541,0.00002994,0.00002188,0.00012546,-0.000041
 04,0.00002528,-0.00000450,0.00001027,-0.00001709,0.00001719,-0.0000090
 2,-0.00002162,0.00000301,0.00083822,-0.00015485,-0.00032782,-0.0000075
 1,0.00001593,0.00001740,0.00000104,0.00000420,-0.00000979,-0.00000818,
 -0.00000737,-0.00000113,-0.00000875,-0.00000312,0.00000435,0.00000415,
 0.00000155,0.00000562,0.00000476,-0.00001030,-0.00000287,-0.00000439,-
 0.00000202,0.00000519,0.00000227,-0.00001013,0.00000414,-0.00000931,0.
 00000278,0.00000761,-0.00003952,0.00001882,-0.00004123,0.00003185,-0.0
 0000619,0.00001258,0.00002377,0.00000674,0.00001669,0.00000566,-0.0000
 0014,0.00002641,-0.00001437,0.00000286,-0.00000547,-0.00000183,-0.0000
 2150,0.00001309,0.00000697,0.00001154,0.00001424,0.00000658,-0.0000154
 6,0.00001725,0.00000873,-0.00000527,-0.00003138,-0.00003733,-0.0000145
 3,-0.00000103,0.00000079,0.00001458,0.00001192,-0.00000845,0.00000047,
 -0.00000373,0.00000835,-0.00001722,0.00000454,0.00105406,-0.00062903,0
 .00123008,0.00059742,-0.00042868,0.00050048,-0.00459395,0.00041432,-0.
 01695615,-0.02639146,-0.04622435,-0.27374362,-0.00270954,0.00237317,-0
 .00123322,0.00028619,-0.00012853,0.00007879,-0.00021153,0.00007732,0.0
 0050429,0.00002235,0.00003947,-0.00012133,0.03241248,0.05188763,0.3163
 3971,-0.00030374,-0.00003095,-0.00011517,-0.00002080,0.00002499,0.0000
 1306,-0.00001544,0.00004778,-0.00000670,-0.00001974,-0.00004068,-0.000
 01428,-0.00000716,-0.00001087,0.00000260,-0.00001896,0.00000207,-0.000
 00947,0.00000316,0.00001089,0.00000167,-0.00072129,0.00043429,-0.00001
 594,0.00002571,-0.00002854,-0.00003191,0.00001593,-0.00001707,0.000051
 74,-0.00082321,-0.00181385,0.00068691,-0.00001146,0.00002944,0.0000900
 9,0.00007496,-0.00000941,0.00002243,-0.00004993,0.00003929,0.00000586,
 0.00000635,-0.00005177,-0.00011707,-0.00000042,-0.00002480,-0.00000572
 ,-0.00001886,0.00000457,0.00000667,0.00047883,0.00013257,-0.00008861,-
 0.00007971,0.00003059,0.00007703,0.00001176,-0.00000337,-0.00001455,0.
 00000656,-0.00002200,0.00000040,0.00007934,0.00005931,0.00001099,-0.00
 003903,-0.00001257,-0.00000931,0.00004795,-0.00003248,-0.00003916,-0.0
 0025418,0.00002221,-0.00011142,0.00004067,0.00002747,-0.00000025,-0.00
 006565,0.00011504,0.00005393,0.00019556,-0.00011121,0.00001107,0.00002
 060,-0.00004451,-0.00003222,0.00000750,-0.00001684,0.00000773,-0.00000
 391,-0.00001212,0.00000724,0.00019425,-0.00039270,0.00008394,-0.000010
 40,-0.00003851,0.00000557,-0.00000310,-0.00000355,-0.00000392,-0.00000
 002,-0.00000671,0.00000379,-0.00000756,-0.00000504,0.00000347,0.000003
 29,0.00000298,0.00000336,0.00000055,0.00000254,0.00000139,-0.00000829,
 -0.00000467,0.00000067,-0.00000112,0.00000147,-0.00000199,0.00000140,0
 .00000421,-0.00000575,0.00001094,-0.00000692,-0.00000807,0.00001452,-0
 .00000222,0.00000127,-0.00000578,0.00002471,-0.00000934,0.00000403,0.0
 0000003,0.00000465,-0.00001121,0.00000784,-0.00000212,0.00000426,-0.00
 000853,0.00000530,-0.00000246,-0.00000063,-0.00000152,0.00000599,0.000
 00163,0.00000482,0.00002255,-0.00001463,0.00000283,-0.00001536,-0.0000
 1075,0.00000584,-0.00000248,-0.00000138,-0.00000207,0.00000761,-0.0000
 0283,-0.00000305,0.00000623,-0.00000822,0.00000149,-0.00217278,0.00565
 525,-0.00076952,0.00044467,0.00092723,-0.00002757,0.00543789,0.0162028
 4,0.00197160,-0.06807770,-0.07566829,-0.01020052,-0.00000929,0.0000989
 8,0.00022995,0.00010933,-0.00005542,0.00000182,-0.00003722,0.00000540,
 0.00010281,-0.00087797,0.00034822,-0.00022394,-0.00096014,-0.00446846,
 -0.00119459,0.07808604,-0.00016944,0.00025554,-0.00002157,0.00000388,0
 .00012422,0.00013623,0.00011280,0.00007157,-0.00009422,0.00003436,-0.0
 0000899,-0.00003648,-0.00002857,-0.00001262,0.00001839,-0.00000491,0.0
 0000248,0.00002725,0.00000757,0.00002204,0.00002559,0.00074966,0.00121
 310,-0.00023681,0.00002934,-0.00011501,-0.00011940,0.00006705,0.000015
 26,0.00004272,-0.00047480,-0.00086805,0.00056585,-0.00006639,-0.000046
 97,0.00004470,0.00004956,0.00000405,-0.00000132,-0.00001324,0.00002234
 ,-0.00003411,-0.00001614,-0.00008949,-0.00003460,-0.00003678,-0.000002
 93,-0.00000514,0.00000931,0.00000288,-0.00001951,0.00067461,0.00027487
 ,-0.00024207,-0.00006526,-0.00006572,0.00013731,-0.00005403,-0.0000667
 1,-0.00007771,0.00002801,-0.00003848,-0.00002699,0.00010064,0.00008089
 ,0.00005101,0.00002006,-0.00000429,0.00002905,0.00006074,0.00002217,-0
 .00000227,0.00002619,-0.00009565,-0.00003528,0.00000885,0.00000443,-0.
 00003260,0.00000098,0.00007190,0.00008778,-0.00018980,-0.00040653,-0.0
 0000807,-0.00006049,0.00003411,0.00003751,0.00002203,0.00001800,-0.000
 01263,-0.00002708,-0.00001028,0.00001329,-0.00023607,-0.00030769,-0.00
 007827,-0.00009059,-0.00005603,0.00001663,0.00001098,0.00001827,0.0000
 1940,0.00000253,0.00000893,-0.00003112,-0.00002847,-0.00001906,0.00000
 717,0.00000964,0.00000868,0.00000580,0.00000434,0.00001283,0.00000124,
 -0.00002773,-0.00001631,0.00000710,-0.00000320,0.00001290,-0.00000331,
 0.00000845,0.00001047,-0.00001098,-0.00000448,0.00003262,-0.00002284,0
 .00000785,-0.00002077,0.00002578,0.00001578,-0.00002592,0.00004539,0.0
 0001084,-0.00002096,0.00001368,0.00001264,0.00001404,-0.00003840,0.000
 01270,-0.00001953,0.00002013,0.00000504,0.00001914,-0.00000389,0.00001
 405,-0.00002465,0.00002381,-0.00004065,0.00000160,-0.00002035,0.000002
 81,-0.00000331,-0.00005863,-0.00001133,0.00001438,0.00000003,-0.000006
 79,0.00000749,-0.00000269,0.00001285,-0.00002317,0.00001801,0.00284112
 ,-0.00613201,0.00198370,-0.00117123,0.00063618,-0.00023154,-0.00508924
 ,-0.02225547,-0.00194832,-0.07462272,-0.25484575,-0.02848588,-0.000235
 46,0.00038421,-0.00034196,-0.00043494,0.00027930,-0.00007225,0.0001100
 5,-0.00022409,-0.00018970,0.00065556,0.00056114,0.00021998,-0.00386405
 ,-0.00867503,-0.00382424,0.08566381,0.29596615,0.00002151,0.00009822,0
 .00001759,-0.00001602,0.00002597,0.00000762,-0.00001231,-0.00001447,0.
 00005178,0.00000691,0.00001868,0.00000046,-0.00001229,-0.00000262,0.00
 000672,-0.00000019,0.00000555,0.00000585,-0.00000167,0.00001563,0.0000
 0749,-0.00004179,0.00014953,-0.00014629,0.00001496,-0.00001613,-0.0000
 1176,0.00002842,-0.00001903,0.00000656,0.00037650,0.00037591,-0.000166
 95,0.00002354,-0.00004274,-0.00000215,0.00000842,0.00000505,0.00000827
 ,-0.00001038,-0.00002126,-0.00000344,-0.00000803,0.00003046,0.00005116
 ,-0.00000781,0.00000949,0.00000436,-0.00000126,-0.00000021,-0.00000855
 ,0.00006167,0.00016989,-0.00003529,-0.00004467,-0.00008957,-0.00012747
 ,-0.00002209,0.00002450,0.00000855,0.00002169,0.00001829,-0.00001941,-
 0.00003223,0.00003857,0.00001501,0.00000250,-0.00001460,0.00000967,0.0
 0001370,0.00001918,-0.00000297,0.00002893,-0.00004377,0.00008133,0.000
 03763,-0.00008352,0.00002833,0.00001973,0.00014114,-0.00000160,-0.0000
 2929,-0.00006084,0.00005949,-0.00000394,-0.00000281,-0.00002310,0.0000
 0183,0.00000441,-0.00000747,-0.00000657,-0.00000247,0.00000101,-0.0000
 6956,-0.00004294,-0.00011567,-0.00001031,-0.00000651,0.00003272,0.0000
 0394,0.00000560,0.00001110,-0.00000014,0.00000393,-0.00000303,-0.00000
 524,-0.00000434,0.00000140,0.00000123,0.00000338,-0.00000324,-0.000000
 17,-0.00000051,-0.00000140,-0.00000429,-0.00000436,0.00000312,-0.00000
 060,-0.00000214,0.00000070,-0.00000047,0.00000148,0.00000265,0.0000043
 1,-0.00000611,-0.00000048,0.00000723,0.00000033,0.00000200,-0.00000755
 ,0.00001044,-0.00000584,-0.00000325,-0.00000061,0.00000500,-0.00000270
 ,-0.00000097,0.00000177,0.00000086,-0.00000450,0.00000395,-0.00000081,
 -0.00000090,0.00000046,0.00000226,0.00000288,0.00000384,0.00001261,-0.
 00000479,0.00000129,-0.00000183,-0.00000760,0.00001081,-0.00000129,-0.
 00000053,-0.00000198,0.00000346,-0.00000078,-0.00000235,0.00000259,-0.
 00000412,0.00000182,-0.00126560,0.00219847,-0.00000459,0.00043845,-0.0
 0013053,0.00024981,0.00316562,0.00981343,0.00118508,-0.00939442,-0.028
 34517,-0.04650647,-0.00016941,0.00041780,-0.00005723,0.00010980,0.0000
 5673,-0.00013343,-0.00000789,-0.00025392,-0.00019122,-0.00002187,0.000
 06072,0.00032780,-0.01132029,-0.03117664,-0.00680780,0.01257773,0.0327
 5070,0.05062936,0.00172091,0.00184354,0.00012383,-0.00010963,0.0000432
 5,0.00005686,-0.00016144,0.00031644,0.00000018,0.00003276,0.00005370,0
 .00001550,-0.00005140,-0.00011738,0.00011673,0.00007621,0.00013123,0.0
 0002263,0.00004315,0.00013440,0.00006508,0.00059488,0.00134646,-0.0000
 3303,0.00002421,-0.00002289,-0.00004362,0.00030079,0.00018637,0.000062
 05,-0.00099426,-0.00410958,0.00057687,-0.00016082,-0.00031227,-0.00027
 608,-0.00004547,-0.00034935,-0.00032102,0.00017319,0.00027577,-0.00014
 394,0.00010534,-0.00018810,0.00031916,-0.00012717,-0.00002975,-0.00006
 260,0.00012203,0.00010793,-0.00004767,-0.00012507,-0.00038006,-0.00009
 131,-0.00010489,0.00029626,-0.00033438,0.00001017,-0.00002588,0.000028
 66,0.00006651,0.00000414,-0.00003342,0.00022330,0.00025114,0.00036101,
 0.00007267,0.00010848,0.00025151,-0.00009623,-0.00029323,0.00017212,-0
 .00206892,-0.00148530,-0.00089005,-0.00011586,-0.00037903,0.00008440,-
 0.00005840,0.00010726,0.00013356,-0.00029178,0.00006900,0.00003895,-0.
 00001298,-0.00000763,-0.00001400,0.00004999,0.00005036,0.00000810,0.00
 000551,-0.00000721,0.00002859,-0.00185280,0.00008903,-0.00190033,0.000
 03308,0.00005770,-0.00000630,-0.00000080,-0.00000950,-0.00001120,0.000
 01283,0.00000389,0.00001760,0.00000424,-0.00000306,-0.00000236,0.00000
 921,-0.00000922,0.00000069,0.00000427,0.00000104,0.00000195,0.00000170
 ,-0.00000137,-0.00000007,0.00001139,0.00000204,-0.00000349,0.00000770,
 0.00001705,-0.00000983,-0.00001325,0.00001465,0.00001108,-0.00002065,0
 .00002327,-0.00000953,-0.00002852,-0.00000677,0.00001322,-0.00000401,-
 0.00001598,0.00000326,-0.00000681,0.00001900,-0.00002526,-0.00000614,-
 0.00000182,0.00000046,-0.00000622,-0.00000091,-0.00000513,0.00001138,-
 0.00001482,-0.00000030,-0.00001016,-0.00000506,0.00001056,0.00001232,0
 .00002406,-0.00002747,0.00000448,-0.00000160,-0.00000076,0.00000334,-0
 .00000393,-0.00000200,0.00000448,-0.00000302,-0.00000570,0.00025474,-0
 .00091206,0.00019612,-0.00335334,0.00340242,-0.00171979,-0.02480305,0.
 00129191,0.00805085,-0.22599992,-0.02734425,0.10061913,0.00075475,-0.0
 0069358,0.00099917,-0.00121382,-0.00014179,0.00042165,0.00020785,-0.00
 000577,-0.00040810,0.00029623,0.00024574,0.00002988,0.00143352,-0.0000
 0427,0.00131671,-0.01071992,-0.00447570,0.00584482,0.26540304,0.002308
 41,0.00070079,0.00011299,0.00007107,-0.00012488,-0.00021848,-0.0001296
 4,-0.00004288,0.00002399,0.00009301,0.00007732,0.00002285,0.00014673,-
 0.00010563,0.00007632,0.00011968,0.00007171,-0.00000128,0.00001720,0.0
 0008184,0.00007435,0.00413819,-0.00245876,-0.00135756,-0.00011006,0.00
 014500,0.00024705,0.00021427,0.00007961,-0.00006340,-0.00316717,-0.002
 86982,0.00194005,-0.00024231,-0.00014696,-0.00059270,-0.00010351,-0.00
 006360,-0.00030651,0.00027012,0.00017168,-0.00000822,-0.00029762,0.000
 12237,0.00056494,0.00007361,-0.00006755,-0.00009690,0.00012751,0.00007
 976,0.00001686,-0.00211326,-0.00129243,0.00035235,0.00008403,0.0001679
 3,-0.00050376,0.00011461,0.00011659,0.00005354,-0.00011291,0.00009807,
 0.00008739,-0.00002363,0.00003480,0.00024812,0.00021219,0.00010276,0.0
 0020768,-0.00000349,-0.00021591,0.00024791,-0.00077411,-0.00027838,0.0
 0006006,-0.00039113,-0.00039785,0.00015850,0.00006033,-0.00016884,-0.0
 0020634,-0.00056574,0.00099397,0.00010831,-0.00005102,0.00003314,0.000
 04799,0.00006867,0.00005444,0.00000279,0.00004211,0.00002957,0.0000055
 8,-0.00103100,0.00149161,-0.00069421,0.00012481,0.00011082,-0.00003173
 ,-0.00000287,-0.00001404,-0.00002550,0.00001587,-0.00000599,0.00001783
 ,0.00003586,0.00002227,-0.00000529,0.00000462,-0.00000042,-0.00000206,
 -0.00000229,0.00000447,0.00000297,0.00004102,0.00002534,-0.00000694,-0
 .00000153,0.00000499,-0.00000366,-0.00000347,0.00000129,0.00000327,-0.
 00000765,0.00000224,0.00004106,-0.00004952,0.00001300,-0.00002839,0.00
 001820,0.00000455,-0.00003691,-0.00000901,0.00002553,-0.00002846,-0.00
 002182,-0.00001918,0.00003195,-0.00001721,0.00002905,-0.00001945,-0.00
 001008,-0.00001026,-0.00000116,-0.00002156,0.00002027,-0.00001911,-0.0
 0001807,0.00000689,0.00001003,0.00001791,0.00000063,0.00004468,0.00000
 942,-0.00001017,-0.00000156,-0.00001487,-0.00000193,0.00000837,-0.0000
 2009,0.00002684,-0.00000640,-0.00164359,-0.00016611,0.00030053,0.00294
 549,-0.00195643,0.00145223,0.01810757,0.00277779,-0.00786418,-0.028988
 79,-0.04463577,0.01463648,-0.00007348,0.00024543,-0.00089400,0.0011553
 3,0.00019696,-0.00022687,-0.00014266,-0.00009243,0.00008750,0.00001806
 ,-0.00001687,0.00009016,0.00570683,0.00159617,-0.00405927,-0.02698900,
 -0.00627656,0.01382556,0.03078995,0.05179694,-0.00032130,0.00005245,-0
 .00031382,0.00019030,-0.00001663,0.00000690,0.00009106,-0.00022911,0.0
 0011658,-0.00000295,-0.00002112,-0.00001947,-0.00004240,0.00006585,0.0
 0001041,0.00005568,0.00002695,0.00002016,0.00001499,0.00000388,0.00000
 585,0.00014082,-0.00040888,0.00064421,-0.00005261,0.00000704,0.0000084
 6,-0.00006305,-0.00012758,-0.00000179,0.00031396,0.00198088,-0.0010156
 9,0.00033374,-0.00000129,0.00005953,-0.00000206,-0.00005004,0.00004843
 ,-0.00007411,-0.00000533,0.00000548,0.00024748,0.00021067,-0.00042280,
 0.00004584,-0.00001383,0.00008231,-0.00004012,-0.00002697,-0.00003791,
 0.00035971,0.00028769,0.00031903,-0.00010486,0.00005209,-0.00003459,-0
 .00002421,-0.00002239,-0.00000620,-0.00012332,0.00005515,-0.00001334,-
 0.00015696,-0.00008750,-0.00012960,0.00007406,-0.00007536,-0.00009555,
 -0.00021818,0.00033678,0.00011677,-0.00014163,-0.00056359,-0.00056424,
 0.00031693,-0.00010310,-0.00021210,0.00018283,-0.00019792,-0.00020706,
 -0.00001126,-0.00018205,-0.00016313,-0.00000077,0.00000702,-0.00000256
 ,-0.00001997,0.00000576,-0.00005312,-0.00000447,0.00001241,-0.00001459
 ,-0.00290837,-0.00002920,0.00008521,-0.00000997,-0.00001886,0.00002928
 ,-0.00000561,-0.00000429,0.00000119,-0.00000091,-0.00000053,0.00000407
 ,0.00000140,0.00000255,-0.00000196,-0.00000686,0.00000690,-0.00001238,
 -0.00000170,0.00000655,0.00000083,0.00000383,0.00000329,-0.00000512,-0
 .00001032,0.00001248,-0.00000210,0.00000674,-0.00000903,0.00000165,0.0
 0001483,-0.00000167,0.00001113,-0.00001430,0.00000945,-0.00000414,-0.0
 0000951,0.00000861,-0.00000701,-0.00000342,0.00000427,-0.00000834,0.00
 001117,0.00000198,0.00000943,-0.00000169,0.00000434,-0.00000143,-0.000
 00110,-0.00000819,-0.00000427,-0.00000015,-0.00000180,-0.00000225,0.00
 000194,-0.00000811,0.00000044,-0.00000307,0.00000800,0.00000662,0.0000
 0225,-0.00000645,-0.00000419,-0.00000073,-0.00000116,-0.00000077,-0.00
 000293,0.00000110,0.00000213,0.00022843,-0.00027297,-0.00006697,-0.001
 62956,0.00117503,-0.00027758,-0.00817799,-0.00151629,0.00466392,0.1016
 2046,0.01386152,-0.09856787,-0.00118694,0.00022822,0.00061553,-0.00060
 420,0.00002809,0.00035019,-0.00011538,0.00008537,0.00008035,-0.0000108
 8,-0.00002535,-0.00007150,0.02834012,0.00365412,-0.01953336,-0.0028583
 2,-0.00025784,0.00217251,-0.11313005,-0.01837187,0.11309324,0.00001590
 ,-0.00013039,-0.00006322,-0.00012054,-0.00007568,-0.00015118,-0.000178
 21,0.00006119,0.00007329,-0.00001316,-0.00000627,-0.00001566,0.0000225
 8,-0.00000755,0.00000484,-0.00000181,-0.00000863,0.00000167,-0.0000063
 0,-0.00000234,-0.00000658,-0.00102420,0.00062364,-0.00055833,0.0000407
 6,0.00004097,0.00009072,-0.00001890,-0.00002485,-0.00002600,0.00014160
 ,-0.00053920,-0.00017941,0.00003774,0.00001169,0.00002422,0.00001081,-
 0.00002608,-0.00000855,0.00002578,0.00002377,0.00000198,0.00012262,0.0
 0011856,-0.00007146,0.00004853,-0.00002923,-0.00000055,0.00000657,-0.0
 0000681,-0.00000289,-0.00006572,0.00012735,-0.00006343,-0.00002440,-0.
 00000896,0.00002492,0.00002804,0.00000064,-0.00004098,0.00008292,-0.00
 000476,0.00001591,0.00000893,-0.00004861,0.00001433,-0.00002626,0.0000
 0955,0.00000905,0.00006630,0.00001446,0.00001167,-0.00000808,0.0000296
 7,0.00001699,-0.00001340,0.00005864,0.00006729,-0.00001735,0.00002944,
 -0.00000776,0.00021824,-0.00039641,0.00022119,0.00002035,-0.00000787,-
 0.00005087,0.00000405,-0.00000169,0.00000645,0.00000492,-0.00000652,-0
 .00000201,0.00005642,-0.00002499,0.00003897,0.00002812,-0.00002288,-0.
 00001078,0.00000203,-0.00000093,0.00000196,-0.00000208,-0.00000046,-0.
 00000878,0.00000501,0.00000364,0.00000066,0.00000418,0.00000336,0.0000
 0833,-0.00000273,0.00000070,-0.00000162,0.00000537,0.00000040,0.000003
 57,-0.00000434,-0.00001172,-0.00000503,-0.00001553,0.00000216,-0.00000
 458,-0.00008701,-0.00008063,-0.00008381,0.00002817,-0.00002637,0.00003
 942,0.00017655,0.00007535,-0.00004128,0.00003321,0.00004041,0.00004902
 ,-0.00004939,-0.00002066,-0.00000555,0.00001013,-0.00001187,0.00000298
 ,0.00001138,0.00003854,0.00001204,-0.00005075,0.00009582,0.00001556,0.
 00019446,0.00002315,-0.00002470,-0.00022322,-0.00025300,0.00011292,-0.
 00002171,0.00003209,0.00001909,0.00000984,0.00000058,-0.00000541,-0.00
 000178,0.00000180,0.00000307,0.00020377,-0.00032925,0.00049317,0.00065
 979,-0.00037345,0.00101047,-0.00206674,0.00159990,-0.00371395,0.000303
 82,-0.00011494,-0.00098109,-0.15755782,0.10416874,-0.06003727,0.000126
 89,-0.00003001,0.00038800,-0.00014013,-0.00000719,0.00014578,-0.000028
 42,-0.00003708,-0.00003842,0.00009028,0.00018754,-0.00012749,-0.000044
 63,-0.00014703,0.00004465,0.00037045,-0.00002833,0.00005331,0.18004485
 ,-0.00002812,-0.00001875,-0.00001850,0.00001032,-0.00002716,-0.0000406
 1,-0.00005032,-0.00004040,-0.00003164,-0.00001320,-0.00000755,0.000008
 52,-0.00000209,0.00000409,-0.00000588,0.00000093,0.00000680,-0.0000124
 9,0.00000578,0.00000411,-0.00000104,0.00000903,-0.00030752,0.00011283,
 -0.00002196,0.00002588,0.00004751,-0.00001239,0.00000140,-0.00000687,-
 0.00000893,0.00026157,-0.00006453,0.00000320,0.00002664,-0.00000055,-0
 .00002415,-0.00001666,-0.00000851,-0.00001394,-0.00000148,0.00000941,0
 .00007513,-0.00003212,0.00002091,-0.00000637,-0.00000020,0.00000594,-0
 .00000628,-0.00000025,0.00001444,-0.00016925,-0.00016283,0.00007110,0.
 00006785,0.00003113,-0.00000085,0.00004640,-0.00000680,-0.00001826,-0.
 00000181,0.00000621,0.00002244,-0.00000560,0.00001330,-0.00001900,-0.0
 0000193,-0.00000643,-0.00001440,-0.00001859,0.00000978,-0.00000050,0.0
 0000112,0.00001075,-0.00001128,0.00001943,-0.00002336,-0.00001570,0.00
 000443,-0.00000193,0.00000795,-0.00002778,0.00012924,0.00004451,-0.000
 00037,0.00001784,-0.00000912,-0.00000199,-0.00001255,0.00000938,0.0000
 1213,0.00000602,-0.00000308,-0.00002815,-0.00001600,0.00000188,0.00001
 799,0.00004923,-0.00001710,-0.00000730,-0.00000792,-0.00001427,-0.0000
 0258,-0.00000978,0.00002202,0.00001051,0.00000829,-0.00000104,-0.00000
 191,-0.00000477,0.,-0.00000202,-0.00000353,-0.00000043,0.00001261,0.00
 000773,-0.00000434,0.00000094,-0.00000520,-0.00000083,-0.00000155,0.00
 000172,0.00000634,-0.00003732,0.00003056,-0.00004274,0.00001032,0.0000
 2670,0.00003606,0.00001458,-0.00004846,0.00003756,0.00002803,0.0000200
 9,0.00002631,-0.00002303,0.00000163,0.00001052,-0.00000097,-0.00000579
 ,0.00000138,0.00001209,0.00001101,-0.00000228,0.00003665,0.00000938,0.
 00003948,0.00019698,-0.00008807,-0.00019483,-0.00026473,-0.00007146,0.
 00009211,-0.00000340,0.00001406,0.00000989,0.00000815,-0.00000415,-0.0
 0001130,-0.00000063,-0.00000200,-0.00000006,-0.00014480,0.00097135,-0.
 00034466,-0.00007892,0.00009958,-0.00024147,0.00058570,-0.00015275,0.0
 0184893,0.00001274,0.00062672,0.00053809,0.10348644,-0.13994604,0.0552
 3373,-0.00027928,0.00042910,0.00016578,-0.00004507,-0.00001998,-0.0002
 4682,0.00007466,-0.00031680,0.00011342,0.00010951,0.00006477,0.0000602
 1,0.00001411,0.00024614,-0.00017092,-0.00024917,-0.00005683,-0.0000213
 0,-0.12145200,0.15805455,0.00015281,-0.00004145,0.00000912,-0.00017173
 ,-0.00004844,-0.00012580,-0.00016584,0.00002494,-0.00001216,0.00000461
 ,0.00000886,-0.00000424,0.00001149,-0.00000468,-0.00000011,0.00000104,
 -0.00000622,0.00000964,-0.00000415,-0.00000227,0.00000169,-0.00089871,
 0.00010376,-0.00037268,0.00006063,0.00002749,0.00006766,-0.00000802,-0
 .00000424,-0.00002327,0.00066744,-0.00013306,0.00023125,0.00000485,0.0
 0001755,-0.00003230,0.00001720,0.00002313,0.00000896,0.00001495,0.0000
 0163,-0.00000155,-0.00009845,0.00000400,-0.00000275,0.00000539,-0.0000
 0538,-0.00000529,0.00001384,-0.00000199,-0.00000031,-0.00010292,0.0000
 6005,-0.00005672,-0.00000663,-0.00007383,-0.00009249,-0.00003480,0.000
 02346,0.00002928,0.00015726,0.00001383,0.00003465,-0.00002929,0.000004
 44,0.00004691,0.00002277,-0.00000113,0.00002310,0.00004519,-0.00002569
 ,0.00000816,-0.00004502,-0.00001756,0.00003288,-0.00005290,0.00001194,
 0.00007612,-0.00000400,0.00006037,0.00000054,0.00016114,-0.00009061,0.
 00006120,0.00001211,-0.00001642,-0.00009694,0.00000599,0.00001141,-0.0
 0000369,0.00000544,-0.00000047,-0.00000187,0.00006713,-0.00001509,-0.0
 0004649,0.00003507,0.00000186,0.00003356,0.00000351,0.00000419,0.00000
 169,0.00000144,0.00000420,-0.00000628,0.00000473,0.00000252,0.00000060
 ,0.00000091,0.00000333,0.00000147,-0.00000276,-0.00000285,0.00000031,0
 .00000666,0.00000212,0.00000086,-0.00000897,-0.00000184,0.00000316,-0.
 00000428,-0.00000312,-0.00000070,-0.00003328,-0.00008910,-0.00007661,0
 .00003167,0.00001609,0.00002772,-0.00011875,0.00004462,0.00006197,-0.0
 0000123,-0.00000471,0.00000821,-0.00000882,-0.00000561,0.00000763,0.00
 000523,0.00001030,-0.00000349,0.00001943,0.00002414,-0.00000067,0.0000
 1026,0.00013356,-0.00004955,0.00020290,-0.00016429,-0.00003572,-0.0000
 4172,-0.00003306,0.00014907,-0.00000060,0.00001779,0.00000193,0.000029
 72,-0.00001464,-0.00002181,-0.00000148,0.00001259,-0.00000016,0.000790
 05,0.00077564,0.00221926,-0.00101632,0.00023594,0.00095807,-0.02161876
 ,0.01989746,-0.01670061,-0.00055426,-0.00031413,-0.00660914,-0.0599557
 6,0.05471267,-0.07443498,0.00073950,-0.00023026,-0.00048679,-0.0001368
 2,-0.00011232,0.00040369,0.00005810,0.00005712,-0.00006300,-0.00115298
 ,0.00115831,-0.00088979,0.00005587,-0.00017286,0.00000661,0.00039046,-
 0.00011965,-0.00010084,0.07057885,-0.06509861,0.08787183,-0.00020828,0
 .00006927,-0.00002096,0.00007995,0.00003918,0.00003658,0.00008383,0.00
 006169,0.00005617,-0.00000086,-0.00000387,-0.00000289,-0.00001185,0.00
 000160,-0.00000457,-0.00000176,0.00000584,-0.00000372,0.00000801,0.000
 00647,0.00000204,0.00014750,0.00011673,0.00000695,-0.00000903,-0.00002
 090,-0.00003001,0.00004113,0.00002063,0.00004264,-0.00024358,-0.000115
 71,-0.00034427,-0.00003506,0.00000959,0.00003817,0.00000716,-0.0000324
 4,0.00000985,-0.00001710,-0.00001260,-0.00000567,0.00010984,-0.0001687
 0,-0.00004036,-0.00002292,0.00000310,-0.00000960,-0.00000834,0.0000048
 9,-0.00000249,0.00017237,0.00000403,0.00000273,-0.00001830,0.00005918,
 0.00003392,-0.00000728,-0.00003195,-0.00001813,-0.00006700,-0.00001649
 ,-0.00001991,0.00004309,0.00000853,-0.00001781,-0.00002168,0.00000625,
 -0.00001344,-0.00001941,0.00002649,-0.00002082,0.00002658,-0.00001800,
 -0.00001548,0.00004271,-0.00000636,-0.00005990,-0.00001398,0.00000518,
 0.00002413,-0.00004497,0.00003108,0.00000493,-0.00000882,-0.00000804,-
 0.00000798,0.00000206,-0.00000333,-0.00000016,-0.00000317,-0.00000196,
 0.00000521,-0.00002360,-0.00004851,-0.00002470,-0.00001419,-0.00002530
 ,-0.00000004,-0.00000495,-0.00000581,-0.00000242,0.00000030,-0.0000010
 5,0.00000552,-0.00000453,-0.00000237,0.00000243,0.00000144,0.00000135,
 -0.00000071,-0.00000034,0.00000564,0.00000098,-0.00000835,-0.00000406,
 -0.00000254,0.00000093,0.00000572,-0.00000259,0.00000709,0.00000217,-0
 .00000728,0.00001615,0.00003203,0.00002268,0.00000099,0.00000803,0.000
 00619,0.00000344,0.00006124,0.00002192,0.00000721,0.00000025,0.0000017
 6,0.00000249,0.00001160,-0.00000700,0.00000289,-0.00000605,0.00000236,
 0.00000021,-0.00000177,-0.00000484,0.00001758,-0.00001002,0.00000322,0
 .00002966,-0.00006446,-0.00004820,-0.00007937,-0.00000719,-0.00001277,
 0.00000057,-0.00000018,-0.00000056,0.00000371,-0.00000335,-0.00000592,
 0.00000339,-0.00000661,0.00000166,0.00008096,-0.00024282,-0.00023083,0
 .00007165,0.00028655,0.00050737,-0.00029336,-0.00103678,-0.00055021,0.
 00002401,-0.00002672,-0.00021080,-0.05449742,-0.04993174,-0.01489652,-
 0.00006892,0.00011831,-0.00000403,-0.00009141,-0.00005289,-0.00004419,
 -0.00009981,-0.00008655,0.00057305,-0.00006911,0.00006707,0.00017502,0
 .00018426,0.00030215,-0.00038175,-0.00030118,-0.00025289,-0.00008405,0
 .00414998,0.02203541,0.00519048,0.05986837,-0.00022866,0.00015369,0.00
 004388,0.00011227,0.00012515,0.00018796,0.00018228,0.00005988,0.000011
 30,0.00002563,-0.00000416,-0.00002583,-0.00001927,-0.00000262,0.000008
 16,0.00000105,0.00000107,0.00001453,0.00000414,0.00001121,0.00001208,0
 .00091330,0.00067083,-0.00010362,0.00000346,-0.00009570,-0.00014727,0.
 00007287,0.00001036,0.00005214,-0.00046029,-0.00015365,-0.00019431,-0.
 00006163,-0.00006407,0.00004715,0.00004368,-0.00000129,0.00001309,-0.0
 0000390,-0.00000141,-0.00003219,-0.00001469,-0.00012935,-0.00003450,-0
 .00002964,0.00001427,-0.00001805,0.00000205,0.00000455,-0.00002410,0.0
 0056442,0.00016944,-0.00009985,-0.00004910,-0.00000084,0.00012553,-0.0
 0006988,-0.00003261,-0.00003123,-0.00006350,-0.00003277,-0.00004692,0.
 00006934,0.00001778,0.00000275,-0.00000398,0.00000375,0.00000115,-0.00
 001113,0.00001492,-0.00001609,0.00003959,-0.00006956,-0.00001604,0.000
 01636,-0.00000479,-0.00006945,0.00000399,-0.00001532,0.00003241,-0.000
 14462,-0.00018346,-0.00003575,-0.00003664,0.00000590,0.00005419,0.0000
 0693,0.00001329,-0.00000995,-0.00002370,-0.00000651,0.00001114,-0.0000
 3947,-0.00001885,-0.00003042,-0.00010067,-0.00004542,0.00000586,0.0000
 0489,0.00001175,0.00001920,0.00000436,0.00001204,-0.00001862,-0.000023
 28,-0.00001616,0.00000416,0.00000484,0.00000552,0.00000090,0.00000435,
 0.00001306,0.00000189,-0.00002862,-0.00001567,0.00000372,0.00000425,0.
 00001384,-0.00000286,0.00001297,0.00000375,-0.00001342,0.00004137,0.00
 004097,0.00003201,-0.00001945,-0.00001100,-0.00000040,-0.00002665,-0.0
 0005268,0.00002720,-0.00000228,-0.00002475,-0.00001103,0.00004160,0.00
 001898,-0.00003538,0.00000772,-0.00000241,0.00000877,-0.00000344,-0.00
 000179,-0.00001157,0.00000520,-0.00003661,-0.00000686,-0.00013971,0.00
 002814,0.00005703,0.00012078,0.00004933,-0.00013013,-0.00000439,-0.000
 00347,-0.00000654,-0.00001418,0.00000815,0.00000992,0.00000828,-0.0000
 1176,0.00001008,-0.00091966,-0.00052610,-0.00209652,0.00000055,0.00020
 851,0.00057408,-0.00136588,-0.00552694,-0.00337559,0.00022230,0.000345
 56,0.00084851,-0.04977750,-0.25621181,-0.06256175,-0.00002566,-0.00022
 779,-0.00006043,-0.00002047,0.00003865,0.00028385,0.00015528,0.0006223
 1,-0.00001115,0.00004972,-0.00001560,0.00027141,0.00016580,0.00045680,
 0.00023294,-0.00017937,-0.00016781,-0.00008030,-0.00281041,-0.02440754
 ,-0.00467393,0.05846506,0.29590567,-0.00000361,0.00014473,0.00004999,0
 .00006250,0.00009933,0.00012397,0.00005829,-0.00003154,-0.00001215,0.0
 0002695,0.00000812,-0.00000212,-0.00000620,-0.00000096,0.00000886,0.00
 000448,0.00000610,0.00001002,0.00001187,0.00001551,0.00001164,0.001104
 43,0.00046539,-0.00083566,-0.00000040,-0.00005229,-0.00006924,0.000031
 50,-0.00000706,0.00001424,-0.00005271,0.00040681,0.00031190,-0.0000140
 1,-0.00006678,0.00000787,0.00000544,0.00001356,-0.00001016,0.00000837,
 -0.00001742,-0.00000122,-0.00006928,0.00001452,0.00002141,-0.00001445,
 0.00000824,-0.00000402,0.00000652,0.00000569,-0.00001231,0.00019642,0.
 00008776,-0.00004406,-0.00006698,-0.00007795,-0.00006418,-0.00006619,-
 0.00006400,-0.00004278,-0.00003268,0.00001363,-0.00002141,0.00000377,0
 .00002719,0.00000925,0.00002467,-0.00000241,0.00000127,-0.00002785,-0.
 00000715,0.00000029,0.00000186,-0.00002865,-0.00000010,0.00000993,-0.0
 0004378,-0.00003661,0.00003283,0.00000694,0.00004514,-0.00008913,-0.00
 028847,0.00012271,-0.00005612,0.00007202,0.00002004,0.00000311,0.00000
 714,-0.00000338,-0.00001314,-0.00000084,0.00000700,-0.00003757,-0.0000
 2833,-0.00002476,-0.00003641,-0.00002567,0.00003413,0.00000843,0.00001
 202,0.00001867,0.00000448,0.00000994,-0.00001531,-0.00001241,-0.000008
 93,0.00000291,0.00000409,0.00000241,-0.00000069,0.00000127,0.00000755,
 -0.00000012,-0.00001140,-0.00000736,0.00000554,-0.00000120,0.00000521,
 -0.00000183,0.00000168,0.00000171,-0.00000140,0.00001609,0.00004123,0.
 00000046,0.00000861,-0.00000436,0.00001556,0.00001706,0.00002262,0.000
 03608,0.00000411,-0.00000296,0.00001820,-0.00000337,0.00000922,-0.0000
 1197,0.00000617,-0.00001038,0.00001147,0.00000364,0.00001113,-0.000001
 36,0.00000113,0.00000100,0.00001904,-0.00000051,-0.00002595,-0.0000551
 2,-0.00003159,-0.00006798,-0.00002483,-0.00000473,0.00001136,0.0000039
 1,-0.00000408,0.00000537,-0.00000576,0.00000576,-0.00001262,0.00001117
 ,-0.00140793,-0.00526742,-0.00820312,-0.00045496,-0.00030674,0.0005948
 0,-0.00655357,-0.02670169,-0.00926070,0.00019651,-0.00042137,0.0005647
 8,-0.01492194,-0.06176541,-0.06005359,0.00003522,0.00003310,-0.0000731
 7,-0.00014905,0.00006463,0.00028568,0.00055626,0.00029643,-0.00046843,
 0.00017591,-0.00001334,0.00033525,-0.00014761,0.00053139,-0.00059761,-
 0.00015217,-0.00004777,-0.00001819,0.00214157,0.01033734,0.00363232,0.
 01726125,0.07296533,0.07002381,0.00044626,0.00022559,0.00034211,0.0000
 1729,-0.00000272,0.00001012,-0.00002337,0.00017968,0.00016369,0.000008
 47,0.00004782,0.00001309,0.00003051,-0.00002276,0.00002371,-0.00001114
 ,0.00002894,-0.00003096,0.00002020,0.00002757,0.00000565,0.00131273,-0
 .00043925,-0.00021814,-0.00001574,-0.00000191,-0.00001766,0.00017349,0
 .00006056,0.00003272,-0.00131566,-0.00082292,-0.00111102,-0.00034915,-
 0.00047188,-0.00007254,0.00011315,0.00005765,-0.00001136,0.00010389,0.
 00001345,-0.00000880,-0.00068227,0.00013449,0.00024407,-0.00002377,0.0
 0002504,-0.00005884,0.00002202,0.00004567,0.00002364,-0.00036398,-0.00
 040474,0.00003891,0.00006038,0.00008860,-0.00023368,0.00000590,0.00002
 540,0.00004884,-0.00002997,-0.00002188,-0.00005837,0.00014973,-0.00001
 204,0.00000446,-0.00004501,0.00004970,-0.00000998,0.00004982,0.0000515
 7,0.00002562,-0.00008392,-0.00005225,0.00009593,-0.00003024,-0.0000803
 6,0.00008337,-0.00002461,0.00001541,0.00005736,-0.00019716,0.00052908,
 -0.00005194,-0.00002063,-0.00000121,0.00001210,0.00001220,-0.00001460,
 0.00001929,0.00000834,0.00001081,0.00000899,0.00000591,0.00000130,-0.0
 0003110,0.00003809,0.00003465,-0.00001162,-0.00000545,-0.00000715,-0.0
 0000802,0.00000204,-0.00000044,0.00002454,0.00000623,0.00000394,-0.000
 00071,-0.00000003,-0.00000574,-0.00000435,-0.00000334,0.00000337,0.000
 00103,-0.00000160,0.00000041,-0.00000423,0.00000742,0.00000218,0.00000
 218,0.00001061,-0.00000050,0.00000218,0.00003457,0.00002415,0.00004588
 ,-0.00002582,0.00001695,-0.00001875,-0.00012731,-0.00002003,0.00006120
 ,-0.00001646,-0.00003937,-0.00003376,0.00003706,0.00001561,-0.00000762
 ,-0.00000838,0.00000997,-0.00000812,-0.00000647,-0.00002185,-0.0000067
 1,0.00003298,-0.00006062,-0.00001655,-0.00006862,-0.00001864,0.0000129
 3,0.00011926,0.00017907,-0.00006841,0.00001337,-0.00001860,-0.00001326
 ,-0.00000098,-0.00000409,-0.00000253,-0.00000099,0.00000224,-0.0000099
 1,-0.00053824,-0.00001836,-0.00024008,0.00047586,0.00007479,0.00112627
 ,-0.00268103,-0.00007364,0.00525137,0.00056981,-0.00009125,-0.00092961
 ,-0.24136503,-0.05499758,0.07633555,0.00028232,-0.00020063,-0.00009563
 ,-0.00007638,-0.00009471,0.00007606,0.00014584,0.00029019,-0.00009271,
 -0.00009122,0.00007093,-0.00025479,-0.00013178,-0.00001218,0.00003249,
 0.00040228,0.00028266,-0.00046964,-0.02560671,-0.00388529,0.00669317,-
 0.00892156,-0.00465897,0.00240103,0.27817595,0.00051935,-0.00017877,0.
 00008518,-0.00008057,-0.00007064,-0.00013677,-0.00021901,0.00002530,-0
 .00000161,-0.00000871,0.00002010,-0.00000544,0.00004544,-0.00000863,0.
 00001913,0.00000258,-0.00000999,-0.00001053,-0.00000576,0.00000391,0.0
 0000346,0.00068361,-0.00078522,-0.00178477,-0.00001382,0.00006915,0.00
 012379,-0.00004807,-0.00003626,-0.00010208,-0.00090305,-0.00036297,0.0
 0000226,0.00006747,-0.00008702,-0.00006044,0.00000640,0.00000601,-0.00
 004354,0.00008243,0.00003618,0.00001407,-0.00016287,0.00056284,0.00006
 631,0.00007668,-0.00003839,-0.00000067,0.00001984,-0.00000844,0.000020
 42,-0.00083957,-0.00027398,-0.00003617,0.00006040,0.00001129,-0.000074
 60,0.00010068,0.00000802,-0.00003585,0.00004284,0.00000301,0.00003840,
 -0.00002521,-0.00004856,0.00003041,0.00000746,-0.00001953,0.00000593,0
 .00009951,0.00001936,0.00005376,-0.00007290,0.00005010,0.00005717,-0.0
 0007202,0.00001194,0.00017449,0.00001209,0.00001415,-0.00000374,0.0000
 7813,0.00002717,0.00019076,-0.00003017,0.00002544,0.00002460,0.0000122
 9,-0.00000099,0.00001073,0.00001756,0.00000624,-0.00000624,0.00003867,
 0.00000530,0.00007895,0.00007193,0.00003883,-0.00003054,0.00000426,-0.
 00000287,-0.00000784,-0.00000087,-0.00000853,-0.00000364,0.00001642,0.
 00001303,-0.00000042,0.00000138,0.00000127,0.00000561,-0.00000258,-0.0
 0000325,-0.00000111,0.00002012,0.00001185,0.00000273,-0.00000100,-0.00
 001395,-0.00000047,-0.00001955,-0.00000487,0.00001344,-0.00003143,-0.0
 0002629,-0.00003267,0.00001841,-0.00003209,0.00000366,0.00008981,-0.00
 004757,-0.00006502,0.00000928,0.00002237,0.00001502,-0.00004021,-0.000
 02978,0.00001983,-0.00000484,0.00000759,-0.00000361,-0.00000325,0.0000
 1482,0.00000972,-0.00004905,0.00005151,0.00001210,-0.00000525,0.000066
 17,0.00002707,0.00003674,-0.00010492,0.00006439,-0.00000742,0.00001056
 ,0.00000793,-0.00000855,0.00000352,0.00000542,-0.00000963,0.00001217,-
 0.00000228,0.00022911,0.00034691,0.00018209,0.00007396,0.00036440,-0.0
 0027831,0.00083500,0.00052983,0.00003106,-0.00039985,-0.00008437,0.000
 31376,-0.05488831,-0.05979820,0.02197373,-0.00002298,-0.00002467,0.000
 04975,0.00003331,0.00023379,-0.00009659,0.00009067,0.00007375,-0.00005
 036,0.00011036,-0.00004256,-0.00017853,-0.00013608,-0.00015308,0.00004
 806,0.00048319,0.00009984,0.00056140,0.01969132,0.00460570,-0.00598183
 ,-0.02962487,-0.01093686,0.00963591,0.06394874,0.06582985,0.00093598,0
 .00021317,0.00020225,0.00009062,-0.00008048,-0.00016549,-0.00002462,-0
 .00005819,-0.00005325,0.00004680,0.00003162,0.00001743,0.00001852,-0.0
 0001453,0.00001610,0.00003442,0.00001956,0.00001136,0.00001213,0.00001
 493,0.00001345,0.00197530,-0.00254698,-0.00188732,-0.00007799,0.000100
 49,0.00017827,0.00003725,0.00004829,-0.00005468,-0.00099075,0.00122503
 ,0.00106790,-0.00000835,0.00005109,-0.00034677,-0.00010715,-0.00004358
 ,-0.00010163,0.00009333,0.00000034,0.00000484,-0.00026980,0.00001765,0
 .00058287,-0.00001794,-0.00001579,-0.00000274,0.00005169,0.00000630,0.
 00001623,-0.00116905,-0.00052797,0.00004379,0.00006736,0.00002713,-0.0
 0025508,0.00004793,0.00009223,0.00001624,-0.00009053,0.00006561,0.0000
 7572,-0.00007372,0.00003246,0.00004775,0.00010303,0.00001781,0.0000396
 9,-0.00000218,-0.00003908,0.00007495,-0.00013425,-0.00005062,0.0000596
 7,-0.00009067,-0.00009887,0.00012044,0.00004970,-0.00002850,-0.0000586
 5,-0.00019387,0.00044379,-0.00001069,-0.00003116,0.00002742,0.00001645
 ,0.00000739,0.00001978,-0.00000238,0.00002204,0.00002804,-0.00000221,-
 0.00010348,0.00010952,-0.00011091,0.00006662,0.00003194,0.00001148,-0.
 00000248,-0.00000288,-0.00000816,0.00000847,0.00000349,0.00000493,0.00
 001919,0.00001126,-0.00000245,-0.00000130,-0.00000341,-0.00000644,-0.0
 0000451,0.00000278,0.00000281,0.00002607,0.00001503,-0.00000628,-0.000
 01502,0.00001048,0.00000104,0.00000070,-0.00000682,0.00000643,0.000003
 18,-0.00002133,0.00001313,-0.00001945,0.00000932,-0.00001241,0.0000113
 1,0.00003306,-0.00002985,-0.00000701,0.00002630,-0.00002358,-0.0000125
 8,-0.00001421,0.00004638,-0.00001089,0.00002605,-0.00001314,0.00000392
 ,-0.00000516,-0.00000137,-0.00002414,0.00004645,-0.00002529,0.00002960
 ,-0.00003334,-0.00002400,-0.00002663,-0.00002532,0.00012728,0.00000710
 ,-0.00000545,-0.00000143,-0.00000727,-0.00000206,0.00000146,-0.0000168
 7,0.00002125,0.00000020,-0.00060383,0.00101651,0.00223855,0.00031670,-
 0.00040480,-0.00663171,0.02843335,0.00778001,-0.01635959,0.00094861,-0
 .00049435,0.00090847,0.07566732,0.02142577,-0.07089852,-0.00031339,0.0
 0005418,-0.00003236,0.00165963,0.00029114,-0.00086658,-0.00027967,-0.0
 0016549,0.00001469,0.00006012,-0.00012532,0.00033154,-0.00004593,-0.00
 007075,-0.00003627,-0.00068244,0.00063734,-0.00057403,-0.00940927,-0.0
 0226021,0.00432766,-0.00687909,-0.00194225,0.00359795,-0.08910812,-0.0
 2494687,0.08436586\\-0.00000814,0.00001344,-0.00000813,-0.00001250,0.0
 0001324,0.00001725,0.00777575,-0.00615652,-0.01141553,0.00000181,0.000
 00429,-0.00000987,0.00000227,-0.00000116,-0.00000134,0.00000496,0.0000
 0039,-0.00000571,-0.00000039,-0.00000016,0.00000666,-0.00000754,-0.000
 01041,-0.00001226,0.00000420,-0.00000671,-0.00000950,0.00003039,-0.000
 01975,0.00001209,-0.01890135,-0.01362916,0.00413724,-0.00000266,-0.000
 02746,0.00000680,-0.00001671,0.00000658,-0.00000065,-0.00000657,-0.000
 00103,-0.00000143,0.00000403,0.00000691,-0.00000085,0.00000636,0.00000
 093,0.00000104,0.,0.00000064,-0.00000104,0.00015751,-0.00021461,0.0168
 5621,0.01510069,0.01895370,-0.01555927,-0.00000641,0.00000085,0.000004
 79,-0.00244522,0.00375827,0.00577626,-0.00000588,-0.00001178,-0.000011
 04,-0.00001432,0.00000361,0.00000059,-0.00000874,0.00000960,0.00000298
 ,0.00001298,0.00000242,-0.00001399,0.00001632,0.00000157,0.00001705,-0
 .00000327,-0.00000204,-0.00000782,0.00567730,0.00223209,-0.00050122,0.
 00000140,-0.00000060,-0.00000115,0.00000399,-0.00000234,0.00000747,-0.
 00000185,-0.00000004,-0.00000354,-0.00001013,-0.00000345,0.00000977,-0
 .00735246,-0.00491018,0.00070477,-0.00000088,-0.00000555,0.00000614,0.
 00000439,-0.00000234,-0.00000414,-0.00000068,-0.00000210,0.00000020,-0
 .00000128,0.00000011,-0.00000260,0.00000081,0.00000308,-0.00000226,-0.
 00000053,0.00000072,-0.00000109,-0.00000355,0.00000114,0.00000132,0.00
 000166,0.00000344,0.00000192,-0.00000440,-0.00000556,-0.00000506,0.000
 00792,-0.00000889,0.00000190,0.00000372,0.00000176,0.00000607,-0.00000
 498,0.00000365,-0.00000367,-0.00000285,0.00000344,0.00000041,-0.000003
 72,0.00000449,-0.00000364,0.00000093,0.00000027,0.00000071,-0.00000029
 ,0.00000190,-0.00000118,-0.00000071,-0.00000226,0.00000035,0.00000054,
 -0.00000066,-0.00000053,0.00000135,0.00000122,0.00000043,0.00000250,0.
 00000067,0.00000079,0.00000303,-0.00000419,0.00000483,-0.00000027,-0.0
 0000474,0.00001149,-0.00000741,0.00000066,-0.00000715,0.00000390,0.000
 00888,-0.00000207,-0.00000175,-0.00000714,0.00000441,0.00000119,-0.000
 00090,-0.00000522,0.00000174,-0.00000589,-0.00000019,0.00000109,0.0000
 0312,0.00000076,0.00000306,0.00000085,0.00000454,-0.00000011,0.0000009
 9,-0.00000121,0.00000140,0.00000030,-0.00000204,0.00000435,-0.00000151
 ,-0.00000375,0.00000263,0.00000078,0.00000085,-0.00000288,0.00000075,0
 .00000164,-0.00000571,-0.00000165,0.00000041\\\@
 The archive entry for this job was punched.


 THE NUMBERS ARE MEANINGLESS, BUT THE TRENDS ARE IMPORTANT.
     -- LARRY BURGGRAF
 Job cpu time:       0 days  0 hours  0 minutes  0.4 seconds.
 Elapsed time:       0 days  0 hours  0 minutes  8.6 seconds.
 File lengths (MBytes):  RWF=      6 Int=      0 D2E=      0 Chk=      2 Scr=      1
 Normal termination of Gaussian 16 at Tue Oct 15 00:13:34 2024.
