%chk=4-tsfreq.chk
#p freq external='./xtb.sh'

Generate automatically by rxnb

0 1
Fe           1.924550        1.227650       -0.056800
C           -1.556510       -1.990490        1.568290
Pd           0.480210       -0.960290       -0.105380
C            3.400110       -1.057100       -0.343180
H            3.326730        3.418460        0.379930
H            4.168330        1.162520        1.416810
H            2.011360       -0.179820        2.347390
C           -1.703800        0.950670       -0.173830
O           -2.193470       -2.612200        2.403710
C            2.828040       -0.013580       -1.216030
O           -0.808040        1.818100       -0.352180
C            1.228000        1.393490       -1.884530
C            2.383950        2.144790       -1.698900
C            3.398550        1.267360       -1.277390
H            0.289950        1.841770       -2.112250
H            2.427600        3.207740       -1.723030
H            4.374160        1.538220       -0.947740
H            0.514900        0.866250       -0.100570
C            1.455490        0.009270       -1.597200
C           -2.291260       -1.325860        0.360240
O           -0.296640       -1.811050        1.615160
C            2.032070        0.763140        1.850940
C            3.151650        1.481820        1.410810
C            2.713550        2.708670        0.880890
C            1.320920        2.747140        0.977760
C            0.894960        1.560540        1.610010
H           -0.102340        1.324340        1.907720
N           -1.397680       -0.311050       -0.152510
H           -3.207930       -0.857170        0.739870
H            3.745110       -0.520460        0.537140
H            4.242300       -1.605440       -0.791280
H            0.690470        3.436280        0.469340
N            2.326780       -1.972600        0.044590
C            2.618540       -2.620020        1.318640
C            2.169270       -3.011630       -0.972810
H            3.403530       -3.379400        1.207990
H            2.960720       -1.886650        2.045370
H            1.714960       -3.090700        1.705370
H            3.080140       -3.625510       -1.046480
H            1.337440       -3.665960       -0.706410
H            1.982520       -2.553230       -1.944400
C           -2.692310       -2.360480       -0.721690
C           -1.475820       -3.201490       -1.126200
C           -3.214910       -1.612240       -1.952320
C           -3.788230       -3.265230       -0.157910
H           -0.701310       -2.541150       -1.555770
H           -1.759690       -3.934190       -1.881240
H           -1.090340       -3.738250       -0.255390
H           -3.559140       -2.318220       -2.706060
H           -4.044020       -0.964410       -1.676880
H           -2.428050       -0.993500       -2.383050
H           -3.477020       -3.687560        0.794250
H           -4.699950       -2.696000        0.009900
H           -4.008790       -4.074500       -0.852170
O           -2.999120        1.278050        0.007130
C           -4.899960        2.610610        0.309930
C           -3.387980        2.661210        0.082590
C           -2.694320        3.343930        1.263700
C           -3.069910        3.382990       -1.228410
H           -5.382920        2.101530       -0.519900
H           -5.118980        2.063280        1.222870
H           -5.299630        3.617060        0.392370
H           -2.896730        2.793270        2.179880
H           -3.066400        4.358760        1.372480
H           -1.620980        3.369590        1.096650
H           -3.536620        2.861320       -2.060920
H           -3.449030        4.400340       -1.189060
H           -1.994440        3.403160       -1.384070


