68
charge 0 multiplicity 1
Fe          -1.88467   1.19633  -0.08209
C            1.52663  -2.05369  -1.60452
Pd          -0.40654  -1.01655   0.16554
C           -3.22328  -1.19672   0.46824
H           -3.34672   3.19997  -0.92780
H           -4.02459   0.75723  -1.60363
H           -1.78049  -0.59490  -2.22355
C            1.54925   0.98218   0.04782
O            2.09024  -2.63094  -2.51890
C           -2.70668   0.01124   1.15052
O            0.52931   1.66260   0.41487
C           -1.40785   1.72301   1.79640
C           -2.61885   2.25337   1.38553
C           -3.45570   1.18792   1.02615
H           -0.58486   2.34906   2.05553
H           -2.82371   3.29273   1.28352
H           -4.42872   1.27088   0.60173
H           -0.52630   0.90029   0.64475
C           -1.34377   0.29882   1.56076
C            2.35486  -1.24097  -0.55870
O            0.26539  -2.05315  -1.42763
C           -1.85024   0.41709  -1.88268
C           -3.03028   1.13981  -1.62410
C           -2.67914   2.45675  -1.29144
C           -1.28312   2.54862  -1.33151
C           -0.77385   1.30853  -1.74410
H            0.24909   1.07775  -1.93765
N            1.43218  -0.29268   0.00412
H            3.18015  -0.72796  -1.06898
H           -3.50297  -0.84831  -0.52634
H           -4.11401  -1.61263   0.96761
H           -0.72801   3.36987  -0.95318
N           -2.17846  -2.19957   0.33660
C           -2.45650  -3.12185  -0.75232
C           -2.01414  -2.94053   1.58256
H           -3.35107  -3.72469  -0.54334
H           -2.61448  -2.56972  -1.67683
H           -1.60562  -3.78434  -0.90156
H           -2.91479  -3.53165   1.80786
H           -1.16568  -3.62204   1.50078
H           -1.84299  -2.24282   2.40300
C            2.94032  -2.17007   0.53765
C            1.82644  -3.01577   1.16954
C            3.58901  -1.30488   1.62376
C            3.99270  -3.08029  -0.09582
H            1.06926  -2.35548   1.63160
H            2.24217  -3.65720   1.94610
H            1.36250  -3.65096   0.41124
H            4.05754  -1.93481   2.37772
H            4.35002  -0.65938   1.19020
H            2.84246  -0.67658   2.10857
H            3.57816  -3.60069  -0.95530
H            4.84327  -2.49500  -0.43846
H            4.34616  -3.81328   0.62733
O            2.70597   1.56054  -0.30815
C            4.36520   3.20399  -0.48940
C            2.97506   2.92246   0.08149
C            1.94702   3.88950  -0.50609
C            2.98660   3.01539   1.60826
H            5.07513   2.47229  -0.11353
H            4.34178   3.13407  -1.57338
H            4.69342   4.19846  -0.20212
H            1.81477   3.69197  -1.56701
H            2.29314   4.91116  -0.37561
H            0.99430   3.75529   0.00013
H            3.72927   2.33548   2.01946
H            3.22414   4.02935   1.91717
H            2.00904   2.74339   1.99884