%chk=cyc_sp_39.chk
%mem=300GB
%nprocshared=96
#p opt=(calcfc,ts,noeigen,maxstep=5) freq b3lyp def2svp em=gd3bj  

Freeze index  [38, 37]  [38, 1]  [30, 11]  [30, 1]  [30, 32]  [30, 31] // Local index  30  38  34  11  (34,)  [37, 38]  [1, 38]

0 1
C            -2.70385077   -5.29035292    2.37612899
C            -3.20941274   -3.72477653    4.41447699
C            -3.43765641   -4.93545678    3.55902268
C            -3.33984731   -6.41258731    1.77535910
C            -4.44891863   -6.78697670    2.59576439
C            -4.49932355   -5.89094468    3.70480348
H            -3.03349436   -6.89822706    0.85104193
H            -5.13856902   -7.60736597    2.40606584
H            -5.24169913   -5.89729661    4.50181786
H            -3.70951228   -3.85322423    5.39142079
N            -3.67628460   -2.42560890    3.82304740
H            -2.13440202   -3.59412301    4.59772856
C            -5.23431807   -3.88872199    0.23003292
C            -6.36900698   -4.53240839    0.80298111
C            -6.55354522   -4.01286302    2.12060833
C            -5.53955604   -3.02915045    2.34684894
C            -4.72104334   -2.90717064    1.16154996
H            -4.84117084   -4.04895569   -0.77112864
H            -6.97630984   -5.30223273    0.32984532
H            -7.30206141   -4.34002215    2.84078429
Fe           -4.68305147   -4.82158555    1.97621315
H            -1.83650303   -4.75875289    1.99076597
C            -5.15797652   -2.35674710    3.62565211
H            -5.67904282   -2.79616670    4.49425461
H            -5.41535536   -1.28731532    3.58673908
C            -3.21922668   -1.32731499    4.70147055
H            -3.52919502   -0.36544925    4.27434302
H            -3.65256626   -1.43430769    5.71254137
H            -2.12458128   -1.34709169    4.75483112
Pd           -2.80481944   -2.15306372    1.88923694
O            -1.00226675   -1.81651742    2.69952399
N            -1.84109661   -1.68042390    0.21269293
C            -0.01171816   -1.64504515    1.84795647
C            -0.41243211   -1.41531875    0.37036819
C            -2.54620399   -1.47037940   -0.88107606
O             1.15321483   -1.61307651    2.18003770
O            -3.81372940   -1.55585909   -0.89077552
H             0.17593056   -2.12729564   -0.23511068
H            -4.18352697   -2.02504480    0.31424420
O            -1.81981253   -1.16222799   -2.06166237
C            -1.04818791   -3.43019422   -2.27993632
C            -1.73957872   -2.24523007   -2.92114758
C            -3.09547425   -2.65419829   -3.45610730
C            -0.89154064   -1.81203961   -4.09971491
H             0.05278022   -3.20127259   -2.30234511
H            -1.27537848   -4.34823424   -2.85616610
H            -1.37103549   -3.49716856   -1.21417113
H            -3.05423322   -3.76438767   -3.61891490
H            -3.27743534   -2.21157539   -4.45627828
H            -3.90966650   -2.47814968   -2.73584169
H            -0.73473931   -2.63854144   -4.83167313
H             0.05478737   -1.41746725   -3.68591122
H            -1.41659504   -0.95054857   -4.56265012
C             0.00000000    0.00000000    0.00000000
C             1.52363892    0.00000000   -0.00000000
C             2.05911356   -0.97679363   -0.98831348
C             2.31908879   -2.28710477   -0.64160340
C             2.81459660   -3.15651125   -1.59015654
C             3.04988887   -2.70697762   -2.89306141
F             3.53609810   -3.57219166   -3.81178341
C             2.79764873   -1.40171394   -3.26300429
C             2.30247250   -0.55591804   -2.29232842
H            -0.41423584    0.29960134   -0.97583086
H            -0.31507417    0.72917411    0.75680637
H             1.81118005   -0.38614770    1.02254246
H             1.94391943    1.00296470   -0.11109990
H             2.14252855   -2.65040898    0.36193796
H             3.01083920   -4.17796855   -1.29636426
H             2.99542022   -1.10542428   -4.27754629
H             2.11057256    0.46426295   -2.60055698



