%chk=cyc_rp_34.chk
%mem=300GB
%nprocshared=68
#p opt=(readfc,ts,noeigen,nofreeze,maxcyc=300) freq b3lyp guess=tcheck chkbas em=gd3bj  

Freeze index  [38, 37]  [38, 1]  [30, 11]  [30, 1]  [30, 32]  [30, 31] // Local index  30  38  34  11  (34,)  [37, 38]  [1, 38]

0 1
C            -3.03348789    1.36800128    4.12170317
C            -5.35834146    2.30061550    3.59095368
C            -4.40721765    1.60156048    4.50940448
C            -2.50095442    0.44682504    5.10222556
C            -3.49235926    0.19167151    6.09275771
C            -4.68078774    0.89389476    5.72160930
H            -1.47950447    0.07207575    5.10347763
H            -3.37588698   -0.44516834    6.96797163
H            -5.63592589    0.85770533    6.24347321
H            -6.41084685    2.12330355    3.87330849
N            -5.12349803    1.86959548    2.17623874
H            -5.18312360    3.38701382    3.61637669
C            -3.90659772   -2.28548889    3.37990446
C            -5.06731963   -2.24790717    4.21317974
C            -5.94168508   -1.24112971    3.70584014
C            -5.31054465   -0.62675454    2.57224395
C            -4.06331715   -1.30754695    2.35875136
H            -3.04995873   -2.94518418    3.50284656
H            -5.25127461   -2.87272660    5.08526554
H            -6.90167798   -0.95139126    4.13114311
H            -3.34654547   -1.07885526    1.57312366
Fe           -4.16121436   -0.38294944    4.21358571
C            -5.80478333    0.57765897    1.82625188
H            -6.88928551    0.70672508    1.99422698
H            -5.64359849    0.44171536    0.74825937
C            -5.58349257    2.90887669    1.23047801
H            -5.30543760    2.61096639    0.21262847
H            -6.67775827    3.04483009    1.30423038
H            -5.08360300    3.85783425    1.46109588
Pd           -3.00942708    1.63347283    1.97023014
O            -3.10245774    1.67590740   -0.04046230
N            -1.06278956    1.56273042    1.60610524
C            -1.97492905    1.41114989   -0.66772489
C            -0.70326548    1.33065352    0.21255323
C            -0.24803394    2.06749123    2.51069148
O            -1.90171480    1.22831142   -1.86405777
O            -0.64845002    2.39856085    3.67080735
H            -1.94484627    2.04115781    3.74175423
H            -0.03542865    2.13822739   -0.13404028
O             1.10783384    2.21913932    2.11696193
C             1.16939986    4.49234501    2.90147732
C             1.78904478    3.11081971    2.92869027
C             1.90495882    2.61481594    4.35432671
C             3.19170995    3.23475753    2.36919021
H             1.49722138    4.96457150    1.93475090
H             1.52800711    5.07659971    3.77124322
H             0.05922164    4.38452365    2.88057141
H             1.90547630    3.52530007    5.01139692
H             2.88354567    2.12216685    4.52474639
H             1.04030141    2.00899962    4.66743762
H             3.80800620    3.97003288    2.93751865
H             3.08835802    3.49455948    1.29947294
H             3.63356123    2.21709781    2.40515646
C             0.00000000    0.00000000    0.00000000
C             1.47417436    0.00000000    0.00000000
C             0.66620070   -0.31015589   -1.28834787
H            -0.47821761   -0.88681317    0.49580485
H             2.05419990    0.94353213   -0.06824898
H             2.06141905   -0.83396811    0.42903664
H             0.74026057   -1.36985599   -1.63813031
H             0.67392365    0.44885159   -2.08098896



