%chk=cyc_rp_6.chk
%mem=300GB
%nprocshared=68
#p opt=(readfc,ts,noeigen,nofreeze,maxcyc=300) freq b3lyp guess=tcheck chkbas em=gd3bj  

Freeze index  [38, 37]  [38, 1]  [30, 11]  [30, 1]  [30, 32]  [30, 31] // Local index  30  38  34  11  (34,)  [37, 38]  [1, 38]

0 1
C            -5.08583236    1.46463731    0.22596460
C            -6.10541020    2.44606276   -1.90796922
C            -6.24199697    1.73193329   -0.60097670
C            -5.53666938    0.53836468    1.24200925
C            -6.93419225    0.31254770    1.08365100
C            -7.37304126    1.03897510   -0.06654275
H            -4.90695102    0.14057048    2.03511275
H            -7.55714328   -0.32075686    1.71292642
H            -8.37775279    1.02802704   -0.48651344
H            -6.98670993    2.29459809   -2.55550346
N            -4.86268024    2.00014499   -2.61445889
H            -5.99461191    3.52835793   -1.74072732
C            -5.12337433   -2.17311564   -0.96815458
C            -6.49817235   -2.10351828   -1.35302081
C            -6.62858678   -1.08067588   -2.33907089
C            -5.33738965   -0.48855034   -2.54651427
C            -4.40497154   -1.19889222   -1.71546391
H            -4.69716235   -2.85120539   -0.23148596
H            -7.30609709   -2.71801583   -0.96005418
H            -7.55458537   -0.76633910   -2.81879620
H            -3.33947138   -0.99189900   -1.64380065
Fe           -5.89612788   -0.25962444   -0.62042800
C            -5.04020131    0.72161897   -3.38231165
H            -5.84621192    0.87638807   -4.12218468
H            -4.10059688    0.57467220   -3.93192899
C            -4.39136770    3.04308304   -3.55057240
H            -3.42887894    2.73197743   -3.97355170
H            -5.12978342    3.20431321   -4.35685227
H            -4.24065191    3.98202103   -3.00351222
Pd           -3.38598583    1.71474607   -1.09610106
O            -1.87353511    1.74549985   -2.42459137
N            -1.88720460    1.59739361    0.19497303
C            -0.68473599    1.45095467   -1.93995167
C            -0.57923670    1.34768138   -0.39829607
C            -2.07465035    2.08973904    1.40300719
O             0.29139309    1.25830978   -2.63281714
O            -3.22398627    2.43774375    1.81981487
H            -4.09609346    2.11031941    0.84737671
H             0.12424565    2.13751229   -0.08271983
O            -0.91741846    2.20790594    2.21740787
C            -1.44706314    4.48445391    2.78620023
C            -1.10823309    3.08945387    3.26836372
C            -2.15849438    2.60073027    4.24304085
C             0.20710383    3.17772135    4.01533634
H            -0.47837063    4.94249104    2.44435001
H            -1.89068913    5.06637426    3.61747043
H            -2.12627670    4.40168984    1.90507753
H            -2.65337087    3.51544977    4.66625284
H            -1.68991754    2.08720036    5.10681221
H            -2.95483600    2.01683324    3.75561025
H             0.16271049    3.90271200    4.86142494
H             0.98273865    3.43246349    3.26970186
H             0.43514964    2.15057578    4.36906581
C             0.00000000    0.00000000    0.00000000
C             1.50470671    0.00000000   -0.00000000
C             2.27215138    0.92723218    0.88100747
C             2.16533238    1.19518877   -0.57175400
H            -0.32022549   -0.72015627   -0.80734648
H            -0.45002476   -0.30431995    0.95071962
H             1.94516904   -1.01116845   -0.10558526
H             1.66430513    1.46148824    1.63140737
H             3.26010555    0.60004774    1.25787051
H             1.53110747    2.05341231   -0.85699914
H             3.06107315    0.98771841   -1.19125410



