%chk=cyc_rp_14.chk
%mem=300GB
%nprocshared=68
#p opt=(readfc,ts,noeigen,nofreeze,maxcyc=300) freq b3lyp guess=tcheck chkbas em=gd3bj  

Freeze index  [38, 37]  [38, 1]  [30, 11]  [30, 1]  [30, 32]  [30, 31] // Local index  30  38  34  11  (34,)  [37, 38]  [1, 38]

0 1
C            -5.06941570    1.52124344    0.22080801
C            -6.07040825    2.53119731   -1.90860870
C            -6.21962149    1.80836547   -0.60779517
C            -5.53430534    0.59220881    1.22795945
C            -6.93378371    0.38375253    1.06319572
C            -7.36035592    1.12426333   -0.08262748
H            -4.91189177    0.18092844    2.01994960
H            -7.56609817   -0.24730051    1.68535380
H            -8.36369584    1.12820431   -0.50598782
H            -6.95118651    2.39501597   -2.56023409
N            -4.83049032    2.07661084   -2.61451432
H            -5.94775714    3.61078798   -1.73239963
C            -5.14467589   -2.10627169   -1.00232177
C            -6.51726998   -2.01781132   -1.39116061
C            -6.63258296   -0.98576360   -2.36947022
C            -5.33397480   -0.40691558   -2.56793246
C            -4.41260105   -1.13449751   -1.73948285
H            -4.72878131   -2.79503128   -0.26966569
H            -7.33352692   -2.62605992   -1.00576388
H            -7.55327743   -0.65700258   -2.84973602
H            -3.34504353   -0.94035546   -1.66265713
Fe           -5.89658090   -0.18682493   -0.64194225
C            -5.02007446    0.80632994   -3.39309294
H            -5.82173904    0.97621674   -4.13436959
H            -4.08035954    0.65293269   -3.94075544
C            -4.34405818    3.12143121   -3.54074211
H            -3.38377544    2.80262546   -3.96300124
H            -5.07783315    3.29752600   -4.34814852
H            -4.18442768    4.05421318   -2.98573713
Pd           -3.36233212    1.76222618   -1.09360563
O            -1.84512805    1.78608308   -2.41680710
N            -1.86938760    1.61741619    0.20143714
C            -0.66144129    1.47404802   -1.93060175
C            -0.56236756    1.35736915   -0.38947623
C            -2.05526597    2.10231013    1.41272306
O             0.31475705    1.27567044   -2.62174988
O            -3.20193780    2.46021081    1.82848716
H            -4.07444212    2.15055261    0.85060086
H             0.14906324    2.13652838   -0.06530688
O            -0.89952401    2.20070033    2.23185517
C            -1.40491874    4.47862067    2.81698254
C            -1.08376860    3.07604077    3.28915279
C            -2.14287463    2.59173920    4.25643840
C             0.22995255    3.14324835    4.04114372
H            -0.42987571    4.92816911    2.48198693
H            -1.84465170    5.05901127    3.65138478
H            -2.08204365    4.41065596    1.93299112
H            -2.62864790    3.50871594    4.68527505
H            -1.68315988    2.06602983    5.11764117
H            -2.94420999    2.02092270    3.76175217
H             0.19101624    3.86198290    4.89282015
H             1.01098759    3.39493946    3.30012444
H             0.44498646    2.11077864    4.38744437
C             0.00000000    0.00000000    0.00000000
C             1.49126762    0.00000000    0.00000000
C             2.22439762   -0.32240394   -1.12361110
C             3.60458944   -0.32399302   -1.12907774
C             4.32746274   -0.00085942   -0.00282802
C             5.82110814    0.00285545    0.01026013
C             3.59217994    0.32071506    1.11788377
C             2.21295055    0.32415207    1.12977816
H            -0.41825953   -0.76106197   -0.67021182
H            -0.40196708   -0.22737804    1.01969542
H             1.64062405   -0.57778652   -2.01372097
H             4.15104484   -0.58584676   -2.04165439
H             6.20828899   -0.08833326    1.03134597
H             6.23654800   -0.76411878   -0.67935988
H             6.21713666    0.98611448   -0.37465531
H             4.16690272    0.57459707    2.00269971
H             1.66862880    0.58578049    2.04157549



