%chk=cyc_rp_9.chk
%mem=300GB
%nprocshared=68
#p opt=(readfc,ts,noeigen,nofreeze,maxcyc=300) freq b3lyp guess=tcheck chkbas em=gd3bj  

Freeze index  [38, 37]  [38, 1]  [30, 11]  [30, 1]  [30, 32]  [30, 31] // Local index  30  38  34  11  (34,)  [37, 38]  [1, 38]

0 1
C             1.86267088   -4.07874016    2.82068239
C             2.20724200   -6.28880358    1.57436829
C             2.53790128   -5.35131555    2.69179700
C             2.61082978   -3.33701051    3.81248737
C             3.65588948   -4.15936885    4.32309271
C             3.62376376   -5.40399697    3.62088215
H             2.35825946   -2.33425279    4.15084190
H             4.37050388   -3.88253137    5.09627928
H             4.32894439   -6.22528314    3.73983517
H             2.99878235   -7.04280976    1.41986938
N             1.96902571   -5.52347512    0.30950726
H             1.27119416   -6.82550546    1.79202508
C             4.95360027   -2.33864474    1.37887799
C             5.81004659   -3.43213000    1.71625776
C             5.32822282   -4.59359672    1.04220271
C             4.14914691   -4.23094305    0.30796996
C             3.94707905   -2.82093158    0.49683518
H             5.05093942   -1.31459342    1.73382446
H             6.67493871   -3.38960043    2.37574638
H             5.75015216   -5.59555031    1.10915041
H             3.13479810   -2.23747502    0.06899120
Fe            3.86568170   -3.88480612    2.27627901
C             3.23339343   -5.17039717   -0.42018487
H             3.76583467   -6.10961638   -0.65554053
H             2.91069924   -4.71827781   -1.36780590
C             1.10067585   -6.29034186   -0.60921342
H             0.86139082   -5.66448375   -1.47704239
H             1.60297632   -7.21958578   -0.93408283
H             0.16383657   -6.54402808   -0.09777418
Pd            0.95762861   -3.72987739    0.88184679
O             0.33458412   -3.36574872   -0.99766521
N            -0.14397065   -2.12798241    1.26577462
C            -0.26074745   -2.20582784   -1.18485425
C            -0.59787050   -1.39454332    0.09055272
C            -0.68711890   -2.02606444    2.46222319
O            -0.53732527   -1.76462391   -2.27977269
O            -0.36309259   -2.79749815    3.41914844
H             0.63261790   -3.57789967    2.95768584
H            -1.69746815   -1.30236745    0.11695822
O            -1.65624928   -1.00096406    2.62455943
C            -3.21906930   -2.52267822    3.63880720
C            -2.46038528   -1.21534961    3.73155957
C            -1.68063244   -1.15104647    5.02760959
C            -3.48558396   -0.09988528    3.75559028
H            -4.07156419   -2.34128224    2.92791147
H            -3.59155155   -2.80704229    4.64222111
H            -2.54754401   -3.29338043    3.19200742
H            -2.18461730   -1.85736321    5.74023769
H            -1.76417621   -0.14749758    5.49160126
H            -0.64435018   -1.50796662    4.92078550
H            -4.20999198   -0.21216929    4.59587204
H            -3.97394463   -0.09189942    2.76366599
H            -2.91385324    0.84841444    3.83310836
C             0.00000000    0.00000000    0.00000000
C             1.50498149    0.00000000    0.00000000
H            -0.32989239    0.45332912   -0.96208782
H            -0.33303187    0.66660871    0.81066575
H             1.94761905   -0.68614430   -0.73670057
H             1.81767702    1.03748682   -0.30951997
H             1.91630999   -0.17361671    1.02732246



