%chk=cyc_rp_22.chk
%mem=300GB
%nprocshared=68
#p opt=(readfc,ts,noeigen,nofreeze,maxcyc=300) freq b3lyp guess=tcheck chkbas em=gd3bj  

Freeze index  [38, 37]  [38, 1]  [30, 11]  [30, 1]  [30, 32]  [30, 31] // Local index  30  38  34  11  (34,)  [37, 38]  [1, 38]

0 1
C            -4.66042185    1.81362615    1.74732415
C            -6.17063012    2.97015539    0.03322978
C            -5.98053176    2.20394173    1.30352327
C            -4.87206933    0.87306606    2.82627448
C            -6.26904236    0.75644579    3.07927025
C            -6.96108490    1.56853956    2.12805434
H            -4.07447969    0.39228337    3.38885546
H            -6.73274259    0.13923966    3.84684364
H            -8.04174177    1.65065590    2.02138595
H            -7.21146045    2.91466929   -0.33080988
N            -5.22840207    2.47150381   -1.01838849
H            -5.92633405    4.03208218    0.18892135
C            -5.34595276   -1.74849524    0.52179769
C            -6.76248478   -1.56126170    0.55942815
C            -7.08815288   -0.48418242   -0.31769772
C            -5.86832422    0.02308435   -0.87942176
C            -4.79718145   -0.79269878   -0.37764006
H            -4.78208043   -2.49107781    1.08283435
H            -7.46960112   -2.13474436    1.15598202
H            -8.08406325   -0.08072829   -0.49603634
H            -3.74345940   -0.66666560   -0.61650795
Fe           -5.82226232    0.19607205    1.13113970
C            -5.72713894    1.24859416   -1.73357652
H            -6.69753941    1.49732502   -2.19991818
H            -5.00339622    1.06181478   -2.53846098
C            -4.96430203    3.52285894   -2.02390693
H            -4.19561539    3.16463901   -2.71880414
H            -5.88902513    3.77644895   -2.57337891
H            -4.58353369    4.42032252   -1.52074769
Pd           -3.40337146    2.00591200   -0.00844939
O            -2.34507846    1.99347434   -1.72110834
N            -1.60933527    1.71737640    0.78222780
C            -1.09558243    1.59059374   -1.61469997
C            -0.55569277    1.40389114   -0.17520049
C            -1.39604474    2.16158497    2.00455033
O            -0.38244703    1.36274767   -2.56839105
O            -2.34156217    2.57030565    2.74936786
H            -3.48267561    2.35493705    2.06753937
H             0.27232356    2.12451105   -0.05942241
O            -0.04647592    2.15580477    2.44617022
C            -0.19659616    4.43362814    3.20492151
C             0.15036138    2.99574062    3.52959443
C            -0.60827612    2.53621368    4.75646002
C             1.62856163    2.95213921    3.85958444
H             0.66559765    4.83715790    2.60591372
H            -0.32951620    5.00412456    4.14476805
H            -1.10694056    4.44359845    2.56014881
H            -0.88090764    3.46210392    5.33015177
H             0.04660655    1.94823095    5.43083618
H            -1.55759896    2.03591824    4.50912440
H             1.89241800    3.63571606    4.70015010
H             2.17248691    3.18700116    2.92606482
H             1.86321946    1.89502079    4.10370283
C             0.00000000    0.00000000    0.00000000
C             1.50759708   -0.00000000    0.00000000
C             1.94876362    0.88102743    1.16417887
C             3.38447180    1.10709628    0.77039719
C             3.20659267    1.60505773   -0.64560467
C             2.11454968    0.68298284   -1.17359964
H            -0.31870383   -0.35180160    1.00547990
H            -0.43250848   -0.70095967   -0.72812913
H             1.94484182   -0.98134753    0.15876512
H             1.82398180    0.38443942    2.13483695
H             1.43312935    1.86899351    1.11079352
H             3.90998649    1.81178313    1.42170027
H             3.93869594    0.14633730    0.76326828
H             4.13051229    1.51179865   -1.24366595
H             2.79253955    2.61466393   -0.60995506
H             2.62831711   -0.05951233   -1.85016989
H             1.39885351    1.25801252   -1.79567552



