%chk=cyc_sp_23.chk
%mem=300GB
%nprocshared=96
#p opt=(calcfc,ts,noeigen,maxstep=5) freq b3lyp def2svp em=gd3bj  

Freeze index  [38, 37]  [38, 1]  [30, 11]  [30, 1]  [30, 32]  [30, 31] // Local index  30  38  34  11  (34,)  [37, 38]  [1, 38]

0 1
C            -2.87357496   -5.58037206    1.24364250
C            -4.09554826   -4.17011463    3.08196786
C            -3.95743085   -5.34174697    2.15576855
C            -3.20691912   -6.70462277    0.43756056
C            -4.47976067   -7.19576386    0.86408873
C            -4.93476594   -6.37002329    1.93483820
H            -2.59720173   -7.11572776   -0.36449786
H            -5.01258407   -8.04634943    0.44308378
H            -5.88121215   -6.46967663    2.46465191
H            -4.85699822   -4.38624615    3.85300526
N            -4.46126683   -2.87165141    2.42178754
H            -3.14069629   -3.98167270    3.59093434
C            -4.73468011   -4.22254762   -1.52514113
C            -5.93555469   -4.96940410   -1.35128379
C            -6.55170566   -4.53932862   -0.13657548
C            -5.73483239   -3.50736638    0.42451390
C            -4.60725793   -3.26532339   -0.44713214
H            -4.04476356   -4.29948084   -2.36219579
H            -6.30808368   -5.74805057   -2.01478630
H            -7.45545897   -4.95457657    0.30700325
Fe           -4.66825729   -5.21703411    0.27203981
H            -1.97471407   -4.97307922    1.16215705
C            -5.81364743   -2.88653407    1.78150401
H            -6.53768804   -3.40759960    2.43213898
H            -6.13019205   -1.83530338    1.70304393
C            -4.38026773   -1.79866385    3.43614227
H            -4.62041064   -0.83565319    2.96854647
H            -5.09037497   -1.99110848    4.26088927
H            -3.35551552   -1.75137212    3.82232023
Pd           -3.06792998   -2.43319011    0.85982742
O            -1.62883366   -2.02909262    2.19576593
N            -1.68082815   -1.80425782   -0.42210182
C            -0.44313735   -1.74591133    1.69607691
C            -0.39295989   -1.45775722    0.17585902
C            -2.03469384   -1.57725580   -1.67145161
O             0.55965172   -1.65858727    2.37073046
O            -3.22859571   -1.74298832   -2.07288974
H             0.40548405   -2.09463622   -0.24433001
H            -3.90882586   -2.30336388   -1.05690540
O            -1.01064095   -1.15589836   -2.56036074
C            -0.03359229   -3.35352440   -2.61070596
C            -0.58841466   -2.18035024   -3.39118510
C            -1.68131817   -2.64383805   -4.33066931
C             0.54071477   -1.62674739   -4.23642716
H             1.00064516   -3.05369659   -2.28590712
H            -0.00224656   -4.24958277   -3.26074489
H            -0.65853512   -3.50217068   -1.69860821
H            -1.50554601   -3.73791480   -4.51185375
H            -1.58512377   -2.15701582   -5.32219218
H            -2.68697210   -2.56195233   -3.88948955
H             0.97677743   -2.39807900   -4.91344390
H             1.28264222   -1.19685256   -3.53843601
H             0.11509552   -0.77544769   -4.80764954
C             0.00000000    0.00000000    0.00000000
C             1.53531894   -0.00000000    0.00000000
O            -0.49898945    0.65194643    1.08507979
C            -1.36350779    1.69095717    0.85900259
C            -0.66489254    2.74803072    0.05575357
C            -1.66878649    2.30378583    2.23358794
C            -2.64851366    1.23024621    0.20946650
H             1.93267941    0.76232348   -0.70487124
H             1.91523852   -0.97795296   -0.36144441
H             1.91709135    0.16693461    1.01546115
H            -0.31777430    0.33658630   -0.98222062
H            -0.11853993    3.42039198    0.76950496
H            -1.37530749    3.40966642   -0.48629756
H             0.07115981    2.29614397   -0.63351359
H            -2.29274803    1.61566483    2.81572517
H            -0.69539424    2.50661079    2.72802401
H            -2.16235827    3.29665233    2.11847725
H            -2.60077741    1.34033294   -0.90111764
H            -2.81425681    0.18005423    0.52041243
H            -3.51199444    1.82613736    0.58336992



