%chk=cyc_rp_20.chk
%mem=300GB
%nprocshared=68
#p opt=(readfc,ts,noeigen,nofreeze,maxcyc=300) freq b3lyp guess=tcheck chkbas em=gd3bj  

Freeze index  [38, 37]  [38, 1]  [30, 11]  [30, 1]  [30, 32]  [30, 31] // Local index  30  38  34  11  (34,)  [37, 38]  [1, 38]

0 1
C            -2.73785645    1.92445836    4.10639932
C            -4.92948993    3.13619047    3.57267990
C            -4.06007001    2.35425342    4.50517641
C            -2.31134009    0.98079011    5.11692183
C            -3.30662760    0.89997726    6.13280217
C            -4.39921773    1.73867171    5.75061202
H            -1.34869243    0.47373353    5.11822406
H            -3.25700367    0.28903999    7.03248174
H            -5.33949003    1.85100598    6.28839406
H            -5.98999677    3.11209978    3.87874563
N            -4.78373914    2.62116219    2.17416259
H            -4.61150015    4.18972204    3.54895883
C            -4.10241504   -1.60711859    3.53497950
C            -5.23006471   -1.38182635    4.38391120
C            -5.97399004   -0.28883444    3.84776472
C            -5.29118698    0.18991834    2.67925662
C            -4.14985419   -0.65890906    2.47557717
H            -3.33823823   -2.36951067    3.67258449
H            -5.47663118   -1.94098567    5.28464325
H            -6.87796924    0.14302012    4.27524644
H            -3.42589104   -0.55948930    1.66980706
Fe           -4.08524918    0.34437613    4.29054822
C            -5.63730036    1.41840967    1.89033170
H            -6.69137592    1.69737625    2.06955519
H            -5.51836129    1.21894684    0.81674093
C            -5.12200170    3.67352805    1.19219094
H            -4.90741658    3.30053257    0.18377119
H            -6.18683331    3.95682329    1.27714751
H            -4.49612607    4.55598391    1.37425134
Pd           -2.72436431    2.09756776    1.94544088
O            -2.85345516    2.07106353   -0.06353212
N            -0.81236227    1.75367600    1.55431981
C            -1.78441604    1.63351350   -0.69644695
C            -0.51627292    1.41990806    0.16650335
C             0.08098666    2.18145165    2.42370015
O            -1.76136376    1.39456230   -1.88488016
O            -0.24745721    2.60930082    3.57473389
H            -1.57796402    2.43083504    3.68110683
H             0.24511235    2.11676558   -0.22463691
O             1.43636520    2.13525504    2.00273409
C             1.81488839    4.40973640    2.68842619
C             2.24663121    2.96023318    2.76491861
C             2.32598465    2.51098701    4.20844760
C             3.64121116    2.87369404    2.17880581
H             2.18182153    4.79482258    1.69741990
H             2.26599329    4.97556565    3.52675015
H             0.70001572    4.44993603    2.68947836
H             2.46092025    3.43899308    4.82595874
H             3.23412585    1.89969120    4.38444534
H             1.39555575    2.03878401    4.56059912
H             4.36129690    3.54263581    2.70553304
H             3.55056450    3.10168450    1.10071618
H             3.94511828    1.80854388    2.25128368
C             0.00000000    0.00000000    0.00000000
C             1.48357064    0.00000000   -0.00000000
C             2.33875470   -0.32205482    1.03998283
N             3.59671959   -0.17841878    0.62855722
C             3.57101019    0.23561229   -0.67071584
C             4.61862181    0.51870982   -1.53254764
C             4.38539797    0.92891080   -2.84148618
C             3.07308499    1.04740771   -3.25962576
C             2.04704240    0.75817006   -2.37592293
C             2.27774273    0.34926589   -1.07242492
H            -0.34730650   -0.44772357   -0.96524711
H            -0.33144017   -0.59755075    0.85722786
H             1.98164465   -0.63480039    2.02160727
H             4.46384941   -0.35112706    1.20321675
H             5.64603992    0.43150005   -1.21788547
H             5.22673718    1.13953730   -3.47711061
H             2.88577928    1.36235321   -4.27631674
H             1.01371888    0.85345609   -2.72113577



