%chk=cyc_rp_36.chk
%mem=300GB
%nprocshared=68
#p opt=(readfc,ts,noeigen,nofreeze,maxcyc=300) freq b3lyp guess=tcheck chkbas em=gd3bj  

Freeze index  [38, 37]  [38, 1]  [30, 11]  [30, 1]  [30, 32]  [30, 31] // Local index  30  38  34  11  (34,)  [37, 38]  [1, 38]

0 1
C            -3.81183374   -3.48714555   -1.17117581
C            -3.30605126   -5.17784713   -3.02647111
C            -4.03994357   -4.77591921   -1.78682506
C            -4.45629223   -3.55155407    0.12269688
C            -5.11759807   -4.80625804    0.25511043
C            -4.85011775   -5.57450689   -0.92025285
H            -4.47857343   -2.73416078    0.84045056
H            -5.70511638   -5.13472196    1.11071776
H            -5.16737745   -6.60043976   -1.10121847
H            -3.33675528   -6.26942683   -3.18908222
N            -1.88669149   -4.70463565   -2.96452914
H            -3.75479713   -4.69505968   -3.90803357
C            -1.65661439   -5.18870976    1.49721048
C            -2.25469150   -6.46556651    1.26274081
C            -2.02264760   -6.81733887   -0.10031499
C            -1.30587450   -5.74264971   -0.72650582
C            -1.05400758   -4.75311412    0.28444234
H            -1.66050403   -4.64172093    2.43791824
H            -2.79712801   -7.06350862    1.99280947
H            -2.37004613   -7.72208186   -0.59747869
H            -0.52835737   -3.81339564    0.12986734
Fe           -3.07929411   -5.07282045   -0.03316938
C            -0.98633201   -5.62192887   -2.18756948
H            -1.01945061   -6.61809910   -2.66460901
H             0.02739708   -5.21907963   -2.31639066
C            -1.32867118   -4.54777836   -4.32473975
H            -0.32887893   -4.10411841   -4.24947941
H            -1.27636308   -5.52478916   -4.83860152
H            -1.96565457   -3.86719647   -4.90323356
Pd           -1.93920139   -2.79152682   -2.01334737
O            -0.09578887   -2.30924927   -2.66340743
N            -1.88130267   -0.93730029   -1.31658288
C             0.40172536   -1.18845584   -2.18259816
C            -0.57362952   -0.29578333   -1.37617637
C            -3.02259101   -0.29025837   -1.19134638
O             1.55485602   -0.84746110   -2.33756539
O            -4.14606066   -0.87465495   -1.30137154
H            -3.87896683   -2.18509466   -1.45892241
H            -0.65533631    0.65412612   -1.93232805
O            -2.92738254    1.10089403   -0.92296628
C            -4.48989557    1.63128669   -2.67338210
C            -4.10459480    1.76926536   -1.21536367
C            -5.24858828    1.33135159   -0.32575393
C            -3.85441900    3.24037367   -0.95245137
H            -3.82702863    2.34017268   -3.24181227
H            -5.55759842    1.89606264   -2.80124831
H            -4.25892334    0.59180846   -3.00609068
H            -6.18519016    1.42726801   -0.93755442
H            -5.37618825    2.02721138    0.52798819
H            -5.17958153    0.27245389   -0.03137657
H            -4.74094007    3.86912547   -1.20185003
H            -2.95229823    3.51989098   -1.52736172
H            -3.58293930    3.32431533    0.12058638
C             0.00000000    0.00000000    0.00000000
C             1.46348582    0.00000000   -0.00000000
C             2.13028896    0.42436672   -1.12398024
C             3.50650428    0.45360752   -1.20140670
C             4.21703620    0.04046466   -0.10712685
C             3.56096277   -0.38779951    1.02718583
C             2.18626601   -0.41077199    1.08800126
C            -0.58995572    1.27144287    0.47991770
C            -0.83983982    2.24525083   -0.46866304
C            -1.38713001    3.43791209   -0.05797874
C            -1.69554179    3.70081129    1.25642272
C            -1.44250152    2.72248327    2.19636177
C            -0.89477731    1.52923340    1.78444744
H            -0.33087764   -0.85019217    0.66525452
H             1.56683881    0.76037041   -2.01393909
H             4.04892199    0.77973376   -2.06516825
H             5.32006445    0.03558680   -0.09421003
H             4.11527078   -0.72278876    1.91447529
H             1.70949143   -0.75975325    2.01229502
H            -0.60361896    2.06326335   -1.52674570
H            -1.57375455    4.18656384   -0.82299245
H            -2.12787727    4.66143797    1.53214276
H            -1.68461391    2.92766463    3.23136735
H            -0.69015866    0.74696270    2.52140549



