%chk=cyc_sp_2.chk
%mem=300GB
%nprocshared=96
#p opt=(calcfc,ts,noeigen,maxstep=5) freq b3lyp def2svp em=gd3bj  

Freeze index  [38, 37]  [38, 1]  [30, 11]  [30, 1]  [30, 32]  [30, 31] // Local index  30  38  34  11  (34,)  [37, 38]  [1, 38]

0 1
C            -3.67003897   -5.23179748    0.32208874
C            -5.25911415   -3.63847819    1.66285666
C            -4.95593897   -4.85546139    0.84025067
C            -3.84477904   -6.35273240   -0.53686230
C            -5.23011631   -6.70499247   -0.53186646
C            -5.91297917   -5.79655922    0.33058880
H            -3.05847907   -6.85190387   -1.09955273
H            -5.68662570   -7.51906343   -1.09180343
H            -6.98311204   -5.78546738    0.53328656
H            -6.24250931   -3.75043170    2.15419964
N            -5.26436556   -2.34024696    0.90776532
H            -4.49931820   -3.51873306    2.44686606
C            -4.41599284   -3.82313117   -2.90789183
C            -5.67977823   -4.44700533   -3.11705266
C            -6.60023481   -3.91116466   -2.16533963
C            -5.90140826   -2.93727894   -1.38416272
C            -4.53820047   -2.83783988   -1.85485603
H            -3.50905668   -3.99880246   -3.48162560
H            -5.90132268   -5.21454788   -3.85671491
H            -7.63495801   -4.22159054   -2.02769275
Fe           -5.02052765   -4.74371014   -1.17285674
H            -2.73451515   -4.71478189    0.52429020
C            -6.34028122   -2.25578948   -0.12876264
H            -7.28140488   -2.67958774    0.26334863
H            -6.50751581   -1.18383500   -0.31420433
C            -5.39856892   -1.23812607    1.88454456
H            -5.38006367   -0.27726508    1.35529252
H            -6.34803283   -1.32905937    2.44288519
H            -4.54845968   -1.27042198    2.57574516
Pd           -3.41293923   -2.09893648   -0.13499309
O            -2.43485254   -1.77529256    1.58478182
N            -1.63628391   -1.65589716   -0.91612173
C            -1.12981352   -1.62484029    1.48481292
C            -0.57423603   -1.40622321    0.05647359
C            -1.55352132   -1.44919479   -2.21537160
O            -0.38725315   -1.60324417    2.44215638
O            -2.57046262   -1.51960452   -2.97358950
H             0.24691086   -2.13165100   -0.08194144
H            -3.58934661   -1.97136061   -2.22076160
O            -0.26435184   -1.16245555   -2.73710768
C             0.45032417   -3.44170424   -2.45253339
C             0.29181026   -2.25551065   -3.38050498
C            -0.49054121   -2.65395263   -4.61381749
C             1.67980268   -1.84518205   -3.82878058
H             1.35436532   -3.22622357   -1.81903850
H             0.59372068   -4.36309801   -3.04996516
H            -0.44185064   -3.49335858   -1.78475535
H            -0.37868806   -3.76624085   -4.71884788
H            -0.03794194   -2.21995472   -5.52823893
H            -1.57018444   -2.46044919   -4.51577882
H             2.22626377   -2.68131603   -4.32447708
H             2.20364062   -1.45753604   -2.93559419
H             1.54459427   -0.98249444   -4.51408833
C             0.00000000    0.00000000    0.00000000
C             1.51736118    0.00000000    0.00000000
C             2.10595578   -0.73022457   -1.15514038
C             1.94553717   -0.56222034    1.34370148
H            -0.38783080    0.60009943   -0.86017674
H            -0.32883906    0.54699786    0.91104479
H             1.87719460    1.04803178   -0.03899707
H             2.20457645   -0.04320423   -2.03179422
H             3.14433387   -1.03540653   -0.87696077
H             1.56719934   -1.61171029   -1.47813248
H             1.20243069   -1.32361278    1.69692192
H             2.94344499   -1.02188063    1.26805085
H             1.94804071    0.29000792    2.08359060



