%chk=cyc_rp_25.chk
%mem=300GB
%nprocshared=68
#p opt=(readfc,ts,noeigen,nofreeze,maxcyc=300) freq b3lyp guess=tcheck chkbas em=gd3bj  

Freeze index  [38, 37]  [38, 1]  [30, 11]  [30, 1]  [30, 32]  [30, 31] // Local index  30  38  34  11  (34,)  [37, 38]  [1, 38]

0 1
C            -4.66158941    1.81061526    1.74733220
C            -6.17280119    2.96564200    0.03310917
C            -5.98202546    2.19986120    1.30356211
C            -4.87244919    0.87014960    2.82651904
C            -6.26931328    0.75256446    3.07966968
C            -6.96203750    1.56393136    2.12832968
H            -4.07445613    0.39008124    3.38913796
H            -6.73249108    0.13519612    3.84742802
H            -8.04276398    1.64523143    2.02174131
H            -7.21362388    2.90930940   -0.33082234
N            -5.23030425    2.46743790   -1.01848024
H            -5.92926888    4.02778339    0.18853318
C            -5.34462274   -1.75229030    0.52269101
C            -6.76128809   -1.56608577    0.56040798
C            -7.08782530   -0.48944795   -0.31693672
C            -5.86841993    0.01858250   -0.87888958
C            -4.79663397   -0.79629986   -0.37701765
H            -4.78015529   -2.49433001    1.08384746
H            -7.46792959   -2.13994847    1.15715900
H            -8.08404726   -0.08676466   -0.49527727
H            -3.74302637   -0.66954999   -0.61601114
Fe           -5.82230096    0.19206824    1.13162765
C            -5.72821052    1.24399810   -1.73334020
H            -6.69883558    1.49191034   -2.19965041
H            -5.00440475    1.05756305   -2.53824781
C            -4.96706638    3.51875395   -2.02426558
H            -4.19818106    3.16093673   -2.71915047
H            -5.89202524    3.77153960   -2.57371140
H            -4.58690959    4.41661240   -1.52134844
Pd           -3.40484074    2.00341638   -0.00860082
O            -2.34669549    1.99135841   -1.72135377
N            -1.61052139    1.71637766    0.78197865
C            -1.09689494    1.58941780   -1.61496683
C            -0.55673706    1.40344320   -0.17547373
C            -1.39744458    2.16102465    2.00417905
O            -0.38368002    1.36187393   -2.56867058
O            -2.34319307    2.56922460    2.74898879
H            -3.48421076    2.35286269    2.06731456
H             0.27076173    2.12469619   -0.05993787
O            -0.04783152    2.15633504    2.44567665
C            -0.19955098    4.43422301    3.20391575
C             0.14848948    2.99666506    3.52888887
C            -0.60969903    2.53686588    4.75593000
C             1.62675143    2.95422270    3.85875355
H             0.66229223    4.83824589    2.60473583
H            -0.33280299    5.00483896    4.14364271
H            -1.10996138    4.44337755    2.55922414
H            -0.88295629    3.46268863    5.32943292
H             0.04567584    1.94951880    5.43038192
H            -1.55867773    2.03581805    4.50879685
H             1.89018382    3.63818677    4.69913719
H             2.17041917    3.18926743    2.92512992
H             1.86220591    1.89733287    4.10309451
C             0.00000000    0.00000000    0.00000000
C             1.50099829   -0.00000000    0.00000000
C             2.10671613    0.52932640   -1.25474462
C             3.61991044    0.46389409   -1.10013075
H            -0.44163973   -0.68648645   -0.74200379
H            -0.32055281   -0.35422603    1.01593586
H             1.92627399   -0.97167335    0.23959047
H             1.80928317    0.69391952    0.83328826
H             1.82990733    1.58969947   -1.42749297
H             1.78494027   -0.02458667   -2.15591981
H             4.04434654    0.06716751   -2.05846740
H             4.05549459    1.47510702   -0.94967210
H             3.89952073   -0.23260584   -0.26585534



