%chk=cyc_sp_17.chk
%mem=300GB
%nprocshared=96
#p opt=(calcfc,ts,noeigen,maxstep=5) freq b3lyp def2svp em=gd3bj  

Freeze index  [38, 37]  [38, 1]  [30, 11]  [30, 1]  [30, 32]  [30, 31] // Local index  30  38  34  11  (34,)  [37, 38]  [1, 38]

0 1
C            -2.97959971   -5.05436841    2.55342468
C            -3.43585662   -3.38293884    4.51802075
C            -3.71039213   -4.61641801    3.71005830
C            -3.66037420   -6.16989672    1.99042488
C            -4.79592136   -6.45747836    2.80963235
C            -4.81768080   -5.51441628    3.87993238
H            -3.36588774   -6.70757321    1.09140206
H            -5.52111897   -7.25203936    2.64409378
H            -5.56931385   -5.45276289    4.66583338
H            -3.95348484   -3.44690421    5.49218039
N            -3.83356834   -2.08932075    3.86688906
H            -2.35822316   -3.29499735    4.71108014
C            -5.41441947   -3.62736274    0.31537420
C            -6.58520508   -4.19287970    0.89810257
C            -6.76127845   -3.61057469    2.19040373
C            -5.70487281   -2.66660552    2.39035034
C            -4.86694287   -2.63266817    1.21285406
H            -5.01693878   -3.84753808   -0.67260149
H            -7.22226744   -4.95268410    0.44848874
H            -7.53323342   -3.87202910    2.91268490
Fe           -4.92938781   -4.51097695    2.10625246
H            -2.08344216   -4.58039592    2.15890333
C            -5.30781014   -1.95976746    3.64565426
H            -5.85971571   -2.33765248    4.52410352
H            -5.51394065   -0.88206574    3.55898444
C            -3.33607752   -0.97771499    4.70570621
H            -3.59501691   -0.02117209    4.23487710
H            -3.78643426   -1.02195155    5.71402996
H            -2.24432699   -1.04626278    4.77548440
Pd           -2.92640208   -1.93892727    1.93614142
O            -1.12011987   -1.65316661    2.75754884
N            -1.92082307   -1.58236154    0.25548035
C            -0.11214431   -1.56388125    1.91388428
C            -0.48329677   -1.37779499    0.42249877
C            -2.60167467   -1.38565181   -0.85599259
O             1.04881022   -1.57239155    2.26098797
O            -3.87160514   -1.41226360   -0.88028158
H             0.07824705   -2.14116266   -0.14462092
H            -4.27798053   -1.81282251    0.33765503
O            -1.84702996   -1.16141580   -2.03777745
C            -1.18064333   -3.47004529   -2.15125707
C            -1.80738081   -2.28202123   -2.85062258
C            -3.17435438   -2.64936015   -3.38759091
C            -0.92535918   -1.93857994   -4.03380872
H            -0.06990709   -3.29385135   -2.16734428
H            -1.44376642   -4.39981608   -2.69231740
H            -1.51942664   -3.47720418   -1.08836187
H            -3.18353681   -3.76610768   -3.50385879
H            -3.32286374   -2.24100468   -4.40766818
H            -3.98816431   -2.40552979   -2.68691637
H            -0.79870524   -2.80141960   -4.72873410
H             0.03335105   -1.57158345   -3.62314362
H            -1.40342271   -1.07368418   -4.53934656
C             0.00000000    0.00000000    0.00000000
C             1.51805885    0.00000000    0.00000000
C             2.04146608   -1.01980735   -0.94950791
C             3.39257498   -0.76839389   -1.48771956
C             4.26143039    0.14466535   -0.68804824
C             3.56328692    1.31397082   -0.07346632
C             2.08339856    1.34950887   -0.33260962
H            -0.36455930    0.18322353   -1.02880874
H            -0.40364333    0.79753766    0.64598186
H             1.88286312   -0.27039694    1.02196373
H             1.28818669   -1.10469191   -1.78872931
H             1.96325288   -2.02203069   -0.43261369
H             3.92614497   -1.74172183   -1.58323711
H             3.30029380   -0.39001903   -2.54841599
H             5.04111055    0.54612779   -1.38240849
H             4.83122914   -0.41127085    0.09420399
H             3.98508462    2.29083925   -0.39418329
H             3.68976126    1.29375689    1.04166501
H             1.92891079    1.65558638   -1.37208056
H             1.64468828    2.13811064    0.31375671



