%chk=cyc_rp_21.chk
%mem=300GB
%nprocshared=68
#p opt=(readfc,ts,noeigen,nofreeze,maxcyc=300) freq b3lyp guess=tcheck chkbas em=gd3bj  

Freeze index  [38, 37]  [38, 1]  [30, 11]  [30, 1]  [30, 32]  [30, 31] // Local index  30  38  34  11  (34,)  [37, 38]  [1, 38]

0 1
C            -5.06926593    1.52174840    0.22076687
C            -6.07009199    2.53195654   -1.90860749
C            -6.21941781    1.80904751   -0.60784977
C            -5.53428067    0.59268989    1.22783852
C            -6.93377559    0.38438907    1.06301872
C            -7.36023797    1.12502518   -0.08276436
H            -4.91193269    0.18128926    2.01981775
H            -7.56617319   -0.24664328    1.68511329
H            -8.36356501    1.12909932   -0.50615398
H            -6.95086503    2.39591202   -2.56026851
N            -4.83019995    2.07729294   -2.61450891
H            -5.94733519    3.61152207   -1.73231801
C            -5.14486265   -2.10567197   -1.00262317
C            -6.51743619   -2.01704296   -1.39149617
C            -6.63261434   -0.98491382   -2.36973576
C            -5.33394089   -0.40618506   -2.56811856
C            -4.41266629   -1.13392055   -1.73969356
H            -4.72906041   -2.79452638   -0.27000384
H            -7.33376695   -2.62523513   -1.00616675
H            -7.55326089   -0.65602407   -2.85000529
H            -3.34509109   -0.93989362   -1.66282257
Fe           -5.89658114   -0.18617363   -0.64212927
C            -5.01989162    0.80708691   -3.39318348
H            -5.82151690    0.97710877   -4.13447166
H            -4.08017632    0.65363209   -3.94082920
C            -4.34363321    3.12212923   -3.54064805
H            -3.38337078    2.80325488   -3.96290155
H            -5.07736629    3.29835682   -4.34806354
H            -4.18392326    4.05485532   -2.98557201
Pd           -3.36211887    1.76264930   -1.09357934
O            -1.84487337    1.78644450   -2.41673440
N            -1.86922740    1.61759385    0.20149712
C            -0.66123299    1.47425328   -1.93051638
C            -0.56221666    1.35745460   -0.38939624
C            -2.05509167    2.10242072    1.41281205
O             0.31496533    1.27582460   -2.62164985
O            -3.20173898    2.46040959    1.82856783
H            -4.07424629    2.15091057    0.85063380
H             0.14928461    2.13651770   -0.06515051
O            -0.89936375    2.20063395    2.23198521
C            -1.40454176    4.47856455    2.81725973
C            -1.08354959    3.07591809    3.28933966
C            -2.14273386    2.59165650    4.25655962
C             0.23015629    3.14293725    4.04137408
H            -0.42944269    4.92803668    2.48232483
H            -1.84423970    5.05894096    3.65169030
H            -2.08164760    4.41073228    1.93324353
H            -2.62842559    3.50865262    4.68544718
H            -1.68309850    2.06583866    5.11773853
H            -2.94411327    2.02095750    3.76180918
H             0.19126870    3.86161520    4.89310049
H             1.01123901    3.39460084    3.30039572
H             0.44507395    2.11042082    4.38760762
C             0.00000000    0.00000000    0.00000000
C             1.48761530    0.00000000    0.00000000
C             2.22948725   -0.32119472   -1.11943069
C             3.61060270   -0.31602344   -1.10140658
C             4.31408545    0.01146108    0.03994196
O             5.70817181    0.02027150    0.07064533
C             6.39215552   -0.32130960   -1.11976654
C             3.57235113    0.33295687    1.16041425
C             2.19126855    0.32767068    1.14199688
H            -0.32435117   -0.72216369   -0.80117531
H            -0.42871866   -0.36357797    0.95097222
H             1.67631713   -0.57776859   -2.01365726
H             4.17793082   -0.57301216   -1.99708400
H             5.99991582    0.34084480   -1.91880334
H             6.16145390   -1.36912281   -1.39182534
H             7.48760362   -0.19324209   -1.00551570
H             4.12172263    0.58979686    2.05556860
H             1.61612875    0.58141981    2.02638427



