%chk=cyc_sp_33.chk
%mem=300GB
%nprocshared=96
#p opt=(calcfc,ts,noeigen,maxstep=5) freq b3lyp def2svp em=gd3bj  

Freeze index  [38, 37]  [38, 1]  [30, 11]  [30, 1]  [30, 32]  [30, 31] // Local index  30  38  34  11  (34,)  [37, 38]  [1, 38]

0 1
C            -0.98859334    6.32195074    0.01593888
C             1.41169161    6.36688839    1.06384042
C             0.24915313    6.97614422    0.33792339
C            -1.75018493    7.19027327   -0.81521714
C            -1.01184004    8.40215596   -0.98685227
C             0.21074462    8.28008344   -0.26175450
H            -2.72454320    6.96695364   -1.24511784
H            -1.32325652    9.26511465   -1.57248341
H             1.00253479    9.02614962   -0.20839395
H             2.09272671    7.16105311    1.41952448
N             2.22187390    5.38580551    0.26592070
H             1.05426032    5.80855536    1.93951538
C             0.11354392    5.60547856   -3.33749569
C             0.55039416    6.91398386   -3.69400160
C             1.69402061    7.23020676   -2.89886334
C             1.97224784    6.09978217   -2.06713071
C             1.01582858    5.05328867   -2.34977775
H            -0.72321307    5.06538266   -3.77418575
H             0.08218031    7.56873086   -4.42706771
H             2.22942353    8.17850452   -2.89269475
Fe            0.12047444    6.80353006   -1.66779534
H            -1.26774144    5.31686750    0.32461246
C             2.91353748    5.99882283   -0.91090938
H             3.33575431    6.98119299   -0.63567893
H             3.75284173    5.33122154   -1.15853678
C             3.20419808    4.75273266    1.17203143
H             3.79167079    4.01312823    0.61385127
H             3.88415222    5.51287145    1.59787909
H             2.66559754    4.23492082    1.97407094
Pd            0.94615343    3.86067899   -0.52140494
O             0.69261658    3.06841509    1.30261855
N            -0.10379774    2.26004247   -1.06777037
C            -0.14074515    2.05070395    1.37697425
C            -0.56174094    1.41204909    0.03105615
C            -0.18167928    1.96579925   -2.35033855
O            -0.53237308    1.58664823    2.42561559
O             0.39553449    2.66829489   -3.23766356
H            -1.66471401    1.35615187    0.03456497
H             0.89863911    3.74909403   -2.61499435
O            -0.96200707    0.83239130   -2.70085364
C            -3.01491237    1.99601978   -2.23366255
C            -2.19546751    1.18974145   -3.21943055
C            -2.07171427    1.93347679   -4.53222622
C            -2.95089034   -0.09588159   -3.48841619
H            -3.42701396    1.25883965   -1.49084640
H            -3.83083515    2.51860864   -2.76996905
H            -2.33461468    2.69573538   -1.69313993
H            -2.93611105    2.64862431   -4.57815916
H            -2.20588247    1.24617200   -5.39186444
H            -1.15968764    2.54785923   -4.59076090
H            -3.98067453    0.09351688   -3.87198824
H            -2.94143378   -0.67617033   -2.54733538
H            -2.34210686   -0.66919236   -4.21838562
C             0.00000000    0.00000000    0.00000000
C             1.48550341    0.00000000    0.00000000
C             2.22505493    0.02550126   -1.15875148
C             3.61764139    0.02513891   -1.14196918
C             4.30698249   -0.00049820    0.03421136
O             5.63561230   -0.00355177    0.22346870
C             6.76082460    0.02049937   -0.53472585
C             6.97644130    1.19411225   -1.41199583
C             7.58063288    2.33253167   -0.85203562
C             7.83687030    3.45866311   -1.59060612
C             7.50512113    3.51423181   -2.93074343
C             6.91001141    2.39243192   -3.48216662
C             6.65015638    1.25793671   -2.74519489
C             3.52326760   -0.02638099    1.20439305
C             2.15326532   -0.02598980    1.18104881
H            -0.35803640   -0.50845315    0.94264970
H            -0.41727414   -0.60046563   -0.83437975
H             1.70698408    0.04672091   -2.12333507
H             4.16779366    0.03994675   -2.04868077
H             7.64799884    0.01481041    0.17894809
H             6.93566480   -0.94151647   -1.11934434
H             7.83583249    2.28874283    0.18057874
H             8.30527548    4.34342421   -1.15975509
H             7.71490255    4.41178562   -3.49788888
H             6.64877003    2.42429306   -4.51942854
H             6.19089208    0.40351872   -3.21455595
H             3.99478476   -0.04777672    2.17650132
H             1.59510443   -0.04698553    2.13082806



