%chk=cyc_sp_9.chk
%mem=300GB
%nprocshared=96
#p opt=(calcfc,ts,noeigen,maxstep=5) freq b3lyp def2svp em=gd3bj  

Freeze index  [38, 37]  [38, 1]  [30, 11]  [30, 1]  [30, 32]  [30, 31] // Local index  30  38  34  11  (34,)  [37, 38]  [1, 38]

0 1
C            -1.15078572    6.29442110    0.02423335
C             1.24695809    6.39955371    1.07364112
C             0.06955301    6.97975630    0.34788211
C            -1.93397645    7.14406038   -0.80615899
C            -1.22693092    8.37476439   -0.97564563
C            -0.00202244    8.28312827   -0.24998472
H            -2.90202896    6.89637994   -1.23695948
H            -1.56009632    9.23026439   -1.56025005
H             0.77029763    9.04922423   -0.19509875
H             1.90715238    7.21045568    1.43085122
N             2.08254307    5.44075556    0.27483032
H             0.90350224    5.83097358    1.94831490
C            -0.02869950    5.61128228   -3.32954157
C             0.37457182    6.93108972   -3.68394432
C             1.50924190    7.27547461   -2.88767421
C             1.81596528    6.15139450   -2.05736464
C             0.88692287    5.08106488   -2.34205831
H            -0.85104942    5.05047723   -3.76749404
H            -0.10990352    7.57462609   -4.41637065
H             2.02008767    8.23721177   -2.87985007
Fe           -0.05351201    6.80674203   -1.65815442
H            -1.40417966    5.28205685    0.33132535
C             2.75888527    6.07302124   -0.90072024
H             3.15555440    7.06552770   -0.62385475
H             3.61521320    5.42756734   -1.14878105
C             3.08030379    4.83185538    1.18064089
H             3.68690990    4.10839022    0.62177490
H             3.74025247    5.60861520    1.60796602
H             2.55473859    4.29923071    1.98162728
Pd            0.84689394    3.88446116   -0.51540650
O             0.61277537    3.08335057    1.30734829
N            -0.16125572    2.25814272   -1.06465372
C            -0.19419190    2.04444961    1.37977146
C            -0.59787050    1.39709747    0.03270360
C            -0.23082267    1.96381776   -2.34768100
O            -0.57435434    1.56899071    2.42752341
O             0.32864378    2.68217876   -3.23366987
H            -1.69904402    1.31286200    0.03547015
H             0.80344734    3.77466705   -2.60917896
O            -0.98155927    0.81122535   -2.70025890
C            -3.06396189    1.92103454   -2.23266741
C            -2.22350467    1.13748806   -3.21907491
C            -2.11816838    1.88602359   -4.53074881
C            -2.94547783   -0.16674467   -3.49032250
H            -3.45739746    1.17245010   -1.49113665
H            -3.89274523    2.42323916   -2.76872942
H            -2.40218138    2.63723707   -1.69075222
H            -3.00063678    2.57878015   -4.57619624
H            -2.23413856    1.19671945   -5.39143318
H            -1.22220331    2.52372912   -4.58787076
H            -3.97957333   -0.00333436   -3.87424741
H            -2.92163972   -0.74793539   -2.55005305
H            -2.32174557   -0.72317936   -4.22073090
C             0.00000000    0.00000000    0.00000000
C             1.50498149    0.00000000    0.00000000
H            -0.32989239   -0.53635590    0.91839132
H            -0.33303187   -0.59256916   -0.86626087
H             1.94761905    0.61854744    0.79430522
H             1.81767702   -1.06072839    0.21687973
H             1.91630999    0.26348117   -1.00802374



