%chk=cyc_sp_34.chk
%mem=300GB
%nprocshared=96
#p opt=(calcfc,ts,noeigen,maxstep=5) freq b3lyp def2svp em=gd3bj  

Freeze index  [38, 37]  [38, 1]  [30, 11]  [30, 1]  [30, 32]  [30, 31] // Local index  30  38  34  11  (34,)  [37, 38]  [1, 38]

0 1
C            -4.10787669   -4.82880990   -0.86751139
C            -5.85167160   -3.06913084   -0.01651562
C            -5.44468944   -4.31875054   -0.73932960
C            -4.13524356   -5.93473854   -1.76249687
C            -5.48957981   -6.14450613   -2.16875088
C            -6.30018809   -5.16289312   -1.52475410
H            -3.27289761   -6.51672998   -2.08141025
H            -5.84161497   -6.91358777   -2.85375193
H            -7.37614178   -5.04122189   -1.64270980
H            -6.94174023   -3.07578574    0.16438120
N            -5.50631275   -1.78467280   -0.71400371
H            -5.34603307   -3.01930043    0.95721234
C            -3.73307382   -3.38401795   -4.14556896
C            -4.93639513   -3.87845806   -4.72666062
C            -6.03631217   -3.24248919   -4.07408929
C            -5.50244496   -2.33681190   -3.10363385
C            -4.05840147   -2.38094947   -3.15429021
H            -2.72041755   -3.65655027   -4.43334920
H            -5.00779419   -4.62689580   -5.51409118
H            -7.09172807   -3.44490249   -4.25041036
Fe           -4.90691743   -4.22112065   -2.68111516
H            -3.22543080   -4.40742349   -0.39094230
C            -6.21845148   -1.60180107   -2.01728194
H            -7.27050437   -1.92395560   -1.92524312
H            -6.21618031   -0.52031328   -2.22178488
C            -5.80909544   -0.66492753    0.20320502
H            -5.54083705    0.28376241   -0.27817720
H            -6.88435913   -0.65344695    0.45849123
H            -5.20564621   -0.77643820    1.11144585
Pd           -3.41661648   -1.74294095   -1.16653349
O            -2.95630577   -1.50308999    0.76985755
N            -1.45429336   -1.49033166   -1.38659362
C            -1.67077876   -1.48687600    1.05780531
C            -0.70326548   -1.34004478   -0.14176614
C            -0.97539524   -1.30607578   -2.60081440
O            -1.24197744   -1.53120334    2.19029519
O            -1.72821840   -1.28047141   -3.62386046
H             0.04567340   -2.14641466   -0.04932931
H            -2.96239400   -1.61894511   -3.21009226
O             0.43186182   -1.15688468   -2.71809795
C             0.80063280   -3.49394519   -2.28350039
C             1.03951423   -2.30711075   -3.19326566
C             0.61580195   -2.63638035   -4.60887119
C             2.53166428   -2.04427155   -3.20899118
H             1.49700651   -3.36502108   -1.40972678
H             1.01941938   -4.43105222   -2.83160314
H            -0.24818052   -3.44811269   -1.90605957
H             0.64167006   -3.75526998   -4.69911768
H             1.35678377   -2.25970972   -5.34265047
H            -0.42038986   -2.33332805   -4.82601288
H             3.11263140   -2.93645720   -3.54055827
H             2.80776435   -1.70289862   -2.19425436
H             2.68948772   -1.17919951   -3.88641281
C             0.00000000    0.00000000    0.00000000
C             1.47417436   -0.00000000    0.00000000
C             0.66620070    0.37796801    1.27010909
H            -0.47821761    0.85930379   -0.54208583
H             2.05419990   -0.93859201    0.11813484
H             2.06141905    0.81006984   -0.47261201
H             0.74026057    1.45470925    1.56326497
H             0.67392365   -0.33798524    2.10184413



