%chk=cyc_rp_7.chk
%mem=300GB
%nprocshared=68
#p opt=(readfc,ts,noeigen,nofreeze,maxcyc=300) freq b3lyp guess=tcheck chkbas em=gd3bj  

Freeze index  [38, 37]  [38, 1]  [30, 11]  [30, 1]  [30, 32]  [30, 31] // Local index  30  38  34  11  (34,)  [37, 38]  [1, 38]

0 1
C            -4.53029295    2.11116593    1.75537389
C            -5.93558500    3.41541362    0.05817012
C            -5.81400282    2.60795172    1.31120219
C            -4.82041565    1.16394473    2.80997454
C            -6.22444463    1.14478200    3.04971652
C            -6.84614555    2.02757506    2.11302274
H            -4.06553134    0.61272343    3.36684380
H            -6.73929473    0.54576686    3.79887635
H            -7.91681514    2.19159440    2.00030718
H            -6.97429343    3.44528835   -0.31482272
N            -5.02296199    2.87323357   -0.99800605
H            -5.61530869    4.45253387    0.24096405
C            -5.46460656   -1.36127191    0.44015146
C            -6.86382309   -1.07104218    0.47169867
C            -7.10135295    0.04721115   -0.38188104
C            -5.84242539    0.47608709   -0.92225337
C            -4.83881369   -0.42788625   -0.43212118
H            -4.96203230   -2.15624348    0.98749260
H            -7.61663602   -1.60454419    1.04912459
H            -8.06322432    0.52702488   -0.55794808
H            -3.77652962   -0.37436164   -0.66006872
Fe           -5.80221957    0.59842861    1.09214972
C            -5.60368236    1.70737503   -1.74585504
H            -6.54884763    2.03774203   -2.21333652
H            -4.88827700    1.48650643   -2.54955978
C            -4.67305829    3.92534451   -1.97616439
H            -3.92644733    3.52767843   -2.67367178
H            -5.57155168    4.25912089   -2.52629449
H            -4.23196571    4.78035608   -1.44891949
Pd           -3.24644913    2.25101338    0.01408758
O            -2.17626466    2.20040074   -1.69046016
N            -1.48581513    1.81270106    0.81098109
C            -0.96080254    1.70413562   -1.58440070
C            -0.44933347    1.44473015   -0.14578829
C            -1.25166547    2.21144485    2.04510581
O            -0.25762942    1.44656402   -2.53792418
O            -2.17136601    2.67133675    2.79240717
H            -3.31892156    2.55658712    2.09716449
H             0.42832938    2.09945885   -0.00669514
O             0.08971612    2.09592274    2.49648990
C             0.10052812    4.36036169    3.30822768
C             0.33782897    2.89365121    3.60107782
C            -0.46376835    2.46291152    4.81095389
C             1.80573181    2.73353264    3.94092158
H             0.99551860    4.71304358    2.72544786
H             0.00129648    4.91710494    4.26040176
H            -0.80066428    4.45240242    2.65712174
H            -0.67283650    3.39279590    5.40452650
H             0.13989335    1.81273322    5.47596437
H            -1.44499726    2.03984901    4.54469794
H             2.11141132    3.37607402    4.79949524
H             2.37399646    2.94929039    3.01734289
H             1.95977767    1.65660339    4.16149062
C             0.00000000    0.00000000    0.00000000
O             1.40608525    0.00000000    0.00000000
C             1.77145705    0.66896952   -1.19040892
C             3.26019439    0.75855139   -1.34988839
H            -0.30832914   -0.54532644   -0.91961128
H            -0.40927913   -0.49321504    0.89868047
H             1.30003872    0.04982665   -2.00693151
H             1.36760744    1.70248184   -1.21015128
H             3.80003832    0.84271101   -0.40074539
H             3.52362531    1.61242163   -2.00139050
H             3.59024377   -0.17835302   -1.86661594



