%chk=cyc_sp_30.chk
%mem=300GB
%nprocshared=96
#p opt=(calcfc,ts,noeigen,maxstep=5) freq b3lyp def2svp em=gd3bj  

Freeze index  [38, 37]  [38, 1]  [30, 11]  [30, 1]  [30, 32]  [30, 31] // Local index  30  38  34  11  (34,)  [37, 38]  [1, 38]

0 1
C            -3.46622554   -4.58915734    2.80527137
C            -3.82936189   -2.74690858    4.63167121
C            -4.18698466   -4.00878378    3.90405810
C            -4.22480503   -5.68212420    2.30048756
C            -5.40182753   -5.81368247    3.10085117
C            -5.37098848   -4.79665287    4.10089191
H            -3.95387124   -6.30650382    1.45148504
H            -6.18764966   -6.55500668    2.96832285
H            -6.13493320   -4.61552850    4.85585959
H            -4.37589605   -2.69641542    5.59071678
N            -4.09795017   -1.47552176    3.87865677
H            -2.75358215   -2.73522053    4.85271615
C            -5.71082575   -3.13106810    0.39502074
C            -6.94048956   -3.55314128    0.97803179
C            -7.09997181   -2.86563075    2.21981193
C            -5.97240677   -2.00090159    2.38681454
C            -5.10409074   -2.12272960    1.23748387
H            -5.30786385   -3.45495434   -0.56168374
H            -7.62812072   -4.28795261    0.56267718
H            -7.91008592   -3.00857035    2.93342694
Fe           -5.35009945   -3.91923965    2.25833415
H            -2.52283916   -4.22148197    2.40748710
C            -5.54943972   -1.24006268    3.60142961
H            -6.15441777   -1.50567623    4.48603176
H            -5.66043573   -0.15811865    3.43255261
C            -3.52948004   -0.35109805    4.65279611
H            -3.69336052    0.58685361    4.10773293
H            -4.00822146   -0.28411330    5.64668470
H            -2.44977593   -0.50509247    4.76239437
Pd           -3.13100171   -1.54223293    1.97237359
O            -1.32904756   -1.34888101    2.82946224
N            -2.05497546   -1.39402339    0.30409563
C            -0.29538152   -1.40555502    2.01455176
C            -0.61009941   -1.29830408    0.50257858
C            -2.68719665   -1.22274690   -0.83983902
O             0.85111446   -1.48544918    2.39865162
O            -3.95368672   -1.14517149   -0.90313568
H            -0.10114324   -2.14506524    0.00897392
H            -4.42454375   -1.42071967    0.32622385
O            -1.88546819   -1.14881897   -2.00951932
C            -1.41594115   -3.50705028   -1.93874933
C            -1.92039458   -2.32504257   -2.73980968
C            -3.29921278   -2.61535420   -3.29340622
C            -0.98158108   -2.14335466   -3.91516589
H            -0.29417645   -3.42564070   -1.93136505
H            -1.74324901   -4.44859533   -2.42125968
H            -1.78181779   -3.40853603   -0.88946347
H            -3.40068884   -3.73294661   -3.33105467
H            -3.38553805   -2.27142285   -4.34394228
H            -4.10729507   -2.25419855   -2.63823120
H            -0.91092438   -3.06205569   -4.54321909
H            -0.00611549   -1.82857080   -3.50063537
H            -1.37062775   -1.28076075   -4.49545234
C             0.00000000    0.00000000    0.00000000
C             1.50151415   -0.00000000    0.00000000
C             2.12270592   -1.05131962   -0.84599336
H            -0.41033176    0.32894384   -0.97815546
H            -0.30936510    0.81213683    0.72270763
H             1.89377806   -0.06053660    1.03590480
H             1.81363509    1.01167650   -0.36999400
H             2.72828113   -1.73840312   -0.21712001
H             1.40670611   -1.60694856   -1.48267261
H             2.85633186   -0.59114226   -1.56308585



