%chk=cyc_sp_12.chk
%mem=300GB
%nprocshared=96
#p opt=(calcfc,ts,noeigen,maxstep=5) freq b3lyp def2svp em=gd3bj  

Freeze index  [38, 37]  [38, 1]  [30, 11]  [30, 1]  [30, 32]  [30, 31] // Local index  30  38  34  11  (34,)  [37, 38]  [1, 38]

0 1
C            -1.11362752    6.14941345   -1.37447445
C            -0.51683949    6.48563558    1.15382213
C            -0.68263102    6.95039069   -0.26256757
C            -0.97654400    6.92185769   -2.56164086
C            -0.49569235    8.21739102   -2.19606386
C            -0.33259307    8.24349848   -0.77898985
H            -1.19866726    6.58192740   -3.57117985
H            -0.28462792    9.03887245   -2.87816490
H             0.03839019    9.08195646   -0.19098187
H            -0.45702280    7.35594610    1.83205447
N             0.68305469    5.61857436    1.40691039
H            -1.38381261    5.88113063    1.45253754
C             2.27703944    5.59883810   -2.45789807
C             2.71713918    6.95397474   -2.45176353
C             2.74183777    7.40464393   -1.09662129
C             2.33626557    6.31195791   -0.26680338
C             2.07381757    5.15649848   -1.09494005
H             2.16817506    4.96178279   -3.33246832
H             2.96873334    7.55036230   -3.32716402
H             2.98077311    8.41215834   -0.75929712
Fe            0.85341449    6.77690865   -1.55861142
H            -1.44570765    5.11529468   -1.31351106
C             1.98566528    6.32102346    1.18580256
H             1.93962895    7.34640002    1.59268526
H             2.73898019    5.76483512    1.76426053
C             0.59929570    5.10651014    2.79166789
H             1.45536164    4.44966391    2.99018269
H             0.60526843    5.94244276    3.51463112
H            -0.32061297    4.52016043    2.89866826
Pd            0.67054171    3.95193679    0.06694102
O            -0.87152139    3.12173439    1.04255880
N             0.60706061    2.23682943   -0.94168519
C            -1.34730435    2.00769662    0.52457527
C            -0.47460720    1.33087462   -0.56028631
C             1.60674634    1.94401446   -1.74946829
O            -2.38023462    1.49128490    0.89164856
O             2.60286486    2.71900112   -1.89495064
H            -1.13270976    1.13806349   -1.42597176
H             2.32027896    3.84971786   -1.22369594
O             1.51075274    0.72471043   -2.47090352
C            -0.18358247    1.62044335   -3.92472938
C             1.15753069    0.92926862   -3.79432180
C             2.21827777    1.69164352   -4.55949482
C             1.02370222   -0.43852286   -4.43234995
H            -0.96292028    0.83259496   -3.73246502
H            -0.28621148    2.04105829   -4.94404491
H            -0.26396179    2.39567781   -3.12652999
H             1.68016859    2.29390352   -5.33952622
H             2.87878032    0.99891562   -5.11916553
H             2.76101245    2.41518584   -3.93131471
H             0.69822189   -0.37617601   -5.49707066
H             0.32582841   -1.01958288   -3.80163690
H             2.01607701   -0.92653756   -4.33647574
C             0.00000000    0.00000000    0.00000000
C             1.48849574    0.00000000   -0.00000000
C             1.99599054    1.19440592    0.73188853
C             1.40223295    1.43794695    2.06304514
C            -0.01416754    1.05544407    2.24373840
C            -0.49016180   -0.08458449    1.41717818
H            -0.42349270   -0.83640753   -0.57283980
H             1.95901657   -0.91300583    0.38339654
H             1.81804316    0.11012538   -1.07520817
H             3.10993728    1.04621793    0.85095351
H             1.90123865    2.07557863    0.04484389
H             2.05205169    0.96624792    2.85161172
H             1.48684144    2.54438337    2.27789958
H            -0.15375858    0.76184322    3.32589575
H            -0.69246765    1.94061086    2.11591362
H            -0.28632785   -1.06058055    1.89939176
H            -1.61609612   -0.00948808    1.36467698



