%chk=cyc_sp_1.chk
%mem=300GB
%nprocshared=96
#p opt=(calcfc,ts,noeigen,maxstep=5) freq b3lyp def2svp em=gd3bj  

Freeze index  [38, 37]  [38, 1]  [30, 11]  [30, 1]  [30, 32]  [30, 31] // Local index  30  38  34  11  (34,)  [37, 38]  [1, 38]

0 1
C            -0.69469156    6.36097756    0.00035684
C             1.70616492    6.29736657    1.04597946
C             0.57235516    6.95795748    0.31952300
C            -1.41609257    7.26151444   -0.83237361
C            -0.62258263    8.43745185   -1.00782922
C             0.59377365    8.26073619   -0.28351528
H            -2.40018637    7.08246766   -1.26081491
H            -0.89429026    9.31240682   -1.59542646
H             1.41932470    8.96945917   -0.23281049
H             2.42361567    7.06004081    1.39898085
N             2.46922199    5.27776809    0.24989045
H             1.32414830    5.75843379    1.92342705
C             0.36966002    5.58563682   -3.35218919
C             0.86628615    6.87158493   -3.71249555
C             2.02414159    7.13652960   -2.91921229
C             2.25055766    5.99656430   -2.08478783
C             1.24640534    4.99477609   -2.36384751
H            -0.49165981    5.08376362   -3.78671821
H             0.42815525    7.54543785   -4.44684378
H             2.60289972    8.05902169   -2.91599568
Fe            0.43377614    6.78635329   -1.68562272
H            -1.01977952    5.37069739    0.31189877
C             3.18733811    5.85507305   -0.92915408
H             3.65488397    6.81753279   -0.65686365
H             3.99456648    5.14867892   -1.17579575
C             3.42209136    4.60219497    1.15676399
H             3.97410716    3.83474504    0.59998471
H             4.13695775    5.33110967    1.58001834
H             2.86090190    4.11194314    1.96063372
Pd            1.12342758    3.81136015   -0.53231187
O             0.83532457    3.03636449    1.29399672
N            -0.00009200    2.25968271   -1.07356115
C            -0.04420551    2.05854174    1.37175280
C            -0.49570194    1.43662875    0.02788219
C            -0.09282542    1.96607935   -2.35528784
O            -0.45583906    1.61581174    2.42195124
O             0.51540322    2.63880911   -3.24495862
H            -1.60007615    1.43189161    0.03252821
H             1.06866305    3.69673481   -2.62555991
O            -0.92517026    0.86913972   -2.70214718
C            -2.92149755    2.12780458   -2.23614393
C            -2.14128253    1.28191233   -3.22054425
C            -1.98455075    2.01575261   -4.53538386
C            -2.95571648    0.03197667   -3.48550028
H            -3.36654507    1.41240942   -1.49103953
H            -3.71288495    2.68625180   -2.77307639
H            -2.20896987    2.79663890   -1.69805794
H            -2.81494149    2.77005231   -4.58240273
H            -2.15128561    1.33320120   -5.39310755
H            -1.04510574    2.58707758   -4.59633890
H            -3.97601296    0.26788966   -3.86863854
H            -2.97218955   -0.54571533   -2.54291971
H            -2.37488530   -0.57078572   -4.21452058
C             0.00000000    0.00000000    0.00000000
C             1.49808971    0.00000000    0.00000000
C             2.07440308   -1.36342639   -0.02641799
O             3.32511614   -1.46636644   -0.02840072
O             1.35416113   -2.53785600   -0.04919548
C             1.88841234   -3.82419130   -0.07411348
C             0.71661136   -4.80642297   -0.09316790
C             2.70820941   -4.18448909    1.12202571
C             2.70740543   -4.10324813   -1.31570938
H            -0.34066009   -0.48215644   -0.95924443
H            -0.37482339   -0.58141119    0.86905803
H             1.85324922    0.61044175   -0.86668074
H             1.86264889    0.52586990    0.93116818
H             1.12413368   -5.81889885    0.15020557
H            -0.02042207   -4.56051431    0.68840194
H             0.21454106   -4.84924736   -1.05718981
H             2.18523345   -3.86519806    2.02720913
H             3.76090341   -3.84815647    1.07060202
H             2.75924948   -5.30969106    1.16375734
H             2.36041997   -5.00776516   -1.85903282
H             3.77089698   -4.29911335   -1.05548116
H             2.69407950   -3.22944659   -2.02501392



