%chk=cyc_rp_18.chk
%mem=300GB
%nprocshared=68
#p opt=(readfc,ts,noeigen,nofreeze,maxcyc=300) freq b3lyp guess=tcheck chkbas em=gd3bj  

Freeze index  [38, 37]  [38, 1]  [30, 11]  [30, 1]  [30, 32]  [30, 31] // Local index  30  38  34  11  (34,)  [37, 38]  [1, 38]

0 1
C            -2.58296488    1.26135550    4.44963452
C            -1.63293263    0.34095545    6.64206363
C            -2.41996468    1.36160005    5.88329746
C            -3.13973330    2.52892938    4.02911570
C            -3.37823488    3.33971000    5.17579959
C            -2.92003903    2.62599110    6.32639545
H            -3.39271492    2.77913668    3.00091941
H            -3.81176703    4.33831094    5.17658563
H            -2.91065153    2.99831299    7.34974162
H            -1.33029294    0.70933890    7.63787181
N            -0.42731552   -0.07267454    5.85610011
H            -2.23309301   -0.56982742    6.78994914
C             0.06552054    3.98948191    3.99856681
C            -0.11630670    4.48045620    5.32856358
C             0.17460377    3.41734827    6.23446246
C             0.50750299    2.25074206    5.46697555
C             0.47037714    2.62823865    4.08105853
H            -0.08041954    4.55523017    3.08054332
H            -0.42743251    5.48653383    5.60389266
H             0.10914106    3.46407693    7.32071614
H             0.67632301    1.96750554    3.24184358
Fe           -1.36589326    2.85491576    5.02001751
C             0.73327762    0.86876948    6.00600531
H             0.99540326    0.92013656    7.07823284
H             1.56950948    0.39291454    5.47608765
C             0.01692027   -1.42547562    6.25450449
H             0.83303725   -1.74032222    5.59350999
H             0.35334828   -1.42995176    7.30718480
H            -0.81471831   -2.13118692    6.13636714
Pd           -1.04015225   -0.12051212    3.80923313
O             0.54597434   -1.23165425    3.25891078
N            -1.53698835   -0.38167054    1.90873035
C             0.68715514   -1.41875007    1.96278587
C            -0.49284546   -0.95914351    1.07123624
C            -2.81815840   -0.37167323    1.59984940
O             1.67427587   -1.91318875    1.46167774
O            -3.70948031   -0.00034468    2.42655515
H            -3.05609420    0.42135082    3.52594323
H            -0.87882551   -1.86721908    0.57653593
O            -3.14879485   -0.79783270    0.28627541
C            -3.46482266    0.31085501   -0.52697686
C            -2.31911069    1.24469471   -0.61817829
C            -2.13158172    2.29601402    0.27491896
C            -1.05280182    3.15923238    0.17281561
C            -0.12773200    2.99154699   -0.83232903
C            -0.29260836    1.95579629   -1.73014453
C            -1.37149092    1.10130463   -1.61912294
H            -4.35117982    0.84090468   -0.12453828
H            -3.68811577   -0.09516834   -1.53717124
H            -2.87246766    2.40904501    1.05843060
H            -0.94177372    3.97026966    0.89221234
H             0.71520649    3.68818773   -0.88973471
H             0.43776101    1.81872952   -2.52842378
H            -1.51922840    0.27109165   -2.32470389
C             0.00000000    0.00000000    0.00000000
C             1.48759672   -0.00000000   -0.00000000
C             2.15557986    0.89942767    0.80522428
C             3.54168771    0.94588760    0.84686012
C             4.30343159    0.09135810    0.08188460
C             3.61994723   -0.80576735   -0.72127635
C             2.24279853   -0.85672214   -0.76694816
H            -0.39496422   -0.35976421   -0.96953966
H            -0.42641617    1.00984799    0.15118601
H             1.57307352    1.58804160    1.42170475
H             4.04407998    1.66089240    1.48691465
H             5.38986548    0.09747781    0.08745847
H             4.20185842   -1.48730498   -1.33133286
H             1.71470925   -1.57560994   -1.41067151



