%chk=cyc_sp_38.chk
%mem=300GB
%nprocshared=96
#p opt=(calcfc,ts,noeigen,maxstep=5) freq b3lyp def2svp em=gd3bj  

Freeze index  [38, 37]  [38, 1]  [30, 11]  [30, 1]  [30, 32]  [30, 31] // Local index  30  38  34  11  (34,)  [37, 38]  [1, 38]

0 1
C            -2.32320358   -4.59029845    3.80480187
C            -2.05260910   -2.74841871    5.64755592
C            -2.63350415   -4.01024612    5.08187363
C            -3.20704743   -5.68333299    3.58361951
C            -4.04720552   -5.81525402    4.73253322
C            -3.68268868   -4.79838111    5.66445525
H            -3.23665668   -6.30752091    2.69279234
H            -4.83183462   -6.55671189    4.87123854
H            -4.14899893   -4.61753052    6.63205103
H            -2.24561363   -2.69818959    6.73440635
N            -2.55849023   -1.47696245    5.02862288
H            -0.96503628   -2.73655411    5.49476812
C            -5.24667686   -3.13226045    2.28789990
C            -6.20932587   -3.55467142    3.24966733
C            -5.94292578   -2.86739449    4.47310701
C            -4.82481874   -2.00246979    4.25221970
C            -4.39254030   -2.12393922    2.87811769
H            -5.18809717   -3.45591138    1.25137564
H            -6.99637162   -4.28955097    3.08899749
H            -6.46656281   -3.01061025    5.41717083
Fe           -4.28146335   -3.92066395    3.92193096
H            -1.56806392   -4.22237200    3.11357862
C            -4.01887173   -1.24174501    5.25462380
H            -4.29187159   -1.50762202    6.29089136
H            -4.18024608   -0.15979546    5.13302638
C            -1.76334333   -0.35255246    5.56734567
H            -2.10075930    0.58545550    5.10909298
H            -1.88079579   -0.28582403    6.66427187
H            -0.70945190   -0.50635141    5.30822069
Pd           -2.28732918   -1.54317238    2.90837685
O            -0.30226955   -1.34960397    3.11109405
N            -1.83357280   -1.39447879    0.97577620
C             0.39798839   -1.40594117    1.99654417
C            -0.40589029   -1.29850635    0.67788962
C            -2.81304236   -1.22314104    0.11038122
O             1.60690761   -1.48567133    1.97360414
O            -4.02733972   -1.14580553    0.47578876
H            -0.09198433   -2.14508661    0.04192475
H            -4.05829918   -1.42164678    1.79180969
O            -2.45034485   -1.14886439   -1.26050148
C            -1.98398642   -3.50701438   -1.35192010
C            -2.72816656   -2.32497601   -1.93697940
C            -4.21276758   -2.61546992   -1.99582401
C            -2.23825255   -2.14291137   -3.35918903
H            -0.92480607   -3.42538440   -1.72139489
H            -2.45411356   -4.44854554   -1.69681620
H            -1.97653278   -3.40874317   -0.24067810
H            -4.32084634   -3.73307621   -1.99748066
H            -4.64667744   -2.27138468   -2.95639386
H            -4.75416855   -2.25458054   -1.10738238
H            -2.38233847   -3.06149621   -3.97473426
H            -1.18028538   -1.82800228   -3.29598099
H            -2.79958775   -1.28029991   -3.77507626
C             0.00000000    0.00000000    0.00000000
C             1.46892625    0.00000000    0.00000000
C             2.11494881    0.78266557    0.96377381
C             3.47230972    0.83836200    1.05689364
C             4.24597194    0.09914997    0.17037334
C             3.64233787   -0.67678748   -0.78644336
C             2.27131951   -0.70613549   -0.84603868
C             1.62615229   -1.55131131   -1.89036095
H            -0.44231291    0.04650664   -1.01773679
H            -0.36217529    0.80061865    0.67316904
H             1.53973728    1.36511479    1.66799991
H             3.93679580    1.44354575    1.79652142
H             5.32652304    0.17505899    0.27765061
H             4.27376437   -1.24724991   -1.46788808
H             0.76593079   -0.96258964   -2.31031017
H             1.31081449   -2.53350994   -1.52073693
H             2.33376364   -1.67580334   -2.73724327



