%chk=cyc_sp_8.chk
%mem=300GB
%nprocshared=96
#p opt=(calcfc,ts,noeigen,maxstep=5) freq b3lyp def2svp em=gd3bj  

Freeze index  [38, 37]  [38, 1]  [30, 11]  [30, 1]  [30, 32]  [30, 31] // Local index  30  38  34  11  (34,)  [37, 38]  [1, 38]

0 1
C            -0.68205158    6.36234529   -0.00032791
C             1.71871410    6.29408101    1.04520977
C             0.58619109    6.95684220    0.31872291
C            -1.40169400    7.26422067   -0.83313141
C            -0.60585593    8.43855951   -1.00874895
C             0.61017477    8.25950838   -0.28446188
H            -2.38615813    7.08708166   -1.26151495
H            -0.87584723    9.31398694   -1.59643362
H             1.43713430    8.96659533   -0.23386801
H             2.43769240    7.05536769    1.39809836
N             2.47971312    5.27287947    0.24920554
H             1.33566127    5.75600640    1.92273228
C             0.38062811    5.58451665   -3.35282801
C             0.87979440    6.86943520   -3.71329723
C             2.03820457    7.13216745   -2.92008800
C             2.26238738    5.99184780   -2.08554473
C             1.25623583    4.99202554   -2.36445388
H            -0.48170396    5.08430723   -3.78726788
H             0.44297492    7.54407523   -4.44770401
H             2.61879457    8.05350815   -2.91699674
Fe            0.44719406    6.78528960   -1.68639829
H            -1.00909446    5.37274781    0.31133723
C             3.19892940    5.84862469   -0.92993108
H             3.66839715    6.81018399   -0.65776621
H             4.00474315    5.14060051   -1.17652470
C             3.43127329    4.59551579    1.15611809
H             3.98174169    3.82690835    0.59940348
H             4.14760287    5.32305597    1.57926351
H             2.86914185    4.10646979    1.96006416
Pd            1.13097761    3.80906098   -0.53278119
O             0.84140576    3.03484338    1.29362511
N             0.00435636    2.25955844   -1.07381385
C            -0.04006242    2.05877880    1.37152427
C            -0.49284546    1.43761393    0.02774053
C            -0.08900967    1.96599667   -2.35550414
O            -0.45253432    1.61698492    2.42178800
O             0.52052011    2.63741718   -3.24527347
H            -1.59722672    1.43507160    0.03242942
H             1.07590472    3.69431073   -2.62601429
O            -0.92354574    0.87067423   -2.70220889
C            -2.91735029    2.13335518   -2.23626987
C            -2.13885546    1.28580439   -3.22060550
C            -1.98071664    2.01918485   -4.53553318
C            -2.95578151    0.03745979   -3.48539051
H            -3.36378961    1.41892897   -1.49106840
H            -3.70764725    2.69331369   -2.77323444
H            -2.20347436    2.80083259   -1.69828600
H            -2.80960883    2.77512771   -4.58260456
H            -2.14884040    1.33687022   -5.39317413
H            -1.04014067    2.58863530   -4.59658813
H            -3.97562202    0.27535671   -3.86851603
H            -2.97336602   -0.54009300   -2.54274471
H            -2.37617723   -0.56653694   -4.21436566
C             0.00000000    0.00000000    0.00000000
C             1.48759672   -0.00000000    0.00000000
C             2.15557986    0.02322436   -1.20698670
C             3.54168771    0.02445583   -1.26936099
C             4.30343159    0.00243102   -0.12266001
C             3.61994723   -0.02073219    1.08123576
C             2.24279853   -0.02208874    1.14964968
H            -0.39496422   -0.49989335    0.90528673
H            -0.42641617   -0.54442243   -0.86386017
H             1.57307352    0.04099761   -2.13106539
H             4.04407998    0.04287058   -2.22882050
H             5.38986548    0.00266112   -0.13093444
H             4.20185842   -0.03825543    1.99576045
H             1.71470925   -0.04074963    2.11444561



