%chk=cyc_sp_18.chk
%mem=300GB
%nprocshared=96
#p opt=(calcfc,ts,noeigen,maxstep=5) freq b3lyp def2svp em=gd3bj  

Freeze index  [38, 37]  [38, 1]  [30, 11]  [30, 1]  [30, 32]  [30, 31] // Local index  30  38  34  11  (34,)  [37, 38]  [1, 38]

0 1
C            -2.24956012    5.71662580   -1.79006302
C            -1.17188783    5.05950576   -4.08534080
C            -2.11944162    5.83161429   -3.21607889
C            -3.36749679    6.49509761   -1.37893386
C            -3.91827454    7.12802025   -2.53622908
C            -3.13954747    6.73640079   -3.66564117
H            -3.73724988    6.58903945   -0.35985504
H            -4.78342728    7.78815616   -2.55529065
H            -3.31395571    7.03238954   -4.69926811
H            -1.08564906    5.54531782   -5.07406424
N            -1.53569838    3.61942434   -4.30763034
H            -0.17392073    5.04254544   -3.62699501
C            -5.08247392    3.51345647   -2.09696039
C            -5.85429294    4.29647881   -3.00320466
C            -5.16754237    4.32883297   -4.25519980
C            -3.97995923    3.54228136   -4.12096203
C            -3.92237935    2.99021326   -2.78617381
H            -5.34095545    3.28055651   -1.06666835
H            -6.79171156    4.80160440   -2.77646285
H            -5.46914944    4.88966113   -5.13863963
Fe           -3.94082908    5.07098426   -2.79984407
H            -1.62146822    5.10226722   -1.14860849
C            -2.81871339    3.43543506   -5.05538827
H            -2.88598084    4.16425164   -5.88204754
H            -2.77646425    2.42902155   -5.49899705
C            -0.41976599    2.96638383   -5.02527535
H            -0.65459674    1.90545122   -5.17683294
H            -0.25602919    3.44776842   -6.00657008
H             0.48655021    3.03752583   -4.41288933
Pd           -1.79729124    2.63750624   -2.42594399
O             0.17458604    2.69785713   -2.06949409
N            -1.79636833    1.57491384   -0.74253800
C             0.56177092    2.23591482   -0.89797098
C            -0.49284546    1.43463885   -0.09651279
C            -2.89636814    0.93304455   -0.40247985
O             1.68681925    2.37058866   -0.46842148
O            -3.94540105    0.97073233   -1.11808979
H            -0.52205995    1.86979230    0.91812486
H            -3.71843151    1.86301355   -2.09853699
O            -2.86344318    0.20888057    0.81854306
C            -3.20129688   -1.14323313    0.59926082
C            -2.25235878   -1.78043200   -0.34229488
C            -2.44997566   -1.78861692   -1.72031124
C            -1.55016213   -2.39030565   -2.58497162
C            -0.42190537   -3.00340223   -2.08966052
C            -0.20439044   -3.00811914   -0.72631421
C            -1.10775073   -2.40542865    0.12643891
H            -4.23359238   -1.22079237    0.20317213
H            -3.13187487   -1.64765760    1.58715726
H            -3.34523225   -1.29987457   -2.08802678
H            -1.74124512   -2.37495542   -3.65776813
H             0.27249032   -3.47118012   -2.79544311
H             0.68823149   -3.49265260   -0.32889231
H            -0.95130461   -2.39918559    1.21474051
C             0.00000000    0.00000000    0.00000000
C             1.48759672   -0.00000000    0.00000000
C             2.15557986   -0.08109554   -1.20448320
C             3.54168771   -0.08525521   -1.26673082
C             4.30343159   -0.00817075   -0.12241171
C             3.61994723    0.07271878    1.07898682
C             2.24279853    0.07727541    1.14726231
H            -0.39496422   -0.41984693    0.94507459
H            -0.42641617   -0.61698992   -0.81361760
H             1.57307352   -0.14319042   -2.12664454
H             4.04407998   -0.14976640   -2.22419620
H             5.38986548   -0.00865608   -0.13067510
H             4.20185842    0.13423768    1.99160827
H             1.71470925    0.14200223    2.11006544



