%chk=cyc_sp_15.chk
%mem=300GB
%nprocshared=96
#p opt=(calcfc,ts,noeigen,maxstep=5) freq b3lyp def2svp em=gd3bj  

Freeze index  [38, 37]  [38, 1]  [30, 11]  [30, 1]  [30, 32]  [30, 31] // Local index  30  38  34  11  (34,)  [37, 38]  [1, 38]

0 1
C            -0.39700002    6.38645170   -0.01605313
C             1.99921616    6.21357732    1.02785653
C             0.89682142    6.92446757    0.30052935
C            -1.07633123    7.31749406   -0.85061608
C            -0.22895225    8.45464143   -1.02982601
C             0.97848458    8.22323812   -0.30599557
H            -2.06809799    7.18345829   -1.27780855
H            -0.46005258    9.33978062   -1.61954036
H             1.83626482    8.89278013   -0.25782582
H             2.75180633    6.94285178    1.37826251
N             2.71312447    5.15738199    0.23389104
H             1.59325344    5.69537156    1.90703602
C             0.62696022    5.55346896   -3.36735252
C             1.18274703    6.81388069   -3.73147342
C             2.35242623    7.02656673   -2.93980528
C             2.52613721    5.87946951   -2.10252291
C             1.47606316    4.92492077   -2.37812586
H            -0.25724168    5.09121242   -3.79986835
H             0.77588442    7.50552152   -4.46727199
H             2.97361851    7.92104034   -2.93950017
Fe            0.74856634    6.75425519   -1.70404284
H            -0.76767797    5.41324863    0.29838128
C             3.45633815    5.69743600   -0.94724946
H             3.96854893    6.63773177   -0.67789108
H             4.22948793    4.95348317   -1.19263907
C             3.63424021    4.44044647    1.14181610
H             4.14932464    3.64660428    0.58665250
H             4.38273658    5.13630343    1.56256677
H             3.05150584    3.97903949    1.94742845
Pd            1.29963638    3.75334931   -0.54334698
O             0.97732498    2.99744621    1.28524553
N             0.10441860    2.25439666   -1.07957952
C             0.05317924    2.06195594    1.36629559
C            -0.42807355    1.45827147    0.02444097
C            -0.00308046    1.96207789   -2.36044619
O            -0.37772081    1.64168394    2.41799204
O             0.63508223    2.60334202   -3.25238241
H            -1.53146031    1.50510692    0.02996367
H             1.23768437    3.63590942   -2.63623859
O            -0.88603753    0.90428332   -2.70372936
C            -2.82101045    2.25598925   -2.23952058
C            -2.08202481    1.37201473   -3.22227306
C            -1.89239914    2.09428323   -4.53918608
C            -2.95415825    0.16077039   -3.48325947
H            -3.29829259    1.56410905   -1.49216415
H            -3.58595266    2.84935996   -2.77732018
H            -2.07755079    2.89224225   -1.70377677
H            -2.68671580    2.88639943   -4.58756544
H            -2.09159108    1.41800974   -5.39495684
H            -0.92736411    2.62096744   -4.60239864
H            -3.96267664    0.44304955   -3.86622671
H            -2.99672635   -0.41304576   -2.53912995
H            -2.40275823   -0.47036182   -4.21112489
C             0.00000000    0.00000000    0.00000000
C             1.52413683   -0.00000000    0.00000000
C             2.08435652   -1.36171826   -0.02282363
C             2.35128687   -1.99068758   -1.21919730
C             2.88261247   -3.28239015   -1.22847181
C             3.14036704   -3.92884793   -0.04896334
C             2.86914021   -3.28924764    1.13641290
C             2.34490078   -2.01518326    1.16996257
H            -0.39341277   -0.54014669    0.87908325
H            -0.42293022   -0.47076911   -0.89663084
H             1.82493681    0.56920846   -0.92529777
H             1.83675930    0.59451244    0.86401064
H             2.15844356   -1.50601657   -2.16190282
H             3.07195732   -3.72646495   -2.20148125
H             3.55616090   -4.93913379   -0.08921799
H             3.06333119   -3.77719725    2.07930051
H             2.15642714   -1.57314033    2.13728476



