%chk=cyc_sp_6.chk
%mem=300GB
%nprocshared=96
#p opt=(calcfc,ts,noeigen,maxstep=5) freq b3lyp def2svp em=gd3bj  

Freeze index  [38, 37]  [38, 1]  [30, 11]  [30, 1]  [30, 32]  [30, 31] // Local index  30  38  34  11  (34,)  [37, 38]  [1, 38]

0 1
C            -1.06700851    6.30917790    0.01997791
C             1.33224733    6.38319193    1.06858565
C             0.16243279    6.97846620    0.34275758
C            -1.83909465    7.16854876   -0.81079932
C            -1.11580535    8.38962199   -0.98139891
C             0.10800258    8.28223938   -0.25604049
H            -2.81048790    6.93344498   -1.24112674
H            -1.43775155    9.24904975   -1.56652825
H             0.89045471    9.03804120   -0.20194752
H             2.00327324    7.18550606    1.42500370
N             2.15476518    5.41279081    0.27022426
H             0.98153621    5.81986359    1.94377844
C             0.04485443    5.60874559   -3.33363474
C             0.46552324    6.92281785   -3.68912395
C             1.60491848    7.25266846   -2.89344796
C             1.89693138    6.12521453   -2.06240921
C             0.95365527    5.06712216   -2.34604012
H            -0.78501351    5.05860299   -3.77092911
H            -0.01058303    7.57220459   -4.42187455
H             2.12850532    8.20753561   -2.88648102
Fe            0.03645469    6.80564451   -1.66311472
H            -1.33374125    5.30049492    0.32788642
C             2.83908614    6.03515535   -0.90599212
H             3.24899914    7.02250240   -0.62997200
H             3.68668157    5.37819543   -1.15383906
C             3.14462580    4.79134035    1.17617898
H             3.74138781    4.05946956    0.61765928
H             3.81497411    5.55956960    1.60273708
H             2.61227643    4.26633142    1.97771300
Pd            0.89829250    3.87248474   -0.51850188
O             0.65411311    3.07588253    1.30490867
N            -0.13155661    2.25931200   -1.06625588
C            -0.16656978    2.04785300    1.37833470
C            -0.57923670    1.40494471    0.03186229
C            -0.20542891    1.96500496   -2.34904658
O            -0.55269260    1.57825142    2.42654858
O             0.36326115    2.67522131   -3.23572909
H            -1.68143172    1.33535620    0.03502240
H             0.85273883    3.76175548   -2.61218031
O            -0.97152956    0.82223758   -2.70055530
C            -3.03885059    1.95996900   -2.23314768
C            -2.20918980    1.16460285   -3.21923532
C            -2.09432112    1.91071812   -4.53148787
C            -2.94851992   -0.13011462   -3.48931155
H            -3.44197114    1.21721985   -1.49095119
H            -3.86105196    2.47275604   -2.76932687
H            -2.36743992    2.66770529   -1.69195582
H            -2.96751726    2.61511056   -4.57717579
H            -2.21971135    1.22239080   -5.39163301
H            -1.18997639    2.53641588   -4.58934619
H            -3.98047135    0.04674789   -3.87304408
H            -2.93211677   -0.71088703   -2.54862462
H            -2.33246641   -0.69532212   -4.21950090
C             0.00000000    0.00000000    0.00000000
C             1.50470671    0.00000000   -0.00000000
C             2.27215138    0.61423454    1.12189554
C             2.16533238    1.31264343   -0.17985007
H            -0.32022549   -0.43950497   -0.98856905
H            -0.45002476   -0.57986893    0.81254566
H             1.94516904   -0.93074507   -0.40905195
H             1.66430513    0.89407659    1.99951618
H             3.26010555    0.18767105    1.38096890
H             1.53110747    2.21697537   -0.18965716
H             3.06107315    1.30407009   -0.83311174



