%chk=cyc_sp_25.chk
%mem=300GB
%nprocshared=96
#p opt=(calcfc,ts,noeigen,maxstep=5) freq b3lyp def2svp em=gd3bj  

Freeze index  [38, 37]  [38, 1]  [30, 11]  [30, 1]  [30, 32]  [30, 31] // Local index  30  38  34  11  (34,)  [37, 38]  [1, 38]

0 1
C            -3.60476107   -5.27726771    0.31745104
C            -5.21279204   -3.70539976    1.66093623
C            -4.89496806   -4.91752870    0.83669399
C            -3.76602394   -6.39923440   -0.54278795
C            -5.14688677   -6.76864193   -0.53755512
C            -5.84052569   -5.86979312    0.32634163
H            -2.97387849   -6.88793661   -1.10646874
H            -5.59355131   -7.58762490   -1.09826846
H            -6.91061283   -5.87221150    0.52956918
H            -6.19447965   -3.83013081    2.15261618
N            -5.23450724   -2.40641396    0.90743826
H            -4.45414830   -3.57720320    2.44472499
C            -4.36972204   -3.87401861   -2.91044132
C            -5.62578293   -4.51325175   -3.11975632
C            -6.55233550   -3.99001995   -2.16694361
C            -5.86524285   -3.00850118   -1.38491169
C            -4.50360647   -2.89160171   -1.85614059
H            -3.46096416   -4.03773721   -3.48482740
H            -5.83816665   -5.28257891   -3.86025117
H            -7.58306364   -4.31341300   -2.02917780
Fe           -4.96193854   -4.80413297   -1.17624363
H            -2.67561572   -4.74894457    0.51983419
C            -6.31190265   -2.33403368   -0.12846617
H            -7.24750685   -2.76994048    0.26357978
H            -6.49250092   -1.26400886   -0.31251399
C            -5.38187225   -1.30723225    1.88563139
H            -5.37553934   -0.34557137    1.35754782
H            -6.32985836   -1.41060586    2.44431830
H            -4.53108417   -1.32983256    2.57638162
Pd           -3.38673273   -2.14090627   -0.13591705
O            -2.41187614   -1.80726194    1.58378083
N            -1.61609321   -1.67493090   -0.91735965
C            -1.10885174   -1.64052595    1.48336657
C            -0.55673706   -1.41329960    0.05502817
C            -1.53654516   -1.46563532   -2.21639514
O            -0.36613966   -1.61089567    2.44037734
O            -2.55291304   -1.54771857   -2.97420792
H             0.27326768   -2.12832583   -0.08467154
H            -3.56574558   -2.01298437   -2.22144237
O            -0.25128793   -1.16230554   -2.73840163
C             0.49172045   -3.43286725   -2.45696426
C             0.31805693   -2.24759910   -3.38340560
C            -0.45991045   -2.65420281   -4.61682758
C             1.70063447   -1.81955437   -3.83184798
H             1.39333698   -3.20697148   -1.82364221
H             0.64622702   -4.35168429   -3.05559331
H            -0.39941327   -3.49638834   -1.78881956
H            -0.33433409   -3.76489056   -4.72327428
H            -0.01317942   -2.21351492   -5.53093502
H            -1.54181985   -2.47421405   -4.51803100
H             2.25716867   -2.64824697   -4.32883190
H             2.22007272   -1.42653504   -2.93844031
H             1.55440450   -0.95777404   -4.51603319
C             0.00000000    0.00000000    0.00000000
C             1.50099829   -0.00000000   -0.00000000
C             2.10671613   -0.63450559    1.20497849
C             3.61991044   -0.55611350    1.05651463
H            -0.44163973    0.62063939    0.79789725
H            -0.32055281    0.43965845   -0.98198890
H             1.92627399    0.98857915   -0.15576893
H             1.80928317   -0.62025282   -0.88948304
H             1.82990733   -1.70575469    1.28657744
H             1.78494027   -0.15954334    2.15014898
H             4.04434654   -0.24264355    2.04521970
H             4.05549459   -1.55079132    0.82028293
H             3.89952073    0.20906201    0.28474131



