%chk=cyc_sp_22.chk
%mem=300GB
%nprocshared=96
#p opt=(calcfc,ts,noeigen,maxstep=5) freq b3lyp def2svp em=gd3bj  

Freeze index  [38, 37]  [38, 1]  [30, 11]  [30, 1]  [30, 32]  [30, 31] // Local index  30  38  34  11  (34,)  [37, 38]  [1, 38]

0 1
C            -3.60085805   -5.27994856    0.31716949
C            -5.21000953   -3.70936521    1.66081541
C            -4.89131514   -4.92119927    0.83647566
C            -3.76131794   -6.40197118   -0.54314670
C            -5.14190774   -6.77239762   -0.53790123
C            -5.83618472   -5.87412373    0.32608096
H            -2.96882838   -6.89004781   -1.10688585
H            -5.58798411   -7.59166898   -1.09866149
H            -6.90626394   -5.87734631    0.52933902
H            -6.19159073   -3.83485625    2.15251441
N            -5.23270460   -2.41034085    0.90741281
H            -4.45143805   -3.58066620    2.44459178
C            -4.36694667   -3.87702879   -2.91059858
C            -5.62254168   -4.51717306   -3.11992419
C            -6.54945261   -3.99469438   -2.16704677
C            -5.86306173   -3.01272605   -1.38496296
C            -4.50152549   -2.89478780   -1.85622237
H            -3.45808476   -4.04003509   -3.48502266
H            -5.83437910   -5.28660269   -3.86046907
H            -7.57993795   -4.31885773   -2.02927499
Fe           -4.95842707   -4.80770620   -1.17645176
H            -2.67209687   -4.75095491    0.51956454
C            -6.31018286   -2.33867983   -0.12845545
H            -7.24545398   -2.77530527    0.26358553
H            -6.49157570   -1.26877511   -0.31242005
C            -5.38085231   -1.31133947    1.88569033
H            -5.37524397   -0.34963568    1.35767672
H            -6.32874586   -1.41545310    2.44439688
H            -4.53002795   -1.33336253    2.57641452
Pd           -3.38515642   -2.14339409   -0.13597610
O            -2.41049682   -1.80915611    1.58371815
N            -1.61488356   -1.67605571   -0.91743548
C            -1.10759866   -1.64145164    1.48327870
C            -0.55569277   -1.41371391    0.05494106
C            -1.53552724   -1.46660679   -2.21645798
O            -0.36488115   -1.61134326    2.44027034
O            -2.55185605   -1.54938451   -2.97424760
H             0.27483519   -2.12811749   -0.08483460
H            -3.56432348   -2.01545222   -2.22148695
O            -0.25050911   -1.16229093   -2.73847918
C             0.49418209   -3.43232443   -2.45722872
C             0.31961767   -2.24711717   -3.38357863
C            -0.45808498   -2.65420473   -4.61700796
C             1.70186619   -1.81801995   -3.83202942
H             1.39564993   -3.20580980   -1.82391605
H             0.64934922   -4.35098359   -3.05592921
H            -0.39688534   -3.49655159   -1.78906311
H            -0.33169239   -3.76479177   -4.72353927
H            -0.01170542   -2.21312076   -5.53109607
H            -1.54012403   -2.47502131   -4.51816724
H             2.25899728   -2.64626555   -4.32908974
H             2.22104004   -1.42468270   -2.93860799
H             1.55498089   -0.95629785   -4.51614759
C             0.00000000    0.00000000    0.00000000
C             1.50759708   -0.00000000    0.00000000
C             1.94876362   -0.77862638   -1.23501528
C             3.38447180   -1.03742627   -0.86192849
C             3.20659267   -1.65423094    0.50649355
C             2.11454968   -0.78049864    1.11113615
H            -0.31870383    0.43619676   -0.97184699
H            -0.43250848    0.63636826    0.78520821
H             1.94484182    0.99130659   -0.07456941
H             1.82398180   -0.20113686   -2.15983018
H             1.43312935   -1.76754828   -1.26600635
H             3.90998649   -1.68405432   -1.57090763
H             3.93869594   -0.08076880   -0.77296149
H             4.13051229   -1.61227042    1.11032620
H             2.79253955   -2.65712780    0.38494741
H             2.62831711   -0.09835274    1.84851213
H             1.39885351   -1.40644269    1.68195274



