%chk=cyc_sp_14.chk
%mem=300GB
%nprocshared=96
#p opt=(calcfc,ts,noeigen,maxstep=5) freq b3lyp def2svp em=gd3bj  

Freeze index  [38, 37]  [38, 1]  [30, 11]  [30, 1]  [30, 32]  [30, 31] // Local index  30  38  34  11  (34,)  [37, 38]  [1, 38]

0 1
C            -0.99139776    6.32151120    0.01608424
C             1.40885679    6.36748789    1.06401032
C             0.24605525    6.97624576    0.33809688
C            -1.75336635    7.18951619   -0.81505792
C            -1.01555743    8.40173049   -0.98665613
C             0.20707418    8.28018253   -0.26154942
H            -2.72762127    6.96577490   -1.24497362
H            -1.32735097    9.26456532   -1.57226916
H             0.99853280    9.02659856   -0.20816284
H             2.08953607    7.16194591    1.41972050
N             2.21948199    5.38678406    0.26607446
H             1.05166467    5.80897488    1.93966810
C             0.11108992    5.60561022   -3.33735714
C             0.54736316    6.91431792   -3.69382670
C             1.69084146    7.23102859   -2.89866951
C             1.96956200    6.10070714   -2.06696188
C             1.01360981    5.05379641   -2.34964392
H            -0.72542314    5.06515391   -3.77406861
H             0.07886606    7.56887513   -4.42688132
H             2.22582362    8.17956361   -2.89247244
Fe            0.11747271    6.80362373   -1.66762734
H            -1.27010300    5.31629665    0.32473045
C             2.91088505    6.00013700   -0.91073383
H             3.33266338    6.98268760   -0.63547518
H             3.75048778    5.33291416   -1.15836940
C             3.20207806    4.75412480    1.17217927
H             3.78988424    4.01479473    0.61398670
H             3.88169079    5.51455470    1.59805220
H             2.66369945    4.23605442    1.97420081
Pd            0.94444586    3.86111110   -0.52130103
O             0.69124268    3.06869008    1.30270055
N            -0.10478984    2.26002239   -1.06771597
C            -0.14166824    2.05060754    1.37702315
C            -0.56236756    1.41179901    0.03108529
C            -0.18252834    1.96577611   -2.35029212
O            -0.53310052    1.58635243    2.42564929
O             0.39438240    2.66854948   -3.23759427
H            -1.66531576    1.35541243    0.03458196
H             0.89700147    3.74955642   -2.61489365
O            -0.96234987    0.83203072   -2.70084262
C            -3.01577570    1.99473697   -2.23364305
C            -2.19596365    1.18884640   -3.21942282
C            -2.07252753    1.93266876   -4.53219905
C            -2.95081348   -0.09710501   -3.48844736
H            -3.42755749    1.25735589   -1.49084901
H            -3.83192498    2.51697700   -2.76994471
H            -2.33579374    2.69474102   -1.69309664
H            -2.93724100    2.64743390   -4.57812289
H            -2.20638244    1.24532559   -5.39185543
H            -1.16077294    2.54745714   -4.59070975
H            -3.98067785    0.09184603   -3.87202482
H            -2.94110869   -0.67741259   -2.54738069
H            -2.34176863   -0.67012778   -4.21842490
C             0.00000000    0.00000000    0.00000000
C             1.49126762   -0.00000000    0.00000000
C             2.22439762    0.02573101   -1.16866767
C             3.60458944    0.02583662   -1.17435960
C             4.32746274    0.00001896   -0.00295567
C             5.82110814   -0.00031951    0.01064526
C             3.59217994   -0.02564331    1.16269716
C             2.21295055   -0.02589269    1.17507567
H            -0.41825953   -0.52776081   -0.86594904
H            -0.40196708   -0.51987061    0.90620862
H             1.64062405    0.04613537   -2.09446435
H             4.15104484    0.04673194   -2.12353130
H             6.20828899   -0.39055449    0.95861592
H             6.23654800   -0.52796375   -0.87559216
H             6.21713666    1.05288418   -0.06498674
H             4.16690272   -0.04590882    2.08299311
H             1.66862880   -0.04677180    2.12343629



