%chk=cyc_rp_37.chk
%mem=300GB
%nprocshared=68
#p opt=(readfc,ts,noeigen,nofreeze,maxcyc=300) freq b3lyp guess=tcheck chkbas em=gd3bj  

Freeze index  [38, 37]  [38, 1]  [30, 11]  [30, 1]  [30, 32]  [30, 31] // Local index  30  38  34  11  (34,)  [37, 38]  [1, 38]

0 1
C            -2.58296943   -1.65173496    4.31995555
C            -1.63293902   -3.70100704    5.52592687
C            -2.41997352   -2.42923080    5.52865376
C            -3.13973793   -0.38448606    4.74146189
C            -3.37825068   -0.42095148    6.14535182
C            -2.92004714   -1.68126995    6.64021645
H            -3.39272624    0.43120237    4.06732584
H            -3.81177395    0.37869038    6.74347926
H            -2.91066318   -1.99524341    7.68293299
H            -1.33030187   -4.00167176    6.54422122
N            -0.42732161   -3.56215555    4.64868066
H            -2.23309701   -4.51925532    5.09945000
C             0.06550141    0.80405843    5.59089255
C            -0.11631397    0.40166230    6.95031304
C             0.17459013   -0.99218818    7.04006035
C             0.50749962   -1.46770494    5.72707915
C             0.47036556   -0.33599352    4.84250272
H            -0.08042852    1.80664580    5.19383275
H            -0.42744911    1.04302478    7.77288841
H             0.10912291   -1.60469833    7.93837250
H             0.67632189   -0.36326037    3.77473658
Fe           -1.36589998   -0.71617882    5.73045725
C             0.73326388   -2.89751958    5.33209672
H             0.99540180   -3.49791933    6.22194127
H             1.56949802   -2.96172903    4.62277988
C             0.01691658   -4.88446269    4.15847040
H             0.83304058   -4.74123097    3.44047214
H             0.35334878   -5.51790571    4.99924029
H            -0.81472039   -5.37922478    3.64156169
Pd           -1.04016111   -2.37576323    2.98001521
O             0.54597014   -2.93678691    1.87424267
N            -1.53699234   -1.44787953    1.30099276
C             0.68715215   -2.31117375    0.72377533
C            -0.49284546   -1.40946941    0.28442806
C            -2.81816263   -1.25505499    1.05947624
O             1.67428287   -2.40750459    0.02642973
O            -3.70949251   -1.45218260    1.94405890
H            -3.05609736   -1.77210640    3.07725243
H            -0.87882546   -1.84106754   -0.65528044
C            -3.17208103   -0.77924706   -0.34007356
C            -2.78856684    0.45990151   -0.79611106
C            -3.11699117    0.88990636   -2.08177579
C            -3.83768273    0.08605616   -2.93869166
C            -4.21829926   -1.15479494   -2.47362750
C            -3.89266594   -1.58644464   -1.19297029
H            -2.22176064    1.12601259   -0.16006360
H            -2.80460742    1.87897516   -2.43070903
H            -4.09022462    0.42377193   -3.93529601
H            -4.78736076   -1.79466784   -3.14435609
H            -4.20735881   -2.57917124   -0.84593819
C             0.00000000    0.00000000    0.00000000
C             1.48759672    0.00000000   -0.00000000
C             2.15557986    0.23886345    1.18334294
C             3.54168771    0.25117682    1.24450216
C             4.30343159    0.02420533    0.12027257
C             3.61994723   -0.21404805   -1.06003963
C             2.24279853   -0.22754802   -1.12712209
H            -0.39496422    0.29185451   -0.99209797
H            -0.42641617    0.71867343    0.72536796
H             1.57307352    0.42174655    2.08931816
H             4.04407998    0.44110016    2.18515660
H             5.38986548    0.02577365    0.12840026
H             4.20185842   -0.39510502   -1.95663366
H             1.71470925   -0.41838739   -2.07303950



