%chk=rp_0_1.chk
%mem=300GB
%nprocshared=68
#p opt=(calcfc,ts,noeigen,maxstep=5) freq b3lyp def2svp em=gd3bj  

Freeze index  [11, 18]  [18, 19]  [3, 19]  [3, 33]  [3, 28]  [3, 21] // Local index  3  18  20  33  (20,)  [11, 18]  [18, 19]

0 1
Fe            0.76505176   -3.99066619   -4.20811207
C            -4.19117824   -1.10462401   -0.55346100
Pd           -2.52816596   -2.59305726   -2.30031885
C            -2.42223991   -4.03259028   -4.80556697
H             2.11406796   -4.99307053   -6.49509675
H             0.35845848   -2.95464176   -6.81382698
H             0.70183946   -1.22926488   -4.74633720
C            -0.50737150   -1.00840478   -1.01788701
O            -5.14750064   -0.81633474    0.13596460
C            -1.19844222   -4.45446100   -4.06256689
O             0.29062731   -1.57693672   -1.83105257
C             0.24368393   -4.52943417   -2.26760241
C             0.46297558   -5.69409184   -3.05759659
C            -0.45265833   -5.66613493   -4.15260778
H             0.81757004   -4.23940443   -1.38959984
H             1.21348533   -6.46102889   -2.87287176
H            -0.54687633   -6.41891246   -4.93421959
H            -0.40401628   -2.47397917   -2.50895189
C            -0.78656903   -3.72633918   -2.87398551
C            -2.80298917   -0.47903868   -0.29680572
O            -4.27440485   -1.88977220   -1.60763817
C             2.31901322   -2.64262891   -4.09741903
C             2.77915740   -3.86965953   -4.66462726
C             2.01882305   -4.12369455   -5.84683933
C             1.09201207   -3.04784024   -6.01445073
C             1.27806179   -2.13311691   -4.93375237
H             2.66133201   -2.19079471   -3.16964390
N            -1.79656274   -1.26895370   -1.00662673
H            -2.81587967    0.54301186   -0.61325544
H            -2.25809623   -3.08799931   -5.34373738
H            -2.75908481   -4.79082526   -5.53544416
H             3.53842758   -4.50453629   -4.25797810
N            -3.47274565   -3.77552358   -3.80995621
C            -3.74382195   -4.90415898   -2.96251142
C            -4.62971730   -3.13878201   -4.34093922
H            -4.35737265   -5.68396301   -3.43058330
H            -2.74820841   -5.31152668   -2.64380939
H            -4.20163684   -4.51474506   -2.01678063
H            -4.64490141   -3.06737518   -5.43820499
H            -5.55559452   -3.63491041   -3.96882993
H            -4.65963068   -2.09267294   -3.92684741
C            -2.54054210   -0.51001562    1.20004622
C            -2.18705239   -1.89880289    1.59913107
C            -3.19458697   -2.76190867    1.97792227
C            -2.92548305   -4.06833248    2.36006410
C            -1.63647273   -4.55195391    2.37476087
C            -0.63561416   -3.67499308    1.99232087
C            -0.89674782   -2.37573140    1.61159432
H            -1.70190415    0.18415352    1.40065741
H            -3.40942619   -0.11377125    1.75907101
H            -4.22590127   -2.40144710    1.97446826
H            -3.73318828   -4.72771740    2.65354926
H            -1.38630772   -5.56788911    2.66752951
H             0.38632534   -4.03680750    1.99713430
H            -0.08998022   -1.69125115    1.31047218
C             0.00000000    0.00000000    0.00000000
H             1.11123978   -0.00000000    0.00000000
H            -0.34606400    1.01413618   -0.31996439
H            -0.40221157   -0.24062909    1.00861038



