%chk=rp_1_3.chk
%mem=300GB
%nprocshared=68
#p opt=(calcfc,ts,noeigen,maxstep=5) freq b3lyp def2svp em=gd3bj  

Freeze index  [11, 18]  [18, 19]  [3, 19]  [3, 36]  [3, 28]  [3, 21] // Local index  3  18  20  36  (20,)  [11, 18]  [18, 19]

0 1
Fe            2.03993887   -5.16471433   -1.53338657
C            -2.95551570   -2.32930799    2.10743920
Pd           -1.09126520   -3.97966933    0.75337319
C            -0.67066341   -6.57587704   -0.44768950
H             3.28885842   -6.92946583   -3.37209919
H             0.68906282   -6.27568104   -3.76256880
H             0.40815275   -3.62773355   -3.23457181
C            -0.05155293   -1.41889686   -0.02177121
O            -3.77775332   -1.97804747    2.92812169
C             0.69599589   -6.00151330   -0.27436234
O             0.76904678   -2.09380512   -0.72344091
C             2.24125334   -4.43314734    0.40361077
C             2.90935179   -5.68495643    0.28045448
C             1.94666601   -6.66521241   -0.10758122
H             2.71297822   -3.48121299    0.63950031
H             3.97309781   -5.86064799    0.43263672
H             2.13624566   -7.72460567   -0.27545066
H             0.55940598   -3.37217538   -0.46149725
C             0.85320670   -4.59471321    0.05532169
C            -2.10215489   -1.29741659    1.33849302
O            -2.78741739   -3.58550552    1.74913251
C             2.61581149   -3.67730937   -2.83733712
C             3.55525521   -4.75187888   -2.87991306
C             2.85690840   -5.93548881   -3.26935565
C             1.48467820   -5.59011892   -3.47488489
C             1.33635170   -4.19508390   -3.20820428
H             2.81834844   -2.65321142   -2.53354210
N            -0.97245279   -1.99295993    0.72149371
H            -1.74228884   -0.54571246    2.05926336
H            -1.13797248   -6.22329161   -1.37834842
H             4.61234622   -4.68768649   -2.62780466
C            -0.66850505   -8.09578018   -0.46482461
H            -0.20548217   -8.47661562    0.47079751
H            -1.73221316   -8.44003201   -0.48955660
H            -0.12572992   -8.46644811   -1.36202768
N            -1.49989072   -6.07572938    0.65825776
C            -0.96576797   -6.38789923    1.95772004
C            -2.89289952   -6.35339915    0.50381770
H            -1.13025183   -7.42673497    2.28157492
H             0.12200742   -6.14647555    1.91075087
H            -1.39023589   -5.64564618    2.67986622
H            -3.13126662   -7.02658734   -0.33000641
H            -3.31896395   -6.74258589    1.45734819
H            -3.40313265   -5.37419848    0.31944986
C            -2.97710650   -0.59332897    0.31423463
C            -3.65929393   -1.58877957   -0.53044657
C            -2.98526786   -1.96746631   -1.66704230
C            -3.59061436   -2.90619874   -2.49677185
C            -4.83901044   -3.41692479   -2.14558603
C            -5.51559442   -3.03645349   -1.00416215
C            -4.89992413   -2.09463451   -0.17899635
H            -3.69524204    0.03532926    0.87529882
H            -2.37025367    0.13770669   -0.28372762
H            -2.01522352   -1.56930914   -1.93803853
H            -3.06921218   -3.21314158   -3.39627060
H            -5.26491668   -4.15619688   -2.84341879
H            -6.48125596   -3.46250263   -0.77735695
H            -5.39157675   -1.76290791    0.73037926
O             0.00000000    0.00000000    0.00000000
C             2.40344492   -0.00000000   -0.00000000
C             1.12217142    0.49200507   -0.64047018
C             1.12349692    0.17990945   -2.12223142
C             1.09119797    1.99853431   -0.48683227
H             2.54761207    0.62351844    0.92486755
H             3.24949750    0.16391131   -0.70706215
H             2.26741151   -1.06602814    0.28743890
H             2.19864532    0.06977466   -2.43725892
H             0.73298951    1.03446581   -2.71065711
H             0.63369468   -0.77601708   -2.36973267
H             1.97574113    2.50270647   -0.94256311
H             0.96762872    2.20643344    0.59442226
H             0.14389701    2.32674133   -0.96284792



