%chk=rp_17_3.chk
%mem=300GB
%nprocshared=68
#p opt=(calcfc,ts,noeigen,maxstep=5) freq b3lyp def2svp em=gd3bj  

Freeze index  [11, 18]  [18, 19]  [3, 19]  [3, 36]  [3, 28]  [3, 21] // Local index  3  18  20  36  (20,)  [11, 18]  [18, 19]

0 1
Fe            2.04815956   -5.16196540   -1.53167412
C            -2.95388795   -2.33327284    2.10532704
Pd           -1.08637558   -3.98114112    0.75271073
C            -0.66131287   -6.57679601   -0.44795056
H             3.30087952   -6.92506840   -3.36938006
H             0.70046411   -6.27486887   -3.76182307
H             0.41554518   -3.62727494   -3.23412728
C            -0.04959626   -1.41896704   -0.02174295
O            -3.77722489   -1.98311167    2.92538302
C             0.70443163   -6.00056961   -0.27361117
O             0.77245477   -2.09277767   -0.72277026
C             2.24702466   -4.43004879    0.40545686
C             2.91692730   -5.68096919    0.28282986
C             1.95586325   -6.66254563   -0.10588341
H             2.71727699   -3.47746254    0.64165759
H             3.98080121   -5.85518658    0.43581531
H             2.14703308   -7.72168503   -0.27357747
H             0.56438177   -3.37142239   -0.46095207
C             0.85945671   -4.59353591    0.05612472
C            -2.10136724   -1.30024743    1.33697394
O            -2.78381328   -3.58925786    1.74718928
C             2.62295732   -3.67382081   -2.83524030
C             3.56390982   -4.74711216   -2.87708314
C             2.86747992   -5.93167481   -3.26700065
C             1.49492936   -5.58819705   -3.47357446
C             1.34449126   -4.19336011   -3.20704511
H             2.82388168   -2.64942806   -2.53133625
N            -0.97025923   -1.99425412    0.72085132
H            -1.74306902   -0.54802323    2.05798977
H            -1.12842285   -6.22488908   -1.37896338
H             4.62074481   -4.68144673   -2.62418167
C            -0.65707598   -8.09669417   -0.46502974
H            -0.19421473   -8.47687108    0.47096765
H            -1.72028296   -8.44242002   -0.49054094
H            -0.11311881   -8.46666242   -1.36180771
N            -1.49205653   -6.07775502    0.65736357
C            -0.96006743   -6.38821153    1.95585312
C            -2.88138287   -6.34642277    0.50387387
H            -1.12778748   -7.42364103    2.27741619
H             0.13569882   -6.15022416    1.91805591
H            -1.38210190   -5.64519104    2.68072963
H            -3.12383077   -7.01812096   -0.33239666
H            -3.31269341   -6.73523254    1.45500683
H            -3.39694885   -5.36351490    0.31733581
C            -2.97651804   -0.59738681    0.31203804
C            -3.65231388   -1.62176771   -0.52873393
C            -3.02971542   -2.05734537   -1.68034114
C            -3.61153318   -3.01060082   -2.50373982
C            -4.83735881   -3.55835777   -2.19883528
C            -5.45054798   -3.11204380   -1.04044743
C            -4.87743448   -2.16507400   -0.21824728
H            -3.71729630    0.00575285    0.87141994
H            -2.38238346    0.12009890   -0.28521063
H            -2.05610349   -1.63753150   -1.94375422
H            -3.10364677   -3.33712013   -3.40303568
H            -5.32453826   -4.30637838   -2.81814264
H            -6.41653069   -3.53130023   -0.78278416
H            -5.37780795   -1.82086097    0.69892379
O             0.00000000    0.00000000    0.00000000
C             2.40555702    0.00000000    0.00000000
C             1.12477966    0.49148731   -0.64136560
C             1.12396929    0.17637668   -2.12210851
C             1.09532837    1.99900761   -0.49177538
H             2.54491719    0.61279432    0.93278490
H             3.25050003    0.14496425   -0.70107814
H             2.26843548   -1.06630908    0.29790850
H             2.19866110    0.05892996   -2.42538061
H             0.73905390    1.03396822   -2.71011194
H             0.63147211   -0.78067449   -2.35487441
H             1.99127256    2.48440367   -0.94468798
H             0.98932583    2.21200753    0.58797736
H             0.15669605    2.34268269   -0.97449350



