%chk=rp_18_3.chk
%mem=300GB
%nprocshared=68
#p opt=(calcfc,ts,noeigen,maxstep=5) freq b3lyp def2svp em=gd3bj  

Freeze index  [11, 18]  [18, 19]  [3, 19]  [3, 36]  [3, 28]  [3, 21] // Local index  3  18  20  36  (20,)  [11, 18]  [18, 19]

0 1
Fe            2.04813217   -5.13036616   -1.63441483
C            -2.95389136   -2.37480620    2.05833742
Pd           -1.08639366   -3.99536464    0.67310339
C            -0.66135757   -6.56653103   -0.57913976
H             3.30082744   -6.85645477   -3.50695144
H             0.70041734   -6.19852484   -3.88632740
H             0.41551807   -3.56199797   -3.30589614
C            -0.04959626   -1.41824988   -0.05007497
O            -3.77722209   -2.04107986    2.88521705
C             0.70439814   -5.99391281   -0.39334489
O             0.77244698   -2.07793479   -0.76440453
C             2.24699776   -4.43727490    0.31693517
C             2.91689754   -5.68549606    0.16936520
C             1.95582680   -6.65910935   -0.23885922
H             2.71726098   -3.48959365    0.57211419
H             3.98076986   -5.86274291    0.31884055
H             2.14698182   -7.71469764   -0.42766474
H             0.56436503   -3.36155209   -0.52815529
C             0.85943454   -4.59374364   -0.03558318
C            -2.10137156   -1.32666221    1.31075256
O            -2.78382623   -3.62338636    1.67519630
C             2.62293149   -3.61650750   -2.90801486
C             3.56387496   -4.68875015   -2.97127489
C             2.86743820   -5.86529754   -3.38476383
C             1.49488811   -5.51775352   -3.58442833
C             1.34445602   -4.12851264   -3.29010803
H             2.82386157   -2.59838586   -2.58372921
N            -0.97026710   -2.00823591    0.68089049
H            -1.74305766   -0.58898086    2.04663730
H            -1.12846133   -6.19611017   -1.50294763
H             4.62070860   -4.62815579   -2.71711836
C            -0.65712632   -8.08578964   -0.62655756
H            -0.19427412   -8.48458091    0.30165993
H            -1.72033169   -8.43092759   -0.65896510
H            -0.11317347   -8.43778897   -1.53055151
N            -1.49208548   -6.08964678    0.53591973
C            -0.96010037   -6.42596155    1.82794535
C            -2.88141952   -6.35518984    0.37709860
H            -1.12782414   -7.46760844    2.12877419
H             0.13566978   -6.18728693    1.79489872
H            -1.38212334   -5.69755834    2.56751785
H            -3.12387917   -7.01005938   -0.47241621
H            -3.31273253   -6.76291410    1.32027809
H            -3.39698660   -5.36875176    0.21022063
C            -2.97651607   -0.60347196    0.30005702
C            -3.24546794   -1.58674112   -0.80352904
C            -4.18863909   -0.01892889    0.92188630
H            -3.20096679   -2.65547528   -0.44596572
H            -2.40112092   -1.52263891   -1.54899558
H            -4.19423937   -1.44067767   -1.31908948
H            -2.35847309    0.22592936   -0.12623849
H            -5.13911566   -0.51691079    0.66478182
H            -4.06096545    0.01868498    2.03381900
H            -4.32105638    1.05403293    0.61291157
O             0.00000000    0.00000000    0.00000000
C             2.40555702   -0.00000000    0.00000000
C             1.12477966    0.50419718   -0.63142284
C             1.12396929    0.21871939   -2.11816314
C             1.09532837    2.00842959   -0.45175772
H             2.54491719    0.59404468    0.94483621
H             3.25050003    0.15893567   -0.69804344
H             2.26843548   -1.07204559    0.27655521
H             2.19866110    0.10735234   -2.42372014
H             0.73905390    1.08788217   -2.68892347
H             0.63147211   -0.73349266   -2.36999465
H             1.99127256    2.50277338   -0.89488679
H             0.98932583    2.19982469    0.63203325
H             0.15669605    2.36167587   -0.92751649



