%chk=rp_13_1.chk
%mem=300GB
%nprocshared=68
#p opt=(calcfc,ts,noeigen,maxstep=5) freq b3lyp def2svp em=gd3bj  

Freeze index  [11, 18]  [18, 19]  [3, 19]  [3, 33]  [3, 28]  [3, 21] // Local index  3  18  20  33  (20,)  [11, 18]  [18, 19]

0 1
Fe            2.04815144    5.11642129    1.67758899
C            -2.95394163    2.39209183   -2.03820108
Pd           -1.08640469    4.00089384   -0.63936111
C            -0.66135020    6.56142812    0.63450614
H             3.30087510    6.82663819    3.56458585
H             0.70047497    6.16555664    3.93845339
H             0.41556438    3.53401652    3.33580089
C            -0.04959626    1.41777681    0.06204142
O            -3.77725990    2.06533802   -2.86784715
C             0.70441117    5.99038744    0.44386098
O             0.77245800    2.07143021    0.78190461
C             2.24700022    4.43979576   -0.27952582
C             2.91689644    5.68672522   -0.12148309
C             1.95584477    6.65686528    0.29497579
H             2.71723919    3.49430363   -0.54270221
H             3.98076345    5.86521605   -0.26943789
H             2.14700108    7.71081591    0.49266303
H             0.56435990    3.35697751    0.55647031
C             0.85943822    4.59328043    0.07430627
C            -2.10138128    1.33767455   -1.29948716
O            -2.78384531    3.63739491   -1.64454647
C             2.62298551    3.59186897    2.93837294
C             3.56391996    4.66354951    3.01065560
C             2.86748739    5.83656759    3.43404853
C             1.49494719    5.48734102    3.63080560
C             1.34450798    4.10062749    3.32479110
H             2.82389067    2.57651950    2.60549403
N            -0.97026853    2.01391988   -0.66391978
H            -1.74309423    0.60622803   -2.04157348
H            -1.12843989    6.18322575    1.55515542
H            -0.65826518    7.66559067    0.67827378
H             4.60264725    4.60611049    2.76034867
N            -1.49208981    6.09395445   -0.48452894
C            -2.90819700    6.28548873   -0.22531439
C            -3.10908578    7.77232256    0.00682281
O            -2.81450310    8.48671485   -1.13009674
C            -1.54775403    8.26900536   -1.62621643
C            -1.20283365    6.80620160   -1.72682794
H            -3.26114285    5.69988499    0.63013069
H            -3.44238439    6.00924474   -1.15155694
H            -4.17164889    7.91495418    0.24753158
H            -2.50278934    8.08618976    0.86741828
H            -0.81320105    8.86430450   -1.07093394
H            -1.53832253    8.66518233   -2.67881374
H            -0.14906458    6.72111061   -2.01493778
H            -1.90153342    6.36751261   -2.48708672
C            -2.97652775    0.60598838   -0.29492041
C            -3.64399288    1.65853643    0.56778014
C            -3.99581170   -0.25939460   -1.00073737
C            -4.89410677   -0.98862838   -0.05806408
H            -4.12097735    2.37524291   -0.12942518
H            -4.35903079    1.21204574    1.28322036
H            -2.82391378    2.14830587    1.15656805
H            -2.31645891   -0.05048191    0.28903081
H            -3.43003414   -1.01252979   -1.58281624
H            -4.58906559    0.31978054   -1.74457067
H            -5.55669514   -1.64265423   -0.66242359
H            -4.28472171   -1.67600085    0.57213207
H            -5.49941234   -0.32964563    0.58758869
O             0.00000000    0.00000000    0.00000000
C             2.40555702    0.00000000    0.00000000
C             1.12477966   -0.50950763    0.62714558
C             1.12396929   -0.23658621    2.11624200
C             1.09532837   -2.01217033    0.43479304
H             2.54491719   -0.58605031   -0.94981555
H             3.25050003   -0.16482061    0.69667737
H             2.26843548    1.07434119   -0.26749866
H             2.19866110   -0.12780164    2.42272792
H             0.73905390   -1.11053454    2.67964738
H             0.63147211    0.71346680    2.37610001
H             1.99127256   -2.51023598    0.87373469
H             0.98932583   -2.19441280   -0.65057447
H             0.15669605   -2.36941885    0.90755392



