%chk=rp_2_1.chk
%mem=300GB
%nprocshared=68
#p opt=(calcfc,ts,noeigen,maxstep=5) freq b3lyp def2svp em=gd3bj  

Freeze index  [11, 18]  [18, 19]  [3, 19]  [3, 43]  [3, 28]  [3, 21] // Local index  3  18  20  43  (20,)  [11, 18]  [18, 19]

0 1
Fe            2.04823568   -5.11880056   -1.67014099
C            -2.95388504   -2.38917163    2.04167427
Pd           -1.08636037   -3.99997741    0.64518330
C            -0.66123971   -6.56234312   -0.62494462
H             3.30096969   -6.83176284   -3.55466974
H             0.70056898   -6.17126209   -3.92947705
H             0.41560786   -3.53885088   -3.33066381
C            -0.04959626   -1.41786587   -0.05997155
O            -3.77723741   -2.06122520    2.87084759
C             0.70450065   -5.99101352   -0.43514127
O             0.77249158   -2.07254028   -0.77889383
C             2.24706381   -4.43934268    0.28598550
C             2.91699062   -5.68648525    0.12973511
C             1.95593391   -6.65725750   -0.28529899
H             2.71729077   -3.49344650    0.54778076
H             3.98086454   -5.86474517    0.27797210
H             2.14712026   -7.71149242   -0.48145548
H             0.56439846   -3.35777473   -0.55160649
C             0.85950804   -4.59336265   -0.06761664
C            -2.10136324   -1.33580988    1.30143035
O            -2.78379189   -3.63504365    1.64983910
C             2.62302425   -3.59609521   -2.93314708
C             3.56398716   -4.66785953   -3.00387540
C             2.86756766   -5.84150262   -3.42555567
C             1.49502441   -5.49259444   -3.62281942
C             1.34456908   -4.10543103   -3.31882804
H             2.82392340   -2.58026388   -2.60175197
N            -0.97024603   -2.01295961    0.66683958
H            -1.74308967   -0.60327636    2.04245023
H            -1.12833873   -6.18549853   -1.54615326
H            -0.65814233   -7.66657803   -0.66711835
C             5.03955401   -4.58571496   -2.64841458
C             5.51014025   -5.93469337   -2.18356676
C             5.77415475   -4.08756765   -3.85894941
O             5.15024346   -3.69766143   -1.58384787
H             6.26678078   -5.89695875   -1.38581547
H             4.61701757   -6.45283162   -1.74236387
H             5.88076654   -6.58123754   -2.99845534
H             5.15321912   -4.08566783   -4.78135460
H             6.04265155   -3.00802648   -3.69010158
H             6.72477692   -4.62443097   -4.04850761
H             6.06634482   -3.47101987   -1.34209345
N            -1.49200016   -6.09325778    0.49340296
C            -0.96002674   -6.43856102    1.78305862
C            -2.88132580   -6.35771194    0.33270780
H            -1.12773771   -7.48227075    2.07662339
H             0.13574653   -6.19963818    1.75168371
H            -1.38207185   -5.71533346    2.52767939
H            -3.12375365   -7.00665850   -0.52135320
H            -3.31265417   -6.77200335    1.27302581
H            -3.39690287   -5.37014107    0.17270409
C            -2.97652380   -0.60560741    0.29579900
C            -3.64396829   -1.65942526   -0.56536597
C            -3.99583015    0.26078214    1.00035968
C            -4.89413134    0.98862836    0.05661140
H            -4.12094589   -2.37512164    0.13288651
H            -4.35901568   -1.21399449   -1.28145304
H            -2.82388049   -2.15003030   -1.15344617
H            -2.31647074    0.05002345   -0.28910619
H            -3.43006247    1.01477956    1.58133207
H            -4.58906907   -0.31732229    1.74503730
H            -5.55673637    1.64352057    0.66002104
H            -4.28476441    1.67508894   -0.57457748
H            -5.49942986    0.32869141   -0.58807327
O             0.00000000    0.00000000    0.00000000
C             2.40555702    0.00000000   -0.00000000
C             1.12477966    0.50859153   -0.62788873
C             1.12396929    0.23349648   -2.11658514
C             1.09532837    2.01153344   -0.43773012
H             2.54491719    0.58743631    0.94895897
H             3.25050003    0.16380336   -0.69691724
H             2.26843548   -1.07394953    0.26906680
H             2.19866110    0.12426459   -2.42291192
H             0.73905390    1.10662136   -2.68126578
H             0.63147211   -0.71693488   -2.37505590
H             1.99127256    2.50895774   -0.87739843
H             0.98932583    2.19536023    0.64737018
H             0.15669605    2.36809139   -0.91101204



