%chk=rp_29_1.chk
%mem=300GB
%nprocshared=68
#p opt=(calcfc,ts,noeigen,maxstep=5) freq b3lyp def2svp em=gd3bj  

Freeze index  [11, 18]  [18, 19]  [3, 19]  [3, 33]  [3, 28]  [3, 21] // Local index  3  18  20  33  (20,)  [11, 18]  [18, 19]

0 1
Fe            2.04817335   -5.14906840   -1.57442315
C            -2.95393841   -2.35065498    2.08584645
Pd           -1.08639191   -3.98722839    0.71963181
C            -0.66131901   -6.57284129   -0.50252135
H             3.30093021   -6.89686367   -3.42666468
H             0.70052489   -6.24342684   -3.81375675
H             0.41559423   -3.60031595   -3.26411014
C            -0.04959626   -1.41873735   -0.03353431
O            -3.77727812   -2.00729773    2.90875088
C             0.70442682   -5.99807581   -0.32337865
O             0.77247436   -2.08670717   -0.74012112
C             2.24701399   -4.43325985    0.36871183
C             2.91692112   -5.68310245    0.23574459
C             1.95586103   -6.66141928   -0.16113426
H             2.71723991   -3.48265282    0.61283529
H             3.98078755   -5.85860022    0.38728123
H             2.14702561   -7.71913998   -0.33759152
H             0.56437691   -3.36747451   -0.48890278
C             0.85944321   -4.59382048    0.01802023
C            -2.10139907   -1.31128906    1.32609781
O            -2.78384503   -3.60361008    1.71729010
C             2.62301210   -3.65016441   -2.86558765
C             3.56396037   -4.72306348   -2.91630560
C             2.86753129   -5.90436498   -3.31605750
C             1.49498807   -5.55917336   -3.51979586
C             1.34453977   -4.16659845   -3.24170241
H             2.82392121   -2.62832885   -2.55318227
N            -0.97026648   -2.00015896    0.70426043
H            -1.74310379   -0.56506105    2.05333774
H            -1.12840391   -6.21321504   -1.43059475
H            -0.65822293   -7.67765093   -0.52410530
H             4.60267810   -4.66061135   -2.66719233
N            -1.49207746   -6.08297966    0.60688240
C            -3.17923068   -8.20940857    1.50596253
C            -1.74088882   -8.13348503    1.94611386
C            -1.24195804   -6.73059218    1.86318574
C            -2.91459884   -6.13607013    0.29519537
C            -3.23276089   -7.62267172    0.09384610
H            -3.77088569   -7.58409281    2.20545718
H            -3.59374692   -9.21056552    1.48334863
H            -1.12291951   -8.86233598    1.39550695
H            -1.73580215   -8.41900214    3.03776700
H            -0.16177982   -6.67180876    2.08767461
H            -1.80750200   -6.13606761    2.63884187
H            -3.19442152   -5.52811215   -0.56221865
H            -3.44205085   -5.80269875    1.22468469
H            -4.20437251   -7.78118040   -0.37384968
H            -2.40589005   -8.12089335   -0.47749987
C            -2.97652710   -0.59994166    0.30701388
C            -3.24545493   -1.59602183   -0.78502899
C            -4.18866600   -0.00818189    0.92195334
H            -3.20095937   -2.66051009   -0.41501902
H            -2.40108494   -1.54061837   -1.53118004
H            -4.19421728   -1.45598283   -1.30228062
H            -2.35847613    0.22443475   -0.12892260
H            -5.13913647   -0.50914094    0.67066624
H            -4.06100806    0.04239953    2.03337684
H            -4.32107471    1.06109354    0.60048292
O             0.00000000    0.00000000    0.00000000
C             2.40555702    0.00000000    0.00000000
C             1.12477966    0.49680030   -0.63725902
C             1.12396929    0.19400604   -2.12056947
C             1.09532837    2.00302540   -0.47514596
H             2.54491719    0.60502140    0.93784522
H             3.25050003    0.15078545   -0.69984922
H             2.26843548   -1.06874798    0.28903682
H             2.19866110    0.07908367   -2.42480713
H             0.73905390    1.05645448   -2.70142573
H             0.63147211   -0.76107771   -2.36128077
H             1.99127256    2.49216856   -0.92400911
H             0.98932583    2.20704485    0.60633960
H             0.15669605    2.35070017   -0.95499135



