%chk=rp_32_1.chk
%mem=300GB
%nprocshared=68
#p opt=(calcfc,ts,noeigen,maxstep=5) freq b3lyp def2svp em=gd3bj  

Freeze index  [11, 18]  [18, 19]  [3, 19]  [3, 33]  [3, 28]  [3, 21] // Local index  3  18  20  33  (20,)  [11, 18]  [18, 19]

0 1
Fe            2.04818385    0.09889115   -5.38350146
C            -2.95393674   -2.65147824   -1.68699567
Pd           -1.08640571   -1.78758516   -3.63598664
C            -0.66132446   -1.32298086   -6.45790846
H             3.30092628    1.39955930   -7.57298950
H             0.70052229    1.95130699   -7.05107772
H             0.41559707    2.14911588   -4.35866736
C            -0.04959626   -0.35760603   -1.37333832
O            -3.77726495   -3.34836288   -1.13072977
C             0.70442384   -1.33727409   -5.85604643
O             0.77247309    0.13822363   -2.20975524
C             2.24701626   -1.57274141   -4.16128469
C             2.91692140   -1.78834043   -5.39956038
C             1.95585431   -1.67556755   -6.44927104
H             2.71724782   -1.54624394   -3.18020244
H             3.98078507   -1.98226227   -5.52664388
H             2.14702808   -1.79655208   -7.51476235
H             0.56437516   -0.45526732   -3.37218775
C             0.85944908   -1.27966970   -4.41203630
C            -2.10138882   -1.63539187   -0.89641361
O            -2.78384618   -2.64141070   -2.99299774
C             2.62300604    1.75223305   -4.29708842
C             3.56394669    1.50617981   -5.34263953
C             2.86752163    1.56593039   -6.58830466
C             1.49498184    1.85669485   -6.31237643
C             1.34453871    1.97197124   -4.89699754
H             2.82392290    1.73263853   -3.22874464
N            -0.97027688   -1.22677718   -1.72965135
H            -1.74308918   -2.12956768    0.02092207
H            -1.12840749   -0.33180834   -6.36715951
H            -0.65823264   -1.60581710   -7.52612411
H             4.60267954    1.28382493   -5.21412550
N            -1.49208389   -2.25506794   -5.68204775
C            -3.32355638   -0.94522166   -6.55417944
C            -2.73864951   -1.64045912   -5.35207404
C            -1.65392334   -3.40379984   -6.52978295
C            -0.23020132   -3.94977940   -6.74912618
H            -4.35025539   -0.54768032   -6.37265783
H            -2.66545254   -0.04845614   -6.72507799
H            -3.25116532   -1.54743220   -7.44789671
H            -2.61776770   -0.92242747   -4.49507167
H            -3.47512177   -2.39681709   -4.95539373
H            -2.27919580   -4.19890629   -6.07202563
H            -2.07099897   -3.07950005   -7.49923229
H             0.48321331   -3.13262805   -6.93035736
H            -0.22548374   -4.68291120   -7.58883390
H            -0.00060921   -4.52066075   -5.81727633
C            -2.97652666   -0.46006403   -0.49248908
C            -3.64399024    0.05497273   -1.75219097
C            -3.99581804   -0.88018249    0.54219443
C            -4.89410309    0.23526352    0.96197348
H            -4.12098092   -0.82216082   -2.23217851
H            -4.35902284    0.87007719   -1.53583316
H            -2.82390741    0.47370248   -2.39344867
H            -2.31645312    0.29110648   -0.03677031
H            -3.43003958   -1.21505581    1.43319806
H            -4.58907027   -1.76144413    0.20736250
H            -5.55668703   -0.15004251    1.76480164
H            -4.28470617    1.03971935    1.43362421
H            -5.49940638    0.65857925    0.14225945
O             0.00000000    0.00000000    0.00000000
C             2.40555702    0.00000000   -0.00000000
C             1.12477966    0.74924183    0.30256617
C             1.12396929    2.09224909   -0.39616538
C             1.09532837    1.00725912    1.79535610
H             2.54491719   -0.73549167    0.83943824
H             3.25050003    0.71434253   -0.04732789
H             2.26843548   -0.57158764   -0.94818358
H             2.19866110    2.35319614   -0.59026416
H             0.73905390    2.88773441    0.27347213
H             0.63147211    2.06125045   -1.38062766
H             1.99127256    1.57325323    2.14232846
H             0.98932583    0.02346669    2.28869919
H             0.15669605    1.56416926    1.99779236



