%chk=rp_37_1.chk
%mem=300GB
%nprocshared=68
#p opt=(calcfc,ts,noeigen,maxstep=5) freq b3lyp def2svp em=gd3bj  

Freeze index  [11, 18]  [18, 19]  [3, 19]  [3, 33]  [3, 28]  [3, 21] // Local index  3  18  20  33  (20,)  [11, 18]  [18, 19]

0 1
Fe            2.04818037   -5.10019114   -1.72620554
C            -2.95391542   -2.41138994    2.01534390
Pd           -1.08639155   -4.00678346    0.60125408
C            -0.66130922   -6.55508070   -0.69691746
H             3.30091808   -6.79237166   -3.62940549
H             0.70050786   -6.12776782   -3.99695557
H             0.41558964   -3.50209315   -3.36928428
C            -0.04959626   -1.41712252   -0.07552475
O            -3.77725283   -2.09255876    2.84806649
C             0.70443616   -5.98587511   -0.50085700
O             0.77247764   -2.06387761   -0.80158831
C             2.24702242   -4.44221824    0.23725916
C             2.91693185   -5.68759025    0.06734160
C             1.95587802   -6.65372953   -0.35831884
H             2.71725771   -3.49926827    0.50940983
H             3.98080414   -5.86747400    0.21361795
H             2.14704837   -7.70575144   -0.56603331
H             0.56437279   -3.35151189   -0.58840312
C             0.85946170   -4.59233995   -0.11801836
C            -2.10138777   -1.34998430    1.28670507
O            -2.78382528   -3.65288452    1.60984332
C             2.62299311   -3.56370871   -2.97243011
C             3.56393684   -4.63463987   -3.05490910
C             2.86751538   -5.80358300   -3.48945295
C             1.49496803   -5.45251045   -3.68287161
C             1.34452892   -4.06878404   -3.36366604
H             2.82390501   -2.55157509   -2.62990150
N            -0.97025811   -2.02013940    0.64472466
H            -1.74308740   -0.62563554    2.03571686
H            -1.12840670   -6.16814041   -1.61393237
H            -0.65821023   -7.65877709   -0.75120905
H             4.60266998   -4.57958202   -2.80405721
N            -1.49205595   -6.09828836    0.42651471
C            -0.96007642   -6.45772779    1.71230248
C            -2.88138696   -6.36093758    0.26293915
H            -1.12780727   -7.50459767    1.99439032
H             0.13568900   -6.21848943    1.68354849
H            -1.38212471   -5.74271920    2.46481884
H            -3.12382596   -7.00046383   -0.59819928
H            -3.31271092   -6.78551759    1.19864317
H            -3.39693634   -5.37166865    0.11377797
C            -2.97653173   -0.60878474    0.28914072
C            -3.28502273   -1.50763080   -0.85583255
O            -2.82911668   -2.68184758   -0.87507204
O            -4.06110834   -1.12839875   -1.93064507
C            -4.34966825   -1.99841296   -3.02163273
C            -5.22009703   -1.20787254   -3.97735512
C            -5.16331150   -3.19169726   -2.53597012
C            -3.13457340   -2.44675200   -3.75383116
H            -2.38884912    0.27763498   -0.04078658
H            -3.89178478   -0.21126976    0.76630857
H            -4.52967684   -0.52575936   -4.53308662
H            -5.92067461   -0.58723454   -3.38175818
H            -5.72980796   -1.86511003   -4.70852297
H            -5.75179868   -3.61679194   -3.35010183
H            -4.50483675   -3.92938553   -2.05720673
H            -5.84812093   -2.82216014   -1.72510664
H            -2.26848349   -1.79157670   -3.68219378
H            -3.33825216   -2.58035653   -4.85688506
H            -2.86708919   -3.48499463   -3.40796286
O             0.00000000    0.00000000    0.00000000
C             2.40555702   -0.00000000   -0.00000000
C             1.12477966    0.51545010   -0.62227068
C             1.12396929    0.25670557   -2.11389581
C             1.09532837    2.01621513   -0.41563326
H             2.54491719    0.57698899    0.95534719
H             3.25050003    0.17144007   -0.69507805
H             2.26843548   -1.07683708    0.25726724
H             2.19866110    0.15084127   -2.42140264
H             0.73905390    1.13597356   -2.66896255
H             0.63147211   -0.69083264   -2.38277913
H             1.99127256    2.51843352   -0.84981737
H             0.98932583    2.18812514    0.67141867
H             0.15669605    2.37794446   -0.88497454



