%chk=rp_33_1.chk
%mem=300GB
%nprocshared=68
#p opt=(calcfc,ts,noeigen,maxstep=5) freq b3lyp def2svp em=gd3bj  

Freeze index  [11, 18]  [18, 19]  [3, 19]  [3, 33]  [3, 28]  [3, 21] // Local index  3  18  20  33  (20,)  [11, 18]  [18, 19]

0 1
Fe            2.04819564   -5.10088492   -1.72414046
C            -2.95391370   -2.41058080    2.01630770
Pd           -1.08638604   -4.00654670    0.60286410
C            -0.66128970   -6.55536807   -0.69427497
H             3.30094241   -6.79382689   -3.62666177
H             0.70053014   -6.12937787   -3.99448327
H             0.41560119   -3.50345249   -3.36787228
C            -0.04959626   -1.41715258   -0.07495843
O            -3.77725706   -2.09142169    2.84890618
C             0.70444539   -5.98607871   -0.49843936
O             0.77248383   -2.06420356   -0.80075652
C             2.24703455   -4.44212432    0.23905920
C             2.91694082   -5.68755944    0.06964598
C             1.95589599   -6.65387430   -0.35563332
H             2.71726264   -3.49906131    0.51083536
H             3.98081441   -5.86738042    0.21598728
H             2.14705964   -7.70597891   -0.56291581
H             0.56437822   -3.35175683   -0.58704731
C             0.85947313   -4.59239194   -0.11616163
C            -2.10138761   -1.34947550    1.28725259
O            -2.78382476   -3.65224699    1.61130435
C             2.62301321   -3.56490190   -2.97098192
C             3.56395813   -4.63586075   -3.05303271
C             2.86754462   -5.80498444   -3.48709756
C             1.49498799   -5.45399428   -3.68066645
C             1.34454067   -4.07013493   -3.36202414
H             2.82391500   -2.55262823   -2.62886156
N            -0.97026634   -2.01988354    0.64553863
H            -1.74309200   -0.62481801    2.03596241
H            -1.12839257   -6.16880313   -1.61144864
H            -0.65819822   -7.65908240   -0.74812981
H             4.60268780   -4.58070438   -2.80219395
N            -1.49204666   -6.09811802    0.42896349
C            -0.96007643   -6.45704683    1.71489853
C            -2.88137196   -6.36084467    0.26548993
H            -1.12780186   -7.50378956    1.99741282
H             0.13570165   -6.21781385    1.68606329
H            -1.38212358   -5.74172942    2.46713004
H            -3.12381244   -7.00071544   -0.59538179
H            -3.31270356   -6.78504237    1.20137222
H            -3.39692513   -5.37162709    0.11593462
C            -2.97653142   -0.60867472    0.28938055
C            -3.34290222   -1.44160011   -0.90935734
H            -3.92570928   -0.33382819    0.80267229
H            -2.51875931    0.32240907   -0.07936909
H            -3.75538045   -2.42839786   -0.65335098
H            -4.16753811   -0.88386572   -1.43744264
H            -2.48903804   -1.52366517   -1.62971519
O             0.00000000    0.00000000    0.00000000
C             2.40555702    0.00000000    0.00000000
C             1.12477966    0.51520138   -0.62247661
C             1.12396929    0.25586078   -2.11399823
C             1.09532837    2.01604887   -0.41643895
H             2.54491719    0.57737072    0.95511654
H             3.25050003    0.17116228   -0.69514650
H             2.26843548   -1.07673418    0.25769755
H             2.19866110    0.14987360   -2.42146273
H             0.73905390    1.13490689   -2.66941630
H             0.63147211   -0.69178480   -2.38250287
H             1.99127256    2.51809372   -0.85082373
H             0.98932583    2.18839328    0.67054419
H             0.15669605    2.37759061   -0.88592475



