%chk=rp_31_2.chk
%mem=300GB
%nprocshared=68
#p opt=(calcfc,ts,noeigen,maxstep=5) freq b3lyp def2svp em=gd3bj  

Freeze index  [11, 18]  [18, 19]  [3, 19]  [3, 32]  [3, 28]  [3, 21] // Local index  3  18  20  32  (20,)  [11, 18]  [18, 19]

-1 1
Fe            0.66811915    5.67503650    1.25159919
C            -4.13031883    0.85712576    1.13940943
Pd           -2.53373868    3.18962993    1.34667942
C            -2.25387920    5.75205037    2.65641677
H             2.18713733    7.86232323    2.23311738
H             1.04852926    6.16951809    4.01550930
H             1.35092657    3.64167809    3.07321189
C            -0.50737150    1.34827995    0.48488694
O            -5.11461163    0.16129576    0.99816883
C            -1.33684837    5.81413128    1.48046387
O             0.28707135    2.33182633    0.63570128
C            -0.34625897    5.03936262   -0.44975786
C            -0.24413402    6.45995697   -0.44199717
C            -0.88667046    6.94439267    0.73728333
H             0.08803286    4.37475100   -1.19409832
H             0.25671857    7.06993899   -1.19209965
H            -0.99015405    7.98747669    1.03347776
H            -0.44211561    3.38770521    0.95221843
C            -1.01938060    4.60099581    0.74558801
C            -2.71759886    0.31595705    0.83011752
O            -4.17537598    2.07471032    1.63956624
C             2.43404285    4.62060485    1.36952237
C             2.70583323    5.99499075    1.09333846
C             2.16416189    6.77643370    2.15927544
C             1.56287831    5.88265783    3.09957418
C             1.73013970    4.55110998    2.61142857
H             2.67495580    3.77326071    0.73229810
N            -1.79657330    1.44798345    0.72586922
H            -2.76226576   -0.23126616   -0.12520885
H            -2.00528493    6.27397898    3.55680528
H             3.20882574    6.38238473    0.20899007
O            -3.45618165    5.00033316    2.58030656
C            -2.31053126   -0.66240876    1.91984104
C            -2.09306754   -2.06374051    1.38006312
C            -1.02738519   -2.13669183    0.34418924
C            -3.44419941   -2.54548911    0.88275533
H            -1.41578677   -0.32744777    2.50093321
H            -3.13716671   -0.72045162    2.66189205
H            -1.80245708   -2.73058937    2.21685550
H            -0.03023729   -2.27606956    0.83052979
H            -1.20723370   -3.05185780   -0.27132404
H            -0.96022795   -1.28627319   -0.32205051
H            -4.03979321   -1.68144055    0.48856852
H            -3.31597953   -3.30172073    0.09250628
H            -3.99859129   -2.97485959    1.76707634
C             0.00000000    0.00000000    0.00000000
H             1.11123978    0.00000000   -0.00000000
H            -0.34606400   -0.77775032    0.72522676
H            -0.40221157   -0.21681419   -1.01399648



