%chk=rp_49_3.chk
%mem=300GB
%nprocshared=68
#p opt=(calcfc,ts,noeigen,maxstep=5) freq b3lyp def2svp em=gd3bj  

Freeze index  [11, 18]  [18, 19]  [3, 19]  [3, 36]  [3, 28]  [3, 21] // Local index  3  18  20  36  (20,)  [11, 18]  [18, 19]

0 1
Fe           -3.99836848    0.44026708    4.24712960
C             2.29336636    2.52765255    2.72836273
Pd           -0.25155926    1.93020853    3.82337752
C            -2.30644116    2.82496106    5.65000514
H            -6.68297107    0.59894401    5.15417600
H            -5.54239444    2.81037722    4.08292467
H            -4.08283101    2.03431413    1.92960260
C            -0.50737150    0.52707243    1.33235461
O             3.46960618    2.82261222    2.67889516
C            -2.62083231    1.39046989    5.38339226
O            -1.69588513    0.28837643    1.72182543
C            -2.27357695   -0.69955549    4.47869898
C            -3.11543554   -0.84721190    5.61803233
C            -3.30495309    0.44276749    6.19964275
H            -1.98375563   -1.49506302    3.79494466
H            -3.55715845   -1.77758034    5.97141511
H            -3.89039388    0.66946164    7.08976202
H            -1.81678823    0.76690997    2.94786114
C            -1.95117936    0.69246343    4.29856311
C             1.61305418    1.75775026    1.57565925
O             1.49684821    2.90655717    3.70646117
C            -4.82671909   -0.02503955    2.41913162
C            -5.67209290   -0.49467505    3.46978969
C            -6.05734882    0.62847072    4.26374209
C            -5.45477321    1.79540304    3.69830743
C            -4.69498366    1.39121900    2.55874843
H            -4.32933196   -0.63424340    1.66840831
N             0.33934223    1.22388825    2.05867780
H             2.28187268    0.93693863    1.27064651
H            -2.72033839    3.47754351    4.86793077
H            -5.94823749   -1.53158757    3.65344120
C            -2.83644097    3.30007813    6.99304797
H            -2.42603686    2.65807650    7.80191663
H            -2.46746726    4.34278272    7.15800797
H            -3.94851500    3.28375761    6.99177482
N            -0.84482617    2.97124195    5.59361528
C            -0.14961730    2.10905956    6.50947384
C            -0.39824390    4.32273495    5.59335751
H            -0.15899595    2.45408876    7.55087384
H            -0.62192375    1.09565045    6.41620598
H             0.89105172    1.96892690    6.11830978
H            -1.18855534    5.06165969    5.79009566
H             0.44759802    4.45603083    6.30654711
H             0.02852877    4.53730774    4.57427153
C             1.43608516    2.69232912    0.39006241
C             0.72931383    3.91979954    0.84475397
C            -0.64921884    3.95265910    0.79866898
C            -1.36261374    5.06958858    1.20943596
C            -0.71635999    6.19053599    1.68005884
C             0.66682325    6.14356162    1.72076571
C             1.38126697    5.03661992    1.31398047
H             2.44702228    2.93629252    0.01068662
H             0.91101064    2.18010660   -0.43843772
H            -1.18489995    3.07518985    0.42901536
H            -2.44484615    5.07212799    1.16401499
H            -1.23980834    7.08341927    2.01048514
H             1.19439164    7.01641060    2.08831864
H             2.48041018    5.01522050    1.35251953
C             0.00000000    0.00000000    0.00000000
H             1.11123978    0.00000000   -0.00000000
H            -0.34606400   -1.05827032   -0.10446698
H            -0.40221157    0.61775470   -0.83281233



