%chk=rp_42_1.chk
%mem=300GB
%nprocshared=68
#p opt=(calcfc,ts,noeigen,maxstep=5) freq b3lyp def2svp em=gd3bj  

Freeze index  [11, 18]  [18, 19]  [3, 19]  [3, 33]  [3, 28]  [3, 21] // Local index  3  18  20  33  (20,)  [11, 18]  [18, 19]

0 1
Fe            2.04817153   -5.18832665   -1.43978517
C            -2.95392662   -2.29553588    2.14637426
Pd           -1.08638815   -3.96713420    0.82324464
C            -0.66131707   -6.58370133   -0.33114092
H             3.30091709   -6.98377295   -3.24588407
H             0.70050901   -6.34064731   -3.64984542
H             0.41558390   -3.68412020   -3.16923724
C            -0.04959626   -1.41912946    0.00343445
O            -3.77725633   -1.93085869    2.96006310
C             0.70443508   -6.00446510   -0.16704950
O             0.77247338   -2.10528399   -0.68552028
C             2.24702025   -4.42215655    0.48403719
C             2.91692903   -5.67504000    0.38367147
C             1.95586325   -6.66336515    0.01241545
H             2.71724604   -3.46551209    0.70331586
H             3.98079173   -5.84652174    0.53971741
H             2.14703280   -7.72532180   -0.13643362
H             0.56437255   -3.37906277   -0.40102471
C             0.85945158   -4.59179501    0.13765843
C            -2.10138235   -1.27630267    1.35981546
O            -2.78383248   -3.55766443    1.81058308
C             2.62300307   -3.72357052   -2.76954854
C             3.56394749   -4.79742805   -2.79231978
C             2.86752176   -5.98873590   -3.16115801
C             1.49497382   -5.64896989   -3.37381651
C             1.34452330   -4.24961071   -3.13208648
H             2.82390375   -2.69394468   -2.48386675
N            -0.97026183   -1.98113963    0.75612055
H            -1.74309245   -0.51139882    2.06736497
H            -1.12840675   -6.24837770   -1.26828207
H            -0.65822876   -7.68870249   -0.32394411
H             4.60267222   -4.72850210   -2.54492671
N            -1.49206620   -6.06510740    0.76512334
C            -3.17921568   -8.16740871    1.71929282
C            -1.74086853   -8.08003570    2.15731010
C            -1.24194051   -6.67978369    2.03786169
C            -2.91459089   -6.12630575    0.45493398
C            -3.23275110   -7.61764791    0.29238105
H            -3.77087174   -7.52407974    2.40226397
H            -3.59373380   -9.16881462    1.72276234
H            -1.12290474   -8.82298809    1.62586903
H            -1.73579098   -8.33702961    3.25602319
H            -0.16176068   -6.61518170    2.26074104
H            -1.80747704   -6.06525432    2.79777934
H            -3.19442458   -5.54087946   -0.41802779
H            -3.44204219   -5.76883527    1.37542778
H            -4.20437267   -7.78827651   -0.17102731
H            -2.40588174   -8.13057449   -0.26580319
C            -2.97652291   -0.59174565    0.32255330
C            -3.64398851   -1.68297747   -0.49066384
C            -3.99580809    0.30528714    0.98768488
C            -4.89409135    0.99025118    0.01235720
H            -4.12098300   -2.36674712    0.23887008
H            -4.35901697   -1.26997570   -1.22594645
H            -2.82391054   -2.19939084   -1.05622798
H            -2.31645074    0.03707845   -0.29106375
H            -3.43003354    1.08448029    1.53439264
H            -4.58906309   -0.23894994    1.75744924
H            -5.55667968    1.67147020    0.58589073
H            -4.28470014    1.64780963   -0.64888208
H            -5.49939646    0.30217837   -0.60220078
O             0.00000000    0.00000000    0.00000000
C             2.40555702    0.00000000    0.00000000
C             1.12477966    0.48003144   -0.64998416
C             1.12396929    0.13870046   -2.12490363
C             1.09532837    1.98996838   -0.52716250
H             2.54491719    0.62924647    0.92176647
H             3.25050003    0.13250356   -0.70353962
H             2.26843548   -1.06085605    0.31677907
H             2.19866110    0.01589185   -2.42604437
H             0.73905390    0.98572522   -2.72802911
H             0.63147211   -0.82232960   -2.34065379
H             1.99127256    2.46725289   -0.98861527
H             0.98932583    2.22209073    0.54864146
H             0.15669605    2.32502544   -1.01590181



