%chk=rp_44_2.chk
%mem=300GB
%nprocshared=68
#p opt=(calcfc,ts,noeigen,maxstep=5) freq b3lyp def2svp em=gd3bj  

Freeze index  [11, 18]  [18, 19]  [3, 19]  [3, 32]  [3, 28]  [3, 21] // Local index  3  18  20  32  (20,)  [11, 18]  [18, 19]

-1 1
Fe           -3.99833102    4.16359211    0.94693663
C             2.29339770    3.39552959   -1.51762886
Pd           -0.25152046    4.24070800   -0.60017976
C            -2.30638100    6.25794138   -0.86096048
H            -6.68291995    5.07358048    1.08793972
H            -5.54235613    4.76921851   -1.35036496
H            -4.08281249    2.48071160   -1.30690785
C            -0.50737150    1.43104531   -0.07129856
O             3.46962623    3.44338456   -1.81286116
C            -2.62078419    5.54479520    0.41192557
O            -1.69588389    1.72323611    0.27982865
C            -2.27355032    4.01685630    2.10074176
C            -3.11537194    5.04843583    2.60645191
C            -3.30488873    6.01349392    1.57157435
H            -1.98370294    3.11385909    2.63454644
H            -3.55710508    5.08434155    3.60103124
H            -3.89032978    6.92927938    1.64273470
H            -1.81675813    3.03801587    0.22033740
C            -1.95113309    4.29327304    0.72461390
C             1.61306168    2.05665440   -1.15866603
O             1.49687546    4.44349911   -1.56237271
C            -4.82669733    2.28300155    0.80058846
C            -5.67205940    3.12720822    1.58273975
C            -6.05730989    4.23980297    0.77403486
C            -5.45473297    4.07902975   -0.51266724
C            -4.69496113    2.87001205   -0.49583539
H            -4.32932701    1.37641202    1.13644395
N             0.33935463    2.34265628   -0.49796669
H             2.28187647    1.50420011   -0.47927699
H            -3.09803588    6.65606788   -1.46071903
H            -5.94820498    2.96816777    2.62370436
O            -0.95672408    6.40802145   -1.27604565
C             1.43609318    1.23396900   -2.42447965
C             0.34480782    1.90225538   -3.21159151
C             2.71060224    1.05082413   -3.15911953
H             0.27199448    3.00611131   -2.99196680
H            -0.64674164    1.49691911   -2.85762065
H             0.42215325    1.77545636   -4.29106130
H             1.05991247    0.22961629   -2.10607502
H             2.79281484    1.60582183   -4.10922541
H             3.57153461    1.30317352   -2.48887833
H             2.86641633   -0.02921318   -3.43023178
C             0.00000000    0.00000000    0.00000000
H             1.11123978    0.00000000   -0.00000000
H            -0.34606400   -0.43877524    0.96867213
H            -0.40221157   -0.59032385   -0.85247581



