%chk=rp_47_1.chk
%mem=300GB
%nprocshared=68
#p opt=(calcfc,ts,noeigen,maxstep=5) freq b3lyp def2svp em=gd3bj  

Freeze index  [11, 18]  [18, 19]  [3, 19]  [3, 37]  [3, 28]  [3, 21] // Local index  3  18  20  37  (20,)  [11, 18]  [18, 19]

0 1
Fe            2.04819799    5.17490696    1.48731063
C            -2.95394612    2.31512834   -2.12519993
Pd           -1.08639737    3.97453291   -0.78679471
C            -0.66130465    6.58040045    0.39155631
H             3.30094747    6.95369780    3.30981516
H             0.70054303    6.30690120    3.70786323
H             0.41560981    3.65487759    3.20289950
C            -0.04959626    1.41910117    0.00959600
O            -3.77727209    1.95795363   -2.94219266
C             0.70443327    6.00268199    0.22214235
O             0.77248309    2.09889596    0.70479188
C             2.24701045    4.42640505   -0.44345387
C             2.91692757    5.67833348   -0.33160517
C             1.95585964    6.66320987    0.04870778
H             2.71725330    3.47182442   -0.67150681
H             3.98078433    5.85123606   -0.48607824
H             2.14704105    7.72374323    0.20731825
H             0.56437837    3.37524547    0.43201381
C             0.85945187    4.59288698   -0.09553214
C            -2.10139377    1.28874552   -1.34802231
O            -2.78384184    3.57414320   -1.77783116
C             2.62302443    3.69799945    2.80358434
C             3.56397017    4.77159419    2.83620015
C             2.86754129    5.95948176    3.21594182
C             1.49499915    5.61777421    3.42550001
C             1.34455889    4.22069433    3.17094477
H             2.82393644    2.67104663    2.50847592
N            -0.97026490    1.98801441   -0.73790004
H            -1.74310454    0.53035236   -2.06257126
H            -1.12839653    6.23648156    1.32556964
H            -0.65822216    7.68540785    0.39449917
C             5.03953370    4.67691966    2.48386252
C             5.55542696    3.52477003    2.10678313
H             5.65838928    5.55852133    2.54511974
H             4.91724448    2.66985205    2.05591471
H             6.62309532    3.45782767    1.85212974
N            -1.49207437    6.07188067   -0.70941522
C            -0.96011025    6.37118178   -2.01053304
C            -2.88139172    6.34185889   -0.55821158
H            -1.12783594    7.40380740   -2.34096195
H             0.13566428    6.13353658   -1.97070198
H            -1.38215245    5.62196927   -2.72898900
H            -3.12382270    7.02070962    0.27227166
H            -3.31273265    6.72249536   -1.51263836
H            -3.39695533    5.36058566   -0.36323241
C            -2.97652562    0.59468448   -0.31708463
C            -3.24544241    1.60903698    0.75800992
C            -4.18867152   -0.00734921   -0.92195659
H            -3.20094178    2.66713232    0.37010741
H            -2.40106811    1.56621524    1.50498684
H            -4.19420180    1.47774876    1.27754998
H            -2.35848147   -0.22222226    0.13267959
H            -5.13913694    0.49778160   -0.67914743
H            -4.06102254   -0.07666270   -2.03237126
H            -4.32109155   -1.07105476   -0.58250160
O             0.00000000    0.00000000    0.00000000
C             2.40555702    0.00000000    0.00000000
C             1.12477966   -0.48597930    0.64554916
C             1.12396929   -0.15820528    2.12354052
C             1.09532837   -1.99472485    0.50886858
H             2.54491719   -0.62075638   -0.92750529
H             3.25050003   -0.13895781    0.70229332
H             2.26843548    1.06371996   -0.30702504
H             2.19866110   -0.03816689    2.42579619
H             0.73905390   -1.01073217    2.71886327
H             0.63147211    0.80080327    2.34810567
H             1.99127256   -2.47622626    0.96591951
H             0.98932583   -2.21695949   -0.56902135
H             0.15669605   -2.33425534    0.99451082



