%chk=rp_58_1.chk
%mem=300GB
%nprocshared=68
#p opt=(calcfc,ts,noeigen,maxstep=5) freq b3lyp def2svp em=gd3bj  

Freeze index  [11, 18]  [18, 19]  [3, 19]  [3, 33]  [3, 28]  [3, 21] // Local index  3  18  20  33  (20,)  [11, 18]  [18, 19]

0 1
Fe            2.04819297    5.06680400    1.82189542
C            -2.95393307    2.44890602   -1.96958490
Pd           -1.08638380    4.01740385   -0.52572296
C            -0.66129515    6.54081450    0.82018457
H             3.30094374    6.72285189    3.75659104
H             0.70053818    6.05146090    4.11159109
H             0.41560270    3.43805768    3.43461174
C            -0.04959626    1.41544857    0.10220347
O            -3.77726563    2.14580559   -2.80814561
C             0.70445721    5.97538867    0.61343220
O             0.77247366    2.04842877    0.84029295
C             2.24702780    4.44590236   -0.15360789
C             2.91694066    5.68785446    0.03970272
C             1.95589026    6.64580516    0.48348713
H             2.71725762    3.50824244   -0.44347753
H             3.98081292    5.87044749   -0.10314399
H             2.14706542    7.69374217    0.71095999
H             0.56438692    3.33985365    0.65137793
C             0.85946905    4.58931093    0.20444229
C            -2.10138503    1.37398117   -1.26104015
O            -2.78382843    3.68254635   -1.54078431
C             2.62302080    3.50713251    3.03897064
C             3.56397099    4.57632339    3.14159033
C             2.86754211    5.73688804    3.59805220
C             1.49500564    5.38223216    3.78484604
C             1.34455553    4.00474136    3.43965371
H             2.82391654    2.50161899    2.67746014
N            -0.97026860    2.03192668   -0.60656867
H            -1.74310758    0.66384363   -2.02355408
H            -1.12838422    6.13668592    1.72976215
H            -0.65820261    7.64329029    0.89524040
H             4.60269543    4.52598965    2.88974315
N            -1.49205084    6.10524193   -0.31163611
C            -2.90814841    6.28937073   -0.04709212
C            -3.10902518    7.76903187    0.22708247
O            -2.81444132    8.51534931   -0.88913399
C            -1.54769555    8.31177688   -1.39123371
C            -1.20279605    6.85239788   -1.53325386
H            -3.26109811    5.67976661    0.79141901
H            -3.44234422    6.03948405   -0.98079445
H            -4.17157985    7.90478563    0.47174514
H            -2.50272472    8.05837874    1.09622455
H            -0.81313358    8.89108914   -0.81930239
H            -1.53825982    8.73761509   -2.43217462
H            -0.14902452    6.77550810   -1.82366219
H            -1.90149682    6.43543587   -2.30563449
C            -2.97653267    0.61412135   -0.27760728
C            -3.24545356    1.55614644    0.86139483
C            -4.18867815    0.05285619   -0.92049276
H            -3.20094292    2.63730623    0.54337346
H            -2.40108929    1.46466217    1.60398847
H            -4.19422590    1.39123543    1.37124909
H            -2.35849044   -0.23040503    0.11789218
H            -5.13913710    0.54106775   -0.64523972
H            -4.06101314    0.05615836   -2.03305873
H            -4.32110659   -1.03073550   -0.65118545
O             0.00000000    0.00000000    0.00000000
C             2.40555702    0.00000000    0.00000000
C             1.12477966   -0.52707939    0.61245156
C             1.12396929   -0.29647617    2.10868564
C             1.09532837   -2.02368608    0.37758323
H             2.54491719   -0.55889225   -0.96604555
H             3.25050003   -0.18450175    0.69172559
H             2.26843548    1.08149179   -0.23693891
H             2.19866110   -0.19642268    2.41813192
H             0.73905390   -1.18604311    2.64709251
H             0.63147211    0.64582941    2.39536856
H             1.99127256   -2.53399343    0.80223082
H             0.98932583   -2.17509050   -0.71251385
H             0.15669605   -2.39419148    0.84002792



