%chk=rp_61_1.chk
%mem=300GB
%nprocshared=68
#p opt=(calcfc,ts,noeigen,maxstep=5) freq b3lyp def2svp em=gd3bj  

Freeze index  [11, 18]  [18, 19]  [3, 19]  [3, 33]  [3, 28]  [3, 21] // Local index  3  18  20  33  (20,)  [11, 18]  [18, 19]

0 1
Fe           -3.99826772   -3.20866422    2.81730633
C             2.29339350   -0.76175455    3.64040949
Pd           -0.25148642   -2.00057986    3.78701803
C            -2.30633215   -2.97231158    5.57393880
H            -6.68284682   -3.85656790    3.47171907
H            -5.54233609   -1.70296519    4.65501254
H            -4.08282020   -0.39617405    2.77579848
C            -0.50737150   -0.78140418    1.20099196
O             3.46961782   -0.55065868    3.85228347
C            -2.62071766   -3.58519923    4.24984203
O            -1.69588202   -1.23721128    1.23177444
C            -2.27345762   -4.05717189    2.02186023
C            -3.11525514   -5.07177008    2.56090263
C            -3.30480290   -4.79939564    3.94946702
H            -1.98362568   -3.96003412    0.97739056
H            -3.55696110   -5.89844706    2.00675417
H            -3.89021382   -5.39406473    4.64955174
H            -1.81671113   -1.96001452    2.33164607
C            -1.95107479   -3.10456352    3.05272233
C             1.61306311   -0.26742483    2.34537969
O             1.49687831   -1.34006391    4.51551084
C            -4.82666351   -1.98735525    1.37981174
C            -5.67199454   -3.11598023    1.60497120
C            -6.05724390   -3.11334855    2.98041363
C            -5.45470166   -1.97680140    3.60471368
C            -4.69494666   -1.28145523    2.61552782
H            -4.32927723   -1.72775665    0.44850849
N             0.33935814   -0.97035654    2.18961887
H             2.28187556   -0.49377149    1.49949742
H            -2.72027068   -1.95685105    5.65341614
H            -2.69163475   -3.56860708    6.42073657
H            -5.94338288   -3.85308658    0.87838950
N            -0.84472625   -2.84161604    5.66056385
C            -0.14947871   -4.08747303    5.48759015
C            -0.39815618   -2.05912640    6.76250841
H            -0.15881819   -4.73698382    6.37171995
H            -0.62178073   -4.59800817    4.60721939
H             0.89118601   -3.84956711    5.14690554
H            -1.18847413   -1.79189501    7.47895414
H             0.44770759   -2.56352334    7.28400939
H             0.02857494   -1.10389788    6.34761861
C             1.43604779    1.24032428    2.42127139
C             0.72927385    1.57998016    3.68541468
C            -0.64925502    1.63653957    3.68554759
C            -1.36265834    1.94802587    4.83412325
C            -0.71639954    2.21308132    6.02061507
C             0.66677824    2.15274000    6.00585761
C             1.38123277    1.84378621    4.86773304
H             2.44696367    1.69092955    2.40062166
H             0.91094966    1.61944325    1.52403287
H            -1.18494094    1.43007110    2.75604655
H            -2.44489467    1.98649753    4.80991065
H            -1.23985700    2.46041593    6.93998348
H             1.19434059    2.35824774    6.93036889
H             2.48037100    1.80000769    4.87257839
C             0.00000000    0.00000000    0.00000000
H             1.11123978    0.00000000    0.00000000
H            -0.34606400   -0.52735328   -0.92344352
H            -0.40221157    1.03668988    0.02171032



