%chk=sp_1_3.chk
%mem=300GB
%nprocshared=68
#p opt=(calcfc,ts,noeigen,maxstep=5) freq b3lyp def2svp em=gd3bj  

Freeze index  [11, 18]  [18, 19]  [3, 19]  [3, 36]  [3, 28]  [3, 21] // Local index  3  18  20  36  (20,)  [11, 18]  [18, 19]

0 1
Fe            1.02513662   -5.16555875   -2.29804082
C            -1.47643085   -2.16188019    3.25047620
Pd           -0.57030585   -3.92684038    1.21504078
C             0.71403394   -6.46373932    0.64244378
H             2.52829181   -6.91051029   -3.95385728
H             3.54104159   -6.22262403   -1.53747677
H             3.04673132   -3.57998690   -1.15018293
C            -0.05155293   -1.41906381   -0.00043162
O            -1.87794844   -1.71439715    4.30419234
C             0.16072735   -5.98073235   -0.65880347
O             0.63516920   -2.10370762   -0.82910134
C            -0.93679367   -4.51560608   -2.05994784
C            -0.91626847   -5.79418343   -2.68658996
C            -0.26480461   -6.71135601   -1.80529709
H            -1.32957103   -3.59975244   -2.49858740
H            -1.30674947   -6.02990980   -3.67545663
H            -0.09387764   -7.77093631   -1.99102705
H             0.33363070   -3.37724309   -0.64041501
C            -0.26630579   -4.59685817   -0.78843577
C            -1.53452963   -1.29790645    1.96624078
O            -1.02187644   -3.38804452    3.10445921
C             2.80440213   -4.15874242   -2.03917223
C             3.05240194   -5.55009477   -2.24071126
C             2.51828759   -5.91373809   -3.51638040
C             1.94510092   -4.74439933   -4.10305497
C             2.11710972   -3.66107667   -3.18914343
H             1.75521626   -2.64387174   -3.31606866
N            -0.83151623   -1.98808592    0.89264718
H            -1.03285923   -0.34367010    2.18993120
H             1.71218915   -6.04145289    0.82630679
H             1.43601638   -4.69611637   -5.06412271
C             0.82228280   -7.97847734    0.70759514
H             1.57838752   -8.32828202   -0.02777287
H             1.18144954   -8.25301642    1.73044323
H            -0.17069905   -8.44060544    0.51423786
N            -0.16050049   -5.96458026    1.71339252
C             0.31403653   -6.28641373    3.03346627
C            -1.54681239   -6.23359276    1.49616138
H             0.12978718   -7.32594235    3.34416713
H             1.40411723   -6.05090040    3.03582359
H            -0.13787093   -5.54547771    3.74015547
H            -1.75177827   -6.90114919    0.64903613
H            -2.01666485   -6.62523493    2.42786578
H            -2.04311033   -5.25058621    1.29471448
C            -2.98852502   -1.00121841    1.63718862
C            -3.62388887   -2.19563261    1.05454343
C            -3.54784236   -2.30304651   -0.31375653
C            -4.13408523   -3.41529782   -0.90985210
C            -4.76586038   -4.36199643   -0.10532343
C            -4.84205123   -4.25385137    1.26868863
C            -4.25104495   -3.13484893    1.85649474
H            -3.47934572   -0.68909753    2.57920904
H            -3.06394644   -0.10220959    0.96909921
H            -3.05640919   -1.56618803   -0.93705299
H            -4.08093696   -3.51162325   -1.98830971
H            -5.21025195   -5.21903347   -0.63720010
H            -5.34329131   -5.01543871    1.84678592
H            -4.28403931   -3.00403450    2.93376701
O             0.00000000    0.00000000    0.00000000
C             2.40344492   -0.00000000    0.00000000
C             1.12217142    0.48231815   -0.64779645
C             1.12349692    0.14797536   -2.12469690
C             1.09119797    1.99098743   -0.51683083
H             2.54761207    0.63735593    0.91538661
H             3.24949750    0.15326009   -0.70944707
H             2.26741151   -1.06158514    0.30343714
H             2.19864532    0.03311569   -2.43803259
H             0.73298951    0.99358644   -2.72590672
H             0.63369468   -0.81156496   -2.35779511
H             1.97574113    2.48824937   -0.98009180
H             0.96762872    2.21512277    0.56117507
H             0.14389701    2.31199909   -0.99772818



