%chk=sp_18_3.chk
%mem=300GB
%nprocshared=68
#p opt=(calcfc,ts,noeigen,maxstep=5) freq b3lyp def2svp em=gd3bj  

Freeze index  [11, 18]  [18, 19]  [3, 19]  [3, 36]  [3, 28]  [3, 21] // Local index  3  18  20  36  (20,)  [11, 18]  [18, 19]

0 1
Fe            1.03393123   -3.45216177   -4.47529644
C            -1.47576354   -3.44810791    1.83083329
Pd           -0.56572230   -4.03304165   -0.79763777
C             0.72252466   -5.99197362   -2.50530542
H             2.54070067   -4.19935858   -6.75946518
H             3.55075274   -4.74145322   -4.30516008
H             3.05250670   -2.60072398   -2.70927255
C            -0.04959626   -1.24844589   -0.67477631
O            -1.87866176   -3.55544208    2.97009703
C             0.16949186   -4.94913652   -3.42144935
O             0.63866607   -1.45648111   -1.72834735
C            -0.92907477   -2.99515150   -3.95949785
C            -0.90630129   -3.82235346   -5.11840925
C            -0.25420551   -5.04756037   -4.77795337
H            -1.32279796   -1.98121716   -3.91074476
H            -1.29574871   -3.56020713   -6.10100628
H            -0.08166687   -5.89146284   -5.44467216
H             0.33877358   -2.66695835   -2.16788283
C            -0.25937437   -3.67026702   -2.87845944
C            -1.53414924   -2.07769882    1.11133496
O            -1.01940486   -4.45719159    1.12027453
C             2.81161030   -2.68772884   -3.76680455
C             3.06169468   -3.81596700   -4.60497332
C             2.52898889   -3.53021553   -5.90089721
C             1.95460783   -2.22305950   -5.86217884
C             2.12446466   -1.70398696   -4.54304331
H             1.76125667   -0.74897584   -4.17182202
N            -0.82941314   -2.17419727   -0.16036189
H            -1.03395306   -1.34394597    1.76224276
H             1.71996605   -5.70690786   -2.14156996
H             1.44615515   -1.72433405   -6.68551347
C             0.83281998   -7.35563717   -3.16762839
H             1.58995345   -7.31331735   -3.97992975
H             1.19165527   -8.08294506   -2.39764764
H            -0.15936450   -7.67125328   -3.55864276
N            -0.15346039   -6.06245838   -1.32693568
C             0.31905280   -6.97097461   -0.31856352
C            -1.53609505   -6.18859359   -1.64059622
H             0.13172574   -8.02909190   -0.53974227
H             1.41668212   -6.77245800   -0.19790590
H            -0.13054394   -6.65566152    0.65821188
H            -1.74503208   -6.37073974   -2.70478058
H            -2.01103629   -6.97440671   -1.00910025
H            -2.03761198   -5.22356317   -1.35095246
C            -2.98831578   -1.66156851    0.96091829
C            -2.99678586   -0.15931491    0.94615645
C            -3.63771324   -2.29912904   -0.20930174
H            -2.02717929    0.27126866    0.56343169
H            -3.04458840    0.20540843    2.01267625
H            -3.81308080    0.28348059    0.37615602
H            -3.51673270   -1.99578340    1.88864704
H            -3.86021524   -1.62368982   -1.05296399
H            -3.01781614   -3.16340376   -0.55982388
H            -4.62543877   -2.75347950    0.07742991
O             0.00000000    0.00000000    0.00000000
C             2.40555702   -0.00000000    0.00000000
C             1.12477966    0.73218201   -0.34178811
C             1.12396929    1.13673832   -1.80063301
C             1.09532837    2.00010721    0.48728389
H             2.54491719    0.11259049    1.11037288
H             3.25050003    0.45243294   -0.55482396
H             2.26843548   -1.08333462   -0.22836511
H             2.19866110    1.17267080   -2.12386135
H             0.73905390    2.16896961   -1.92597192
H             0.63147211    0.39545041   -2.44918458
H             1.99127256    2.63983093    0.30982198
H             0.98932583    1.69022588    1.54331822
H             0.15669605    2.52790644    0.21791924



