%chk=sp_15_1.chk
%mem=300GB
%nprocshared=68
#p opt=(calcfc,ts,noeigen,maxstep=5) freq b3lyp def2svp em=gd3bj  

Freeze index  [11, 18]  [18, 19]  [3, 19]  [3, 56]  [3, 28]  [3, 21] // Local index  3  18  20  56  (20,)  [11, 18]  [18, 19]

0 1
Fe            1.03394822    5.18843786    2.24180644
C            -1.47585221    2.12896535   -3.27239513
Pd           -0.56578238    3.91437102   -1.25664508
C             0.72247154    6.45547787   -0.71219857
H             2.54074632    6.94896189    3.87773549
H             3.55075909    6.23380738    1.46812797
H             3.05250634    3.58786046    1.10953280
C            -0.04959626    1.41905708   -0.01473799
O            -1.87877699    1.67076641   -4.32096006
C             0.16947018    5.98720935    0.59453591
O             0.63865834    2.11157953    0.80603909
C            -0.92904988    4.53872023    2.01211283
C            -0.90628473    5.82389072    2.62501071
C            -0.25421751    6.73066330    1.73344939
H            -1.32277523    3.62815688    2.46082503
H            -1.29571187    6.07074772    3.61156489
H            -0.08166439    7.79194001    1.90769851
H             0.33876230    3.38343017    0.60393548
C            -0.25938299    4.60539203    0.73932061
C            -1.53420537    1.27888837   -1.97893562
O            -1.01948752    3.35598431   -3.13986146
C             2.81163582    4.17644976    1.99245019
C             3.06170252    5.56952893    2.17890700
C             2.52902110    5.94756498    3.45097046
C             1.95466837    4.78537365    4.05055508
C             2.12448645    3.69208744    3.14819037
H             1.76129337    2.67681074    3.28627139
N            -0.82944042    1.97954788   -0.91330544
H            -1.03400549    0.32161447   -2.19274601
H             1.71991554    6.02985037   -0.89224806
H             0.80263881    7.55583270   -0.77142709
P             1.09998469    4.72272564    5.66750055
O            -0.31290754    4.21939574    5.39804632
C             0.97752543    6.33828997    6.36856539
C             1.90280126    6.87803514    7.23845023
C             1.76005588    8.15549135    7.76257198
C             0.66903753    8.92594126    7.41751785
C            -0.27046472    8.40532719    6.54752226
C            -0.10369096    7.13105000    6.04074171
C             1.92947052    3.56488321    6.71815664
C             1.92930075    3.68145739    8.09299659
C             2.61260885    2.71429892    8.80086277
C             3.27429021    1.66906825    8.20135464
C             3.27479760    1.55201988    6.82669376
C             2.59755343    2.50830566    6.09816069
H             2.75899989    6.28976748    7.51716863
H             2.48654519    8.55403665    8.43337448
H             0.57301007    9.90438902    7.82773547
H            -1.11015626    9.03844248    6.30138434
H            -0.86870136    6.77146932    5.36345471
H             1.40564928    4.50742914    8.55327495
H             2.64172551    2.76158994    9.87702710
H             3.81277344    0.90641318    8.75343294
H             3.79300836    0.73162564    6.33555121
H             2.59119413    2.42533474    5.00399775
N            -0.15352365    5.94608599   -1.77711216
C             0.31895472    6.25214462   -3.09943459
C            -1.53616024    6.20841369   -1.56384588
H             0.13162361    7.28490528   -3.41871899
H             1.41660402    6.02004347   -3.10880167
H            -0.13063670    5.50298882   -3.80105394
H            -1.74508803    6.88344521   -0.72121359
H            -2.01112336    6.58977978   -2.49702326
H            -2.03768197    5.22390681   -1.34955545
C            -2.98836348    0.98776264   -1.64566247
C            -2.99524575   -0.03216140   -0.52435658
C            -3.71176153    2.25411942   -1.24685982
C            -5.14257293    2.02103634   -0.89218627
H            -2.33942896    0.37497603    0.27027215
H            -4.02004491   -0.24743995   -0.16950254
H            -2.57192639   -0.97712345   -0.95670674
H            -3.45701607    0.60015269   -2.56095467
H            -3.68432941    2.92965811   -2.12380213
H            -3.18393225    2.79405680   -0.42798574
H            -5.60228110    3.00899018   -0.68086680
H            -5.68098966    1.62164514   -1.78188059
H            -5.28891672    1.34398124   -0.03329093
O             0.00000000    0.00000000    0.00000000
C             2.40555702   -0.00000000    0.00000000
C             1.12477966   -0.47483896    0.65378709
C             1.12396929   -0.12177078    2.12594100
C             1.09532837   -1.98570629    0.54299627
H             2.54491719   -0.63656857   -0.91672516
H             3.25050003   -0.12689553    0.70457272
H             2.26843548    1.05829919   -0.32521895
H             2.19866110    0.00343258    2.42609399
H             0.73905390   -0.96396466    2.73579406
H             0.63147211    0.84094728    2.33402952
H             1.99127256   -2.45930011    1.00823607
H             0.98932583   -2.22639028   -0.53092466
H             0.15669605   -2.31685982    1.03438887



