%chk=sp_11_1.chk
%mem=300GB
%nprocshared=68
#p opt=(calcfc,ts,noeigen,maxstep=5) freq b3lyp def2svp em=gd3bj  

Freeze index  [11, 18]  [18, 19]  [3, 19]  [3, 33]  [3, 28]  [3, 21] // Local index  3  18  20  33  (20,)  [11, 18]  [18, 19]

0 1
Fe            1.03396842    4.44534855    3.49062581
C            -1.47580344    2.89301152   -2.62141345
Pd           -0.56574302    4.10542344   -0.21706352
C             0.72252980    6.42369512    0.95732089
H             2.54076950    5.73053925    5.52138045
H             3.55079266    5.65340403    3.00909724
H             3.05253107    3.18635398    1.98770417
C            -0.04959626    1.37591496    0.34756039
O            -1.87871914    2.71731156   -3.75214793
C             0.16951423    5.63773140    2.10148081
O             0.63867517    1.83628133    1.31780145
C            -0.92902990    3.87568009    3.10285050
C            -0.90625232    4.96211584    4.02318342
C            -0.25417223    6.06622035    3.39231622
H            -1.32275993    2.88081963    3.30456489
H            -1.29569915    4.94926853    5.04006594
H            -0.08162592    7.04799413    3.83138492
H             0.33879110    3.11761577    1.44666909
C            -0.25935389    4.26467281    1.88914101
C            -1.53416677    1.74121819   -1.58745170
O            -1.01942032    4.04567621   -2.18039476
C             2.81164921    3.53035755    2.99149674
C             3.06173501    4.82985829    3.52698545
C             2.52904192    4.87105207    4.85340142
C             1.95468164    3.59440921    5.13683590
C             2.12449521    2.76734024    3.98552923
H             1.76129308    1.75041026    3.86017613
N            -0.82941116    2.14700608   -0.37838922
H            -1.03397889    0.87009648   -2.03826372
H             1.71997012    6.05805427    0.67471480
H             0.80271848    7.50278328    1.18063847
H             1.45493320    3.31793256    6.04166553
N            -0.15347070    6.20268348   -0.20227315
C            -1.63183786    7.72614202    0.94843735
C            -1.51362437    6.44837579    0.15857248
C             0.32111463    7.11401227   -1.20659631
C             1.77208415    6.68263824   -1.49261538
H            -2.68936666    8.01637879    1.15455507
H            -1.16832050    7.49839824    1.94832053
H            -1.04599137    8.52564868    0.51924771
H            -1.93875623    5.58162680    0.73530021
H            -2.17503434    6.50319654   -0.75319904
H            -0.26262212    7.06601546   -2.14980351
H             0.32234343    8.13730060   -0.79205359
H             2.30488405    6.44427031   -0.56049222
H             2.30206026    7.47650213   -2.06837161
H             1.67538161    5.79946820   -2.16909680
C            -2.98833793    1.37476650   -1.33944853
C            -2.99681078   -0.07787462   -0.95628079
C            -3.63771663    2.28014334   -0.36159222
H            -2.02719443   -0.40130958   -0.47956192
H            -3.04462966   -0.69329972   -1.90059026
H            -3.81309903   -0.36715266   -0.29498813
H            -3.51676698    1.47096157   -2.32083377
H            -3.86020527    1.83253328    0.62209633
H            -3.01780914    3.20402404   -0.23401509
H            -4.62544735    2.65018964   -0.75108382
O             0.00000000    0.00000000    0.00000000
C             2.40555702   -0.00000000    0.00000000
C             1.12477966   -0.62583902    0.51111166
C             1.12396929   -0.65978890    2.02463129
C             1.09532837   -2.05852433    0.01876270
H             2.54491719   -0.38179626   -1.04873074
H             3.25050003   -0.30234371    0.64893256
H             2.26843548    1.10624219   -0.04464018
H             2.19866110   -0.61525231    2.34678683
H             0.73905390   -1.62964008    2.39959793
H             0.63147211    0.21805586    2.47130285
H             1.99127256   -2.63508620    0.34787601
H             0.98932583   -2.01744041   -1.08103140
H             0.15669605   -2.50402163    0.40948190



