%chk=sp_22_1.chk
%mem=300GB
%nprocshared=68
#p opt=(calcfc,ts,noeigen,maxstep=5) freq b3lyp def2svp em=gd3bj  

Freeze index  [11, 18]  [18, 19]  [3, 19]  [3, 33]  [3, 28]  [3, 21] // Local index  3  18  20  33  (20,)  [11, 18]  [18, 19]

0 1
Fe            1.71316803   -4.63620857   -2.93007221
C            -2.45467564   -2.67732493    2.05566752
Pd           -0.93710594   -4.04196229    0.07732881
C             0.46188958   -6.49058492   -0.60110425
H             3.67190624   -6.10316451   -4.36447436
H             3.84429440   -6.00665955   -1.66287108
H             3.25271239   -3.47336400   -0.88165263
C            -0.04959626   -1.38057782   -0.32855000
O            -3.17671118   -2.43053934    2.99882032
C             0.36214777   -5.70941603   -1.87094305
O             0.86880340   -1.92598470   -1.02574345
C            -0.21911144   -3.91015501   -3.18972128
C             0.00322532   -5.02888457   -4.04229382
C             0.33206293   -6.15352849   -3.22416907
H            -0.44728893   -2.89732632   -3.51773016
H            -0.04465504   -5.02546578   -5.13021764
H             0.55337987   -7.16098286   -3.57412705
H             0.52144486   -3.18581900   -1.22710157
C             0.00141127   -4.30166522   -1.82189017
C            -2.09141229   -1.56370633    1.04225869
O            -1.97815804   -3.87597820    1.79568543
C             3.31224832   -3.83597382   -1.90583388
C             3.61134958   -5.16936502   -2.31884417
C             3.52084913   -5.22084200   -3.74503200
C             3.17038653   -3.91699035   -4.21110343
C             3.03658559   -3.06223336   -3.07537182
H             2.73632876   -2.01745555   -3.08372589
N            -1.07796069   -2.06484043    0.12305076
H            -2.98385420   -1.23811534    0.54990145
H             1.34630272   -6.18872909   -0.02218170
H             0.52015485   -7.58021208   -0.77439426
H             3.00441959   -3.63856432   -5.23083577
N            -0.71301057   -6.16288436    0.21930960
C            -0.69472984   -6.78369731    1.51534499
C            -1.95123366   -6.27036121   -0.47440872
H            -0.97399902   -7.84465839    1.51243267
H             0.34012803   -6.64029257    1.92433430
H            -1.34877608   -6.17467858    2.19132918
H            -1.87442925   -6.72822835   -1.47128489
H            -2.70274435   -6.81017418    0.14664578
H            -2.35754172   -5.22877416   -0.60371006
C            -1.53600503   -0.39257564    1.83622433
C            -2.71280447    0.30188874    2.49233532
C            -0.53120073   -0.86724130    2.86145053
C             0.03374033    0.24407261    3.68193092
H            -3.27733164   -0.48474214    3.03067562
H            -2.38834826    1.12779405    3.15194733
H            -3.32217244    0.74194380    1.65920322
H            -1.01426759    0.26107152    1.12335899
H             0.30222801   -1.33481867    2.30207379
H            -0.94920028   -1.66768182    3.51356023
H             0.80356981   -0.19066153    4.35303993
H             0.57855853    0.95173736    3.01608096
H            -0.71791652    0.79353943    4.27405918
O             0.00000000    0.00000000    0.00000000
C             2.40555702   -0.00000000   -0.00000000
C             1.12477966    0.61872997   -0.51969493
C             1.12396929    0.63180139   -2.03353885
C             1.09532837    2.05806973   -0.04715314
H             2.54491719    0.39622457    1.04336506
H             3.25050003    0.29336454   -0.65304091
H             2.26843548   -1.10552126    0.05989379
H             2.19866110    0.58282570   -2.35504948
H             0.73905390    1.59638858   -2.42184651
H             0.63147211   -0.25212059   -2.46806024
H             1.99127256    2.63003746   -0.38418738
H             0.98932583    2.03215864    1.05310300
H             0.15669605    2.49813566   -0.44397970



