%chk=sp_25_2.chk
%mem=300GB
%nprocshared=68
#p opt=(calcfc,ts,noeigen,maxstep=5) freq b3lyp def2svp em=gd3bj  

Freeze index  [11, 18]  [18, 19]  [3, 19]  [3, 32]  [3, 28]  [3, 21] // Local index  3  18  20  32  (20,)  [11, 18]  [18, 19]

-1 1
Fe           -1.08664658    1.90020307    5.40909292
C            -3.53293397   -2.23800757    0.61778585
Pd           -2.97972868   -0.69795605    2.94188224
C            -4.11804937    0.82145244    5.13478889
H            -0.96714839    3.90109095    7.41616598
H            -2.82019578    4.14036624    5.45486792
H            -1.64814043    3.42460554    3.11140592
C            -0.78182627    0.02296778    1.30331123
O            -4.07800356   -2.94742483   -0.20159673
C            -2.67211299    0.64251526    5.46628521
O            -0.60894121    0.95223060    2.15981037
C            -0.51033764   -0.07710434    5.11515358
C            -0.66755190    0.18646689    6.50571504
C            -2.01640162    0.60168807    6.73030148
H             0.41634554   -0.37219816    4.62562711
H             0.10942776    0.10917437    7.26480987
H            -2.45529252    0.87135492    7.69004660
H            -1.36384092    0.67297022    3.20886590
C            -1.74753420    0.20246556    4.43390531
C            -2.01091266   -1.96717209    0.52200760
O            -4.15412984   -1.70018530    1.64554431
C            -1.16543388    3.47736670    4.08515578
C            -1.78176727    3.84182116    5.32018303
C            -0.80387003    3.71603316    6.35591603
C             0.41702657    3.27836020    5.75764227
C             0.19317956    3.12603184    4.35583554
H             0.90939302    2.76577338    3.62165914
N            -1.64282808   -0.95159652    1.49991063
H            -1.80663368   -1.59920253   -0.49543147
H            -4.63902406    1.69485848    5.46736768
H             1.34578482    3.06551428    6.28416296
O            -4.80066577   -0.16757054    4.37828620
C            -1.26433611   -3.27794368    0.70885774
C             0.17295012   -3.06403986    0.39041278
C             0.60532897   -3.25380006   -0.90596605
C             1.93354469   -3.06922830   -1.26229279
C             2.87188183   -2.68812844   -0.32959366
C             2.42398079   -2.50132276    0.96714942
C             1.10549125   -2.68318576    1.32733812
H            -1.39381746   -3.58167585    1.76546503
H            -1.72139183   -4.08025168    0.09903731
H            -0.12055862   -3.55638869   -1.66431134
H             2.24962714   -3.22423134   -2.28667751
H             3.92010303   -2.53379754   -0.57008192
H             3.14758997   -2.20102063    1.71647819
H             0.76554693   -2.53075198    2.36235389
C             0.00000000    0.00000000    0.00000000
C             1.39649541    0.00000000   -0.00000000
C             1.83794744   -0.23610944   -1.28986527
C             0.72440946   -0.38496517   -2.10364079
C            -0.39999311   -0.24502262   -1.30728102
Fe            0.70745987    1.15413634   -1.17810886
C             0.81879968    2.27156736   -2.58498729
C             1.85361984    2.42943389   -1.68686913
C             1.30541203    2.65281902   -0.42444804
C            -0.08349837    2.59050460   -0.52830783
C            -0.37901765    2.38780481   -1.86872675
H             1.98378584   -0.04236532    0.86104736
H             2.80791523   -0.48504630   -1.57080854
H             0.75679286   -0.75420169   -3.07884213
H            -1.36679357   -0.50481324   -1.60122392
H             0.85911842    2.25742947   -3.62455061
H             2.85605783    2.58697775   -1.92243565
H             1.83670379    3.01515024    0.39261684
H            -0.74279598    2.96118557    0.18467505
H            -1.30934428    2.50533399   -2.32482838



