%chk=sp_20_2.chk
%mem=300GB
%nprocshared=68
#p opt=(calcfc,ts,noeigen,maxstep=5) freq b3lyp def2svp em=gd3bj  

Freeze index  [11, 18]  [18, 19]  [3, 19]  [3, 32]  [3, 28]  [3, 21] // Local index  3  18  20  32  (20,)  [11, 18]  [18, 19]

-1 1
Fe           -4.00912383   -4.22605204    0.34235240
C             2.20351931   -2.95136274   -2.07505650
Pd           -0.30582937   -4.03225791   -1.29149092
C            -2.47725826   -5.81364317   -2.01589900
H            -6.70612621   -5.09443945    0.47738465
H            -5.71768481   -4.29976885   -1.91619367
H            -4.18174647   -2.09987150   -1.49285355
C            -0.50737150   -1.41594724   -0.21924317
O             3.28687443   -2.79385274   -2.59784469
C            -2.69695617   -5.46100345   -0.58061425
O            -1.74266771   -1.70256361   -0.08177445
C            -2.23700590   -4.40665392    1.41717667
C            -3.09030459   -5.51394065    1.68855900
C            -3.35040318   -6.18806224    0.45560688
H            -1.89362124   -3.67572971    2.14744869
H            -3.49536937   -5.78790040    2.66156886
H            -3.96526912   -7.07777116    0.32598805
H            -1.87233391   -3.00565797   -0.26485366
C            -1.97407385   -4.34251464    0.00308496
C             1.77917559   -2.05993974   -0.88158673
O             1.35117195   -3.88857542   -2.43073612
C            -4.75511380   -2.64114167   -0.74301987
C            -5.55364703   -3.80432953   -0.96055721
C            -6.07602263   -4.22409615    0.30268654
C            -5.60273995   -3.31595521    1.29834958
C            -4.78284616   -2.34080111    0.65395938
H            -4.23652023   -1.53416561    1.13628369
N             0.38223486   -2.32237729   -0.56086066
H             1.90105497   -1.01166941   -1.19555125
H            -3.31369111   -6.02381117   -2.64920945
H            -5.80456262   -3.37737698    2.36634664
O            -1.15845549   -5.86970231   -2.53936855
C             2.72037035   -2.31620101    0.28412787
C             2.42472349   -1.26696282    1.33736644
C             2.53346385   -3.71461046    0.82776248
C             3.42401019   -4.01297280    1.98762524
H             1.33243333   -1.30683687    1.51791844
H             3.01969549   -1.42588164    2.25564456
H             2.72796243   -0.28208161    0.89336065
H             3.74474791   -2.23490942   -0.10534198
H             2.79358275   -4.41466784    0.01021052
H             1.46922709   -3.92295040    1.08206433
H             3.26362003   -5.07410038    2.27097650
H             4.48697447   -3.94498665    1.66135836
H             3.25990955   -3.35899869    2.86107020
C             0.00000000    0.00000000    0.00000000
H             1.11123978   -0.00000000    0.00000000
H            -0.34606400    0.62540237   -0.86007051
H            -0.40221157    0.40595398    0.95414811



