%chk=sp_2_1.chk
%mem=300GB
%nprocshared=68
#p opt=(calcfc,ts,noeigen,maxstep=5) freq b3lyp def2svp em=gd3bj  

Freeze index  [11, 18]  [18, 19]  [3, 19]  [3, 43]  [3, 28]  [3, 21] // Local index  3  18  20  43  (20,)  [11, 18]  [18, 19]

0 1
Fe            1.03396280    5.19639436    2.22329548
C            -1.47580306    2.11730689   -3.27997344
Pd           -0.56574427    3.90988501   -1.27059020
C             0.72252053    6.45289937   -0.73519205
H             2.54076456    6.96272715    3.85296213
H             3.55079292    6.23898164    1.44594143
H             3.05252293    3.59177989    1.09677258
C            -0.04959626    1.41899551   -0.01979806
O            -1.87871010    1.65537671   -4.32689760
C             0.16950122    5.98930093    0.57319227
O             0.63867272    2.11444820    0.79852127
C            -0.92904079    4.54587387    1.99591560
C            -0.90626182    5.83323368    2.60421118
C            -0.25417845    6.73680649    1.70944834
H            -1.32276112    3.63692757    2.44787121
H            -1.29571321    6.08360443    3.58987758
H            -0.08163934    7.79870392    1.87991600
H             0.33877901    3.38557377    0.59188940
C            -0.25936378    4.60801894    0.72289567
C            -1.53417720    1.27184498   -1.98349195
O            -1.01943778    3.34477700   -3.15181012
C             2.81164166    4.18350866    1.97757309
C             3.06172354    5.57725145    2.15905716
C             2.52903308    5.95982541    3.42976984
C             1.95467192    4.79977800    4.03349194
C             2.12450229    3.70328347    3.13502289
H             1.76129388    2.68850403    3.27672223
N            -0.82941578    1.97629187   -0.92036258
H            -1.03398748    0.31380537   -2.19388171
H             1.71996758    6.02661921   -0.91372063
H             0.80270710    7.55303466   -0.79833593
C             1.24475844    4.75253534    5.37669378
C             0.35875544    3.54006359    5.42326271
C             2.29502405    4.75948271    6.44913220
O             0.43697421    5.88245369    5.44711992
H            -0.58002077    3.68980823    5.97699673
H             0.06356330    3.31607539    4.36331714
H             0.86216243    2.63628237    5.80948589
H             3.32290222    4.59017394    6.06033114
H             2.32575195    5.78674640    6.90713546
H             2.08541274    4.05077602    7.27473027
H             0.01898255    6.02516059    6.31543720
N            -0.15347345    5.93972596   -1.79829804
C             0.31903103    6.24106817   -3.12170056
C            -1.53610000    6.20284664   -1.58597318
H             0.13170504    7.27269140   -3.44467023
H             1.41667333    6.00891228   -3.13022867
H            -0.13057477    5.48941284   -3.82065128
H            -1.74503830    6.88086964   -0.74576823
H            -2.01105148    6.58086291   -2.52052112
H            -2.03763393    5.21910188   -1.36818250
C            -2.98834397    0.98191476   -1.64920473
C            -2.99524693   -0.03401257   -0.52427658
C            -3.71173731    2.24969270   -1.25491524
C            -5.14256247    2.01788094   -0.89943389
H            -2.33943235    0.37593903    0.26890047
H            -4.02005625   -0.24801454   -0.16866634
H            -2.57192789   -0.98051072   -0.95325675
H            -3.45698863    0.59104933   -2.56312118
H            -3.68428346    2.92210790   -2.13425410
H            -3.18390968    2.79253420   -0.43796383
H            -5.60225467    3.00658561   -0.69163521
H            -5.68096211    1.61532846   -1.78770917
H            -5.28891311    1.34388729   -0.03813662
O             0.00000000    0.00000000    0.00000000
C             2.40555702    0.00000000    0.00000000
C             1.12477966   -0.47250463    0.65547614
C             1.12396929   -0.11418919    2.12636170
C             1.09532837   -1.98375742    0.55007358
H             2.54491719   -0.63983344   -0.91444941
H             3.25050003   -0.12438231    0.70502073
H             2.26843548    1.05713277   -0.32899063
H             2.19866110    0.01208368    2.42606633
H             0.73905390   -0.95420306    2.73921404
H             0.63147211    0.84926477    2.33101598
H             1.99127256   -2.45568924    1.01699919
H             0.98932583   -2.22826933   -0.52298228
H             0.15669605   -2.31315660    1.04264391



