%chk=sp_35_2.chk
%mem=300GB
%nprocshared=68
#p opt=(calcfc,ts,noeigen,maxstep=5) freq b3lyp def2svp em=gd3bj  

Freeze index  [11, 18]  [18, 19]  [3, 19]  [3, 32]  [3, 28]  [3, 21] // Local index  3  18  20  32  (20,)  [11, 18]  [18, 19]

-1 1
Fe           -3.20033827    3.77023052   -3.09726580
C             1.41950682   -1.15028337   -3.81232321
Pd           -0.49130731    0.93253331   -4.11212786
C            -1.24606833    3.29068672   -5.62297664
H            -4.53131845    6.25874025   -3.38359690
H            -1.83347978    6.19612826   -3.61912521
H            -0.87048756    4.52158825   -1.70956951
C            -0.50737150    0.61163734   -1.29571368
O             2.28860735   -1.96802444   -4.03078450
C            -2.43039400    2.94726680   -4.77913079
O            -1.14093624    1.71870379   -1.29871287
C            -3.61553748    1.73514386   -3.21688518
C            -4.54655818    2.47271823   -4.00239889
C            -3.81608519    3.19972466   -4.99240603
H            -3.86161582    1.11493252   -2.35651225
H            -5.62595560    2.49911616   -3.86062144
H            -4.23951903    3.85567791   -5.75193565
H            -1.51292474    1.96176427   -2.54407371
C            -2.27925829    2.01304713   -3.67518807
C             0.57906103   -1.23682312   -2.51415684
O             1.09594868   -0.18814527   -4.64959554
C            -1.91200872    4.79815200   -1.86031531
C            -2.42216772    5.66862470   -2.87026644
C            -3.84635710    5.70234816   -2.74618656
C            -4.21329228    4.85572629   -1.65592622
C            -3.01946734    4.29306771   -1.11134304
H            -2.95541699    3.57336601   -0.29913009
N            -0.25753837   -0.04878906   -2.40529531
H             1.28387024   -1.27756332   -1.66923201
H            -1.05150952    4.31040572   -5.88217044
H            -5.22844424    4.64939943   -1.32123975
O            -0.37875376    2.26374432   -6.08077865
C            -0.21707002   -2.53158184   -2.52782790
C            -0.84175312   -2.72783083   -1.19208424
C            -0.14468805   -3.42100811   -0.22401191
C            -0.67622427   -3.63510715    1.03964284
C            -1.92481744   -3.16073648    1.37375196
C            -2.61286867   -2.46705801    0.39270660
C            -2.08999669   -2.25112019   -0.86475134
H            -0.98962471   -2.43354999   -3.31458492
H             0.42304528   -3.38268774   -2.82841091
H             0.84835367   -3.80740627   -0.46510289
H            -0.11012334   -4.18239565    1.78348634
H            -2.37431459   -3.30814797    2.35183298
H            -3.59789205   -2.08531538    0.63619529
H            -2.64968715   -1.69788821   -1.63334540
C             0.00000000    0.00000000    0.00000000
H             1.11123978    0.00000000   -0.00000000
H            -0.34606400    0.64750289    0.84355760
H            -0.40221157   -1.03008658    0.11882291



