%chk=sp_34_3.chk
%mem=300GB
%nprocshared=68
#p opt=(calcfc,ts,noeigen,maxstep=5) freq b3lyp def2svp em=gd3bj  

Freeze index  [11, 18]  [18, 19]  [3, 19]  [3, 36]  [3, 28]  [3, 21] // Local index  3  18  20  36  (20,)  [11, 18]  [18, 19]

0 1
Fe            1.03392066    5.27415489    2.03199471
C            -1.47581386    1.99606752   -3.35513884
Pd           -0.56576841    3.86085655   -1.41257133
C             0.72246149    6.42173394   -0.97042180
H             2.54069554    7.09884384    3.59605273
H             3.55072235    6.28766968    1.21706668
H             3.05249149    3.62948284    0.96483843
C            -0.04959626    1.41732534   -0.07161775
O            -1.87872043    1.49619194   -4.38448910
C             0.16945976    6.00623873    0.35403867
O             0.63866212    2.14220798    0.72073971
C            -0.92907676    4.61572697    1.82852121
C            -0.90631615    5.92445131    2.38940482
C            -0.25423792    6.79474444    1.46223311
H            -1.32279210    3.72389567    2.31338302
H            -1.29575568    6.21065594    3.36526209
H            -0.08170917    7.86216624    1.59378171
H             0.33875486    3.40493238    0.46780639
C            -0.25939842    4.63134309    0.55407919
C            -1.53416869    1.19852478   -2.02863023
O            -1.01947322    3.22741149   -3.27188720
C             2.81160729    4.25298005    1.82343497
C             3.06167317    5.65241790    1.95388582
C             2.52898849    6.08114387    3.20977723
C             1.95462749    4.94392429    3.85546691
C             2.12447941    3.81534031    2.99765798
H             1.76127535    2.80640689    3.17633283
N            -0.82942977    1.94134465   -0.99195063
H            -1.03397786    0.23344642   -2.20388951
H             1.71990893    5.98924416   -1.13325597
H             1.44618652    4.94524627    4.81808054
C             0.83274614    7.93104763   -1.11251175
H             1.58988660    8.31670574   -0.39635001
H             1.19156590    8.15279274   -2.14822264
H            -0.15944131    8.40381999   -0.94222156
N            -0.15353237    5.87006457   -2.01406136
C             0.31895368    6.12287463   -3.34759184
C            -1.53616594    6.14073051   -1.81148287
H             0.13161717    7.14200552   -3.70802398
H             1.41660097    5.89057765   -3.34764260
H            -0.13062729    5.34618215   -4.01861393
H            -1.74510293    6.84898797   -0.99660205
H            -2.01112598    6.48435837   -2.75920753
H            -2.03767028    5.16560036   -1.55789201
C            -2.98833599    0.92098169   -1.68397701
C            -2.99522852   -0.05316952   -0.52268409
C            -3.71174202    2.20230837   -1.33626930
C            -5.14256291    1.98362004   -0.97255889
H            -2.33942763    0.38549735    0.25498973
H            -4.02003698   -0.25405011   -0.15949488
H            -2.57188895   -1.01470186   -0.91679713
H            -3.45696902    0.49698485   -2.58300215
H            -3.68430047    2.84214687   -2.23958915
H            -3.18393374    2.77463735   -0.53969727
H            -5.60226735    2.97924554   -0.80102509
H            -5.68095929    1.54887878   -1.84553407
H            -5.28891645    1.34154086   -0.08721343
O             0.00000000    0.00000000    0.00000000
C             2.40555702   -0.00000000    0.00000000
C             1.12477966   -0.44824614    0.67229830
C             1.12396929   -0.03644149    2.12911373
C             1.09532837   -1.96234050    0.62216894
H             2.54491719   -0.67280933   -0.89046738
H             3.25050003   -0.09854639    0.70909364
H             2.26843548    1.04440994   -0.36738590
H             2.19866110    0.10069468    2.42400586
H             0.73905390   -0.85350857    2.77224100
H             0.63147211    0.93384508    2.29843849
H             1.99127256   -2.41690157    1.10602161
H             0.98932583   -2.24588570   -0.44123929
H             0.15669605   -2.27352730    1.12644280



