%chk=sp_36_2.chk
%mem=300GB
%nprocshared=68
#p opt=(calcfc,ts,noeigen,maxstep=5) freq b3lyp def2svp em=gd3bj  

Freeze index  [11, 18]  [18, 19]  [3, 19]  [3, 32]  [3, 28]  [3, 21] // Local index  3  18  20  32  (20,)  [11, 18]  [18, 19]

-1 1
Fe           -3.20033993   -2.42944542   -4.23147744
C             1.41953884   -3.95024076    0.50240307
Pd           -0.49127564   -3.90064750   -1.60128751
C            -1.24604354   -4.99969979   -4.17725678
H            -4.53131839   -2.29932172   -6.73301721
H            -1.83348808   -2.54194756   -6.71032925
H            -0.87050051   -0.93638142   -4.74241923
C            -0.50737150   -1.17640205   -0.81795622
O             2.28864006   -4.30122646    1.27262423
C            -2.43037878   -4.22446142   -3.69870256
O            -1.14093534   -0.99584014   -1.91020326
C            -3.61552746   -2.88476934   -2.24437676
C            -4.54654559   -3.53716147   -3.10196012
C            -3.81606911   -4.39295612   -3.98301788
H            -3.86160983   -2.13911267   -1.49012730
H            -5.62594547   -3.39297088   -3.10448158
H            -4.23950853   -5.03323538   -4.75579844
H            -1.51291972   -2.18369360   -2.35634533
C            -2.27924814   -3.29065857   -2.59441765
C             0.57907863   -2.68438361    0.80294362
O             1.09597816   -4.61644221   -0.58520154
C            -1.91201963   -1.03921095   -5.04013944
C            -2.42218367   -1.89090083   -6.06598941
C            -3.84637545   -1.76295654   -6.07866553
C            -4.21330924   -0.82812185   -5.06302862
C            -3.01947485   -0.38433864   -4.41788692
H            -2.95543001    0.29734118   -3.57349781
N            -0.25751504   -2.38009970   -0.35060197
H             0.01866141   -2.84496540    1.70017486
H            -1.05149462   -5.08626888   -5.22584069
H            -5.22846026   -0.53228166   -4.80407370
O            -0.37872681   -5.62138810   -3.24041613
C             1.55206568   -1.54342071    1.05176087
C             2.46672306   -1.92292416    2.16186572
C             2.10933327   -1.61211820    3.45771467
C             2.92187522   -1.94089253    4.53329664
C             4.11995290   -2.59243450    4.34418963
C             4.46584631   -2.89805285    3.03881560
C             3.66265664   -2.57397033    1.96593086
H             2.11600616   -1.38234809    0.11290612
H             1.00838376   -0.60037760    1.25068660
H             1.16311361   -1.09508199    3.63350162
H             2.62022112   -1.68648218    5.54204381
H             4.78265974   -2.86635786    5.16040405
H             5.40558929   -3.41117772    2.86889814
H             3.95197970   -2.82381389    0.93446554
C             0.00000000    0.00000000    0.00000000
H             1.11123978   -0.00000000    0.00000000
H            -0.34606400    0.93921915   -0.49871515
H            -0.40221157   -0.05357040    1.03553245



