%chk=sp_33_1.chk
%mem=300GB
%nprocshared=68
#p opt=(calcfc,ts,noeigen,maxstep=5) freq b3lyp def2svp em=gd3bj  

Freeze index  [11, 18]  [18, 19]  [3, 19]  [3, 33]  [3, 28]  [3, 21] // Local index  3  18  20  33  (20,)  [11, 18]  [18, 19]

0 1
Fe            1.03395256    5.25398903    2.08359079
C            -1.47576947    2.02888216   -3.33543097
Pd           -0.56572988    3.87451698   -1.37468012
C             0.72253966    6.43094388   -0.90744407
H             2.54073588    7.06322338    3.66547351
H             3.55078204    6.27541111    1.27866455
H             3.05252024    3.61981923    1.00038416
C            -0.04959626    1.41795872   -0.05773448
O            -1.87865522    1.53912089   -4.36964387
C             0.16951236    6.00248576    0.41288341
O             0.63867658    2.13503761    0.74170056
C            -0.92904384    4.59760797    1.87365348
C            -0.90628029    5.90076573    2.44732656
C            -0.25419447    6.78010431    1.52873873
H            -1.32279497    3.70106522    2.34974004
H            -1.29573756    6.17740616    3.42594988
H            -0.08164127    7.84617660    1.67074045
H             0.33878234    3.40018428    0.50115597
C            -0.25936417    4.62569426    0.59943616
C            -1.53414961    1.21836547   -2.01680721
O            -1.01938132    3.25934168   -3.24011924
C             2.81163066    4.23487791    1.86506259
C             3.06170966    5.63296996    2.00921354
C             2.52901274    6.04937184    3.26924980
C             1.95463195    4.90588626    3.90375672
C             2.12445736    3.78576128    3.03492534
H             1.76124680    2.77512995    3.20369769
N            -0.82939964    1.95098210   -0.97287818
H            -1.03395485    0.25504628   -2.20151291
H             1.71999019    6.00005534   -1.07449623
H             0.80272360    7.52899378   -0.99995295
H             1.45488008    4.89791789    4.84984333
N            -0.15344200    5.88952709   -1.95645121
C             0.31906152    6.15537645   -3.28743263
C            -1.53607851    6.15821141   -1.75124428
H             0.13174058    7.17798828   -3.63786554
H             1.41670766    5.92307724   -3.28974247
H            -0.13052329    5.38530141   -3.96603169
H            -1.74501921    6.85845389   -0.92946976
H            -2.01102020    6.51111265   -2.69556399
H            -2.03760548    5.18064671   -1.50722353
C            -2.98832073    0.93749643   -1.67492078
C            -3.15195814   -0.03444870   -0.53759485
H            -3.45841940    1.89642145   -1.35960315
H            -3.56635414    0.55127467   -2.52883409
H            -2.56214275    0.22403712    0.35389476
H            -4.23356533    0.02668158   -0.22719032
H            -2.96448518   -1.08849152   -0.86709650
O             0.00000000    0.00000000    0.00000000
C             2.40555702    0.00000000    0.00000000
C             1.12477966   -0.45480845    0.66787639
C             1.12396929   -0.05729011    2.12865476
C             1.09532837   -1.96833929    0.60292194
H             2.54491719   -0.66405674   -0.89701349
H             3.25050003   -0.10548580    0.70809458
H             2.26843548    1.04795767   -0.35714040
H             2.19866110    0.07695161    2.42487573
H             0.73905390   -0.88061614    2.76374967
H             0.63147211    0.91129173    2.30747341
H             1.99127256   -2.42761692    1.08229990
H             0.98932583   -2.24145695   -0.46321205
H             0.15669605   -2.28444952    1.10412417



