%chk=sp_43_1.chk
%mem=300GB
%nprocshared=68
#p opt=(calcfc,ts,noeigen,maxstep=5) freq b3lyp def2svp em=gd3bj  

Freeze index  [11, 18]  [18, 19]  [3, 19]  [3, 33]  [3, 28]  [3, 21] // Local index  3  18  20  33  (20,)  [11, 18]  [18, 19]

0 1
Fe           -4.00913992   -4.13131587    0.95332549
C             2.20353021   -3.22178279   -1.62375410
Pd           -0.30582650   -4.17721749   -0.69133437
C            -2.47725436   -6.04501295   -1.14896324
H            -6.70614327   -4.97080795    1.21319935
H            -5.71769442   -4.53273120   -1.27050735
H            -4.18175339   -2.29465509   -1.17160772
C            -0.50737150   -1.43277817   -0.01099496
O             3.28687030   -3.14198763   -2.16389678
C            -2.69696706   -5.48737903    0.21977468
O            -1.74267797   -1.69635387    0.16669591
C            -2.23701576   -4.15368275    2.04297338
C            -3.09033204   -5.20972330    2.47251811
C            -3.35042494   -6.05599219    1.35070519
H            -1.89363462   -3.32431831    2.65918815
H            -3.49539054   -5.33926076    3.47502958
H            -3.96529974   -6.95508438    1.35186456
H            -1.87234128   -3.01221261    0.17509044
C            -1.97408950   -4.29588171    0.63459179
C             1.77917873   -2.16624875   -0.57262317
O             1.35115801   -4.20076230   -1.83935708
C            -4.75512991   -2.72109591   -0.35101722
C            -5.55364786   -3.90356329   -0.39708154
C            -6.07603645   -4.13514072    0.91376839
C            -5.60275085   -3.09184777    1.76677580
C            -4.78285819   -2.22078746    0.98741015
H            -4.23652703   -1.35258196    1.34730841
N             0.38223172   -2.37925030   -0.21715289
H             1.90105397   -1.17479281   -1.03571073
H            -2.92365233   -5.39484462   -1.91478083
H            -2.90057067   -7.05843205   -1.26939983
H            -5.80112516   -2.99891179    2.81411877
N            -1.02872563   -6.06021156   -1.39873649
C            -0.68313017   -6.49394435   -2.72460332
C            -0.26851820   -6.66441909   -0.35806850
H            -0.73527947   -7.57969894   -2.87308125
H            -1.37392772   -5.95727453   -3.42713742
H             0.33146134   -6.08155772   -2.96164322
H            -0.87200067   -7.17070204    0.40926047
H             0.49032053   -7.36206172   -0.78152206
H             0.31927963   -5.84892573    0.14807134
C             2.72037288   -2.25027987    0.61796198
C             2.42475499   -1.05902035    1.50741695
C             2.53345047   -3.55475844    1.35918620
C             3.42399858   -3.68128820    2.55009927
H             1.33246397   -1.07219030    1.69185256
H             3.01972621   -1.08271909    2.43903930
H             2.72801184   -0.14918679    0.92490245
H             3.74474410   -2.22651876    0.22081134
H             2.79354098   -4.36627169    0.65212709
H             1.46920062   -3.72387754    1.64108241
H             3.26358371   -4.68993092    2.98476261
H             4.48695362   -3.66150080    2.21741389
H             3.25991621   -2.90724457    3.31915882
C             0.00000000    0.00000000    0.00000000
H             1.11123978    0.00000000    0.00000000
H            -0.34606400    0.49367592   -0.94187764
H            -0.40221157    0.54039747    0.88496770



