%chk=sp_50_2.chk
%mem=300GB
%nprocshared=68
#p opt=(calcfc,ts,noeigen,maxstep=5) freq b3lyp def2svp em=gd3bj  

Freeze index  [11, 18]  [18, 19]  [3, 19]  [3, 32]  [3, 28]  [3, 21] // Local index  3  18  20  32  (20,)  [11, 18]  [18, 19]

-1 1
Fe            1.03394439    5.54160978    1.11187562
C            -1.47578888    1.40064607   -3.64410253
Pd           -0.56573780    3.56676547   -2.04445356
C             0.72252404    6.16552747   -2.04124006
H             2.54073559    7.60426559    2.34523366
H             3.55076645    6.40288852    0.13747218
H             3.05251191    3.74027894    0.33788547
C            -0.04959626    1.38485921   -0.31000834
O            -1.87870178    0.73407441   -4.57422915
C             0.16949480    5.97973546   -0.66563336
O             0.63867122    2.23317219    0.34852324
C            -0.92905910    4.85828746    1.02254271
C            -0.90627818    6.24294780    1.35429072
C            -0.25420107    6.94411509    0.29343523
H            -1.32278491    4.06117802    1.65107840
H            -1.29573415    6.68989809    2.26778029
H            -0.08165952    8.01841427    0.24277678
H             0.33876833    3.43502722   -0.11408605
C            -0.25937306    4.65839363   -0.23621327
C            -1.53416714    0.83864557   -2.20193993
O            -1.01942914    2.62835392   -3.77005516
C             2.81162407    4.49986954    1.07881964
C             3.06170164    5.90123839    0.97100354
C             2.52901648    6.53595445    2.13643215
C             1.95463852    5.52414474    2.96493410
C             2.12446787    4.26687984    2.31009997
H             1.76126826    3.30263034    2.65662144
N            -0.82942212    1.74590020   -1.30562849
H            -1.03397286   -0.14218616   -2.21165528
H             1.60986293    6.74532746   -2.18727618
H             1.44619185    5.68805888    3.91348152
O             0.07050877    5.57251715   -3.15463065
C            -2.98832853    0.62331581   -1.81536092
C            -3.32027063   -0.84540747   -1.62815055
C            -2.51168507   -1.50069987   -0.56475601
C            -3.15879295   -1.49778652   -2.98950600
H            -3.29575603    1.20843868   -0.91339313
H            -3.62810438    1.00218210   -2.64270538
H            -4.38976683   -0.94017111   -1.35146036
H            -3.00493507   -1.36438651    0.42941013
H            -2.50607877   -2.60017162   -0.76441208
H            -1.48615278   -1.16504087   -0.47974652
H            -2.34431052   -0.98771718   -3.56668379
H            -2.92317142   -2.56775079   -2.87784121
H            -4.12622293   -1.35348860   -3.55252837
O             0.00000000    0.00000000    0.00000000
C             2.40555702   -0.00000000   -0.00000000
C             1.12477966   -0.32823736    0.73835617
C             1.12396929    0.32373991    2.10467235
C             1.09532837   -1.82904091    0.94471360
H             2.54491719   -0.81356150   -0.76401717
H             3.25050003    0.02265251    0.71555017
H             2.26843548    0.96734070   -0.53853181
H             2.19866110    0.50871958    2.37216109
H             0.73905390   -0.37294578    2.87657930
H             0.63147211    1.30868559    2.10765941
H             1.99127256   -2.19533537    1.49839901
H             0.98932583   -2.28814614   -0.05551504
H             0.15669605   -2.05057190    1.49430742



