%chk=sp_58_1.chk
%mem=300GB
%nprocshared=68
#p opt=(calcfc,ts,noeigen,maxstep=5) freq b3lyp def2svp em=gd3bj  

Freeze index  [11, 18]  [18, 19]  [3, 19]  [3, 33]  [3, 28]  [3, 21] // Local index  3  18  20  33  (20,)  [11, 18]  [18, 19]

0 1
Fe            1.03391290    5.15579177    2.31590012
C            -1.47579320    2.17564607   -3.24159942
Pd           -0.56576436    3.93197751   -1.20046066
C             0.72248507    6.46502152   -0.61964511
H             2.54068482    6.89269076    3.97690339
H             3.55074411    6.21213290    1.55733780
H             3.05250682    3.57161152    1.16086767
C            -0.04959626    1.41912261    0.00558910
O            -1.87869567    1.73250682   -4.29662660
C             0.16946444    5.97808602    0.68024767
O             0.63865820    2.09982557    0.83620138
C            -0.92907981    4.50942888    2.07689722
C            -0.90631287    5.78571160    2.70813913
C            -0.25423176    6.70514077    1.82968768
H            -1.32281653    3.59254758    2.51252198
H            -1.29577932    6.01839685    3.69812589
H            -0.08169083    7.76381694    2.01911195
H             0.33875055    3.37443655    0.65233511
C            -0.25939050    4.59433967    0.80519995
C            -1.53415962    1.30710699   -1.96045526
O            -1.01942717    3.40063631   -3.09147738
C             2.81160589    4.14747187    2.05210520
C             3.06166963    5.53774910    2.25850189
C             2.52898369    5.89752256    3.53584861
C             1.95461791    4.72686132    4.11872032
C             2.12444148    3.64660448    3.20077761
H             1.76124778    2.62946084    3.32430211
N            -0.82941380    1.99243127   -0.88488778
H            -1.03397240    0.35300135   -2.18793744
H             1.71993505    6.04201776   -0.80575633
H             0.80266842    7.56611275   -0.66309057
H             1.45485776    4.67668846    5.06351824
N            -0.15349597    5.97093590   -1.69175379
C            -1.55808251    6.15931291   -1.37414680
C            -1.75844290    7.64922476   -1.16212840
O            -1.51884999    8.34291762   -2.32449689
C            -0.27370677    8.12286984   -2.87165259
C             0.07615956    6.66039191   -2.95910989
H            -1.86920787    5.58853463   -0.49283930
H            -2.13060546    5.86190535   -2.27045549
H            -2.81033192    7.79038474   -0.87763890
H            -1.11703020    7.98337453   -0.33529507
H             0.48056530    8.73316291   -2.36086473
H            -0.31315407    8.49840426   -3.93108566
H             1.11679792    6.57577532   -3.29166131
H            -0.65233419    6.20286431   -3.67923261
C            -2.98832676    1.01124680   -1.63141936
C            -2.99679058   -0.30616356   -0.90932946
C            -3.63772559    2.12567044   -0.90068721
H            -2.02717795   -0.50511612   -0.36869420
H            -3.04460177   -1.13110623   -1.67741198
H            -3.81307910   -0.42748428   -0.19780949
H            -3.51674880    0.86799294   -2.60704768
H            -3.86021028    1.92842186    0.16189408
H            -3.01782056    3.05305909   -0.99961928
H            -4.62544146    2.39088320   -1.36791712
O             0.00000000    0.00000000    0.00000000
C             2.40555702   -0.00000000    0.00000000
C             1.12477966   -0.48415464    0.64691876
C             1.12396929   -0.15220878    2.12397875
C             1.09532837   -1.99328009    0.51449870
H             2.54491719   -0.62337273   -0.92574888
H             3.25050003   -0.13697432    0.70268288
H             2.26843548    1.06284883   -0.31002725
H             2.19866110   -0.03131745    2.42589428
H             0.73905390   -1.00305137    2.72170626
H             0.63147211    0.80743001    2.34583523
H             1.99127256   -2.47348909    0.97290734
H             0.98932583   -2.21855730   -0.56275945
H             0.15669605   -2.33143801    1.00109768



