%chk=sp_54_1.chk
%mem=300GB
%nprocshared=68
#p opt=(calcfc,ts,noeigen,maxstep=5) freq b3lyp def2svp em=gd3bj  

Freeze index  [11, 18]  [18, 19]  [3, 19]  [3, 33]  [3, 28]  [3, 21] // Local index  3  18  20  33  (20,)  [11, 18]  [18, 19]

0 1
Fe            0.63211171   -5.24196002   -2.26650526
C            -3.92915503   -1.20498499    0.72740495
Pd           -2.47448071   -3.28558826   -0.55092717
C            -2.07309915   -6.15096619   -0.75520751
H             2.19513749   -7.52906518   -2.87656411
H             1.32331234   -7.19452311   -0.33378770
H             1.58098523   -4.56457993    0.29460179
C            -0.48429175   -1.27242800   -0.40347054
O            -4.78864859   -0.58040396    1.31301320
C            -1.33648016   -5.54999337   -1.90798189
O             0.31713520   -2.21834298   -0.70340800
C            -0.55527175   -3.83663942   -3.23783461
C            -0.50312919   -5.04181291   -3.99459354
C            -1.01737534   -6.09963606   -3.18290241
H            -0.19567261   -2.86346379   -3.56809855
H            -0.11681989   -5.14678509   -5.00733489
H            -1.11600544   -7.14452153   -3.47428912
H            -0.41166511   -3.24659642   -1.10331096
C            -1.06943631   -4.12074644   -1.92336818
C            -2.77407348   -0.45806156    0.01535446
O            -3.93213117   -2.51551050    0.60939548
C             1.87922573   -5.03769729   -0.63878407
C             1.73420956   -6.41723559   -0.97613886
C             2.19465586   -6.59452329   -2.31830398
C             2.62802224   -5.32405768   -2.80632852
C             2.42895928   -4.36106827   -1.77123432
H             2.61785404   -3.29250550   -1.83663944
N            -1.78953740   -1.42793444   -0.44642031
H            -2.31621395    0.21810172    0.75390097
H            -1.44647161   -6.16435496    0.14791505
H            -2.40875407   -7.18430266   -0.95585133
H             3.00446932   -5.12383420   -3.78771402
N            -3.22370582   -5.28531977   -0.45915242
C            -3.97114298   -5.70485470    0.69444053
C            -4.01608960   -4.96668545   -1.59782811
H            -4.63899159   -6.55661426    0.51522340
H            -3.22011382   -5.94248250    1.49335692
H            -4.52054279   -4.80984635    1.08530403
H            -3.75372593   -5.53005515   -2.50507250
H            -5.09989188   -5.08237569   -1.36580081
H            -3.86857197   -3.87256785   -1.81659295
C            -3.35252169    0.38947986   -1.10600911
C            -3.71839967   -0.48584238   -2.26192240
C            -2.82677908   -0.76688340   -3.26386590
C            -3.21926839   -1.58554949   -4.31346724
C            -4.50060646   -2.12996926   -4.37361034
C            -4.87382951   -3.00410330   -5.52293668
C            -5.47497035   -2.34663511   -6.74673304
F            -5.73226916   -3.34272193   -7.65858831
F            -4.72057148   -1.33001770   -7.24419879
F            -6.68665624   -1.79528368   -6.33396674
N            -5.65261798   -4.15645437   -5.08859157
N            -4.48888460   -4.33113266   -5.50032547
C            -5.38229824   -1.83324262   -3.35306467
C            -5.00811197   -1.02060183   -2.30155502
H            -2.63016101    1.16754258   -1.45394261
H            -4.25098448    0.91857572   -0.73310034
H            -1.81576520   -0.35685553   -3.24729898
H            -2.49941016   -1.79716005   -5.09818222
H            -6.39915684   -2.25188215   -3.37959191
H            -5.71567071   -0.80825317   -1.52333611
O             0.00000000    0.00000000    0.00000000
C             1.40115125   -0.00000000    0.00000000
C             1.85332832    1.36123312    0.43166484
C             3.31426035    1.51043982    0.47900847
C             4.30909480    1.21895526   -0.48126982
C             5.60714318    1.47207136   -0.13487051
C             5.97753546    1.99617412    1.10491483
C             4.98214893    2.26776052    2.01507910
C             3.64263867    2.02385763    1.70127975
C             2.41225100    2.21761089    2.46792133
C             2.21220386    2.71378891    3.76584296
C             0.95250019    2.81452888    4.30427701
C            -0.12415553    2.41746976    3.54453169
C             0.06816140    1.93197692    2.27533923
C             1.34991167    1.81932850    1.70185730
H             1.78345365   -0.14243648   -1.04894041
H             1.75798689   -0.81863673    0.62007426
H             1.49986303    2.05932179   -0.39037658
H             3.98803865    0.81695897   -1.42388235
H             6.40434382    1.25802989   -0.85505703
H             7.00361622    2.18037766    1.33867511
H             5.20622864    2.67150584    2.98396980
H             3.08702547    3.01745837    4.33532071
H             0.74964876    3.18927059    5.29622167
H            -1.13302424    2.47926866    3.92808776
H            -0.76357885    1.60420872    1.63531208



