%chk=sp_62_1.chk
%mem=300GB
%nprocshared=68
#p opt=(calcfc,ts,noeigen,maxstep=5) freq b3lyp def2svp em=gd3bj  

Freeze index  [11, 18]  [18, 19]  [3, 19]  [3, 33]  [3, 28]  [3, 21] // Local index  3  18  20  33  (20,)  [11, 18]  [18, 19]

0 1
Fe            1.71315656    5.19519215    1.75776461
C            -2.45468236    2.11887894   -2.62757560
Pd           -0.93710928    3.91045661   -1.02557584
C             0.46187395    6.44994001   -0.94192704
H             3.67187190    6.95831239    2.80700932
H             3.84427714    6.22924722    0.20385692
H             3.25269007    3.58329207    0.04021067
C            -0.04959626    1.41912378   -0.00528389
O            -3.17671901    1.65723978   -3.48624676
C             0.36213288    5.98926004    0.47598597
O             0.86879168    2.11317538    0.54411104
C            -0.21913556    4.55055096    2.18086953
C             0.00320174    5.83838763    2.74646194
C             0.33202898    6.73911561    1.68684172
H            -0.44729792    3.64323946    2.73781690
H            -0.04467154    6.09085809    3.80469234
H             0.55336049    7.80062192    1.79009599
H             0.52142635    3.38503516    0.44358528
C             0.00139499    4.60943675    0.75932100
C            -2.09141938    1.27477875   -1.38072671
O            -1.97817329    3.34504471   -2.65673140
C             3.31223022    4.17656838    0.95040636
C             3.61132813    5.56968262    1.03831117
C             3.52081455    5.95506005    2.41240736
C             3.17037653    4.79735998    3.17199853
C             3.03656913    3.69953111    2.26910033
H             2.73632315    2.68600462    2.52287833
N            -1.07797197    1.97800384   -0.60512071
H            -2.98384938    1.07408028   -0.82560853
H             1.34628708    6.02042005   -1.43365380
H             0.52013049    7.54977622   -1.02972055
H             3.00440180    4.76652293    4.22861186
N            -0.71303502    5.93851549   -1.66229270
C            -2.76238925    6.91411221   -2.28966341
C            -1.66701106    7.39584214   -3.25201898
C            -0.67006751    6.24728058   -3.04970030
C            -1.90354041    6.54285215   -1.09942458
H            -3.50665442    7.67156938   -2.08656306
H            -3.15099273    5.96289653   -2.70601745
H            -2.06326793    7.38201822   -4.26474484
H            -1.23083708    8.35059058   -2.92862229
H             0.30953637    6.46522338   -3.46644950
H            -1.13149865    5.38121943   -3.60905373
H            -1.66507949    7.39776182   -0.45136002
H            -2.46940189    5.80635732   -0.49425499
C            -1.53600352   -0.05020578   -1.87705456
C            -2.71279814   -0.87948064   -2.35147730
C            -0.53119788    0.17008780   -2.98514742
C             0.03374587   -1.10298568   -3.52130791
H            -3.27732688   -0.24149170   -3.05969151
H            -2.38833819   -1.83732470   -2.79839382
H            -3.32216774   -1.11129713   -1.43823454
H            -1.01425977   -0.51790831   -1.03048228
H             0.30222589    0.75609294   -2.55140011
H            -0.94919962    0.79474949   -3.80718766
H             0.80357530   -0.83823950   -4.27582109
H             0.57856846   -1.63423977   -2.70773682
H            -0.71790306   -1.77628574   -3.96763796
O             0.00000000    0.00000000    0.00000000
C             2.40555702   -0.00000000    0.00000000
C             1.12477966   -0.47918396    0.65060920
C             1.12396929   -0.13593112    2.12508258
C             1.09532837   -1.98927968    0.52975543
H             2.54491719   -0.63044721   -0.92094564
H             3.25050003   -0.13158658    0.70371170
H             2.26843548    1.06044231   -0.31816133
H             2.19866110   -0.01273016    2.42606302
H             0.73905390   -0.98216916    2.72931141
H             0.63147211    0.82537929    2.33958013
H             1.99127256   -2.46596241    0.99182981
H             0.98932583   -2.22280385   -0.54574511
H             0.15669605   -2.32369952    1.01893097



