%chk=sp_60_1.chk
%mem=300GB
%nprocshared=68
#p opt=(calcfc,ts,noeigen,maxstep=5) freq b3lyp def2svp em=gd3bj  

Freeze index  [11, 18]  [18, 19]  [3, 19]  [3, 45]  [3, 28]  [3, 21] // Local index  3  18  20  45  (20,)  [11, 18]  [18, 19]

0 1
Fe            1.03393670    5.20533441    2.20228865
C            -1.47574770    2.10403079   -3.28853870
Pd           -0.56571251    3.90470309   -1.28638933
C             0.72254925    6.44986536   -0.76126515
H             2.54071777    6.97822886    3.82482453
H             3.55077689    6.24476086    1.42077502
H             3.05251524    3.59616646    1.08228448
C            -0.04959626    1.41890388   -0.02553386
O            -1.87864140    1.63786521   -4.33360342
C             0.16951231    5.99156615    0.54898793
O             0.63867320    2.11765137    0.78996798
C            -0.92906096    4.55390418    1.97750112
C            -0.90629723    5.84370707    2.58061283
C            -0.25419259    6.74366056    1.68219728
H            -1.32281237    3.64679427    2.43312636
H            -1.29575400    6.09806612    3.56525238
H            -0.08165541    7.80622807    1.84837134
H             0.33878180    3.38792402    0.57819950
C            -0.25936371    4.61089191    0.70425583
C            -1.53414345    1.26380266   -1.98864840
O            -1.01937566    3.33200505   -3.16532111
C             2.81160788    4.19145593    1.96068501
C             3.06169704    5.58592063    2.13654521
C             2.52898656    5.97361309    3.40569581
C             1.95460399    4.81603966    4.01409523
C             2.12444805    3.71590836    3.12006782
H             1.76124153    2.70169860    3.26585883
N            -0.82940202    1.97255206   -0.92835446
H            -1.03395342    0.30493523   -2.19515212
H             1.71999260    6.02286256   -0.93804203
H             0.80273753    7.54973568   -0.82885047
Si            1.08120512    4.76459048    5.66679557
C             0.00633426    3.26393322    5.68724323
C             2.40016982    4.73272534    6.97379558
C            -0.01442614    6.27076605    5.87342238
H            -0.34431546    3.05502025    4.63906561
H             0.52309069    2.36334500    6.04842079
H            -0.90980112    3.37879988    6.30870496
H             2.51009213    5.75628277    7.41429816
H             2.17493955    4.05060260    7.79955229
H             3.40224233    4.45563735    6.56971689
H             0.30585343    7.06156209    5.18368166
H             0.07396735    6.56357586    6.95220206
H            -1.07981302    6.03936445    5.71369534
N            -0.15343045    5.93240273   -1.82229151
C             0.31908189    6.22838748   -3.14689922
C            -1.53606836    6.19636196   -1.61105532
H             0.13177217    7.25870346   -3.47402619
H             1.41672250    5.99620416   -3.15447503
H            -0.13050340    5.47392770   -3.84281253
H            -1.74500695    6.87776515   -0.77359867
H            -2.01101353    6.57061622   -2.54712642
H            -2.03760036    5.21350968   -1.38929175
C            -2.98831850    0.97526021   -1.65321712
C            -2.99681682   -0.32599691   -0.90240874
C            -3.63769837    2.10545318   -0.94711090
H            -2.02720776   -0.51306235   -0.35752589
H            -3.04463722   -1.16758246   -1.65221062
H            -3.81311239   -0.43166674   -0.18840670
H            -3.51673845    0.81065371   -2.62547697
H            -3.86020296    1.93156153    0.11954067
H            -3.01777308    3.03043747   -1.06634949
H            -4.62541184    2.36037534   -1.42005559
O             0.00000000    0.00000000    0.00000000
C             2.40555702    0.00000000   -0.00000000
C             1.12477966   -0.46985116    0.65738078
C             1.12396929   -0.10559294    2.12680591
C             1.09532837   -1.98151767    0.55808796
H             2.54491719   -0.64352466   -0.91185556
H             3.25050003   -0.12153141    0.70551775
H             2.26843548    1.05579427   -0.33326116
H             2.19866110    0.02189038    2.42599766
H             0.73905390   -0.94312263    2.74304880
H             0.63147211    0.85868042    2.32756398
H             1.99127256   -2.45155819    1.02691743
H             0.98932583   -2.23036516   -0.51397075
H             0.15669605   -2.30892306    1.05198578



