%chk=sp_61_1.chk
%mem=300GB
%nprocshared=68
#p opt=(calcfc,ts,noeigen,maxstep=5) freq b3lyp def2svp em=gd3bj  

Freeze index  [11, 18]  [18, 19]  [3, 19]  [3, 33]  [3, 28]  [3, 21] // Local index  3  18  20  33  (20,)  [11, 18]  [18, 19]

0 1
Fe           -3.20033465   -4.65847458    1.45128156
C             1.41952974   -0.36849842    3.96497729
Pd           -0.49127015   -2.41108200    3.45918158
C            -1.24603271   -5.16438314    3.97185127
H            -4.53132053   -7.07186805    0.78035721
H            -1.83347950   -7.10248631    1.02212597
H            -0.87049211   -4.83256472   -0.11715205
C            -0.50737150   -1.05417018    0.97041198
O             2.28865448    0.30696840    4.47502947
C            -2.43037118   -4.52872610    3.31919776
O            -1.14093604   -2.08102968    0.55668979
C            -3.61551414   -2.81791912    2.32776512
C            -4.54654457   -3.79681695    2.77808462
C            -3.81606263   -4.84288341    3.42183877
H            -3.86161045   -1.91957629    1.76394517
H            -5.62594913   -3.76793359    2.63680568
H            -4.23949080   -5.73638535    3.87876994
H            -1.51291763   -2.77475521    1.61910959
C            -2.27924015   -3.24782847    2.64783556
C             0.57908793    0.20008590    2.79473644
O             1.09598294   -1.57495198    4.37875300
C            -1.91201853   -5.14552132   -0.08153607
C            -2.42216950   -6.33199390    0.52674496
C            -3.84636139   -6.31655685    0.39909626
C            -4.21330340   -5.12195425   -0.29253753
C            -3.01946913   -4.39575777   -0.58542614
H            -2.95542983   -3.42335713   -1.06721232
N            -0.25751559   -0.85970750    2.24691541
H             1.28387618    0.55570195    2.02722213
H            -0.53585153   -5.53731663    3.22016359
H            -1.52339898   -6.00709045    4.63035626
H            -5.21108746   -4.81029743   -0.52101324
N            -0.54459385   -4.12359905    4.73710869
C             0.67241446   -4.58591650    5.34589412
C            -1.39077998   -3.36879353    5.59746689
H             0.52526575   -5.17818881    6.25759262
H             1.21660322   -5.17823805    4.56373708
H             1.32373253   -3.69119803    5.52171282
H            -2.41317226   -3.76342387    5.68858564
H            -0.92504520   -3.25435488    6.60337460
H            -1.45934007   -2.32765752    5.17552428
C            -0.21703429    1.39456613    3.29456001
C            -1.36379677    0.90464487    4.10564985
C            -2.56373888    0.64376717    3.47665532
C            -3.66765966    0.18513430    4.18107581
C            -3.60406411   -0.02692805    5.53998762
C            -2.39391946    0.23893314    6.15798905
C            -1.29348616    0.69484247    5.46342599
H             0.46687458    2.01079499    3.90934043
H            -0.53481060    2.03541459    2.45027492
H            -2.63914801    0.80432080    2.39864946
H            -4.59948028   -0.01277891    3.66549365
H            -4.44625469   -0.38508678    6.12552819
H            -2.32345728    0.07820469    7.22779462
H            -0.33886315    0.90153315    5.96941350
C             0.00000000    0.00000000    0.00000000
H             1.11123978    0.00000000    0.00000000
H            -0.34606400   -0.28257184   -1.02518416
H            -0.40221157    0.99911113    0.27744225



