%chk=sp_7_1.chk
%mem=300GB
%nprocshared=68
#p opt=(calcfc,ts,noeigen,maxstep=5) freq b3lyp def2svp em=gd3bj  

Freeze index  [11, 18]  [18, 19]  [3, 19]  [3, 33]  [3, 28]  [3, 21] // Local index  3  18  20  33  (20,)  [11, 18]  [18, 19]

0 1
Fe            1.03393252    5.26286874    2.06106667
C            -1.47574980    2.01455569   -3.34409539
Pd           -0.56572980    3.86859770   -1.39125993
C             0.72253180    6.42697833   -0.93498432
H             2.54069922    7.07887857    3.63517962
H             3.55076839    6.28082905    1.25177866
H             3.05250366    3.62406922    0.98488211
C            -0.04959626    1.41769921   -0.06378989
O            -1.87865001    1.52037439   -4.37619811
C             0.16950186    6.00420272    0.38714674
O             0.63865443    2.13819544    0.73254952
C            -0.92907320    4.60560043    1.85393214
C            -0.90629434    5.91121610    2.42202723
C            -0.25420690    6.78660370    1.49967898
H            -1.32280088    3.71110309    2.33385889
H            -1.29576117    6.19203209    3.39945278
H            -0.08167178    7.85326637    1.63710103
H             0.33877250    3.40230906    0.48658555
C            -0.25937047    4.62821779    0.57961409
C            -1.53414414    1.20970111   -2.02201033
O            -1.01938334    3.24541316   -3.25405341
C             2.81161868    4.24284617    1.84690166
C             3.06169331    5.64153877    1.98507579
C             2.52898032    6.06335013    3.24331530
C             1.95461122    4.92258187    3.88270869
C             2.12444219    3.79874773    3.01868796
H             1.76124270    2.78884115    3.19177931
N            -0.82941191    1.94679556   -0.98122559
H            -1.03395156    0.24560722   -2.20257219
H             1.71998063    5.99538579   -1.10018418
H             0.80271155    7.52464115   -1.03221229
Br            1.03916406    4.91540807    5.61577191
N            -0.15345750    5.88109754   -1.98166901
C             0.31905862    6.14125944   -3.31377849
C            -1.53609568    6.15065909   -1.77761315
H             0.13173293    7.16237674   -3.66857468
H             1.41669291    5.90894915   -3.31509074
H            -0.13053276    5.36830261   -3.98908733
H            -1.74502632    6.85441124   -0.95883187
H            -2.01103099    6.49953014   -2.72343590
H            -2.03760973    5.17414355   -1.52942650
C            -2.98831605    0.93029210   -1.67891161
C            -2.99679317   -0.35023617   -0.89327109
C            -3.63771220    2.07911276   -1.00355212
H            -2.02718398   -0.52252165   -0.34354656
H            -3.04460017   -1.21174474   -1.62009625
H            -3.81308441   -0.43661668   -0.17667490
H            -3.51674115    0.73950728   -2.64637655
H            -3.86020471    1.93405982    0.06740732
H            -3.01779903    3.00055209   -1.14770437
H            -4.62542302    2.32117095   -1.48319487
O             0.00000000    0.00000000    0.00000000
C             2.40555702   -0.00000000   -0.00000000
C             1.12477966   -0.45195188    0.66981274
C             1.12396929   -0.04819835    2.12888003
C             1.09532837   -1.96574633    0.61132300
H             2.54491719   -0.66788173   -0.89416919
H             3.25050003   -0.10246065    0.70853864
H             2.26843548    1.04642280   -0.36161285
H             2.19866110    0.08730728    2.42452496
H             0.73905390   -0.86880445    2.76748547
H             0.63147211    0.92113838    2.30356034
H             1.99127256   -2.42297240    1.09265810
H             0.98932583   -2.24341484   -0.45363482
H             0.15669605   -2.27971309    1.11387072



