%chk=sp_8_1.chk
%mem=300GB
%nprocshared=68
#p opt=(calcfc,ts,noeigen,maxstep=5) freq b3lyp def2svp em=gd3bj  

Freeze index  [11, 18]  [18, 19]  [3, 19]  [3, 33]  [3, 28]  [3, 21] // Local index  3  18  20  33  (20,)  [11, 18]  [18, 19]

0 1
Fe           -4.10187247   -3.99413539   -1.12754311
C             2.50186027   -3.39269410    0.31978976
Pd           -0.14431864   -4.23272593   -0.28944004
C            -1.77639166   -6.15390621   -1.72424680
H            -6.50328687   -4.80612083   -2.40031621
H            -4.23229947   -4.68482911   -3.87191323
H            -2.88292931   -2.44531656   -3.13597401
C            -0.50737150   -1.42477141   -0.15165949
O             3.70033601   -3.37758912    0.50746632
C            -2.70722274   -5.42673788   -0.80911704
O            -1.63265914   -1.66923009   -0.70026298
C            -3.29370592   -3.86856047    0.78539951
C            -4.31034959   -4.86494935    0.74684683
C            -3.93270407   -5.84902389   -0.21815829
H            -3.31239729   -2.96556728    1.39344318
H            -5.22861228   -4.86702865    1.33225193
H            -4.49667751   -6.74345023   -0.47961579
H            -1.83604282   -2.97380052   -0.62866659
C            -2.27540071   -4.18857300   -0.18080239
C             1.62369881   -2.21333389    0.80667528
O             1.86461754   -4.39520038   -0.24616697
C            -3.85373057   -2.76593977   -2.76353499
C            -4.55970749   -3.94830193   -3.13981989
C            -5.75888611   -4.01268995   -2.36350101
C            -5.79385549   -2.86660954   -1.51182404
C            -4.61508973   -2.09860437   -1.75482175
H            -4.31784964   -1.18892246   -1.23914532
N             0.26779719   -2.38565354    0.30168285
H             2.06080812   -1.28873344    0.39883927
H            -1.65012250   -5.60917502   -2.67070501
H            -2.12245992   -7.17637618   -1.95982036
H            -6.55432904   -2.64134598   -0.79360530
N            -0.45584979   -6.19414201   -1.07968723
C             0.56123705   -6.79233718   -1.90013758
C            -0.48284566   -6.65663544    0.26616712
H             0.52789078   -7.88840435   -1.93429732
H             0.44426411   -6.35322654   -2.92593992
H             1.55204090   -6.40892059   -1.54383251
H            -1.45297320   -7.06339006    0.58666579
H             0.32936620   -7.39915836    0.44169635
H            -0.24024643   -5.78032038    0.92944888
C             1.69389143   -2.13990736    2.32327355
C             1.47330571   -0.69865759    2.68548423
C             0.76666213   -3.09465803    2.97620318
H             0.85891596   -0.15173325    1.91384109
H             2.46882645   -0.16883440    2.65389534
H             1.01164399   -0.54205018    3.65998086
H             2.74172251   -2.40651352    2.61064187
H            -0.10514825   -2.63993989    3.47687386
H             0.42860945   -3.86031577    2.23215668
H             1.29441926   -3.68517821    3.77432035
C             0.00000000    0.00000000    0.00000000
H             1.11123978   -0.00000000    0.00000000
H            -0.34606400    0.58379399   -0.88883857
H            -0.40221157    0.45086938    0.93376338



