      -----------------------------------------------------------      
     |                   =====================                   |     
     |                           x T B                           |     
     |                   =====================                   |     
     |                         S. Grimme                         |     
     |          Mulliken Center for Theoretical Chemistry        |     
     |                    University of Bonn                     |     
      -----------------------------------------------------------      

   * xtb version 6.6.1 (8d0f1dd) compiled by 'stahn@M-Bot' on 2023-08-01

   xtb is free software: you can redistribute it and/or modify it under
   the terms of the GNU Lesser General Public License as published by
   the Free Software Foundation, either version 3 of the License, or
   (at your option) any later version.
   
   xtb is distributed in the hope that it will be useful,
   but WITHOUT ANY WARRANTY; without even the implied warranty of
   MERCHANTABILITY or FITNESS FOR A PARTICULAR PURPOSE.  See the
   GNU Lesser General Public License for more details.
   
   Cite this work as:
   * C. Bannwarth, E. Caldeweyher, S. Ehlert, A. Hansen, P. Pracht,
     J. Seibert, S. Spicher, S. Grimme, WIREs Comput. Mol. Sci., 2020, 11,
     e01493. DOI: 10.1002/wcms.1493
   
   for GFN2-xTB:
   * C. Bannwarth, S. Ehlert and S. Grimme., J. Chem. Theory Comput., 2019,
     15, 1652-1671. DOI: 10.1021/acs.jctc.8b01176
   for GFN1-xTB:
   * S. Grimme, C. Bannwarth, P. Shushkov, J. Chem. Theory Comput., 2017,
     13, 1989-2009. DOI: 10.1021/acs.jctc.7b00118
   for GFN0-xTB:
   * P. Pracht, E. Caldeweyher, S. Ehlert, S. Grimme, ChemRxiv, 2019, preprint.
     DOI: 10.26434/chemrxiv.8326202.v1
   for GFN-FF:
   * S. Spicher and S. Grimme, Angew. Chem. Int. Ed., 2020, 59, 15665-15673.
     DOI: 10.1002/anie.202004239
   
   for ALPB and GBSA implicit solvation:
   * S. Ehlert, M. Stahn, S. Spicher, S. Grimme, J. Chem. Theory Comput.,
     2021, 17, 4250-4261. DOI: 10.1021/acs.jctc.1c00471
   
   for DFT-D4:
   * E. Caldeweyher, C. Bannwarth and S. Grimme, J. Chem. Phys., 2017,
     147, 034112. DOI: 10.1063/1.4993215
   * E. Caldeweyher, S. Ehlert, A. Hansen, H. Neugebauer, S. Spicher,
     C. Bannwarth and S. Grimme, J. Chem. Phys., 2019, 150, 154122.
     DOI: 10.1063/1.5090222
   * E. Caldeweyher, J.-M. Mewes, S. Ehlert and S. Grimme, Phys. Chem. Chem. Phys.
     2020, 22, 8499-8512. DOI: 10.1039/D0CP00502A
   
   for sTDA-xTB:
   * S. Grimme and C. Bannwarth, J. Chem. Phys., 2016, 145, 054103.
     DOI: 10.1063/1.4959605
   
   in the mass-spec context:
   * V. Asgeirsson, C. Bauer and S. Grimme, Chem. Sci., 2017, 8, 4879.
     DOI: 10.1039/c7sc00601b
   * J. Koopman and S. Grimme, ACS Omega 2019, 4, 12, 15120-15133.
     DOI: 10.1021/acsomega.9b02011
   
   for metadynamics refer to:
   * S. Grimme, J. Chem. Theory Comput., 2019, 155, 2847-2862
     DOI: 10.1021/acs.jctc.9b00143
   
   for SPH calculations refer to:
   * S. Spicher and S. Grimme, J. Chem. Theory Comput., 2021, 17, 1701-1714
     DOI: 10.1021/acs.jctc.0c01306
   
   with help from (in alphabetical order)
   P. Atkinson, C. Bannwarth, F. Bohle, G. Brandenburg, E. Caldeweyher
   M. Checinski, S. Dohm, S. Ehlert, S. Ehrlich, I. Gerasimov, C. Hölzer
   A. Katbashev, J. Koopman, C. Lavigne, S. Lehtola, F. März, M. Müller,
   F. Musil, H. Neugebauer, J. Pisarek, C. Plett, P. Pracht, F. Pultar,
   J. Seibert, P. Shushkov, S. Spicher, M. Stahn, M. Steiner, T. Strunk,
   J. Stückrath, T. Rose, and J. Unsleber
   
 * started run on 2024/10/14 at 09:48:33.460     

           -------------------------------------------------
          |                Calculation Setup                |
           -------------------------------------------------

          program call               : xtb tsopted.xyz --gfn 2 --charge 0
          coordinate file            : tsopted.xyz
          omp threads                :                    12

   ID    Z sym.   atoms
    1   26 Fe     1
    2    6 C      2, 4, 8, 10, 12-14, 19, 20, 22-26, 34, 35, 42-45, 56-59
    3   46 Pd     3
    4    1 H      5-7, 15-18, 27, 29-32, 36-41, 46-54, 60-68
    5    8 O      9, 11, 21, 55
    6    7 N      28, 33

           -------------------------------------------------
          |                 G F N 2 - x T B                 |
           -------------------------------------------------

        Reference                      10.1021/acs.jctc.8b01176
      * Hamiltonian:
        H0-scaling (s, p, d)           1.850000    2.230000    2.230000
        zeta-weighting                 0.500000
      * Dispersion:
        s8                             2.700000
        a1                             0.520000
        a2                             5.000000
        s9                             5.000000
      * Repulsion:
        kExp                           1.500000    1.000000
        rExp                           1.000000
      * Coulomb:
        alpha                          2.000000
        third order                    shell-resolved
        anisotropic                    true
        a3                             3.000000
        a5                             4.000000
        cn-shift                       1.200000
        cn-exp                         4.000000
        max-rad                        5.000000

q/qsh data taken from xtbrestart
CAMM data taken from xtbrestart

          ...................................................
          :                      SETUP                      :
          :.................................................:
          :  # basis functions                 176          :
          :  # atomic orbitals                 174          :
          :  # shells                          102          :
          :  # electrons                       184          :
          :  max. iterations                   250          :
          :  Hamiltonian                  GFN2-xTB          :
          :  restarted?                       true          :
          :  GBSA solvation                  false          :
          :  PC potential                    false          :
          :  electronic temp.          300.0000000     K    :
          :  accuracy                    1.0000000          :
          :  -> integral cutoff          0.2500000E+02      :
          :  -> integral neglect         0.1000000E-07      :
          :  -> SCF convergence          0.1000000E-05 Eh   :
          :  -> wf. convergence          0.1000000E-03 e    :
          :  Broyden damping             0.4000000          :
          ...................................................

 iter      E             dE          RMSdq      gap      omega  full diag
   1   -100.9572941 -0.100957E+03  0.702E-01    1.81       0.0  T
   2   -100.9768505 -0.195564E-01  0.699E-01    1.85       1.0  T
   3   -100.9881396 -0.112891E-01  0.365E-01    1.85       1.0  T
   4   -100.9877006  0.438990E-03  0.286E-01    1.83       1.0  T
   5   -100.9888264 -0.112577E-02  0.146E-01    1.85       1.0  T
   6   -100.9889983 -0.171865E-03  0.857E-02    1.84       1.0  T
   7   -100.9890873 -0.890330E-04  0.401E-02    1.84       1.0  T
   8   -100.9890954 -0.810639E-05  0.226E-02    1.84       1.0  T
   9   -100.9891051 -0.969437E-05  0.803E-03    1.84       1.5  T
  10   -100.9891053 -0.165547E-06  0.525E-03    1.84       2.3  T
  11   -100.9891055 -0.211193E-06  0.312E-03    1.84       3.9  T
  12   -100.9891055 -0.705268E-07  0.198E-03    1.84       6.1  T
  13   -100.9891056 -0.949326E-08  0.960E-04    1.84      12.6  T
  14   -100.9891056 -0.767773E-08  0.235E-04    1.84      51.7  T

   *** convergence criteria satisfied after 14 iterations ***

         #    Occupation            Energy/Eh            Energy/eV
      -------------------------------------------------------------
         1        2.0000           -0.7770463             -21.1445
       ...           ...                  ...                  ...
        86        2.0000           -0.3503542              -9.5336
        87        2.0000           -0.3470358              -9.4433
        88        2.0000           -0.3432773              -9.3411
        89        2.0000           -0.3384376              -9.2094
        90        2.0000           -0.3371939              -9.1755
        91        2.0000           -0.3298794              -8.9765
        92        2.0000           -0.3129748              -8.5165 (HOMO)
        93                         -0.2453057              -6.6751 (LUMO)
        94                         -0.2295350              -6.2460
        95                         -0.2255204              -6.1367
        96                         -0.2011698              -5.4741
        97                         -0.1573466              -4.2816
       ...                                ...                  ...
       174                          6.3811873             173.6409
      -------------------------------------------------------------
                  HL-Gap            0.0676691 Eh            1.8414 eV
             Fermi-level           -0.2791403 Eh           -7.5958 eV

 SCC (total)                   0 d,  0 h,  0 min,  0.085 sec
 SCC setup                      ...        0 min,  0.003 sec (  3.079%)
 Dispersion                     ...        0 min,  0.001 sec (  1.096%)
 classical contributions        ...        0 min,  0.000 sec (  0.052%)
 integral evaluation            ...        0 min,  0.005 sec (  6.177%)
 iterations                     ...        0 min,  0.062 sec ( 73.660%)
 molecular gradient             ...        0 min,  0.011 sec ( 12.441%)
 printout                       ...        0 min,  0.003 sec (  3.451%)

         :::::::::::::::::::::::::::::::::::::::::::::::::::::
         ::                     SUMMARY                     ::
         :::::::::::::::::::::::::::::::::::::::::::::::::::::
         :: total energy             -99.710729766423 Eh    ::
         :: gradient norm              0.000042437441 Eh/a0 ::
         :: HOMO-LUMO gap              1.841369789556 eV    ::
         ::.................................................::
         :: SCC energy              -100.989105562045 Eh    ::
         :: -> isotropic ES           -0.021108103440 Eh    ::
         :: -> anisotropic ES         -0.009928540769 Eh    ::
         :: -> anisotropic XC          0.033397971010 Eh    ::
         :: -> dispersion             -0.096260168818 Eh    ::
         :: repulsion energy           1.274801122000 Eh    ::
         :: add. restraining           0.000000000000 Eh    ::
         :: total charge              -0.000012683992 e     ::
         :::::::::::::::::::::::::::::::::::::::::::::::::::::

           -------------------------------------------------
          |                Property Printout                |
           -------------------------------------------------

    * Orbital Energies and Occupations

         #    Occupation            Energy/Eh            Energy/eV
      -------------------------------------------------------------
         1        2.0000           -0.7770463             -21.1445
       ...           ...                  ...                  ...
        80        2.0000           -0.3881302             -10.5616
        81        2.0000           -0.3849943             -10.4762
        82        2.0000           -0.3833611             -10.4318
        83        2.0000           -0.3788333             -10.3086
        84        2.0000           -0.3631550              -9.8820
        85        2.0000           -0.3562936              -9.6952
        86        2.0000           -0.3503542              -9.5336
        87        2.0000           -0.3470358              -9.4433
        88        2.0000           -0.3432773              -9.3411
        89        2.0000           -0.3384376              -9.2094
        90        2.0000           -0.3371939              -9.1755
        91        2.0000           -0.3298794              -8.9765
        92        2.0000           -0.3129748              -8.5165 (HOMO)
        93                         -0.2453057              -6.6751 (LUMO)
        94                         -0.2295350              -6.2460
        95                         -0.2255204              -6.1367
        96                         -0.2011698              -5.4741
        97                         -0.1573466              -4.2816
        98                         -0.1498682              -4.0781
        99                         -0.1472117              -4.0058
       100                         -0.1439323              -3.9166
       101                         -0.1306548              -3.5553
       102                         -0.0214444              -0.5835
       103                         -0.0030047              -0.0818
       ...                                ...                  ...
       174                          6.3811873             173.6409
      -------------------------------------------------------------
                  HL-Gap            0.0676691 Eh            1.8414 eV
             Fermi-level           -0.2791403 Eh           -7.5958 eV

     #   Z          covCN         q      C6AA      α(0)
     1  26 Fe       9.278     1.296   110.951    18.575
     2   6 C        2.711     0.370    20.730     7.453
     3  46 Pd       4.179    -0.309   382.201    35.704
     4   6 C        3.799    -0.030    21.112     6.542
     5   1 H        0.927     0.043     2.412     2.429
     6   1 H        0.927     0.033     2.543     2.494
     7   1 H        0.927     0.037     2.488     2.466
     8   6 C        2.679     0.374    20.662     7.438
     9   8 O        0.856    -0.498    23.750     6.534
    10   6 C        4.042    -0.095    22.215     6.695
    11   8 O        1.650    -0.414    21.117     6.203
    12   6 C        3.901    -0.142    23.172     6.842
    13   6 C        3.868    -0.138    23.098     6.834
    14   6 C        3.858    -0.146    23.264     6.860
    15   1 H        0.927     0.044     2.390     2.418
    16   1 H        0.927     0.040     2.453     2.449
    17   1 H        0.927     0.032     2.553     2.498
    18   1 H        0.797     0.359     0.569     1.186
    19   6 C        3.794    -0.189    24.204     7.006
    20   6 C        3.821     0.020    20.229     6.401
    21   8 O        1.490    -0.428    21.536     6.257
    22   6 C        3.907    -0.112    22.577     6.754
    23   6 C        3.890    -0.144    23.206     6.848
    24   6 C        3.880    -0.141    23.163     6.843
    25   6 C        3.877    -0.139    23.128     6.838
    26   6 C        3.890    -0.133    22.989     6.816
    27   1 H        0.926     0.112     1.681     2.027
    28   7 N        2.656    -0.184    24.984     7.424
    29   1 H        0.924     0.030     2.587     2.515
    30   1 H        0.925     0.045     2.379     2.412
    31   1 H        0.923     0.039     2.458     2.452
    32   1 H        0.927     0.068     2.103     2.268
    33   7 N        3.471    -0.036    21.930     6.955
    34   6 C        3.814    -0.043    21.328     6.573
    35   6 C        3.717    -0.054    21.664     6.649
    36   1 H        0.923     0.031     2.570     2.507
    37   1 H        0.924     0.082     1.955     2.187
    38   1 H        0.924     0.102     1.765     2.078
    39   1 H        0.923     0.028     2.619     2.531
    40   1 H        0.924     0.090     1.882     2.146
    41   1 H        0.925     0.061     2.185     2.312
    42   6 C        3.851    -0.018    20.864     6.497
    43   6 C        3.753    -0.127    22.996     6.838
    44   6 C        3.803    -0.056    21.580     6.614
    45   6 C        3.751    -0.113    22.727     6.799
    46   1 H        0.925     0.029     2.595     2.519
    47   1 H        0.925     0.032     2.559     2.502
    48   1 H        0.924     0.067     2.119     2.277
    49   1 H        0.924     0.044     2.391     2.418
    50   1 H        0.924     0.026     2.641     2.542
    51   1 H        0.924     0.026     2.639     2.540
    52   1 H        0.925     0.026     2.637     2.540
    53   1 H        0.925     0.030     2.587     2.515
    54   1 H        0.925     0.070     2.089     2.260
    55   8 O        1.705    -0.273    18.532     5.812
    56   6 C        3.758    -0.120    22.850     6.815
    57   6 C        3.780     0.158    18.079     6.057
    58   6 C        3.756    -0.121    22.882     6.821
    59   6 C        3.756    -0.124    22.926     6.827
    60   1 H        0.925     0.056     2.251     2.346
    61   1 H        0.925     0.059     2.210     2.325
    62   1 H        0.925     0.049     2.330     2.387
    63   1 H        0.925     0.051     2.308     2.376
    64   1 H        0.925     0.045     2.380     2.413
    65   1 H        0.925     0.062     2.171     2.304
    66   1 H        0.925     0.047     2.353     2.399
    67   1 H        0.925     0.047     2.362     2.403
    68   1 H        0.925     0.063     2.162     2.299

 Mol. C6AA /au·bohr⁶  :      50442.890423
 Mol. C8AA /au·bohr⁸  :    1460634.564688
 Mol. α(0) /au        :        340.861489


Wiberg/Mayer (AO) data.
largest (>0.10) Wiberg bond orders for each atom

 ---------------------------------------------------------------------------
     #   Z sym  total        # sym  WBO       # sym  WBO       # sym  WBO
 ---------------------------------------------------------------------------
     1  26 Fe   1.272 --    10 C    0.242    14 C    0.238    13 C    0.236
                            12 C    0.236    23 C    0.219    25 C    0.219
                            24 C    0.217    26 C    0.207    19 C    0.183
                            22 C    0.160
     2   6 C    3.940 --     9 O    1.623    21 O    1.377    20 C    0.861
     3  46 Pd   3.568 --    19 C    0.852    28 N    0.556    21 O    0.456
                            33 N    0.431    22 C    0.231    12 C    0.113
                            10 C    0.109
     4   6 C    3.974 --    10 C    1.005    30 H    0.973    33 N    0.971
                            31 H    0.958
     5   1 H    0.997 --    24 C    0.984
     6   1 H    0.998 --    25 C    0.986
     7   1 H    0.997 --    26 C    0.958
     8   6 C    3.932 --    28 N    1.548    55 O    1.116    11 O    1.109
     9   8 O    1.955 --     2 C    1.623    21 O    0.203
    10   6 C    3.961 --    14 C    1.271    19 C    1.200     4 C    1.005
                             1 Fe   0.242     3 Pd   0.109
    11   8 O    2.132 --     8 C    1.109    18 H    0.708    28 N    0.122
    12   6 C    3.977 --    13 C    1.297    19 C    1.236    15 H    0.963
                             1 Fe   0.236     3 Pd   0.113
    13   6 C    3.973 --    14 C    1.297    12 C    1.297    16 H    0.983
                             1 Fe   0.236
    14   6 C    3.973 --    13 C    1.297    10 C    1.271    17 H    0.983
                             1 Fe   0.238
    15   1 H    0.996 --    12 C    0.963
    16   1 H    0.996 --    13 C    0.983
    17   1 H    0.997 --    14 C    0.983
    18   1 H    0.869 --    11 O    0.708
    19   6 C    3.809 --    12 C    1.236    10 C    1.200     3 Pd   0.852
                             1 Fe   0.183
    20   6 C    3.954 --    28 N    0.979    29 H    0.955    42 C    0.953
                             2 C    0.861
    21   8 O    2.187 --     2 C    1.377     3 Pd   0.456     9 O    0.203
    22   6 C    3.982 --    26 C    1.276    23 C    1.264    27 H    0.908
                             3 Pd   0.231     1 Fe   0.160
    23   6 C    3.974 --    24 C    1.316    22 C    1.264    32 H    0.964
                             1 Fe   0.219
    24   6 C    3.973 --    23 C    1.316    25 C    1.294     5 H    0.984
                             1 Fe   0.217
    25   6 C    3.975 --    26 C    1.312    24 C    1.294     6 H    0.986
                             1 Fe   0.219
    26   6 C    3.977 --    25 C    1.312    22 C    1.276     7 H    0.958
                             1 Fe   0.207
    27   1 H    0.986 --    22 C    0.908
    28   7 N    3.424 --     8 C    1.548    20 C    0.979     3 Pd   0.556
                            11 O    0.122    55 O    0.104
    29   1 H    0.998 --    20 C    0.955
    30   1 H    0.997 --     4 C    0.973
    31   1 H    0.996 --     4 C    0.958
    32   1 H    0.994 --    23 C    0.964
    33   7 N    3.473 --    35 C    0.997    34 C    0.986     4 C    0.971
                             3 Pd   0.431
    34   6 C    3.974 --    33 N    0.986    36 H    0.971    37 H    0.954
                            38 H    0.932
    35   6 C    3.971 --    33 N    0.997    39 H    0.973    40 H    0.963
                            41 H    0.962
    36   1 H    0.998 --    34 C    0.971
    37   1 H    0.992 --    34 C    0.954
    38   1 H    0.988 --    34 C    0.932
    39   1 H    0.997 --    35 C    0.973
    40   1 H    0.991 --    35 C    0.963
    41   1 H    0.995 --    35 C    0.962
    42   6 C    3.992 --    43 C    1.004    44 C    0.998    49 H    0.958
                            20 C    0.953
    43   6 C    3.993 --    42 C    1.004    46 H    0.985    47 H    0.982
                            48 H    0.942
    44   6 C    3.997 --    45 C    1.020    42 C    0.998    51 H    0.977
                            50 H    0.976
    45   6 C    3.992 --    44 C    1.020    53 H    0.988    52 H    0.988
                            54 H    0.975
    46   1 H    0.999 --    43 C    0.985
    47   1 H    0.998 --    43 C    0.982
    48   1 H    0.993 --    43 C    0.942
    49   1 H    0.997 --    42 C    0.958
    50   1 H    0.999 --    44 C    0.976
    51   1 H    0.999 --    44 C    0.977
    52   1 H    0.999 --    45 C    0.988
    53   1 H    0.999 --    45 C    0.988
    54   1 H    0.995 --    45 C    0.975
    55   8 O    2.278 --     8 C    1.116    57 C    0.896    28 N    0.104
    56   6 C    3.991 --    57 C    0.994    60 H    0.984    62 H    0.984
                            61 H    0.984
    57   6 C    3.915 --    58 C    0.995    59 C    0.995    56 C    0.994
                            55 O    0.896
    58   6 C    3.991 --    57 C    0.995    63 H    0.984    64 H    0.984
                            65 H    0.979
    59   6 C    3.992 --    57 C    0.995    66 H    0.985    67 H    0.984
                            68 H    0.980
    60   1 H    0.997 --    56 C    0.984
    61   1 H    0.996 --    56 C    0.984
    62   1 H    0.997 --    56 C    0.984
    63   1 H    0.997 --    58 C    0.984
    64   1 H    0.998 --    58 C    0.984
    65   1 H    0.996 --    58 C    0.979
    66   1 H    0.998 --    59 C    0.985
    67   1 H    0.998 --    59 C    0.984
    68   1 H    0.996 --    59 C    0.980
 ---------------------------------------------------------------------------

Topologies differ in total number of bonds
Writing topology from bond orders to xtbtopo.mol

molecular dipole:
                 x           y           z       tot (Debye)
 q only:       -1.890      -2.627      -2.251
   full:       -1.406      -2.912      -1.443       9.001
molecular quadrupole (traceless):
                xx          xy          yy          xz          yz          zz
 q only:       20.779     -11.742     -10.059     -15.256     -22.610     -10.720
  q+dip:       23.729      -9.089     -16.352     -19.087     -28.979      -7.377
   full:       22.250      -8.642     -12.986     -20.647     -26.100      -9.264


           -------------------------------------------------
          | TOTAL ENERGY              -99.710729766423 Eh   |
          | GRADIENT NORM               0.000042437441 Eh/α |
          | HOMO-LUMO GAP               1.841369789556 eV   |
           -------------------------------------------------
########################################################################
[WARNING] Runtime exception occurred
-1- restart_readRestart: Multiplicity missmatch in restart file.
########################################################################

------------------------------------------------------------------------
 * finished run on 2024/10/14 at 09:48:33.743     
------------------------------------------------------------------------
 total:
 * wall-time:     0 d,  0 h,  0 min,  0.283 sec
 *  cpu-time:     0 d,  0 h,  0 min,  2.894 sec
 * ratio c/w:    10.223 speedup
 SCF:
 * wall-time:     0 d,  0 h,  0 min,  0.088 sec
 *  cpu-time:     0 d,  0 h,  0 min,  1.034 sec
 * ratio c/w:    11.762 speedup

