68
charge 0 multiplicity 1
Fe          -2.37134   0.04888  -0.96027
C            1.28088   1.68366   1.91192
Pd          -0.40569  -0.32870   0.73808
C           -2.95160  -1.86651   0.98640
H           -3.50547   1.42641  -2.93936
H           -5.01864   0.46471  -0.97651
H           -3.77077   0.89315   1.30422
C            2.23511  -0.82413  -0.24067
O            1.87437   2.45605   2.64516
C           -2.43156  -1.80218  -0.40494
O            1.75043  -2.03162  -0.52931
C           -1.11969  -0.98102  -2.05543
C           -2.43459  -1.06671  -2.54906
C           -3.25398  -1.57630  -1.52660
H           -0.30237  -0.61516  -2.63973
H           -2.76780  -0.72196  -3.50120
H           -4.31537  -1.67562  -1.56424
H            0.73143  -1.95631  -0.49933
C           -1.07433  -1.47782  -0.72228
C            1.85644   1.43335   0.46301
O            0.23203   1.04438   2.21040
C           -2.13860   1.74714   0.06874
C           -2.09199   1.95270  -1.33212
C           -3.28499   1.47560  -1.89806
C           -4.08007   0.95769  -0.86049
C           -3.37624   1.12573   0.34264
H           -1.45451   2.12470   0.80609
N            1.42954   0.11371   0.07766
H            2.95048   1.48052   0.51684
H           -3.80712  -1.19196   1.00575
H           -3.28403  -2.86597   1.30296
H           -1.32924   2.44320  -1.88524
N           -1.89463  -1.36512   1.87576
C           -1.03654  -2.47965   2.30131
C           -2.39320  -0.70140   3.06981
H           -1.57221  -3.12810   3.01195
H           -0.74781  -3.08325   1.43803
H           -0.13859  -2.08975   2.79689
H           -2.95917  -1.39284   3.70928
H           -1.54780  -0.30204   3.63071
H           -3.03153   0.13420   2.80366
C            1.33934   2.47373  -0.56387
C            0.98615   1.77258  -1.88082
C            2.37484   3.57719  -0.80580
C            2.51104   4.53283   0.37288
H            1.84911   1.22620  -2.25861
H            0.70560   2.50822  -2.63273
H            0.14949   1.08415  -1.71511
H            0.42903   2.93874  -0.17170
H            2.07728   4.14591  -1.69181
H            3.34240   3.11728  -1.02296
H            3.32650   5.23278   0.20370
H            1.59252   5.10109   0.50492
H            2.70061   3.98545   1.29210
O            3.53785  -0.60330  -0.33741
C            5.83901  -0.91715  -0.55673
C            4.49634  -1.64575  -0.63026
C            4.42999  -2.74598   0.42795
C            4.26912  -2.20299  -2.03532
H            5.86532  -0.11209  -1.28613
H            5.97465  -0.48831   0.43240
H            6.65125  -1.60823  -0.76006
H            4.50473  -2.30826   1.42119
H            5.25657  -3.43641   0.28640
H            3.49696  -3.29786   0.35360
H            4.25840  -1.39118  -2.75940
H            5.07464  -2.88659  -2.28769
H            3.32495  -2.73733  -2.09156