      -----------------------------------------------------------      
     |                   =====================                   |     
     |                           x T B                           |     
     |                   =====================                   |     
     |                         S. Grimme                         |     
     |          Mulliken Center for Theoretical Chemistry        |     
     |                    University of Bonn                     |     
      -----------------------------------------------------------      

   * xtb version 6.6.1 (8d0f1dd) compiled by 'stahn@M-Bot' on 2023-08-01

   xtb is free software: you can redistribute it and/or modify it under
   the terms of the GNU Lesser General Public License as published by
   the Free Software Foundation, either version 3 of the License, or
   (at your option) any later version.
   
   xtb is distributed in the hope that it will be useful,
   but WITHOUT ANY WARRANTY; without even the implied warranty of
   MERCHANTABILITY or FITNESS FOR A PARTICULAR PURPOSE.  See the
   GNU Lesser General Public License for more details.
   
   Cite this work as:
   * C. Bannwarth, E. Caldeweyher, S. Ehlert, A. Hansen, P. Pracht,
     J. Seibert, S. Spicher, S. Grimme, WIREs Comput. Mol. Sci., 2020, 11,
     e01493. DOI: 10.1002/wcms.1493
   
   for GFN2-xTB:
   * C. Bannwarth, S. Ehlert and S. Grimme., J. Chem. Theory Comput., 2019,
     15, 1652-1671. DOI: 10.1021/acs.jctc.8b01176
   for GFN1-xTB:
   * S. Grimme, C. Bannwarth, P. Shushkov, J. Chem. Theory Comput., 2017,
     13, 1989-2009. DOI: 10.1021/acs.jctc.7b00118
   for GFN0-xTB:
   * P. Pracht, E. Caldeweyher, S. Ehlert, S. Grimme, ChemRxiv, 2019, preprint.
     DOI: 10.26434/chemrxiv.8326202.v1
   for GFN-FF:
   * S. Spicher and S. Grimme, Angew. Chem. Int. Ed., 2020, 59, 15665-15673.
     DOI: 10.1002/anie.202004239
   
   for ALPB and GBSA implicit solvation:
   * S. Ehlert, M. Stahn, S. Spicher, S. Grimme, J. Chem. Theory Comput.,
     2021, 17, 4250-4261. DOI: 10.1021/acs.jctc.1c00471
   
   for DFT-D4:
   * E. Caldeweyher, C. Bannwarth and S. Grimme, J. Chem. Phys., 2017,
     147, 034112. DOI: 10.1063/1.4993215
   * E. Caldeweyher, S. Ehlert, A. Hansen, H. Neugebauer, S. Spicher,
     C. Bannwarth and S. Grimme, J. Chem. Phys., 2019, 150, 154122.
     DOI: 10.1063/1.5090222
   * E. Caldeweyher, J.-M. Mewes, S. Ehlert and S. Grimme, Phys. Chem. Chem. Phys.
     2020, 22, 8499-8512. DOI: 10.1039/D0CP00502A
   
   for sTDA-xTB:
   * S. Grimme and C. Bannwarth, J. Chem. Phys., 2016, 145, 054103.
     DOI: 10.1063/1.4959605
   
   in the mass-spec context:
   * V. Asgeirsson, C. Bauer and S. Grimme, Chem. Sci., 2017, 8, 4879.
     DOI: 10.1039/c7sc00601b
   * J. Koopman and S. Grimme, ACS Omega 2019, 4, 12, 15120-15133.
     DOI: 10.1021/acsomega.9b02011
   
   for metadynamics refer to:
   * S. Grimme, J. Chem. Theory Comput., 2019, 155, 2847-2862
     DOI: 10.1021/acs.jctc.9b00143
   
   for SPH calculations refer to:
   * S. Spicher and S. Grimme, J. Chem. Theory Comput., 2021, 17, 1701-1714
     DOI: 10.1021/acs.jctc.0c01306
   
   with help from (in alphabetical order)
   P. Atkinson, C. Bannwarth, F. Bohle, G. Brandenburg, E. Caldeweyher
   M. Checinski, S. Dohm, S. Ehlert, S. Ehrlich, I. Gerasimov, C. Hölzer
   A. Katbashev, J. Koopman, C. Lavigne, S. Lehtola, F. März, M. Müller,
   F. Musil, H. Neugebauer, J. Pisarek, C. Plett, P. Pracht, F. Pultar,
   J. Seibert, P. Shushkov, S. Spicher, M. Stahn, M. Steiner, T. Strunk,
   J. Stückrath, T. Rose, and J. Unsleber
   
 * started run on 2024/10/14 at 09:48:31.838     

           -------------------------------------------------
          |                Calculation Setup                |
           -------------------------------------------------

          program call               : xtb tsopted.xyz --gfn 2 --charge 0 --vfukui
          coordinate file            : tsopted.xyz
          omp threads                :                    12

   ID    Z sym.   atoms
    1   26 Fe     1
    2    6 C      2, 4, 8, 10, 12-14, 19, 20, 22-26, 34, 35, 42-45, 56-59
    3   46 Pd     3
    4    1 H      5-7, 15-18, 27, 29-32, 36-41, 46-54, 60-68
    5    8 O      9, 11, 21, 55
    6    7 N      28, 33

           -------------------------------------------------
          |                 G F N 2 - x T B                 |
           -------------------------------------------------

        Reference                      10.1021/acs.jctc.8b01176
      * Hamiltonian:
        H0-scaling (s, p, d)           1.850000    2.230000    2.230000
        zeta-weighting                 0.500000
      * Dispersion:
        s8                             2.700000
        a1                             0.520000
        a2                             5.000000
        s9                             5.000000
      * Repulsion:
        kExp                           1.500000    1.000000
        rExp                           1.000000
      * Coulomb:
        alpha                          2.000000
        third order                    shell-resolved
        anisotropic                    true
        a3                             3.000000
        a5                             4.000000
        cn-shift                       1.200000
        cn-exp                         4.000000
        max-rad                        5.000000


          ...................................................
          :                      SETUP                      :
          :.................................................:
          :  # basis functions                 176          :
          :  # atomic orbitals                 174          :
          :  # shells                          102          :
          :  # electrons                       184          :
          :  max. iterations                   250          :
          :  Hamiltonian                  GFN2-xTB          :
          :  restarted?                      false          :
          :  GBSA solvation                  false          :
          :  PC potential                    false          :
          :  electronic temp.          300.0000000     K    :
          :  accuracy                    1.0000000          :
          :  -> integral cutoff          0.2500000E+02      :
          :  -> integral neglect         0.1000000E-07      :
          :  -> SCF convergence          0.1000000E-05 Eh   :
          :  -> wf. convergence          0.1000000E-03 e    :
          :  Broyden damping             0.4000000          :
          ...................................................

 iter      E             dE          RMSdq      gap      omega  full diag
   1   -100.5727472 -0.100573E+03  0.792E+00    1.47       0.0  T
   2   -100.9267002 -0.353953E+00  0.392E+00    1.50       1.0  T
   3   -100.9694638 -0.427636E-01  0.229E+00    1.80       1.0  T
   4   -100.9760684 -0.660452E-02  0.124E+00    1.73       1.0  T
   5   -100.9771636 -0.109525E-02  0.827E-01    1.89       1.0  T
   6   -100.9852857 -0.812210E-02  0.543E-01    1.79       1.0  T
   7   -100.9883555 -0.306976E-02  0.319E-01    1.85       1.0  T
   8   -100.9890462 -0.690727E-03  0.916E-02    1.85       1.0  T
   9   -100.9890894 -0.431856E-04  0.611E-02    1.84       1.0  T
  10   -100.9891013 -0.119527E-04  0.284E-02    1.84       1.0  T
  11   -100.9891029 -0.158715E-05  0.152E-02    1.84       1.0  T
  12   -100.9891043 -0.132840E-05  0.792E-03    1.84       1.5  T
  13   -100.9891054 -0.113652E-05  0.313E-03    1.84       3.9  T
  14   -100.9891056 -0.151570E-06  0.109E-03    1.84      11.1  T
  15   -100.9891056 -0.103977E-07  0.560E-04    1.84      21.6  T
  16   -100.9891056 -0.195342E-08  0.294E-04    1.84      41.2  T

   *** convergence criteria satisfied after 16 iterations ***

         #    Occupation            Energy/Eh            Energy/eV
      -------------------------------------------------------------
         1        2.0000           -0.7770453             -21.1445
       ...           ...                  ...                  ...
        86        2.0000           -0.3503591              -9.5338
        87        2.0000           -0.3470401              -9.4434
        88        2.0000           -0.3432821              -9.3412
        89        2.0000           -0.3384424              -9.2095
        90        2.0000           -0.3371988              -9.1756
        91        2.0000           -0.3298856              -8.9766
        92        2.0000           -0.3129790              -8.5166 (HOMO)
        93                         -0.2453096              -6.6752 (LUMO)
        94                         -0.2295399              -6.2461
        95                         -0.2255253              -6.1369
        96                         -0.2011767              -5.4743
        97                         -0.1573520              -4.2818
       ...                                ...                  ...
       174                          6.3811933             173.6411
      -------------------------------------------------------------
                  HL-Gap            0.0676693 Eh            1.8414 eV
             Fermi-level           -0.2791443 Eh           -7.5959 eV

 SCC (total)                   0 d,  0 h,  0 min,  0.101 sec
 SCC setup                      ...        0 min,  0.005 sec (  4.711%)
 Dispersion                     ...        0 min,  0.002 sec (  2.337%)
 classical contributions        ...        0 min,  0.000 sec (  0.078%)
 integral evaluation            ...        0 min,  0.006 sec (  6.416%)
 iterations                     ...        0 min,  0.074 sec ( 73.927%)
 molecular gradient             ...        0 min,  0.010 sec (  9.660%)
 printout                       ...        0 min,  0.003 sec (  2.828%)

         :::::::::::::::::::::::::::::::::::::::::::::::::::::
         ::                     SUMMARY                     ::
         :::::::::::::::::::::::::::::::::::::::::::::::::::::
         :: total energy             -99.710729767281 Eh    ::
         :: gradient norm              0.000043387165 Eh/a0 ::
         :: HOMO-LUMO gap              1.841376289633 eV    ::
         ::.................................................::
         :: SCC energy              -100.989105562903 Eh    ::
         :: -> isotropic ES           -0.021109552618 Eh    ::
         :: -> anisotropic ES         -0.009929972279 Eh    ::
         :: -> anisotropic XC          0.033397386602 Eh    ::
         :: -> dispersion             -0.096260158664 Eh    ::
         :: repulsion energy           1.274801122000 Eh    ::
         :: add. restraining           0.000000000000 Eh    ::
         :: total charge               0.000000000000 e     ::
         :::::::::::::::::::::::::::::::::::::::::::::::::::::


Fukui index Calculation

 iter      E             dE          RMSdq      gap      omega  full diag
   1   -101.1265141 -0.101127E+03  0.676E-01    0.43       0.0  T
   2   -101.1470659 -0.205518E-01  0.672E-01    0.28       1.0  T
   3   -101.1559517 -0.888572E-02  0.353E-01    0.32       1.0  T
   4   -101.1546256  0.132607E-02  0.335E-01    0.36       1.0  T
   5   -101.1519414  0.268420E-02  0.297E-01    0.28       1.0  T
   6   -101.1566822 -0.474078E-02  0.131E-01    0.34       1.0  T
   7   -101.1569178 -0.235606E-03  0.576E-02    0.33       1.0  T
   8   -101.1569200 -0.224263E-05  0.336E-02    0.34       1.0  T
   9   -101.1569373 -0.172828E-04  0.122E-02    0.33       1.0  T
  10   -101.1569390 -0.167739E-05  0.713E-03    0.33       1.7  T
  11   -101.1569397 -0.757789E-06  0.421E-03    0.34       2.9  T
  12   -101.1569398 -0.942977E-07  0.272E-03    0.34       4.5  T
  13   -101.1569399 -0.486458E-07  0.166E-03    0.34       7.3  T
  14   -101.1569399 -0.248324E-07  0.406E-04    0.34      29.9  T
  15   -101.1569399 -0.227165E-08  0.185E-04    0.34      65.4  T
     SCC iter.                  ...        0 min,  0.064 sec
     gradient                   ...        0 min,  0.010 sec

 iter      E             dE          RMSdq      gap      omega  full diag
   1   -100.5516190 -0.100552E+03  0.907E-01    1.84       0.0  T
   2   -100.4077463  0.143873E+00  0.164E+00    1.21       1.0  T
   3   -100.5878022 -0.180056E+00  0.616E-01    1.93       1.0  T
   4   -100.5924282 -0.462603E-02  0.515E-01    1.93       1.0  T
   5   -100.5955157 -0.308747E-02  0.341E-01    1.93       1.0  T
   6   -100.5970688 -0.155313E-02  0.203E-01    1.90       1.0  T
   7   -100.5976925 -0.623748E-03  0.136E-01    1.91       1.0  T
   8   -100.5983193 -0.626789E-03  0.643E-02    1.91       1.0  T
   9   -100.5980719  0.247441E-03  0.623E-02    1.91       1.0  T
  10   -100.5979729  0.990225E-04  0.640E-02    1.91       1.0  T
  11   -100.5981111 -0.138233E-03  0.516E-02    1.91       1.0  T
  12   -100.5983208 -0.209689E-03  0.210E-02    1.91       1.0  T
  13   -100.5983567 -0.358937E-04  0.821E-03    1.91       1.5  T
  14   -100.5983605 -0.385916E-05  0.441E-03    1.91       2.7  T
  15   -100.5983597  0.837360E-06  0.432E-03    1.91       2.8  T
  16   -100.5983613 -0.157606E-05  0.817E-04    1.91      14.9  T
  17   -100.5983612  0.104643E-06  0.121E-03    1.91      10.0  T
  18   -100.5983613 -0.118241E-06  0.439E-04    1.91      27.6  T
  19   -100.5983613 -0.182731E-07  0.579E-05    1.91     209.6  T
     SCC iter.                  ...        0 min,  0.079 sec
     gradient                   ...        0 min,  0.010 sec

     #        f(+)     f(-)     f(0)
     1Fe     -0.086   -0.101   -0.093
     2C       0.001   -0.004   -0.001
     3Pd     -0.309   -0.218   -0.264
     4C       0.017    0.018    0.018
     5H      -0.038   -0.037   -0.038
     6H      -0.037   -0.038   -0.038
     7H      -0.030   -0.032   -0.031
     8C      -0.009   -0.009   -0.009
     9O      -0.052   -0.083   -0.067
    10C      -0.006   -0.007   -0.006
    11O      -0.024   -0.025   -0.024
    12C      -0.002    0.001   -0.001
    13C      -0.005   -0.006   -0.005
    14C      -0.003   -0.005   -0.004
    15H      -0.034   -0.032   -0.033
    16H      -0.042   -0.040   -0.041
    17H      -0.041   -0.040   -0.040
    18H      -0.001    0.001    0.000
    19C      -0.005   -0.002   -0.004
    20C       0.010   -0.004    0.003
    21O       0.011   -0.008    0.001
    22C       0.007    0.001    0.004
    23C      -0.001   -0.000   -0.001
    24C      -0.008   -0.007   -0.008
    25C      -0.006   -0.006   -0.006
    26C       0.003    0.003    0.003
    27H      -0.021   -0.020   -0.021
    28N       0.015    0.018    0.016
    29H      -0.032   -0.031   -0.032
    30H      -0.021   -0.019   -0.020
    31H      -0.040   -0.040   -0.040
    32H      -0.032   -0.032   -0.032
    33N       0.012    0.002    0.007
    34C       0.019    0.017    0.018
    35C       0.017    0.018    0.018
    36H      -0.035   -0.034   -0.035
    37H      -0.007   -0.009   -0.008
    38H      -0.012   -0.009   -0.011
    39H      -0.034   -0.033   -0.033
    40H      -0.014   -0.013   -0.013
    41H      -0.010   -0.011   -0.010
    42C       0.004    0.002    0.003
    43C       0.011    0.010    0.011
    44C       0.006    0.006    0.006
    45C       0.007    0.006    0.007
    46H      -0.014   -0.016   -0.015
    47H      -0.021   -0.022   -0.021
    48H       0.021    0.016    0.018
    49H      -0.002   -0.004   -0.003
    50H      -0.015   -0.017   -0.016
    51H      -0.010   -0.012   -0.011
    52H      -0.018   -0.020   -0.019
    53H      -0.007   -0.008   -0.008
    54H       0.001    0.004    0.003
    55O      -0.027   -0.023   -0.025
    56C       0.007    0.006    0.007
    57C       0.001    0.002    0.001
    58C       0.006    0.005    0.006
    59C       0.006    0.005    0.006
    60H      -0.007   -0.006   -0.007
    61H      -0.007   -0.005   -0.006
    62H      -0.017   -0.016   -0.016
    63H      -0.005   -0.003   -0.004
    64H      -0.019   -0.018   -0.018
    65H       0.003    0.002    0.003
    66H      -0.006   -0.006   -0.006
    67H      -0.018   -0.017   -0.018
    68H       0.003    0.002    0.003
           -------------------------------------------------
          |                Property Printout                |
           -------------------------------------------------

    * Orbital Energies and Occupations

         #    Occupation            Energy/Eh            Energy/eV
      -------------------------------------------------------------
         1        2.0000           -0.7770453             -21.1445
       ...           ...                  ...                  ...
        80        2.0000           -0.3881350             -10.5617
        81        2.0000           -0.3849989             -10.4764
        82        2.0000           -0.3833660             -10.4319
        83        2.0000           -0.3788408             -10.3088
        84        2.0000           -0.3631617              -9.8821
        85        2.0000           -0.3562985              -9.6954
        86        2.0000           -0.3503591              -9.5338
        87        2.0000           -0.3470401              -9.4434
        88        2.0000           -0.3432821              -9.3412
        89        2.0000           -0.3384424              -9.2095
        90        2.0000           -0.3371988              -9.1756
        91        2.0000           -0.3298856              -8.9766
        92        2.0000           -0.3129790              -8.5166 (HOMO)
        93                         -0.2453096              -6.6752 (LUMO)
        94                         -0.2295399              -6.2461
        95                         -0.2255253              -6.1369
        96                         -0.2011767              -5.4743
        97                         -0.1573520              -4.2818
        98                         -0.1498757              -4.0783
        99                         -0.1472159              -4.0059
       100                         -0.1439377              -3.9167
       101                         -0.1306583              -3.5554
       102                         -0.0214504              -0.5837
       103                         -0.0030101              -0.0819
       ...                                ...                  ...
       174                          6.3811933             173.6411
      -------------------------------------------------------------
                  HL-Gap            0.0676693 Eh            1.8414 eV
             Fermi-level           -0.2791443 Eh           -7.5959 eV

     #   Z          covCN         q      C6AA      α(0)
     1  26 Fe       9.278     1.296   110.951    18.575
     2   6 C        2.711     0.370    20.730     7.453
     3  46 Pd       4.179    -0.309   382.199    35.704
     4   6 C        3.799    -0.030    21.112     6.542
     5   1 H        0.927     0.043     2.412     2.429
     6   1 H        0.927     0.033     2.543     2.494
     7   1 H        0.927     0.037     2.488     2.466
     8   6 C        2.679     0.374    20.662     7.438
     9   8 O        0.856    -0.498    23.750     6.534
    10   6 C        4.042    -0.095    22.216     6.695
    11   8 O        1.650    -0.414    21.117     6.203
    12   6 C        3.901    -0.142    23.172     6.842
    13   6 C        3.868    -0.138    23.098     6.834
    14   6 C        3.858    -0.146    23.265     6.860
    15   1 H        0.927     0.044     2.390     2.418
    16   1 H        0.927     0.040     2.453     2.449
    17   1 H        0.927     0.032     2.553     2.498
    18   1 H        0.797     0.359     0.569     1.186
    19   6 C        3.794    -0.189    24.204     7.006
    20   6 C        3.821     0.020    20.229     6.401
    21   8 O        1.490    -0.428    21.536     6.257
    22   6 C        3.907    -0.112    22.577     6.754
    23   6 C        3.890    -0.144    23.206     6.848
    24   6 C        3.880    -0.141    23.163     6.843
    25   6 C        3.877    -0.139    23.128     6.838
    26   6 C        3.890    -0.133    22.989     6.816
    27   1 H        0.926     0.112     1.681     2.027
    28   7 N        2.656    -0.184    24.984     7.424
    29   1 H        0.924     0.030     2.587     2.516
    30   1 H        0.925     0.045     2.379     2.412
    31   1 H        0.923     0.039     2.458     2.452
    32   1 H        0.927     0.068     2.103     2.268
    33   7 N        3.471    -0.036    21.930     6.955
    34   6 C        3.814    -0.043    21.328     6.573
    35   6 C        3.717    -0.054    21.664     6.649
    36   1 H        0.923     0.031     2.570     2.507
    37   1 H        0.924     0.082     1.955     2.187
    38   1 H        0.924     0.102     1.765     2.078
    39   1 H        0.923     0.028     2.619     2.531
    40   1 H        0.924     0.090     1.882     2.146
    41   1 H        0.925     0.061     2.185     2.312
    42   6 C        3.851    -0.018    20.864     6.497
    43   6 C        3.753    -0.127    22.996     6.838
    44   6 C        3.803    -0.056    21.580     6.614
    45   6 C        3.751    -0.113    22.727     6.799
    46   1 H        0.925     0.029     2.595     2.519
    47   1 H        0.925     0.032     2.559     2.502
    48   1 H        0.924     0.067     2.119     2.277
    49   1 H        0.924     0.044     2.391     2.418
    50   1 H        0.924     0.026     2.641     2.542
    51   1 H        0.924     0.026     2.639     2.540
    52   1 H        0.925     0.026     2.637     2.540
    53   1 H        0.925     0.030     2.587     2.515
    54   1 H        0.925     0.070     2.089     2.260
    55   8 O        1.705    -0.273    18.532     5.812
    56   6 C        3.758    -0.120    22.850     6.815
    57   6 C        3.780     0.158    18.079     6.057
    58   6 C        3.756    -0.121    22.882     6.821
    59   6 C        3.756    -0.124    22.926     6.827
    60   1 H        0.925     0.056     2.251     2.346
    61   1 H        0.925     0.059     2.210     2.325
    62   1 H        0.925     0.049     2.330     2.387
    63   1 H        0.925     0.051     2.308     2.376
    64   1 H        0.925     0.045     2.380     2.413
    65   1 H        0.925     0.062     2.171     2.304
    66   1 H        0.925     0.047     2.353     2.399
    67   1 H        0.925     0.047     2.362     2.403
    68   1 H        0.925     0.063     2.162     2.299

 Mol. C6AA /au·bohr⁶  :      50442.884940
 Mol. C8AA /au·bohr⁸  :    1460634.293455
 Mol. α(0) /au        :        340.861439


Wiberg/Mayer (AO) data.
largest (>0.10) Wiberg bond orders for each atom

 ---------------------------------------------------------------------------
     #   Z sym  total        # sym  WBO       # sym  WBO       # sym  WBO
 ---------------------------------------------------------------------------
     1  26 Fe   1.272 --    10 C    0.242    14 C    0.238    13 C    0.236
                            12 C    0.236    23 C    0.219    25 C    0.218
                            24 C    0.217    26 C    0.207    19 C    0.183
                            22 C    0.160
     2   6 C    3.940 --     9 O    1.623    21 O    1.377    20 C    0.861
     3  46 Pd   3.568 --    19 C    0.852    28 N    0.556    21 O    0.456
                            33 N    0.431    22 C    0.231    12 C    0.113
                            10 C    0.109
     4   6 C    3.974 --    10 C    1.005    30 H    0.973    33 N    0.971
                            31 H    0.958
     5   1 H    0.997 --    24 C    0.984
     6   1 H    0.998 --    25 C    0.986
     7   1 H    0.997 --    26 C    0.958
     8   6 C    3.932 --    28 N    1.548    55 O    1.116    11 O    1.109
     9   8 O    1.955 --     2 C    1.623    21 O    0.203
    10   6 C    3.961 --    14 C    1.271    19 C    1.200     4 C    1.005
                             1 Fe   0.242     3 Pd   0.109
    11   8 O    2.132 --     8 C    1.109    18 H    0.708    28 N    0.122
    12   6 C    3.977 --    13 C    1.297    19 C    1.236    15 H    0.963
                             1 Fe   0.236     3 Pd   0.113
    13   6 C    3.973 --    14 C    1.297    12 C    1.297    16 H    0.983
                             1 Fe   0.236
    14   6 C    3.973 --    13 C    1.297    10 C    1.271    17 H    0.983
                             1 Fe   0.238
    15   1 H    0.996 --    12 C    0.963
    16   1 H    0.996 --    13 C    0.983
    17   1 H    0.997 --    14 C    0.983
    18   1 H    0.869 --    11 O    0.708
    19   6 C    3.809 --    12 C    1.236    10 C    1.200     3 Pd   0.852
                             1 Fe   0.183
    20   6 C    3.954 --    28 N    0.979    29 H    0.955    42 C    0.953
                             2 C    0.861
    21   8 O    2.187 --     2 C    1.377     3 Pd   0.456     9 O    0.203
    22   6 C    3.982 --    26 C    1.276    23 C    1.264    27 H    0.908
                             3 Pd   0.231     1 Fe   0.160
    23   6 C    3.974 --    24 C    1.316    22 C    1.264    32 H    0.964
                             1 Fe   0.219
    24   6 C    3.973 --    23 C    1.316    25 C    1.294     5 H    0.984
                             1 Fe   0.217
    25   6 C    3.975 --    26 C    1.312    24 C    1.294     6 H    0.986
                             1 Fe   0.218
    26   6 C    3.977 --    25 C    1.312    22 C    1.276     7 H    0.958
                             1 Fe   0.207
    27   1 H    0.986 --    22 C    0.908
    28   7 N    3.424 --     8 C    1.548    20 C    0.979     3 Pd   0.556
                            11 O    0.122    55 O    0.104
    29   1 H    0.998 --    20 C    0.955
    30   1 H    0.997 --     4 C    0.973
    31   1 H    0.996 --     4 C    0.958
    32   1 H    0.994 --    23 C    0.964
    33   7 N    3.473 --    35 C    0.997    34 C    0.986     4 C    0.971
                             3 Pd   0.431
    34   6 C    3.974 --    33 N    0.986    36 H    0.971    37 H    0.954
                            38 H    0.932
    35   6 C    3.971 --    33 N    0.997    39 H    0.973    40 H    0.963
                            41 H    0.962
    36   1 H    0.998 --    34 C    0.971
    37   1 H    0.992 --    34 C    0.954
    38   1 H    0.988 --    34 C    0.932
    39   1 H    0.997 --    35 C    0.973
    40   1 H    0.991 --    35 C    0.963
    41   1 H    0.995 --    35 C    0.962
    42   6 C    3.992 --    43 C    1.004    44 C    0.998    49 H    0.958
                            20 C    0.953
    43   6 C    3.993 --    42 C    1.004    46 H    0.985    47 H    0.982
                            48 H    0.942
    44   6 C    3.997 --    45 C    1.020    42 C    0.998    51 H    0.977
                            50 H    0.976
    45   6 C    3.992 --    44 C    1.020    53 H    0.988    52 H    0.988
                            54 H    0.975
    46   1 H    0.999 --    43 C    0.985
    47   1 H    0.998 --    43 C    0.982
    48   1 H    0.993 --    43 C    0.942
    49   1 H    0.997 --    42 C    0.958
    50   1 H    0.999 --    44 C    0.976
    51   1 H    0.999 --    44 C    0.977
    52   1 H    0.999 --    45 C    0.988
    53   1 H    0.999 --    45 C    0.988
    54   1 H    0.995 --    45 C    0.975
    55   8 O    2.278 --     8 C    1.116    57 C    0.896    28 N    0.104
    56   6 C    3.991 --    57 C    0.994    60 H    0.984    62 H    0.984
                            61 H    0.984
    57   6 C    3.915 --    58 C    0.995    59 C    0.995    56 C    0.994
                            55 O    0.896
    58   6 C    3.991 --    57 C    0.995    63 H    0.984    64 H    0.984
                            65 H    0.979
    59   6 C    3.992 --    57 C    0.995    66 H    0.985    67 H    0.984
                            68 H    0.980
    60   1 H    0.997 --    56 C    0.984
    61   1 H    0.996 --    56 C    0.984
    62   1 H    0.997 --    56 C    0.984
    63   1 H    0.997 --    58 C    0.984
    64   1 H    0.998 --    58 C    0.984
    65   1 H    0.996 --    58 C    0.979
    66   1 H    0.998 --    59 C    0.985
    67   1 H    0.998 --    59 C    0.984
    68   1 H    0.996 --    59 C    0.980
 ---------------------------------------------------------------------------

Topologies differ in total number of bonds
Writing topology from bond orders to xtbtopo.mol

molecular dipole:
                 x           y           z       tot (Debye)
 q only:       -1.890      -2.627      -2.251
   full:       -1.406      -2.912      -1.443       9.001
molecular quadrupole (traceless):
                xx          xy          yy          xz          yz          zz
 q only:       20.779     -11.743     -10.059     -15.256     -22.610     -10.720
  q+dip:       23.728      -9.089     -16.352     -19.087     -28.978      -7.377
   full:       22.250      -8.642     -12.986     -20.647     -26.100      -9.264


           -------------------------------------------------
          | TOTAL ENERGY              -99.710729767281 Eh   |
          | GRADIENT NORM               0.000043387165 Eh/α |
          | HOMO-LUMO GAP               1.841376289633 eV   |
           -------------------------------------------------

------------------------------------------------------------------------
 * finished run on 2024/10/14 at 09:48:32.279     
------------------------------------------------------------------------
 total:
 * wall-time:     0 d,  0 h,  0 min,  0.441 sec
 *  cpu-time:     0 d,  0 h,  0 min,  4.944 sec
 * ratio c/w:    11.216 speedup
 SCF:
 * wall-time:     0 d,  0 h,  0 min,  0.104 sec
 *  cpu-time:     0 d,  0 h,  0 min,  1.224 sec
 * ratio c/w:    11.786 speedup

