      -----------------------------------------------------------      
     |                   =====================                   |     
     |                           x T B                           |     
     |                   =====================                   |     
     |                         S. Grimme                         |     
     |          Mulliken Center for Theoretical Chemistry        |     
     |                    University of Bonn                     |     
      -----------------------------------------------------------      

   * xtb version 6.6.1 (8d0f1dd) compiled by 'stahn@M-Bot' on 2023-08-01

   xtb is free software: you can redistribute it and/or modify it under
   the terms of the GNU Lesser General Public License as published by
   the Free Software Foundation, either version 3 of the License, or
   (at your option) any later version.
   
   xtb is distributed in the hope that it will be useful,
   but WITHOUT ANY WARRANTY; without even the implied warranty of
   MERCHANTABILITY or FITNESS FOR A PARTICULAR PURPOSE.  See the
   GNU Lesser General Public License for more details.
   
   Cite this work as:
   * C. Bannwarth, E. Caldeweyher, S. Ehlert, A. Hansen, P. Pracht,
     J. Seibert, S. Spicher, S. Grimme, WIREs Comput. Mol. Sci., 2020, 11,
     e01493. DOI: 10.1002/wcms.1493
   
   for GFN2-xTB:
   * C. Bannwarth, S. Ehlert and S. Grimme., J. Chem. Theory Comput., 2019,
     15, 1652-1671. DOI: 10.1021/acs.jctc.8b01176
   for GFN1-xTB:
   * S. Grimme, C. Bannwarth, P. Shushkov, J. Chem. Theory Comput., 2017,
     13, 1989-2009. DOI: 10.1021/acs.jctc.7b00118
   for GFN0-xTB:
   * P. Pracht, E. Caldeweyher, S. Ehlert, S. Grimme, ChemRxiv, 2019, preprint.
     DOI: 10.26434/chemrxiv.8326202.v1
   for GFN-FF:
   * S. Spicher and S. Grimme, Angew. Chem. Int. Ed., 2020, 59, 15665-15673.
     DOI: 10.1002/anie.202004239
   
   for ALPB and GBSA implicit solvation:
   * S. Ehlert, M. Stahn, S. Spicher, S. Grimme, J. Chem. Theory Comput.,
     2021, 17, 4250-4261. DOI: 10.1021/acs.jctc.1c00471
   
   for DFT-D4:
   * E. Caldeweyher, C. Bannwarth and S. Grimme, J. Chem. Phys., 2017,
     147, 034112. DOI: 10.1063/1.4993215
   * E. Caldeweyher, S. Ehlert, A. Hansen, H. Neugebauer, S. Spicher,
     C. Bannwarth and S. Grimme, J. Chem. Phys., 2019, 150, 154122.
     DOI: 10.1063/1.5090222
   * E. Caldeweyher, J.-M. Mewes, S. Ehlert and S. Grimme, Phys. Chem. Chem. Phys.
     2020, 22, 8499-8512. DOI: 10.1039/D0CP00502A
   
   for sTDA-xTB:
   * S. Grimme and C. Bannwarth, J. Chem. Phys., 2016, 145, 054103.
     DOI: 10.1063/1.4959605
   
   in the mass-spec context:
   * V. Asgeirsson, C. Bauer and S. Grimme, Chem. Sci., 2017, 8, 4879.
     DOI: 10.1039/c7sc00601b
   * J. Koopman and S. Grimme, ACS Omega 2019, 4, 12, 15120-15133.
     DOI: 10.1021/acsomega.9b02011
   
   for metadynamics refer to:
   * S. Grimme, J. Chem. Theory Comput., 2019, 155, 2847-2862
     DOI: 10.1021/acs.jctc.9b00143
   
   for SPH calculations refer to:
   * S. Spicher and S. Grimme, J. Chem. Theory Comput., 2021, 17, 1701-1714
     DOI: 10.1021/acs.jctc.0c01306
   
   with help from (in alphabetical order)
   P. Atkinson, C. Bannwarth, F. Bohle, G. Brandenburg, E. Caldeweyher
   M. Checinski, S. Dohm, S. Ehlert, S. Ehrlich, I. Gerasimov, C. Hölzer
   A. Katbashev, J. Koopman, C. Lavigne, S. Lehtola, F. März, M. Müller,
   F. Musil, H. Neugebauer, J. Pisarek, C. Plett, P. Pracht, F. Pultar,
   J. Seibert, P. Shushkov, S. Spicher, M. Stahn, M. Steiner, T. Strunk,
   J. Stückrath, T. Rose, and J. Unsleber
   
 * started run on 2024/10/14 at 09:48:32.336     

           -------------------------------------------------
          |                Calculation Setup                |
           -------------------------------------------------

          program call               : xtb tsopted.xyz --gfn 2 --charge 0 --vipea
          coordinate file            : tsopted.xyz
          omp threads                :                    12

   ID    Z sym.   atoms
    1   26 Fe     1
    2    6 C      2, 4, 8, 10, 12-14, 19, 20, 22-26, 34, 35, 42-45, 56-59
    3   46 Pd     3
    4    1 H      5-7, 15-18, 27, 29-32, 36-41, 46-54, 60-68
    5    8 O      9, 11, 21, 55
    6    7 N      28, 33

           -------------------------------------------------
          |                 G F N 2 - x T B                 |
           -------------------------------------------------

        Reference                      10.1021/acs.jctc.8b01176
      * Hamiltonian:
        H0-scaling (s, p, d)           1.850000    2.230000    2.230000
        zeta-weighting                 0.500000
      * Dispersion:
        s8                             2.700000
        a1                             0.520000
        a2                             5.000000
        s9                             5.000000
      * Repulsion:
        kExp                           1.500000    1.000000
        rExp                           1.000000
      * Coulomb:
        alpha                          2.000000
        third order                    shell-resolved
        anisotropic                    true
        a3                             3.000000
        a5                             4.000000
        cn-shift                       1.200000
        cn-exp                         4.000000
        max-rad                        5.000000

q/qsh data taken from xtbrestart
CAMM data taken from xtbrestart

          ...................................................
          :                      SETUP                      :
          :.................................................:
          :  # basis functions                 176          :
          :  # atomic orbitals                 174          :
          :  # shells                          102          :
          :  # electrons                       184          :
          :  max. iterations                   250          :
          :  Hamiltonian                  GFN2-xTB          :
          :  restarted?                       true          :
          :  GBSA solvation                  false          :
          :  PC potential                    false          :
          :  electronic temp.          300.0000000     K    :
          :  accuracy                    1.0000000          :
          :  -> integral cutoff          0.2500000E+02      :
          :  -> integral neglect         0.1000000E-07      :
          :  -> SCF convergence          0.1000000E-05 Eh   :
          :  -> wf. convergence          0.1000000E-03 e    :
          :  Broyden damping             0.4000000          :
          ...................................................

 iter      E             dE          RMSdq      gap      omega  full diag
   1   -100.9891056 -0.100989E+03  0.186E-04    1.84       0.0  T
   2   -100.9891056 -0.125169E-09  0.130E-04    1.84      93.3  T
   3   -100.9891056 -0.163013E-09  0.103E-04    1.84     117.5  T

   *** convergence criteria satisfied after 3 iterations ***

         #    Occupation            Energy/Eh            Energy/eV
      -------------------------------------------------------------
         1        2.0000           -0.7770503             -21.1446
       ...           ...                  ...                  ...
        86        2.0000           -0.3503603              -9.5338
        87        2.0000           -0.3470416              -9.4435
        88        2.0000           -0.3432832              -9.3412
        89        2.0000           -0.3384444              -9.2095
        90        2.0000           -0.3372009              -9.1757
        91        2.0000           -0.3298859              -8.9767
        92        2.0000           -0.3129810              -8.5166 (HOMO)
        93                         -0.2453114              -6.6753 (LUMO)
        94                         -0.2295416              -6.2461
        95                         -0.2255271              -6.1369
        96                         -0.2011774              -5.4743
        97                         -0.1573539              -4.2818
       ...                                ...                  ...
       174                          6.3811917             173.6411
      -------------------------------------------------------------
                  HL-Gap            0.0676695 Eh            1.8414 eV
             Fermi-level           -0.2791462 Eh           -7.5960 eV

 SCC (total)                   0 d,  0 h,  0 min,  0.041 sec
 SCC setup                      ...        0 min,  0.003 sec (  7.799%)
 Dispersion                     ...        0 min,  0.001 sec (  2.475%)
 classical contributions        ...        0 min,  0.000 sec (  0.333%)
 integral evaluation            ...        0 min,  0.006 sec ( 14.021%)
 iterations                     ...        0 min,  0.017 sec ( 42.587%)
 molecular gradient             ...        0 min,  0.009 sec ( 23.030%)
 printout                       ...        0 min,  0.004 sec (  9.660%)

         :::::::::::::::::::::::::::::::::::::::::::::::::::::
         ::                     SUMMARY                     ::
         :::::::::::::::::::::::::::::::::::::::::::::::::::::
         :: total energy             -99.710729767665 Eh    ::
         :: gradient norm              0.000043428143 Eh/a0 ::
         :: HOMO-LUMO gap              1.841382021926 eV    ::
         ::.................................................::
         :: SCC energy              -100.989105563287 Eh    ::
         :: -> isotropic ES           -0.021111997865 Eh    ::
         :: -> anisotropic ES         -0.009929541402 Eh    ::
         :: -> anisotropic XC          0.033397522557 Eh    ::
         :: -> dispersion             -0.096260142664 Eh    ::
         :: repulsion energy           1.274801122000 Eh    ::
         :: add. restraining           0.000000000000 Eh    ::
         :: total charge              -0.000000000000 e     ::
         :::::::::::::::::::::::::::::::::::::::::::::::::::::

           ------------------------------------------------- 
          |        vertical delta SCC IP calculation        |
           ------------------------------------------------- 

 iter      E             dE          RMSdq      gap      omega  full diag
   1   -100.5516144 -0.100552E+03  0.908E-01    1.84       0.0  T
   2   -100.4077375  0.143877E+00  0.164E+00    1.21       1.0  T
   3   -100.5878019 -0.180064E+00  0.616E-01    1.93       1.0  T
   4   -100.5924274 -0.462543E-02  0.515E-01    1.93       1.0  T
   5   -100.5955161 -0.308880E-02  0.341E-01    1.93       1.0  T
   6   -100.5970695 -0.155335E-02  0.203E-01    1.90       1.0  T
   7   -100.5976913 -0.621786E-03  0.136E-01    1.91       1.0  T
   8   -100.5983190 -0.627751E-03  0.643E-02    1.91       1.0  T
   9   -100.5980685  0.250560E-03  0.626E-02    1.91       1.0  T
  10   -100.5979715  0.969550E-04  0.641E-02    1.91       1.0  T
  11   -100.5981112 -0.139697E-03  0.516E-02    1.91       1.0  T
  12   -100.5983208 -0.209555E-03  0.210E-02    1.91       1.0  T
  13   -100.5983567 -0.359162E-04  0.820E-03    1.91       1.5  T
  14   -100.5983605 -0.385354E-05  0.441E-03    1.91       2.7  T
  15   -100.5983597  0.833976E-06  0.432E-03    1.91       2.8  T
  16   -100.5983613 -0.157307E-05  0.818E-04    1.91      14.8  T
  17   -100.5983612  0.104220E-06  0.121E-03    1.91      10.0  T
  18   -100.5983613 -0.118037E-06  0.439E-04    1.91      27.6  T
  19   -100.5983613 -0.182677E-07  0.580E-05    1.91     209.3  T
     SCC iter.                  ...        0 min,  0.090 sec
     gradient                   ...        0 min,  0.009 sec
------------------------------------------------------------------------
empirical IP shift (eV):    4.8455
delta SCC IP (eV):    5.7872
------------------------------------------------------------------------
           ------------------------------------------------- 
          |        vertical delta SCC EA calculation        |
           ------------------------------------------------- 

 iter      E             dE          RMSdq      gap      omega  full diag
   1   -101.0469571 -0.101047E+03  0.120E+00    0.44       0.0  T
   2   -101.1081087 -0.611516E-01  0.143E+00    0.48       1.0  T
   3   -101.1511241 -0.430154E-01  0.704E-01    0.29       1.0  T
   4   -101.1417553  0.936880E-02  0.754E-01    0.54       1.0  T
   5   -101.1530056 -0.112503E-01  0.433E-01    0.28       1.0  T
   6   -101.1565183 -0.351275E-02  0.199E-01    0.32       1.0  T
   7   -101.1568778 -0.359513E-03  0.105E-01    0.34       1.0  T
   8   -101.1569075 -0.296240E-04  0.531E-02    0.33       1.0  T
   9   -101.1569313 -0.238164E-04  0.228E-02    0.33       1.0  T
  10   -101.1569374 -0.611187E-05  0.139E-02    0.33       1.0  T
  11   -101.1569393 -0.194697E-05  0.752E-03    0.34       1.6  T
  12   -101.1569392  0.119676E-06  0.514E-03    0.33       2.4  T
  13   -101.1569394 -0.132704E-06  0.385E-03    0.34       3.2  T
  14   -101.1569399 -0.495804E-06  0.122E-03    0.34      10.0  T
  15   -101.1569399 -0.309931E-07  0.683E-04    0.34      17.8  T
  16   -101.1569399 -0.212916E-07  0.173E-04    0.34      70.1  T
     SCC iter.                  ...        0 min,  0.062 sec
     gradient                   ...        0 min,  0.011 sec
------------------------------------------------------------------------
empirical EA shift (eV):    4.8455
delta SCC EA (eV):   -0.2785
------------------------------------------------------------------------
           -------------------------------------------------
          |                Property Printout                |
           -------------------------------------------------

    * Orbital Energies and Occupations

         #    Occupation            Energy/Eh            Energy/eV
      -------------------------------------------------------------
         1        2.0000           -0.6345725             -17.2676
       ...           ...                  ...                  ...
        81        2.0000           -0.2424920              -6.5985
        82        2.0000           -0.2360120              -6.4222
        83        2.0000           -0.2290680              -6.2333
        84        2.0000           -0.2197390              -5.9794
        85        2.0000           -0.2105792              -5.7302
        86        2.0000           -0.1982221              -5.3939
        87        2.0000           -0.1903323              -5.1792
        88        2.0000           -0.1882856              -5.1235
        89        2.0000           -0.1822091              -4.9582
        90        2.0000           -0.1813236              -4.9341
        91        2.0000           -0.1782793              -4.8512
        92        2.0000           -0.1567552              -4.2655
        93        0.9985           -0.0903772              -2.4593 (HOMO)
        94        0.0015           -0.0780607              -2.1241 (LUMO)
        95        0.0000           -0.0742573              -2.0206
        96                         -0.0662358              -1.8024
        97                         -0.0224791              -0.6117
        98                         -0.0112915              -0.3073
        99                         -0.0043056              -0.1172
       100                         -0.0019837              -0.0540
       101                          0.0226375               0.6160
       102                          0.0822716               2.2387
       103                          0.1316706               3.5829
       104                          0.1585849               4.3153
       ...                                ...                  ...
       174                          6.5084683             177.1044
      -------------------------------------------------------------
                  HL-Gap            0.0123165 Eh            0.3351 eV
             Fermi-level           -0.1038969 Eh           -2.8272 eV

     #   Z          covCN         q      C6AA      α(0)
     1  26 Fe       9.278     1.210   111.957    18.659
     2   6 C        2.711     0.371    20.709     7.449
     3  46 Pd       4.179    -0.618   401.786    36.607
     4   6 C        3.799    -0.013    20.803     6.494
     5   1 H        0.927     0.005     2.973     2.696
     6   1 H        0.927    -0.004     3.131     2.767
     7   1 H        0.927     0.007     2.931     2.677
     8   6 C        2.679     0.365    20.816     7.466
     9   8 O        0.856    -0.550    24.924     6.693
    10   6 C        4.042    -0.101    22.334     6.713
    11   8 O        1.650    -0.437    21.586     6.272
    12   6 C        3.901    -0.144    23.214     6.849
    13   6 C        3.868    -0.143    23.196     6.849
    14   6 C        3.858    -0.149    23.330     6.869
    15   1 H        0.927     0.010     2.888     2.657
    16   1 H        0.927    -0.003     3.103     2.754
    17   1 H        0.927    -0.008     3.206     2.800
    18   1 H        0.797     0.358     0.571     1.188
    19   6 C        3.794    -0.194    24.319     7.022
    20   6 C        3.821     0.029    20.069     6.375
    21   8 O        1.490    -0.417    21.326     6.227
    22   6 C        3.907    -0.105    22.436     6.733
    23   6 C        3.890    -0.145    23.231     6.852
    24   6 C        3.880    -0.149    23.328     6.867
    25   6 C        3.877    -0.145    23.245     6.855
    26   6 C        3.890    -0.130    22.937     6.809
    27   1 H        0.926     0.091     1.870     2.138
    28   7 N        2.656    -0.169    24.660     7.375
    29   1 H        0.924    -0.002     3.097     2.752
    30   1 H        0.925     0.025     2.665     2.553
    31   1 H        0.923    -0.000     3.062     2.736
    32   1 H        0.927     0.036     2.503     2.474
    33   7 N        3.471    -0.024    21.696     6.918
    34   6 C        3.814    -0.023    20.982     6.520
    35   6 C        3.717    -0.036    21.349     6.601
    36   1 H        0.923    -0.004     3.129     2.766
    37   1 H        0.924     0.075     2.030     2.228
    38   1 H        0.924     0.090     1.880     2.144
    39   1 H        0.923    -0.006     3.163     2.781
    40   1 H        0.924     0.076     2.019     2.222
    41   1 H        0.925     0.051     2.307     2.375
    42   6 C        3.851    -0.014    20.799     6.487
    43   6 C        3.753    -0.116    22.783     6.806
    44   6 C        3.803    -0.050    21.475     6.598
    45   6 C        3.751    -0.106    22.588     6.778
    46   1 H        0.925     0.016     2.800     2.617
    47   1 H        0.925     0.011     2.873     2.651
    48   1 H        0.924     0.088     1.899     2.155
    49   1 H        0.924     0.043     2.413     2.429
    50   1 H        0.924     0.011     2.873     2.651
    51   1 H        0.924     0.016     2.796     2.615
    52   1 H        0.925     0.008     2.921     2.673
    53   1 H        0.925     0.023     2.690     2.565
    54   1 H        0.925     0.071     2.073     2.252
    55   8 O        1.705    -0.300    18.996     5.885
    56   6 C        3.758    -0.113    22.708     6.794
    57   6 C        3.780     0.159    18.060     6.054
    58   6 C        3.756    -0.115    22.756     6.802
    59   6 C        3.756    -0.118    22.806     6.809
    60   1 H        0.925     0.048     2.341     2.393
    61   1 H        0.925     0.052     2.293     2.368
    62   1 H        0.925     0.032     2.552     2.498
    63   1 H        0.925     0.046     2.369     2.407
    64   1 H        0.925     0.027     2.634     2.538
    65   1 H        0.925     0.066     2.134     2.285
    66   1 H        0.925     0.042     2.428     2.437
    67   1 H        0.925     0.029     2.606     2.525
    68   1 H        0.925     0.067     2.124     2.279

 Mol. C6AA /au·bohr⁶  :      51926.079584
 Mol. C8AA /au·bohr⁸  :    1495975.724307
 Mol. α(0) /au        :        346.132107


Wiberg/Mayer (AO) data.
largest (>0.10) Wiberg bond orders for each atom

 ---------------------------------------------------------------------------
     #   Z sym  total        # sym  WBO       # sym  WBO       # sym  WBO
 ---------------------------------------------------------------------------
     1  26 Fe   1.379 --    10 C    0.264    12 C    0.261    14 C    0.237
                            13 C    0.227    23 C    0.225    26 C    0.206
                            25 C    0.201    24 C    0.187    19 C    0.130
                            22 C    0.128
     2   6 C    3.941 --     9 O    1.574    21 O    1.426    20 C    0.858
     3  46 Pd   3.490 --    19 C    0.809    28 N    0.463    21 O    0.405
                            33 N    0.349    22 C    0.250    12 C    0.112
                            10 C    0.105
     4   6 C    3.976 --    10 C    0.999    30 H    0.975    33 N    0.974
                            31 H    0.960
     5   1 H    0.999 --    24 C    0.988
     6   1 H    0.999 --    25 C    0.989
     7   1 H    0.998 --    26 C    0.960
     8   6 C    3.923 --    28 N    1.580    11 O    1.101    55 O    1.065
     9   8 O    1.903 --     2 C    1.574    21 O    0.210
    10   6 C    3.949 --    14 C    1.265    19 C    1.188     4 C    0.999
                             1 Fe   0.264     3 Pd   0.105
    11   8 O    2.107 --     8 C    1.101    18 H    0.683    28 N    0.122
    12   6 C    3.969 --    13 C    1.295    19 C    1.212    15 H    0.964
                             1 Fe   0.261     3 Pd   0.112
    13   6 C    3.969 --    14 C    1.297    12 C    1.295    16 H    0.986
                             1 Fe   0.227
    14   6 C    3.968 --    13 C    1.297    10 C    1.265    17 H    0.984
                             1 Fe   0.237
    15   1 H    0.998 --    12 C    0.964
    16   1 H    0.997 --    13 C    0.986
    17   1 H    0.998 --    14 C    0.984
    18   1 H    0.870 --    11 O    0.683
    19   6 C    3.696 --    12 C    1.212    10 C    1.188     3 Pd   0.809
                             1 Fe   0.130
    20   6 C    3.961 --    28 N    0.989    29 H    0.959    42 C    0.956
                             2 C    0.858
    21   8 O    2.182 --     2 C    1.426     3 Pd   0.405     9 O    0.210
    22   6 C    3.978 --    26 C    1.279    23 C    1.262    27 H    0.914
                             3 Pd   0.250     1 Fe   0.128
    23   6 C    3.972 --    24 C    1.308    22 C    1.262    32 H    0.968
                             1 Fe   0.225
    24   6 C    3.966 --    23 C    1.308    25 C    1.306     5 H    0.988
                             1 Fe   0.187
    25   6 C    3.967 --    24 C    1.306    26 C    1.302     6 H    0.989
                             1 Fe   0.201
    26   6 C    3.973 --    25 C    1.302    22 C    1.279     7 H    0.960
                             1 Fe   0.206
    27   1 H    0.990 --    22 C    0.914
    28   7 N    3.378 --     8 C    1.580    20 C    0.989     3 Pd   0.463
                            11 O    0.122
    29   1 H    0.998 --    20 C    0.959
    30   1 H    0.998 --     4 C    0.975
    31   1 H    0.998 --     4 C    0.960
    32   1 H    0.997 --    23 C    0.968
    33   7 N    3.419 --    35 C    1.004    34 C    0.992     4 C    0.974
                             3 Pd   0.349
    34   6 C    3.983 --    33 N    0.992    36 H    0.971    37 H    0.956
                            38 H    0.937
    35   6 C    3.982 --    33 N    1.004    39 H    0.973    40 H    0.966
                            41 H    0.964
    36   1 H    0.999 --    34 C    0.971
    37   1 H    0.993 --    34 C    0.956
    38   1 H    0.991 --    34 C    0.937
    39   1 H    0.999 --    35 C    0.973
    40   1 H    0.993 --    35 C    0.966
    41   1 H    0.996 --    35 C    0.964
    42   6 C    3.993 --    43 C    1.004    44 C    0.998    49 H    0.959
                            20 C    0.956
    43   6 C    3.990 --    42 C    1.004    46 H    0.986    47 H    0.983
                            48 H    0.939
    44   6 C    3.998 --    45 C    1.019    42 C    0.998    51 H    0.977
                            50 H    0.977
    45   6 C    3.993 --    44 C    1.019    53 H    0.989    52 H    0.989
                            54 H    0.974
    46   1 H    0.999 --    43 C    0.986
    47   1 H    0.999 --    43 C    0.983
    48   1 H    0.990 --    43 C    0.939
    49   1 H    0.997 --    42 C    0.959
    50   1 H    1.000 --    44 C    0.977
    51   1 H    0.999 --    44 C    0.977
    52   1 H    1.000 --    45 C    0.989
    53   1 H    0.999 --    45 C    0.989
    54   1 H    0.995 --    45 C    0.974
    55   8 O    2.235 --     8 C    1.065    57 C    0.915
    56   6 C    3.995 --    57 C    0.994    62 H    0.986    60 H    0.985
                            61 H    0.985
    57   6 C    3.932 --    58 C    0.994    56 C    0.994    59 C    0.994
                            55 O    0.915
    58   6 C    3.993 --    57 C    0.994    64 H    0.986    63 H    0.985
                            65 H    0.979
    59   6 C    3.993 --    57 C    0.994    66 H    0.986    67 H    0.985
                            68 H    0.979
    60   1 H    0.998 --    56 C    0.985
    61   1 H    0.997 --    56 C    0.985
    62   1 H    0.998 --    56 C    0.986
    63   1 H    0.998 --    58 C    0.985
    64   1 H    0.999 --    58 C    0.986
    65   1 H    0.996 --    58 C    0.979
    66   1 H    0.998 --    59 C    0.986
    67   1 H    0.999 --    59 C    0.985
    68   1 H    0.996 --    59 C    0.979
 ---------------------------------------------------------------------------

Topologies differ in total number of bonds
Writing topology from bond orders to xtbtopo.mol

molecular dipole:
                 x           y           z       tot (Debye)
 q only:       -0.461      -2.436      -2.106
   full:       -0.008      -2.570      -1.378       7.411
molecular quadrupole (traceless):
                xx          xy          yy          xz          yz          zz
 q only:        4.227     -14.714      -0.990     -18.361     -20.478      -3.236
  q+dip:        9.433     -11.583      -8.817     -22.068     -27.734      -0.616
   full:        8.121     -10.932      -5.684     -23.651     -25.239      -2.437


           -------------------------------------------------
          | TOTAL ENERGY              -99.878564114724 Eh   |
          | GRADIENT NORM               0.098963694798 Eh/α |
          | HOMO-LUMO GAP               0.335149742487 eV   |
           -------------------------------------------------

------------------------------------------------------------------------
 * finished run on 2024/10/14 at 09:48:32.764     
------------------------------------------------------------------------
 total:
 * wall-time:     0 d,  0 h,  0 min,  0.427 sec
 *  cpu-time:     0 d,  0 h,  0 min,  4.734 sec
 * ratio c/w:    11.079 speedup
 SCF:
 * wall-time:     0 d,  0 h,  0 min,  0.229 sec
 *  cpu-time:     0 d,  0 h,  0 min,  2.712 sec
 * ratio c/w:    11.846 speedup

