%chk=1-modopt.chk
#p opt=(modredundant,nomicro) external='./xtb.sh'

Generate automatically by rxnb

0 1
Fe          -3.578440        4.458410        0.576250
C           -3.431470       -2.127610       -1.057200
Pd          -4.083140        0.575480       -0.467580
C           -5.778270        2.831330       -1.138880
H           -4.150060        7.234580        0.466410
H           -3.995380        5.849370       -1.856280
H           -1.903170        4.128240       -1.660490
C           -1.287400        0.599160        0.000060
O           -3.491160       -3.281660       -1.426600
C           -5.099290        3.194740        0.141580
O           -1.424630        1.867340        0.000120
C           -3.675560        2.879080        1.926980
C           -4.614520        3.888340        2.284130
C           -5.518060        4.062670        1.190700
H           -2.835300        2.549440        2.535850
H           -4.629390        4.448750        3.217690
H           -6.355610        4.758060        1.152750
H           -2.718930        2.128320        0.070650
C           -3.948960        2.425540        0.588140
C           -2.264210       -1.660050       -0.152760
O           -4.343730       -1.222840       -1.340710
C           -2.211830        4.857010       -0.913760
C           -3.317910        5.754560       -1.009020
C           -3.399820        6.486340        0.216730
C           -2.340520        6.042620        1.065880
C           -1.609300        5.032790        0.370230
H           -0.768420        4.461530        0.755510
N           -2.322940       -0.211540       -0.005830
H           -1.326400       -1.948290       -0.652460
H           -5.151770        3.091490       -2.003900
H           -6.755960        3.331730       -1.259880
H           -2.149640        6.384010        2.061830
N           -5.942600        1.370690       -1.159310
C           -6.091830        0.745670       -2.422290
C           -6.731460        0.823420       -0.099370
H           -6.998540        0.091710       -2.507640
H           -6.068870        1.508900       -3.244810
H           -5.217270        0.077560       -2.634530
H           -7.715330        1.340650       -0.079880
H           -6.822840       -0.263910       -0.117780
H           -6.234730        1.126290        0.868820
C           -2.340240       -2.400760        1.172370
C           -2.290050       -3.721260        0.591780
C           -1.057090       -3.991420       -0.258790
H           -2.267350       -1.491650        0.866360
H           -1.621510       -2.237630        1.996600
H           -2.460940       -4.505320        1.339710
H           -3.156500       -3.701580       -0.090070
H           -0.212490       -4.318840        0.349110
H           -1.366750       -4.783050       -0.981000
H           -0.855050       -3.085350       -0.861520
O            0.000000        0.000000        0.000000
C            2.368720        0.000000       -0.000000
C            1.126420        0.841020        0.000000
C            1.004410        1.759090       -1.163780
C            1.122290        1.643780        1.293210
H            2.100510       -0.970940        0.502060
H            2.786720       -0.181780       -0.998560
H            3.150810        0.449130        0.668740
H            1.450060        1.401060       -2.097950
H            1.371780        2.797030       -0.929300
H           -0.092540        1.910070       -1.392230
H            0.273330        1.327120        1.939480
H            2.042180        1.476920        1.891450
H            1.103450        2.725340        1.054360

B 11 18 F
B 18 19 F
B 3 19 F
B 3 33 F
B 3 28 F
B 3 21 F

