%chk=3-tsopt.chk
#p opt(ts,calcfc,noeigen,nomicro) external='./xtb.sh'

Generate automatically by rxnb

0 1
Fe          -1.995740        0.886840       -0.145560
C            1.985590       -1.710980       -1.352550
Pd          -0.201130       -1.048880        0.260730
C           -2.983160       -1.671050        0.445460
H           -3.945230        0.063130       -1.763210
H           -1.482760       -0.938730       -2.201770
H            0.241260        1.038230       -1.871530
C            1.441790        1.214930        0.223930
O            2.696930       -2.001470       -2.297040
C           -2.686650       -0.372470        1.094430
O            0.296680        1.748600        0.444680
C           -1.706230        1.546340        1.729620
C           -2.962590        1.863540        1.240410
C           -3.602270        0.667770        0.886790
H           -1.006380        2.302350        2.003720
H           -3.323040        2.852980        1.085820
H           -4.552860        0.582740        0.414300
H           -0.646400        0.848470        0.665300
C           -1.409110        0.143700        1.554500
C            2.571040       -0.951590       -0.117180
O            0.742860       -1.976230       -1.260160
C           -0.815690        1.112750       -1.746570
C           -1.730880        0.059050       -1.906070
C           -3.022460        0.595710       -1.743890
C           -2.900840        1.962660       -1.451340
C           -1.536060        2.271610       -1.418950
H           -1.139260        3.183560       -1.048860
N            1.518100       -0.061710        0.286120
H            3.488310       -0.415400       -0.378860
H           -3.315060       -1.399890       -0.557210
H           -3.790310       -2.221820        0.955550
H           -3.696440        2.603890       -1.157520
N           -1.783170       -2.484400        0.330590
C           -1.883850       -3.446760       -0.754300
C           -1.492760       -3.176980        1.582630
H           -2.643410       -4.210830       -0.538730
H           -2.153470       -2.939160       -1.678610
H           -0.920590       -3.931650       -0.905820
H           -2.260860       -3.935110        1.799950
H           -0.523120       -3.677510        1.511720
H           -1.471470       -2.457520        2.402710
C            2.796020       -1.958940        1.024650
C            3.633920       -3.173200        0.627670
C            5.025660       -2.791110        0.138040
H            1.790870       -2.297990        1.357720
H            3.267680       -1.438310        1.863960
H            3.719260       -3.833160        1.496600
H            3.124350       -3.724740       -0.165170
H            5.523900       -2.142750        0.856900
H            5.633700       -3.682270       -0.002250
H            4.954390       -2.275470       -0.815520
O            2.531910        1.936530       -0.071970
C            3.941960        3.797010       -0.266480
C            2.556820        3.352160        0.203380
C            1.463750        4.091840       -0.567550
C            2.394640        3.576040        1.707770
H            4.708900        3.220390        0.243250
H            4.041140        3.630050       -1.335420
H            4.088410        4.851810       -0.053710
H            1.468880        3.783380       -1.609970
H            1.640860        5.162450       -0.513230
H            0.495400        3.855870       -0.134360
H            3.183130        3.060080        2.250750
H            2.445010        4.637540        1.932930
H            1.433180        3.187070        2.033910


