%chk=4-tsfreq.chk
#p freq external='./xtb.sh'

Generate automatically by rxnb

0 1
Fe           2.000190        1.036430       -0.001360
C           -1.936880       -1.692890        1.279500
Pd           0.344140       -0.972540       -0.214290
C            3.258850       -1.377720       -0.273650
H            4.126070        0.720370        1.607610
H            1.792420       -0.419000        2.371270
H           -0.131570        1.291740        1.843700
C           -1.653970        1.093920       -0.386600
O           -2.763220       -1.988990        2.125210
C            2.845340       -0.260770       -1.146360
O           -0.685840        1.899740       -0.419490
C            1.426760        1.316380       -1.853700
C            2.639630        1.944080       -1.586090
C            3.538480        0.960480       -1.136170
H            0.546850        1.859240       -2.107430
H            2.788830        2.997630       -1.575290
H            4.515010        1.126830       -0.745330
H            0.560940        0.822860       -0.114500
C            1.508480       -0.090870       -1.604870
C           -2.390960       -1.208730       -0.137040
O           -0.673870       -1.718130        1.445730
C            0.899680        1.431860        1.605750
C            1.938240        0.523550        1.897270
C            3.147510        1.137620        1.546140
C            2.864250        2.412980        1.023520
C            1.478150        2.584670        1.032710
H            0.946650        3.341090        0.506800
N           -1.441380       -0.182330       -0.502900
H           -3.409070       -0.811000       -0.087450
H            3.648810       -0.894750        0.619430
H            4.033030       -2.027330       -0.708150
H            3.574370        3.070200        0.582400
N            2.068840       -2.150560        0.086850
C            2.236510       -2.822130        1.371060
C            1.791830       -3.167580       -0.929530
H            2.886570       -3.701840        1.278820
H            2.689350       -2.147660        2.094250
H            1.262350       -3.134660        1.747620
H            2.600170       -3.914630       -0.966500
H            0.859050       -3.685370       -0.684830
H            1.708130       -2.699250       -1.911710
C           -2.295580       -2.357380       -1.157010
C           -2.945710       -3.658970       -0.688540
C           -4.429910       -3.495170       -0.383990
H           -1.216750       -2.537400       -1.357780
H           -2.754850       -2.028590       -2.094450
H           -2.811770       -4.414690       -1.469540
H           -2.442810       -4.014950        0.213890
H           -4.947580       -3.034970       -1.223840
H           -4.884280       -4.463930       -0.186430
H           -4.558510       -2.872670        0.497100
O           -2.932550        1.494680       -0.248300
C           -4.754550        2.921700        0.102430
C           -3.232560        2.887390       -0.045600
C           -2.562270        3.393450        1.233930
C           -2.792500        3.714340       -1.255280
H           -5.223450        2.532600       -0.797380
H           -5.056950        2.302150        0.942340
H           -5.091460        3.940680        0.269120
H           -2.832840        2.751160        2.069310
H           -2.892150        4.406600        1.446090
H           -1.482160        3.384140        1.114960
H           -3.257740        3.326780       -2.158770
H           -3.088820        4.750710       -1.119360
H           -1.712440        3.658020       -1.363440


