65
charge 0 multiplicity 1
Fe          -1.99574   0.88684  -0.14556
C            1.98559  -1.71098  -1.35255
Pd          -0.20113  -1.04888   0.26073
C           -2.98316  -1.67105   0.44546
H           -3.94523   0.06313  -1.76321
H           -1.48276  -0.93873  -2.20177
H            0.24126   1.03823  -1.87153
C            1.44179   1.21493   0.22393
O            2.69693  -2.00147  -2.29704
C           -2.68665  -0.37247   1.09443
O            0.29668   1.74860   0.44468
C           -1.70623   1.54634   1.72962
C           -2.96259   1.86354   1.24041
C           -3.60227   0.66777   0.88679
H           -1.00638   2.30235   2.00372
H           -3.32304   2.85298   1.08582
H           -4.55286   0.58274   0.41430
H           -0.64640   0.84847   0.66530
C           -1.40911   0.14370   1.55450
C            2.57104  -0.95159  -0.11718
O            0.74286  -1.97623  -1.26016
C           -0.81569   1.11275  -1.74657
C           -1.73088   0.05905  -1.90607
C           -3.02246   0.59571  -1.74389
C           -2.90084   1.96266  -1.45134
C           -1.53606   2.27161  -1.41895
H           -1.13926   3.18356  -1.04886
N            1.51810  -0.06171   0.28612
H            3.48831  -0.41540  -0.37886
H           -3.31506  -1.39989  -0.55721
H           -3.79031  -2.22182   0.95555
H           -3.69644   2.60389  -1.15752
N           -1.78317  -2.48440   0.33059
C           -1.88385  -3.44676  -0.75430
C           -1.49276  -3.17698   1.58263
H           -2.64341  -4.21083  -0.53873
H           -2.15347  -2.93916  -1.67861
H           -0.92059  -3.93165  -0.90582
H           -2.26086  -3.93511   1.79995
H           -0.52312  -3.67751   1.51172
H           -1.47147  -2.45752   2.40271
C            2.79602  -1.95894   1.02465
C            3.63392  -3.17320   0.62767
C            5.02566  -2.79111   0.13804
H            1.79087  -2.29799   1.35772
H            3.26768  -1.43831   1.86396
H            3.71926  -3.83316   1.49660
H            3.12435  -3.72474  -0.16517
H            5.52390  -2.14275   0.85690
H            5.63370  -3.68227  -0.00225
H            4.95439  -2.27547  -0.81552
O            2.53191   1.93653  -0.07197
C            3.94196   3.79701  -0.26648
C            2.55682   3.35216   0.20338
C            1.46375   4.09184  -0.56755
C            2.39464   3.57604   1.70777
H            4.70890   3.22039   0.24325
H            4.04114   3.63005  -1.33542
H            4.08841   4.85181  -0.05371
H            1.46888   3.78338  -1.60997
H            1.64086   5.16245  -0.51323
H            0.49540   3.85587  -0.13436
H            3.18313   3.06008   2.25075
H            2.44501   4.63754   1.93293
H            1.43318   3.18707   2.03391