%chk=1-modopt.chk
#p opt=(modredundant,nomicro) external='./xtb.sh'

Generate automatically by rxnb

0 1
C           -0.140840        1.072690        5.185690
C           -2.381280        1.855320        6.147110
C           -1.044510        1.203970        6.307360
C            0.900900        0.169960        5.625530
C            0.678990       -0.172580        6.990290
C           -0.533980        0.454460        7.413090
H            1.749360       -0.134200        5.016110
H            1.308660       -0.817900        7.600390
H           -1.007450        0.342470        8.387370
H           -3.066600        1.600850        6.974460
N           -2.990920        1.470570        4.834610
H           -2.271390        2.950380        6.127880
C           -1.121650       -2.615780        4.879380
C           -1.585260       -2.674630        6.230170
C           -2.634810       -1.719580        6.377940
C           -2.804700       -1.040360        5.124690
C           -1.883520       -1.629960        4.192790
H           -0.324390       -3.217910        4.448160
H           -1.202450       -3.328380        7.011730
H           -3.182420       -1.504820        7.294680
H           -1.765280       -1.336770        3.151960
Fe          -0.928990       -0.752620        5.812680
C           -3.691760        0.142670        4.869800
H           -4.482770        0.193980        5.639660
H           -4.179170        0.040280        3.890780
C           -3.958630        2.495330        4.387890
H           -4.309000        2.238120        3.381320
H           -4.812480        2.554790        5.087000
H           -3.459610        3.471220        4.340790
Pd          -1.379300        1.383470        3.433690
O           -2.621760        1.460900        1.851400
N           -0.002780        1.453170        2.009850
C           -2.055890        1.286640        0.674840
C           -0.507370        1.274930        0.653860
C            1.162380        1.993570        2.305240
O           -2.681410        1.133920       -0.352490
O            1.494130        2.272580        3.500200
H            0.495700        1.826210        4.285880
H           -0.199880        2.133140        0.031580
O            2.031210        2.245420        1.210660
C            2.436540        4.500870        1.942330
C            3.016980        3.164560        1.529220
C            3.958930        2.648330        2.596060
C            3.829060        3.395370        0.271000
H            2.122660        5.014180        0.992060
H            3.206790        5.090170        2.477010
H            1.525550        4.318040        2.559770
H            4.300250        3.543000        3.182400
H            4.875660        2.220160        2.142570
H            3.463030        1.978640        3.315970
H            4.627820        4.159100        0.419890
H            3.113860        3.669520       -0.526370
H            4.253970        2.409690       -0.011910
C            0.000000        0.000000        0.000000
H            1.111240        0.000000        0.000000
H           -0.346060       -0.864370        0.619450
H           -0.402210       -0.084930       -1.033430

B 38 37 F
B 38 1 F
B 30 11 F
B 30 1 F
B 30 32 F
B 30 31 F

