%chk=1-modopt.chk
#p opt=(modredundant,nomicro) external='./xtb.sh'

Generate automatically by rxnb

0 1
Fe          -3.590170        4.396850        0.982710
C           -3.544790       -1.922650       -1.529610
Pd          -4.090470        0.702010       -0.609740
C           -6.134780        2.464890        0.426000
H           -4.478340        6.626780        2.497080
H           -5.027480        4.136230        3.410540
H           -2.827410        2.597810        3.007750
C           -1.287400        0.599160        0.000060
O           -3.655940       -2.952100       -2.162700
C           -5.024830        3.365980       -0.002580
O           -1.474200        1.751040        0.509630
C           -2.983680        3.880140       -0.938940
C           -3.793870        5.050850       -0.978710
C           -5.070750        4.725540       -0.429060
H           -1.940540        3.818240       -1.242700
H           -3.486730        6.029940       -1.343060
H           -5.919500        5.400320       -0.325730
H           -2.726690        2.095700        0.266230
C           -3.722670        2.806900       -0.325620
C           -2.189500       -1.499560       -0.922790
O           -4.565460       -1.142270       -1.239760
C           -1.914650        4.472350        2.179000
C           -2.451200        5.784940        2.010250
C           -3.791490        5.782220        2.504330
C           -4.081080        4.467470        2.985900
C           -2.921310        3.658870        2.784980
H           -0.931830        4.130380        1.863780
N           -2.262700       -0.084520       -0.558080
H           -1.408820       -1.659410       -1.683820
H           -5.963400        2.072190        1.438460
H           -7.119050        2.967060        0.413420
H           -1.948810        6.616820        1.562540
N           -6.136220        1.308810       -0.481940
C           -6.660660        1.499260       -1.784530
C           -6.427290        0.047250        0.125530
H           -7.460940        0.767620       -2.069730
H           -7.017590        2.555260       -1.915080
H           -5.853920        1.378370       -2.553180
H           -7.388270        0.128070        0.678610
H           -6.400840       -0.802000       -0.559340
H           -5.651780       -0.115520        0.930480
C           -1.879650       -2.389030        0.270200
C           -1.869240       -3.622060       -0.480050
C           -0.865060       -3.657990       -1.623280
H           -1.956000       -1.448700        0.082130
H           -0.995990       -2.242440        0.918420
H           -1.789120       -4.499530        0.173390
H           -2.875170       -3.620350       -0.931880
H            0.125920       -3.957650       -1.279390
H           -1.278830       -4.392070       -2.354090
H           -0.889110       -2.673020       -2.127580
O            0.000000        0.000000        0.000000
C            2.368720       -0.000000        0.000000
C            1.126420        0.841020        0.000000
C            1.004410        1.759090       -1.163780
C            1.122290        1.643780        1.293210
H            2.100510       -0.970940        0.502060
H            2.786720       -0.181780       -0.998560
H            3.150810        0.449130        0.668740
H            1.450060        1.401060       -2.097950
H            1.371780        2.797030       -0.929300
H           -0.092540        1.910070       -1.392230
H            0.273330        1.327120        1.939480
H            2.042180        1.476920        1.891450
H            1.103450        2.725340        1.054360

B 11 18 F
B 18 19 F
B 3 19 F
B 3 33 F
B 3 28 F
B 3 21 F

