 Entering Gaussian System, Link 0=g16
 Input=2-modfreq.gjf
 Output=2-modfreq.log
 Initial command:
 /home/echo/g16/l1.exe "/home/echo/scratch/Gau-8889.inp" -scrdir="/home/echo/scratch/"
 Entering Link 1 = /home/echo/g16/l1.exe PID=      8891.
  
 Copyright (c) 1988-2019, Gaussian, Inc.  All Rights Reserved.
  
 This is part of the Gaussian(R) 16 program.  It is based on
 the Gaussian(R) 09 system (copyright 2009, Gaussian, Inc.),
 the Gaussian(R) 03 system (copyright 2003, Gaussian, Inc.),
 the Gaussian(R) 98 system (copyright 1998, Gaussian, Inc.),
 the Gaussian(R) 94 system (copyright 1995, Gaussian, Inc.),
 the Gaussian 92(TM) system (copyright 1992, Gaussian, Inc.),
 the Gaussian 90(TM) system (copyright 1990, Gaussian, Inc.),
 the Gaussian 88(TM) system (copyright 1988, Gaussian, Inc.),
 the Gaussian 86(TM) system (copyright 1986, Carnegie Mellon
 University), and the Gaussian 82(TM) system (copyright 1983,
 Carnegie Mellon University). Gaussian is a federally registered
 trademark of Gaussian, Inc.
  
 This software contains proprietary and confidential information,
 including trade secrets, belonging to Gaussian, Inc.
  
 This software is provided under written license and may be
 used, copied, transmitted, or stored only in accord with that
 written license.
  
 The following legend is applicable only to US Government
 contracts under FAR:
  
                    RESTRICTED RIGHTS LEGEND
  
 Use, reproduction and disclosure by the US Government is
 subject to restrictions as set forth in subparagraphs (a)
 and (c) of the Commercial Computer Software - Restricted
 Rights clause in FAR 52.227-19.
  
 Gaussian, Inc.
 340 Quinnipiac St., Bldg. 40, Wallingford CT 06492
  
  
 ---------------------------------------------------------------
 Warning -- This program may not be used in any manner that
 competes with the business of Gaussian, Inc. or will provide
 assistance to any competitor of Gaussian, Inc.  The licensee
 of this program is prohibited from giving any competitor of
 Gaussian, Inc. access to this program.  By using this program,
 the user acknowledges that Gaussian, Inc. is engaged in the
 business of creating and licensing software in the field of
 computational chemistry and represents and warrants to the
 licensee that it is not a competitor of Gaussian, Inc. and that
 it will not use this program in any manner prohibited above.
 ---------------------------------------------------------------
  

 Cite this work as:
 Gaussian 16, Revision C.01,
 M. J. Frisch, G. W. Trucks, H. B. Schlegel, G. E. Scuseria, 
 M. A. Robb, J. R. Cheeseman, G. Scalmani, V. Barone, 
 G. A. Petersson, H. Nakatsuji, X. Li, M. Caricato, A. V. Marenich, 
 J. Bloino, B. G. Janesko, R. Gomperts, B. Mennucci, H. P. Hratchian, 
 J. V. Ortiz, A. F. Izmaylov, J. L. Sonnenberg, D. Williams-Young, 
 F. Ding, F. Lipparini, F. Egidi, J. Goings, B. Peng, A. Petrone, 
 T. Henderson, D. Ranasinghe, V. G. Zakrzewski, J. Gao, N. Rega, 
 G. Zheng, W. Liang, M. Hada, M. Ehara, K. Toyota, R. Fukuda, 
 J. Hasegawa, M. Ishida, T. Nakajima, Y. Honda, O. Kitao, H. Nakai, 
 T. Vreven, K. Throssell, J. A. Montgomery, Jr., J. E. Peralta, 
 F. Ogliaro, M. J. Bearpark, J. J. Heyd, E. N. Brothers, K. N. Kudin, 
 V. N. Staroverov, T. A. Keith, R. Kobayashi, J. Normand, 
 K. Raghavachari, A. P. Rendell, J. C. Burant, S. S. Iyengar, 
 J. Tomasi, M. Cossi, J. M. Millam, M. Klene, C. Adamo, R. Cammi, 
 J. W. Ochterski, R. L. Martin, K. Morokuma, O. Farkas, 
 J. B. Foresman, and D. J. Fox, Gaussian, Inc., Wallingford CT, 2019.
 
 ******************************************
 Gaussian 16:  ES64L-G16RevC.01  3-Jul-2019
                14-Oct-2024 
 ******************************************
 %chk=2-modfreq.chk
 ---------------------------
 #p freq external='./xtb.sh'
 ---------------------------
 1/10=4,18=10,30=1,38=1/1,3;
 2/12=2,17=6,18=5,40=1/2;
 3/11=9,25=1,30=1,41=9900000,43=2,71=2,140=1/1;
 4/20=17,22=2,24=3,113=1,114=1/2;
 6/7=2,8=2,9=2,10=2/1;
 7/8=1,25=1,44=-1/16;
 1/10=4,18=10,30=1/3;
 99//99;
 Leave Link    1 at Mon Oct 14 19:19:42 2024, MaxMem=           0 cpu:               0.0 elap:               0.0
 (Enter /home/echo/g16/l101.exe)
 ------------------------------
 Generate automatically by rxnb
 ------------------------------
 Symbolic Z-matrix:
 Charge =  0 Multiplicity = 1
 Fe                    2.19356  -0.48064  -0.72129 
 C                    -0.79421  -0.97972   2.49948 
 Pd                    0.35638   0.59326   0.56055 
 C                     2.55038   2.23736  -0.59782 
 H                     4.33455  -1.81631  -1.5212 
 H                     4.65812   0.13378   0.20955 
 H                     2.67194  -0.09329   2.06609 
 C                    -2.196     0.40015  -0.28374 
 O                    -0.85539  -1.69372   3.48534 
 C                     2.00932   1.25442  -1.56896 
 O                    -1.83121   1.37931  -1.01912 
 C                     0.84165  -0.58963  -2.11708 
 C                     2.13693  -0.74324  -2.63914 
 C                     2.87457   0.39983  -2.28632 
 H                     0.08501  -1.34398  -2.15381 
 H                     2.52412  -1.62249  -3.1007 
 H                     3.9271    0.52812  -2.40703 
 H                    -0.57117   1.17702  -1.36283 
 C                     0.69011   0.71218  -1.56572 
 C                    -1.57111  -1.42258   1.20308 
 O                    -0.15212   0.1223    2.44298 
 C                     1.98131  -1.73655   0.7918 
 C                     2.54059  -2.3475   -0.33845 
 C                     3.71782  -1.64428  -0.66965 
 C                     3.87551  -0.59091   0.25287 
 C                     2.81101  -0.64972   1.16457 
 H                     1.15439  -2.08181   1.37079 
 N                    -1.31881  -0.42244   0.20822 
 H                    -2.63415  -1.47852   1.47015 
 H                     3.56661   1.89046  -0.40848 
 H                     2.58972   3.27272  -0.96335 
 H                     2.09647  -3.12103  -0.92325 
 N                     1.79361   2.17198   0.66839 
 C                     0.73576   3.19429   0.68527 
 C                     2.68033   2.41548   1.79869 
 H                     1.17148   4.20519   0.7123 
 H                     0.11264   3.11442  -0.21008 
 H                     0.11207   3.06094   1.57866 
 H                     3.0305    3.45642   1.81287 
 H                     2.14635   2.21447   2.72755 
 H                     3.54793   1.76417   1.7366 
 C                    -1.08234  -2.78145   0.6753 
 C                    -2.16225  -3.59409  -0.03967 
 C                    -2.61272  -2.9588   -1.34904 
 H                    -0.71423  -3.36639   1.52131 
 H                    -0.26019  -2.57812  -0.02608 
 H                    -1.76307  -4.59101  -0.24528 
 H                    -3.02251  -3.71399   0.62161 
 H                    -1.76632  -2.82792  -2.02121 
 H                    -3.34907  -3.58845  -1.84465 
 H                    -3.06059  -1.98754  -1.16582 
 O                    -3.48944   0.12112  -0.07042 
 C                    -5.81806   0.31397  -0.04153 
 C                    -4.5412    0.97024  -0.5699 
 C                    -4.39515   2.38358  -0.0054 
 C                    -4.54178   0.98045  -2.09924 
 H                    -5.89454  -0.70388  -0.41522 
 H                    -5.79658   0.28033   1.04459 
 H                    -6.68809   0.8783   -0.36378 
 H                    -4.32956   2.34306   1.08014 
 H                    -5.25755   2.9821   -0.28539 
 H                    -3.4965    2.85355  -0.39641 
 H                    -4.61271  -0.03681  -2.47897 
 H                    -5.39265   1.55185  -2.4596 
 H                    -3.62704   1.43167  -2.47384 
 
 ITRead=  0  0  0  0  0  0  0  0  0  0  0  0  0  0  0  0  0  0  0  0
 ITRead=  0  0  0  0  0  0  0  0  0  0  0  0  0  0  0  0  0  0  0  0
 ITRead=  0  0  0  0  0  0  0  0  0  0  0  0  0  0  0  0  0  0  0  0
 ITRead=  0  0  0  0  0
 MicOpt= -1 -1 -1 -1 -1 -1 -1 -1 -1 -1 -1 -1 -1 -1 -1 -1 -1 -1 -1 -1
 MicOpt= -1 -1 -1 -1 -1 -1 -1 -1 -1 -1 -1 -1 -1 -1 -1 -1 -1 -1 -1 -1
 MicOpt= -1 -1 -1 -1 -1 -1 -1 -1 -1 -1 -1 -1 -1 -1 -1 -1 -1 -1 -1 -1
 MicOpt= -1 -1 -1 -1 -1
 NAtoms=     65 NQM=       65 NQMF=       0 NMMI=      0 NMMIF=      0
                NMic=       0 NMicF=      0.
                    Isotopes and Nuclear Properties:
 (Nuclear quadrupole moments (NQMom) in fm**2, nuclear magnetic moments (NMagM)
  in nuclear magnetons)

  Atom         1           2           3           4           5           6           7           8           9          10
 IAtWgt=          56          12         106          12           1           1           1          12          16          12
 AtmWgt=  55.9349393  12.0000000 105.9032000  12.0000000   1.0078250   1.0078250   1.0078250  12.0000000  15.9949146  12.0000000
 NucSpn=           0           0           0           0           1           1           1           0           0           0
 AtZEff=  -0.0000000  -0.0000000  -0.0000000  -0.0000000  -0.0000000  -0.0000000  -0.0000000  -0.0000000  -0.0000000  -0.0000000
 NQMom=    0.0000000   0.0000000   0.0000000   0.0000000   0.0000000   0.0000000   0.0000000   0.0000000   0.0000000   0.0000000
 NMagM=    0.0000000   0.0000000   0.0000000   0.0000000   2.7928460   2.7928460   2.7928460   0.0000000   0.0000000   0.0000000
 AtZNuc=  26.0000000   6.0000000  46.0000000   6.0000000   1.0000000   1.0000000   1.0000000   6.0000000   8.0000000   6.0000000

  Atom        11          12          13          14          15          16          17          18          19          20
 IAtWgt=          16          12          12          12           1           1           1           1          12          12
 AtmWgt=  15.9949146  12.0000000  12.0000000  12.0000000   1.0078250   1.0078250   1.0078250   1.0078250  12.0000000  12.0000000
 NucSpn=           0           0           0           0           1           1           1           1           0           0
 AtZEff=  -0.0000000  -0.0000000  -0.0000000  -0.0000000  -0.0000000  -0.0000000  -0.0000000  -0.0000000  -0.0000000  -0.0000000
 NQMom=    0.0000000   0.0000000   0.0000000   0.0000000   0.0000000   0.0000000   0.0000000   0.0000000   0.0000000   0.0000000
 NMagM=    0.0000000   0.0000000   0.0000000   0.0000000   2.7928460   2.7928460   2.7928460   2.7928460   0.0000000   0.0000000
 AtZNuc=   8.0000000   6.0000000   6.0000000   6.0000000   1.0000000   1.0000000   1.0000000   1.0000000   6.0000000   6.0000000

  Atom        21          22          23          24          25          26          27          28          29          30
 IAtWgt=          16          12          12          12          12          12           1          14           1           1
 AtmWgt=  15.9949146  12.0000000  12.0000000  12.0000000  12.0000000  12.0000000   1.0078250  14.0030740   1.0078250   1.0078250
 NucSpn=           0           0           0           0           0           0           1           2           1           1
 AtZEff=  -0.0000000  -0.0000000  -0.0000000  -0.0000000  -0.0000000  -0.0000000  -0.0000000  -0.0000000  -0.0000000  -0.0000000
 NQMom=    0.0000000   0.0000000   0.0000000   0.0000000   0.0000000   0.0000000   0.0000000   2.0440000   0.0000000   0.0000000
 NMagM=    0.0000000   0.0000000   0.0000000   0.0000000   0.0000000   0.0000000   2.7928460   0.4037610   2.7928460   2.7928460
 AtZNuc=   8.0000000   6.0000000   6.0000000   6.0000000   6.0000000   6.0000000   1.0000000   7.0000000   1.0000000   1.0000000

  Atom        31          32          33          34          35          36          37          38          39          40
 IAtWgt=           1           1          14          12          12           1           1           1           1           1
 AtmWgt=   1.0078250   1.0078250  14.0030740  12.0000000  12.0000000   1.0078250   1.0078250   1.0078250   1.0078250   1.0078250
 NucSpn=           1           1           2           0           0           1           1           1           1           1
 AtZEff=  -0.0000000  -0.0000000  -0.0000000  -0.0000000  -0.0000000  -0.0000000  -0.0000000  -0.0000000  -0.0000000  -0.0000000
 NQMom=    0.0000000   0.0000000   2.0440000   0.0000000   0.0000000   0.0000000   0.0000000   0.0000000   0.0000000   0.0000000
 NMagM=    2.7928460   2.7928460   0.4037610   0.0000000   0.0000000   2.7928460   2.7928460   2.7928460   2.7928460   2.7928460
 AtZNuc=   1.0000000   1.0000000   7.0000000   6.0000000   6.0000000   1.0000000   1.0000000   1.0000000   1.0000000   1.0000000

  Atom        41          42          43          44          45          46          47          48          49          50
 IAtWgt=           1          12          12          12           1           1           1           1           1           1
 AtmWgt=   1.0078250  12.0000000  12.0000000  12.0000000   1.0078250   1.0078250   1.0078250   1.0078250   1.0078250   1.0078250
 NucSpn=           1           0           0           0           1           1           1           1           1           1
 AtZEff=  -0.0000000  -0.0000000  -0.0000000  -0.0000000  -0.0000000  -0.0000000  -0.0000000  -0.0000000  -0.0000000  -0.0000000
 NQMom=    0.0000000   0.0000000   0.0000000   0.0000000   0.0000000   0.0000000   0.0000000   0.0000000   0.0000000   0.0000000
 NMagM=    2.7928460   0.0000000   0.0000000   0.0000000   2.7928460   2.7928460   2.7928460   2.7928460   2.7928460   2.7928460
 AtZNuc=   1.0000000   6.0000000   6.0000000   6.0000000   1.0000000   1.0000000   1.0000000   1.0000000   1.0000000   1.0000000

  Atom        51          52          53          54          55          56          57          58          59          60
 IAtWgt=           1          16          12          12          12          12           1           1           1           1
 AtmWgt=   1.0078250  15.9949146  12.0000000  12.0000000  12.0000000  12.0000000   1.0078250   1.0078250   1.0078250   1.0078250
 NucSpn=           1           0           0           0           0           0           1           1           1           1
 AtZEff=  -0.0000000  -0.0000000  -0.0000000  -0.0000000  -0.0000000  -0.0000000  -0.0000000  -0.0000000  -0.0000000  -0.0000000
 NQMom=    0.0000000   0.0000000   0.0000000   0.0000000   0.0000000   0.0000000   0.0000000   0.0000000   0.0000000   0.0000000
 NMagM=    2.7928460   0.0000000   0.0000000   0.0000000   0.0000000   0.0000000   2.7928460   2.7928460   2.7928460   2.7928460
 AtZNuc=   1.0000000   8.0000000   6.0000000   6.0000000   6.0000000   6.0000000   1.0000000   1.0000000   1.0000000   1.0000000

  Atom        61          62          63          64          65
 IAtWgt=           1           1           1           1           1
 AtmWgt=   1.0078250   1.0078250   1.0078250   1.0078250   1.0078250
 NucSpn=           1           1           1           1           1
 AtZEff=  -0.0000000  -0.0000000  -0.0000000  -0.0000000  -0.0000000
 NQMom=    0.0000000   0.0000000   0.0000000   0.0000000   0.0000000
 NMagM=    2.7928460   2.7928460   2.7928460   2.7928460   2.7928460
 AtZNuc=   1.0000000   1.0000000   1.0000000   1.0000000   1.0000000
 Leave Link  101 at Mon Oct 14 19:19:42 2024, MaxMem=   104857600 cpu:               0.0 elap:               0.1
 (Enter /home/echo/g16/l103.exe)

 GradGradGradGradGradGradGradGradGradGradGradGradGradGradGradGradGradGrad
 Berny optimization.
 Initialization pass.
 Trust Radius=3.00D-01 FncErr=1.00D-07 GrdErr=1.00D-07 EigMax=2.50D+02 EigMin=1.00D-04
 Number of steps in this run=      2 maximum allowed number of steps=      2.
 GradGradGradGradGradGradGradGradGradGradGradGradGradGradGradGradGradGrad

 Leave Link  103 at Mon Oct 14 19:19:42 2024, MaxMem=   104857600 cpu:               0.0 elap:               0.0
 (Enter /home/echo/g16/l202.exe)
 Stoichiometry    C23H34FeN2O4Pd
 Framework group  C1[X(C23H34FeN2O4Pd)]
 Deg. of freedom   189
 Full point group                 C1      NOp   1
 Largest Abelian subgroup         C1      NOp   1
 Largest concise Abelian subgroup C1      NOp   1
                         Standard orientation:                         
 ---------------------------------------------------------------------
 Center     Atomic      Atomic             Coordinates (Angstroms)
 Number     Number       Type             X           Y           Z
 ---------------------------------------------------------------------
      1         26           0       -2.193561    0.480641   -0.721290
      2          6           0        0.794209    0.979720    2.499480
      3         46           0       -0.356381   -0.593260    0.560550
      4          6           0       -2.550382   -2.237359   -0.597820
      5          1           0       -4.334551    1.816312   -1.521200
      6          1           0       -4.658121   -0.133778    0.209550
      7          1           0       -2.671941    0.093291    2.066090
      8          6           0        2.195999   -0.400150   -0.283740
      9          8           0        0.855389    1.693720    3.485340
     10          6           0       -2.009322   -1.254419   -1.568960
     11          8           0        1.831208   -1.379310   -1.019120
     12          6           0       -0.841651    0.589631   -2.117080
     13          6           0       -2.136931    0.743241   -2.639140
     14          6           0       -2.874571   -0.399829   -2.286320
     15          1           0       -0.085011    1.343980   -2.153810
     16          1           0       -2.524121    1.622491   -3.100700
     17          1           0       -3.927101   -0.528118   -2.407030
     18          1           0        0.571168   -1.177020   -1.362830
     19          6           0       -0.690111   -0.712179   -1.565720
     20          6           0        1.571109    1.422580    1.203080
     21          8           0        0.152119   -0.122300    2.442980
     22          6           0       -1.981311    1.736551    0.791800
     23          6           0       -2.540590    2.347501   -0.338450
     24          6           0       -3.717821    1.644282   -0.669650
     25          6           0       -3.875511    0.590912    0.252870
     26          6           0       -2.811011    0.649721    1.164570
     27          1           0       -1.154390    2.081811    1.370790
     28          7           0        1.318809    0.422440    0.208220
     29          1           0        2.634149    1.478519    1.470150
     30          1           0       -3.566612   -1.890458   -0.408480
     31          1           0       -2.589722   -3.272719   -0.963350
     32          1           0       -2.096470    3.121031   -0.923250
     33          7           0       -1.793612   -2.171979    0.668390
     34          6           0       -0.735762   -3.194289    0.685270
     35          6           0       -2.680332   -2.415479    1.798690
     36          1           0       -1.171483   -4.205189    0.712300
     37          1           0       -0.112642   -3.114420   -0.210080
     38          1           0       -0.112072   -3.060940    1.578660
     39          1           0       -3.030502   -3.456419    1.812870
     40          1           0       -2.146352   -2.214469    2.727550
     41          1           0       -3.547932   -1.764168    1.736600
     42          6           0        1.082340    2.781450    0.675300
     43          6           0        2.162250    3.594090   -0.039670
     44          6           0        2.612720    2.958799   -1.349040
     45          1           0        0.714230    3.366390    1.521310
     46          1           0        0.260190    2.578120   -0.026080
     47          1           0        1.763070    4.591010   -0.245280
     48          1           0        3.022510    3.713989    0.621610
     49          1           0        1.766320    2.827920   -2.021210
     50          1           0        3.349070    3.588449   -1.844650
     51          1           0        3.060590    1.987539   -1.165820
     52          8           0        3.489439   -0.121121   -0.070420
     53          6           0        5.818059   -0.313972   -0.041530
     54          6           0        4.541198   -0.970241   -0.569900
     55          6           0        4.395148   -2.383581   -0.005400
     56          6           0        4.541778   -0.980451   -2.099240
     57          1           0        5.894539    0.703878   -0.415220
     58          1           0        5.796579   -0.280332    1.044590
     59          1           0        6.688089   -0.878302   -0.363780
     60          1           0        4.329558   -2.343061    1.080140
     61          1           0        5.257548   -2.982102   -0.285390
     62          1           0        3.496498   -2.853551   -0.396410
     63          1           0        4.612709    0.036809   -2.478970
     64          1           0        5.392648   -1.551852   -2.459600
     65          1           0        3.627038   -1.431671   -2.473840
 ---------------------------------------------------------------------
 Rotational constants (GHZ):           0.2204436           0.1169048           0.1083086
 Leave Link  202 at Mon Oct 14 19:19:42 2024, MaxMem=   104857600 cpu:               0.0 elap:               0.0
 (Enter /home/echo/g16/l301.exe)
 Standard basis: STO-3G (5D, 7F)
 Ernie: Thresh=  0.10000D-02 Tol=  0.10000D-05 Strict=F.
 There are   227 symmetry adapted cartesian basis functions of A   symmetry.
 There are   224 symmetry adapted basis functions of A   symmetry.
   224 basis functions,   681 primitive gaussians,   227 cartesian basis functions
   145 alpha electrons      145 beta electrons
       nuclear repulsion energy      5875.3747881924 Hartrees.
 IExCor=    0 DFT=F Ex=HF Corr=None ExCW=0 ScaHFX=  1.000000
 ScaDFX=  1.000000  1.000000  1.000000  1.000000 ScalE2=  1.000000  1.000000
 IRadAn=      5 IRanWt=     -1 IRanGd=            0 ICorTp=0 IEmpDi=  4
 NAtoms=   65 NActive=   65 NUniq=   65 SFac= 1.00D+00 NAtFMM=   60 NAOKFM=T Big=T
 Integral buffers will be    131072 words long.
 Raffenetti 1 integral format.
 Two-electron integral symmetry is turned on.
 Leave Link  301 at Mon Oct 14 19:19:42 2024, MaxMem=   104857600 cpu:               0.0 elap:               0.0
 (Enter /home/echo/g16/l402.exe)
 External calculation of energy, first and second derivatives.
 Running external command "./xtb.sh R"
         input file       "/home/echo/scratch/Gau-8891.EIn"
         output file      "/home/echo/scratch/Gau-8891.EOu"
         message file     "/home/echo/scratch/Gau-8891.EMs"
         fchk file        "/home/echo/scratch/Gau-8891.EFC"
         mat. el file     "/home/echo/scratch/Gau-8891.EUF"
Generating mol.tmp
Generating mol.xyz via genxyz
Running: xtb mol.xyz --chrg 0 --uhf 0 --gfn2 --hess --grad > xtbout
xtb running finished!
Extracting data from xtb outputs via extderi
 Recovered energy= -96.5532904174     dipole=      0.000000000000      0.000000000000      0.000000000000
 Energy=    -96.5532904     NIter=   0.
 Dipole moment=       0.000000       0.000000       0.000000
 Leave Link  402 at Mon Oct 14 19:19:48 2024, MaxMem=   104857600 cpu:               0.0 elap:               6.7
 (Enter /home/echo/g16/l601.exe)
 Leave Link  601 at Mon Oct 14 19:19:48 2024, MaxMem=   104857600 cpu:               0.0 elap:               0.0
 (Enter /home/echo/g16/l716.exe)
 Dipole        = 0.00000000D+00 0.00000000D+00 0.00000000D+00
 Full mass-weighted force constant matrix:
 Low frequencies --- -929.0616   -0.0195   -0.0088   -0.0068    0.0073    0.0182
 Low frequencies ---    0.0205   22.3342   25.1781
 ******    1 imaginary frequencies (negative Signs) ****** 
 Diagonal vibrational polarizability:
        0.0000000       0.0000000       0.0000000
 Harmonic frequencies (cm**-1), IR intensities (KM/Mole), Raman scattering
 activities (A**4/AMU), depolarization ratios for plane and unpolarized
 incident light, reduced masses (AMU), force constants (mDyne/A),
 and normal coordinates:
                      1                      2                      3
                      A                      A                      A
 Frequencies --   -929.0616                22.3342                25.1781
 Red. masses --      1.1277                 4.3100                 4.1791
 Frc consts  --      0.5735                 0.0013                 0.0016
 IR Inten    --      0.0000                 0.0000                 0.0000
  Atom  AN      X      Y      Z        X      Y      Z        X      Y      Z
     1  26    -0.01   0.00  -0.01    -0.04  -0.01   0.01    -0.03  -0.04  -0.02
     2   6    -0.01  -0.01   0.01     0.05  -0.01  -0.03    -0.02  -0.01   0.01
     3  46    -0.00  -0.00  -0.00     0.02   0.03  -0.04    -0.01   0.00  -0.01
     4   6    -0.00   0.00  -0.00     0.03  -0.02   0.00    -0.03  -0.02   0.06
     5   1     0.00  -0.01  -0.00    -0.09  -0.06   0.08    -0.06  -0.08  -0.02
     6   1     0.00  -0.00  -0.00     0.01  -0.06   0.09    -0.00   0.00   0.09
     7   1    -0.01   0.01   0.01     0.06  -0.02   0.03     0.06   0.10   0.02
     8   6     0.01   0.05   0.04    -0.00   0.04  -0.06    -0.01   0.03  -0.04
     9   8     0.01   0.00  -0.00     0.05  -0.03  -0.02    -0.04  -0.02   0.01
    10   6    -0.01   0.00  -0.00    -0.02   0.00  -0.00    -0.03  -0.06   0.02
    11   8    -0.01  -0.02  -0.04    -0.01   0.07  -0.09     0.00   0.06  -0.07
    12   6     0.00  -0.01   0.00    -0.07   0.03  -0.02    -0.04  -0.06  -0.03
    13   6    -0.00  -0.00  -0.00    -0.09   0.01   0.01    -0.05  -0.08  -0.03
    14   6    -0.01   0.00  -0.00    -0.05  -0.01   0.02    -0.04  -0.08   0.00
    15   1    -0.02   0.01   0.01    -0.09   0.05  -0.03    -0.05  -0.06  -0.04
    16   1    -0.00  -0.00  -0.01    -0.12  -0.00   0.03    -0.05  -0.10  -0.05
    17   1    -0.01   0.01  -0.01    -0.05  -0.04   0.05    -0.04  -0.08   0.01
    18   1     0.95  -0.16   0.26    -0.03   0.05  -0.05    -0.05  -0.02   0.01
    19   6    -0.02   0.00   0.04    -0.03   0.03  -0.03    -0.04  -0.05   0.00
    20   6     0.00   0.00  -0.01     0.02   0.03  -0.04     0.03  -0.03   0.04
    21   8     0.00   0.00   0.01     0.07  -0.03  -0.04    -0.03  -0.01  -0.01
    22   6     0.00  -0.00   0.00    -0.02  -0.01   0.01     0.02   0.03  -0.10
    23   6    -0.00  -0.00  -0.00    -0.07  -0.02   0.03    -0.02  -0.02  -0.10
    24   6    -0.00   0.00   0.00    -0.06  -0.04   0.06    -0.03  -0.04  -0.03
    25   6     0.00  -0.00  -0.00    -0.01  -0.05   0.07     0.00   0.00   0.03
    26   6     0.00   0.00   0.00     0.02  -0.02   0.03     0.03   0.05  -0.01
    27   1    -0.01   0.01   0.01     0.00   0.01  -0.03     0.05   0.05  -0.16
    28   7     0.01  -0.01   0.00     0.00   0.06  -0.07    -0.01   0.02  -0.01
    29   1    -0.00   0.01   0.01     0.02   0.02  -0.06     0.03  -0.11   0.06
    30   1     0.00   0.00   0.01     0.02  -0.04   0.03    -0.02  -0.01   0.06
    31   1    -0.00   0.00   0.01     0.04  -0.01  -0.00    -0.04  -0.03   0.09
    32   1    -0.00  -0.00  -0.00    -0.10  -0.01   0.01    -0.04  -0.05  -0.15
    33   7     0.01   0.00  -0.00     0.06  -0.01  -0.02    -0.00   0.02   0.04
    34   6    -0.00  -0.00   0.00     0.08   0.01  -0.05    -0.01   0.00   0.06
    35   6     0.00   0.00  -0.00     0.09  -0.03   0.01     0.02   0.07   0.07
    36   1    -0.01  -0.00   0.01     0.10   0.01  -0.04    -0.03   0.01   0.10
    37   1    -0.02  -0.02  -0.01     0.05   0.03  -0.06    -0.03  -0.03   0.05
    38   1     0.00  -0.00  -0.00     0.10   0.02  -0.06    -0.00   0.03   0.05
    39   1     0.00   0.00  -0.01     0.11  -0.03   0.01    -0.00   0.08   0.12
    40   1    -0.00   0.00   0.00     0.11  -0.02  -0.01     0.04   0.10   0.05
    41   1     0.01   0.00  -0.00     0.08  -0.04   0.03     0.03   0.09   0.06
    42   6    -0.00  -0.00  -0.00     0.01   0.04   0.01     0.14   0.03   0.09
    43   6    -0.00  -0.00   0.00     0.00   0.05   0.01     0.21   0.00   0.16
    44   6     0.00   0.00  -0.00    -0.01   0.06  -0.00     0.18   0.05   0.13
    45   1     0.00  -0.01   0.00     0.03   0.02   0.03     0.14   0.01   0.11
    46   1    -0.00   0.00   0.00    -0.00   0.06   0.02     0.15   0.13   0.05
    47   1    -0.00  -0.00  -0.00    -0.00   0.05   0.02     0.28   0.04   0.22
    48   1    -0.00   0.00   0.00     0.01   0.05   0.00     0.20  -0.10   0.19
    49   1    -0.00  -0.00   0.00    -0.01   0.05   0.01     0.18   0.13   0.12
    50   1    -0.00   0.00  -0.00    -0.02   0.07  -0.01     0.22   0.04   0.17
    51   1     0.01   0.00  -0.00     0.01   0.07  -0.01     0.13   0.02   0.08
    52   8    -0.01  -0.01  -0.00    -0.00   0.01  -0.02    -0.01   0.03  -0.03
    53   6    -0.00   0.00   0.00    -0.02  -0.12   0.16    -0.01   0.02  -0.00
    54   6     0.00  -0.01  -0.00    -0.01  -0.07   0.09    -0.01   0.04  -0.04
    55   6    -0.00  -0.00   0.00    -0.14  -0.04   0.14    -0.02   0.02  -0.07
    56   6    -0.00   0.00  -0.00     0.10  -0.14   0.09     0.01   0.07  -0.04
    57   1    -0.00  -0.00   0.00     0.07  -0.14   0.13    -0.00   0.03   0.03
    58   1    -0.00   0.00  -0.00    -0.10  -0.08   0.16    -0.02  -0.02  -0.00
    59   1    -0.00   0.00   0.00    -0.02  -0.18   0.25    -0.01   0.02  -0.01
    60   1    -0.00  -0.00   0.00    -0.24   0.02   0.14    -0.04  -0.01  -0.07
    61   1     0.00   0.00   0.00    -0.15  -0.09   0.25    -0.01   0.03  -0.07
    62   1     0.01  -0.02   0.00    -0.13  -0.01   0.08    -0.01   0.03  -0.10
    63   1    -0.00  -0.00   0.00     0.20  -0.16   0.06     0.03   0.08  -0.01
    64   1     0.00   0.01   0.00     0.09  -0.21   0.18     0.01   0.07  -0.04
    65   1     0.01  -0.01  -0.02     0.10  -0.09   0.04     0.01   0.10  -0.06
                      4                      5                      6
                      A                      A                      A
 Frequencies --     41.2066                44.7109                46.8939
 Red. masses --      3.5515                 2.9701                 7.1179
 Frc consts  --      0.0036                 0.0035                 0.0092
 IR Inten    --      0.0000                 0.0000                 0.0000
  Atom  AN      X      Y      Z        X      Y      Z        X      Y      Z
     1  26    -0.02  -0.00   0.01     0.01   0.00   0.01    -0.03  -0.02  -0.05
     2   6    -0.02   0.06  -0.01    -0.02   0.00  -0.01     0.15  -0.05   0.06
     3  46     0.01   0.03  -0.00     0.00  -0.02  -0.00    -0.01   0.07   0.02
     4   6     0.06  -0.02  -0.05    -0.02   0.01   0.03     0.02  -0.02   0.03
     5   1    -0.12  -0.14   0.06     0.03   0.04   0.00     0.04   0.03  -0.15
     6   1     0.04  -0.13   0.09    -0.00   0.05   0.00    -0.08   0.02  -0.18
     7   1     0.09  -0.01   0.03    -0.00   0.01   0.01    -0.17  -0.02  -0.08
     8   6     0.01  -0.03   0.06    -0.00  -0.00  -0.01     0.01  -0.01   0.02
     9   8    -0.05   0.08  -0.03    -0.06   0.02  -0.03     0.38  -0.19   0.14
    10   6     0.04   0.02  -0.02    -0.02  -0.00   0.02     0.02  -0.04   0.01
    11   8    -0.01  -0.03   0.06     0.02   0.03  -0.06     0.00   0.00   0.01
    12   6    -0.02   0.06   0.01    -0.00  -0.02  -0.00    -0.01  -0.03  -0.03
    13   6    -0.02   0.03   0.01    -0.00  -0.01   0.01    -0.01  -0.08  -0.06
    14   6     0.01   0.00  -0.01    -0.01   0.00   0.02     0.01  -0.08  -0.03
    15   1    -0.04   0.08   0.02     0.01  -0.03  -0.01    -0.03  -0.02  -0.04
    16   1    -0.05   0.03   0.03     0.01  -0.01   0.00    -0.02  -0.10  -0.09
    17   1     0.02  -0.03  -0.01    -0.01   0.01   0.03     0.02  -0.10  -0.04
    18   1     0.04   0.05  -0.01    -0.02  -0.01  -0.01    -0.01   0.01   0.02
    19   6     0.02   0.05  -0.01    -0.01  -0.02   0.00     0.00  -0.01   0.02
    20   6    -0.00   0.03  -0.01    -0.01  -0.01  -0.01     0.04   0.00   0.02
    21   8    -0.02   0.06   0.00     0.00  -0.01  -0.00    -0.01   0.05   0.01
    22   6    -0.04   0.02  -0.01     0.03   0.00   0.01    -0.07  -0.03  -0.03
    23   6    -0.11  -0.02   0.00     0.04   0.01   0.01    -0.00  -0.01  -0.06
    24   6    -0.08  -0.09   0.04     0.03   0.03   0.00    -0.00   0.02  -0.12
    25   6     0.00  -0.09   0.06     0.01   0.03   0.00    -0.07   0.01  -0.13
    26   6     0.03  -0.02   0.03     0.01   0.02   0.01    -0.12  -0.01  -0.08
    27   1    -0.04   0.07  -0.05     0.03  -0.01   0.02    -0.10  -0.05   0.02
    28   7     0.02   0.01   0.01    -0.01  -0.01  -0.01     0.03   0.01   0.01
    29   1    -0.01   0.06   0.01    -0.01  -0.02   0.00     0.06   0.05  -0.05
    30   1     0.04  -0.09  -0.07    -0.01   0.03   0.05     0.01  -0.02   0.01
    31   1     0.13  -0.02  -0.06    -0.05   0.01   0.04     0.03  -0.03   0.06
    32   1    -0.17  -0.00  -0.01     0.06   0.00   0.01     0.05  -0.02  -0.03
    33   7     0.02  -0.00  -0.03     0.00   0.00   0.02    -0.00   0.03   0.04
    34   6     0.05   0.03   0.01    -0.01  -0.01   0.00     0.03   0.06   0.08
    35   6    -0.01  -0.01  -0.05     0.02   0.01   0.04    -0.02   0.01   0.03
    36   1     0.07   0.02  -0.00    -0.02  -0.01   0.01     0.06   0.05   0.09
    37   1     0.08   0.04   0.03    -0.02  -0.02  -0.01     0.04   0.06   0.09
    38   1     0.02   0.04   0.03     0.01  -0.02  -0.01     0.00   0.09   0.09
    39   1    -0.01  -0.01  -0.08     0.02   0.01   0.05     0.04  -0.01   0.05
    40   1    -0.03  -0.03  -0.04     0.03   0.02   0.03    -0.05   0.06   0.04
    41   1     0.00  -0.01  -0.07     0.02   0.01   0.04    -0.05  -0.04  -0.00
    42   6    -0.02   0.01  -0.06     0.02  -0.01  -0.01    -0.06  -0.02   0.05
    43   6    -0.02   0.02  -0.04     0.02  -0.05  -0.06    -0.13   0.05   0.03
    44   6     0.16  -0.08   0.07    -0.11  -0.03  -0.11    -0.08   0.04   0.05
    45   1    -0.06   0.02  -0.08     0.06   0.01  -0.01    -0.07  -0.04   0.07
    46   1    -0.00  -0.04  -0.07    -0.01   0.01   0.01    -0.06  -0.06   0.07
    47   1    -0.08  -0.04  -0.18     0.06  -0.02  -0.00    -0.21   0.01  -0.00
    48   1    -0.09   0.15   0.03     0.07  -0.12  -0.12    -0.14   0.14   0.02
    49   1     0.23  -0.24   0.01    -0.17   0.06  -0.07    -0.08  -0.05   0.06
    50   1     0.13  -0.06   0.06    -0.10  -0.07  -0.14    -0.13   0.08   0.03
    51   1     0.24  -0.01   0.21    -0.18  -0.07  -0.18    -0.01   0.08   0.08
    52   8     0.02  -0.08   0.09    -0.01  -0.02   0.05     0.02  -0.05   0.04
    53   6     0.02  -0.11   0.01    -0.01  -0.06   0.18     0.02  -0.09   0.03
    54   6    -0.00  -0.05  -0.01     0.01   0.02   0.03     0.00  -0.03  -0.02
    55   6     0.01  -0.10  -0.13    -0.04  -0.05  -0.15    -0.01  -0.07  -0.12
    56   6    -0.05   0.08  -0.01     0.10   0.20   0.03    -0.00   0.09  -0.02
    57   1     0.02  -0.08   0.09     0.01  -0.01   0.33     0.03  -0.06   0.11
    58   1     0.05  -0.20   0.01    -0.07  -0.21   0.18     0.02  -0.17   0.03
    59   1     0.00  -0.09  -0.06     0.00  -0.02   0.15     0.01  -0.08  -0.01
    60   1     0.04  -0.20  -0.13    -0.13  -0.17  -0.15    -0.02  -0.15  -0.12
    61   1    -0.01  -0.08  -0.21    -0.01  -0.01  -0.14    -0.01  -0.05  -0.16
    62   1    -0.01  -0.06  -0.14     0.00  -0.01  -0.28    -0.01  -0.03  -0.16
    63   1    -0.06   0.12   0.07     0.17   0.24   0.15     0.02   0.11   0.06
    64   1    -0.06   0.12  -0.09     0.08   0.19   0.00    -0.02   0.09  -0.06
    65   1    -0.06   0.11  -0.03     0.09   0.29  -0.07    -0.01   0.13  -0.05
                      7                      8                      9
                      A                      A                      A
 Frequencies --     56.0679                67.6176                80.4345
 Red. masses --      2.7466                 3.8864                 3.9415
 Frc consts  --      0.0051                 0.0105                 0.0150
 IR Inten    --      0.0000                 0.0000                 0.0000
  Atom  AN      X      Y      Z        X      Y      Z        X      Y      Z
     1  26     0.01   0.01   0.01     0.01   0.01  -0.02     0.03  -0.01   0.01
     2   6     0.00   0.00  -0.03    -0.05   0.02   0.02    -0.03   0.01  -0.00
     3  46    -0.00  -0.02  -0.00     0.01   0.01   0.00     0.02  -0.00   0.02
     4   6    -0.04   0.02   0.06     0.02   0.02   0.06     0.03  -0.02  -0.02
     5   1     0.09   0.13  -0.03     0.07   0.10  -0.06     0.04  -0.02  -0.04
     6   1    -0.04   0.10  -0.08    -0.03   0.07  -0.10     0.02  -0.03  -0.05
     7   1    -0.08  -0.03  -0.02    -0.09  -0.03  -0.05    -0.02  -0.01  -0.00
     8   6    -0.01   0.00  -0.03    -0.02   0.01   0.06     0.03   0.03  -0.04
     9   8    -0.00   0.01  -0.04    -0.12   0.05   0.00    -0.13   0.07  -0.04
    10   6    -0.03  -0.01   0.03     0.01  -0.01   0.02     0.04  -0.01   0.00
    11   8    -0.00   0.01  -0.04    -0.03  -0.01   0.09     0.03   0.04  -0.04
    12   6    -0.00  -0.04  -0.01    -0.01  -0.01  -0.04     0.05  -0.01   0.03
    13   6    -0.01  -0.02   0.00    -0.02  -0.04  -0.03     0.06  -0.01   0.01
    14   6    -0.02  -0.00   0.03    -0.01  -0.04   0.00     0.05  -0.01  -0.01
    15   1     0.01  -0.05  -0.04    -0.02  -0.00  -0.05     0.05  -0.02   0.03
    16   1     0.01  -0.02  -0.01    -0.03  -0.05  -0.05     0.06  -0.00   0.00
    17   1    -0.03   0.02   0.04    -0.01  -0.04   0.02     0.05  -0.00  -0.02
    18   1    -0.03  -0.03  -0.00     0.02   0.02   0.00     0.01  -0.02   0.02
    19   6    -0.02  -0.03   0.00     0.00   0.00  -0.01     0.03  -0.01   0.02
    20   6    -0.04   0.02  -0.05    -0.01   0.03   0.04    -0.01   0.01   0.01
    21   8     0.04  -0.02  -0.01    -0.00  -0.00   0.01     0.03  -0.03   0.02
    22   6     0.02  -0.03   0.04     0.01  -0.02   0.00    -0.01  -0.01   0.01
    23   6     0.09   0.02   0.03     0.06   0.01  -0.01     0.01  -0.01  -0.00
    24   6     0.06   0.08  -0.02     0.05   0.06  -0.05     0.02  -0.02  -0.02
    25   6    -0.01   0.07  -0.04    -0.02   0.05  -0.07     0.01  -0.02  -0.03
    26   6    -0.03  -0.00  -0.01    -0.04  -0.00  -0.04    -0.01  -0.01  -0.01
    27   1     0.01  -0.07   0.08    -0.00  -0.05   0.04    -0.03  -0.01   0.04
    28   7    -0.02  -0.00  -0.03    -0.00   0.05   0.02     0.03  -0.01   0.01
    29   1    -0.04   0.06  -0.07    -0.02   0.01   0.06    -0.01   0.04   0.02
    30   1    -0.02   0.07   0.09     0.05   0.08   0.12     0.00  -0.07  -0.07
    31   1    -0.10   0.02   0.06    -0.07   0.02   0.06     0.10  -0.03  -0.01
    32   1     0.14   0.01   0.06     0.11   0.00   0.02     0.02  -0.01   0.01
    33   7     0.01  -0.01   0.03     0.10  -0.03   0.00    -0.04   0.02   0.03
    34   6    -0.00  -0.02  -0.03     0.12  -0.01  -0.12    -0.04   0.02   0.13
    35   6     0.05  -0.02   0.06     0.20  -0.07   0.07    -0.12   0.05  -0.03
    36   1    -0.02  -0.02  -0.02     0.13  -0.02  -0.10    -0.04   0.02   0.12
    37   1    -0.04  -0.02  -0.06     0.03   0.01  -0.17     0.04   0.00   0.18
    38   1     0.04  -0.04  -0.06     0.20  -0.03  -0.17    -0.11   0.04   0.18
    39   1     0.07  -0.03   0.08     0.25  -0.09   0.10    -0.12   0.05  -0.03
    40   1     0.08  -0.01   0.04     0.26  -0.04   0.03    -0.18   0.06   0.00
    41   1     0.03  -0.04   0.09     0.16  -0.12   0.14    -0.11   0.05  -0.10
    42   6    -0.10  -0.01  -0.07     0.01   0.04   0.06    -0.06  -0.01   0.02
    43   6    -0.11   0.06  -0.01     0.02   0.03   0.05    -0.10   0.08   0.07
    44   6     0.18  -0.01   0.13    -0.08   0.06   0.01    -0.06   0.18   0.04
    45   1    -0.18  -0.03  -0.10     0.03   0.04   0.08    -0.12  -0.05   0.02
    46   1    -0.05  -0.07  -0.12    -0.00   0.07   0.07    -0.03  -0.04  -0.01
    47   1    -0.22  -0.02  -0.16     0.05   0.05   0.11    -0.14   0.08   0.13
    48   1    -0.22   0.25   0.11     0.05  -0.04   0.02    -0.11   0.08   0.09
    49   1     0.29  -0.24   0.03    -0.12   0.14   0.04    -0.05   0.23   0.01
    50   1     0.13   0.06   0.15    -0.06   0.03   0.00    -0.05   0.22   0.10
    51   1     0.32   0.09   0.30    -0.13   0.02  -0.05    -0.07   0.17  -0.02
    52   8    -0.02   0.01  -0.02    -0.01  -0.04   0.06     0.04   0.04  -0.10
    53   6    -0.02   0.01   0.04    -0.01  -0.10  -0.09     0.04  -0.16  -0.04
    54   6    -0.01   0.02   0.00    -0.06  -0.06  -0.01    -0.01  -0.05  -0.07
    55   6    -0.02   0.01  -0.01    -0.05  -0.06  -0.03    -0.13  -0.04  -0.07
    56   6     0.03   0.03   0.00    -0.15  -0.03  -0.02     0.03  -0.06  -0.07
    57   1    -0.00   0.01   0.05    -0.00  -0.10  -0.08     0.12  -0.16  -0.02
    58   1    -0.05   0.00   0.04     0.06  -0.11  -0.08     0.03  -0.18  -0.04
    59   1    -0.01   0.01   0.06    -0.04  -0.12  -0.15    -0.01  -0.22  -0.05
    60   1    -0.06   0.00  -0.02     0.02  -0.08  -0.03    -0.22  -0.02  -0.07
    61   1    -0.01   0.02   0.01    -0.09  -0.08  -0.10    -0.13  -0.08   0.02
    62   1    -0.01   0.01  -0.05    -0.09  -0.04   0.02    -0.11  -0.01  -0.14
    63   1     0.05   0.03   0.01    -0.18  -0.02  -0.00     0.15  -0.07  -0.07
    64   1     0.03   0.03   0.02    -0.16  -0.01  -0.07    -0.03  -0.15  -0.05
    65   1     0.04   0.04  -0.02    -0.16  -0.03   0.02    -0.01   0.04  -0.09
                     10                     11                     12
                      A                      A                      A
 Frequencies --     87.9339                92.3894               107.0094
 Red. masses --      5.4951                 4.4653                 5.2967
 Frc consts  --      0.0250                 0.0225                 0.0357
 IR Inten    --      0.0000                 0.0000                 0.0000
  Atom  AN      X      Y      Z        X      Y      Z        X      Y      Z
     1  26     0.00  -0.02  -0.01     0.03  -0.01   0.00    -0.02  -0.02  -0.02
     2   6     0.02   0.13   0.03     0.06   0.02  -0.05     0.09   0.00  -0.03
     3  46    -0.01  -0.02   0.06    -0.00  -0.05  -0.02    -0.03   0.05   0.04
     4   6    -0.06   0.01  -0.04    -0.02   0.00  -0.02     0.02  -0.06  -0.05
     5   1     0.02  -0.01   0.00    -0.03  -0.06   0.05     0.08   0.14  -0.02
     6   1    -0.00  -0.02  -0.01     0.06  -0.02   0.12    -0.07   0.04  -0.15
     7   1     0.01  -0.08  -0.02     0.14   0.06   0.04    -0.15  -0.16  -0.06
     8   6    -0.02   0.05  -0.02    -0.06  -0.04   0.05    -0.03  -0.01  -0.01
     9   8     0.16   0.11   0.03     0.13   0.01  -0.05    -0.03   0.09  -0.09
    10   6    -0.01  -0.01  -0.03    -0.01  -0.00  -0.02     0.00  -0.02  -0.01
    11   8    -0.01   0.05  -0.01    -0.04  -0.10   0.12    -0.03  -0.03   0.01
    12   6     0.05  -0.02   0.04     0.03  -0.02  -0.00    -0.03   0.01  -0.01
    13   6     0.07   0.01   0.00     0.02   0.01   0.01    -0.04  -0.02  -0.02
    14   6     0.03   0.02  -0.04     0.00   0.02  -0.00    -0.01  -0.03  -0.01
    15   1     0.07  -0.04   0.08     0.04  -0.04  -0.00    -0.05   0.03  -0.00
    16   1     0.10   0.03   0.01     0.04   0.03   0.02    -0.05  -0.03  -0.02
    17   1     0.03   0.05  -0.08    -0.00   0.05   0.01    -0.01  -0.05  -0.02
    18   1    -0.05  -0.02   0.06     0.05  -0.06  -0.02     0.03   0.01  -0.00
    19   6    -0.01  -0.03   0.04     0.01  -0.04  -0.03    -0.01   0.02   0.01
    20   6     0.02   0.04   0.00    -0.02   0.04  -0.09     0.06   0.01  -0.05
    21   8    -0.14   0.22   0.05     0.06   0.02  -0.03     0.27  -0.10   0.03
    22   6     0.01  -0.05   0.00     0.06   0.03  -0.03    -0.00  -0.11   0.06
    23   6     0.01  -0.03   0.01     0.01  -0.00  -0.02     0.07  -0.02   0.08
    24   6     0.01  -0.02   0.01     0.01  -0.03   0.04     0.04   0.06  -0.01
    25   6     0.00  -0.03  -0.01     0.06  -0.01   0.07    -0.05   0.02  -0.07
    26   6     0.01  -0.05  -0.01     0.09   0.03   0.03    -0.08  -0.09  -0.03
    27   1     0.03  -0.06  -0.01     0.08   0.04  -0.08     0.01  -0.17   0.10
    28   7    -0.02   0.01   0.05    -0.06   0.03  -0.07    -0.01   0.03  -0.05
    29   1     0.02   0.02  -0.01    -0.01   0.03  -0.13     0.07  -0.04  -0.08
    30   1    -0.03   0.08  -0.01    -0.02   0.01  -0.02    -0.01  -0.12  -0.09
    31   1    -0.15   0.02  -0.06    -0.02   0.00  -0.02     0.10  -0.05  -0.07
    32   1     0.02  -0.03   0.02    -0.03  -0.01  -0.06     0.13  -0.01   0.13
    33   7    -0.03  -0.08  -0.05    -0.01  -0.00  -0.02    -0.05  -0.04  -0.00
    34   6    -0.03  -0.08  -0.17    -0.05  -0.04  -0.00     0.01   0.02   0.05
    35   6    -0.01  -0.17  -0.06    -0.03   0.04  -0.01    -0.14  -0.16  -0.09
    36   1    -0.03  -0.08  -0.21    -0.08  -0.02   0.01     0.07  -0.01  -0.01
    37   1    -0.09  -0.02  -0.20    -0.05  -0.07  -0.00     0.07   0.08   0.09
    38   1     0.02  -0.13  -0.20    -0.04  -0.05  -0.00    -0.06   0.05   0.09
    39   1    -0.04  -0.16  -0.15    -0.08   0.06  -0.01    -0.12  -0.17  -0.21
    40   1     0.02  -0.28  -0.05    -0.01   0.02  -0.01    -0.22  -0.23  -0.03
    41   1     0.01  -0.13   0.04     0.01   0.09  -0.02    -0.15  -0.17  -0.10
    42   6     0.06   0.05  -0.03    -0.03   0.06  -0.05     0.10   0.05   0.01
    43   6     0.09   0.01  -0.02    -0.00   0.12   0.06     0.12   0.01  -0.00
    44   6     0.07   0.02  -0.04    -0.01   0.26  -0.01     0.06   0.01  -0.02
    45   1     0.07   0.07  -0.04    -0.08   0.01  -0.04     0.17   0.03   0.05
    46   1     0.06   0.06  -0.03     0.02   0.08  -0.10     0.06   0.11   0.05
    47   1     0.13   0.03  -0.00     0.03   0.16   0.17     0.17   0.03   0.03
    48   1     0.10  -0.03  -0.02    -0.01   0.02   0.09     0.15  -0.05  -0.02
    49   1     0.07   0.09  -0.05     0.01   0.47  -0.07     0.04   0.07  -0.01
    50   1     0.11   0.00  -0.01     0.11   0.23   0.13     0.09  -0.02  -0.03
    51   1     0.02  -0.00  -0.06    -0.16   0.16  -0.12     0.02  -0.02  -0.05
    52   8    -0.01   0.09  -0.09    -0.07  -0.06   0.10    -0.03  -0.03   0.02
    53   6    -0.02  -0.06   0.02    -0.07   0.02   0.04    -0.04   0.05   0.02
    54   6    -0.04   0.02  -0.03    -0.05  -0.01   0.05    -0.01   0.01   0.01
    55   6    -0.14   0.03  -0.02     0.02  -0.04  -0.00     0.03  -0.00  -0.01
    56   6     0.02   0.00  -0.03    -0.10   0.05   0.05    -0.02   0.03   0.01
    57   1     0.04  -0.05   0.05    -0.12   0.04   0.08    -0.07   0.05   0.03
    58   1    -0.05  -0.09   0.02    -0.04  -0.02   0.04    -0.05   0.04   0.02
    59   1    -0.04  -0.09   0.03    -0.05   0.07   0.00    -0.01   0.08   0.03
    60   1    -0.27   0.05  -0.03     0.06  -0.08   0.00     0.05  -0.02  -0.01
    61   1    -0.12   0.01   0.09     0.02   0.01  -0.07     0.04   0.02  -0.03
    62   1    -0.10   0.04  -0.12     0.01  -0.05   0.02     0.04  -0.02  -0.00
    63   1     0.16  -0.01  -0.04    -0.18   0.08   0.09    -0.07   0.04   0.02
    64   1    -0.03  -0.11   0.01    -0.06   0.13  -0.00     0.01   0.08  -0.00
    65   1    -0.02   0.11  -0.06    -0.07   0.00   0.05     0.01  -0.01   0.01
                     13                     14                     15
                      A                      A                      A
 Frequencies --    119.8742               125.8567               137.2560
 Red. masses --      3.9797                 4.7317                 4.0205
 Frc consts  --      0.0337                 0.0442                 0.0446
 IR Inten    --      0.0000                 0.0000                 0.0000
  Atom  AN      X      Y      Z        X      Y      Z        X      Y      Z
     1  26    -0.04  -0.01   0.01     0.02  -0.00  -0.02     0.02   0.08  -0.02
     2   6     0.00   0.01  -0.03     0.07  -0.06   0.02    -0.01  -0.03  -0.00
     3  46    -0.00   0.03   0.01    -0.01   0.02   0.05    -0.05  -0.01   0.03
     4   6    -0.10   0.07   0.04    -0.08   0.08   0.02     0.12  -0.06   0.00
     5   1    -0.04  -0.03  -0.02    -0.09  -0.20  -0.05    -0.05   0.00  -0.01
     6   1    -0.07   0.00   0.00     0.05  -0.09   0.10     0.06  -0.03  -0.02
     7   1    -0.07  -0.01  -0.01     0.10   0.12   0.02     0.05   0.05  -0.03
     8   6     0.06  -0.08  -0.02    -0.02   0.01   0.01    -0.02  -0.06  -0.02
     9   8    -0.04   0.07  -0.06    -0.03  -0.04   0.01     0.02  -0.01  -0.02
    10   6    -0.04   0.00   0.01    -0.00   0.01  -0.02     0.05   0.04   0.05
    11   8     0.03  -0.05  -0.04    -0.01  -0.02   0.04    -0.03  -0.10   0.03
    12   6     0.00  -0.01   0.05     0.07  -0.02   0.04    -0.01   0.05  -0.04
    13   6     0.02   0.01   0.01     0.10   0.02  -0.01    -0.02  -0.01  -0.03
    14   6    -0.00   0.01  -0.02     0.06   0.03  -0.06     0.01  -0.01   0.03
    15   1     0.02  -0.03   0.07     0.10  -0.04   0.07    -0.02   0.06  -0.10
    16   1     0.04   0.02   0.01     0.14   0.03  -0.02    -0.05  -0.04  -0.06
    17   1    -0.00   0.03  -0.04     0.06   0.06  -0.10     0.02  -0.05   0.04
    18   1    -0.07  -0.02   0.03    -0.01  -0.04   0.04     0.04   0.03  -0.01
    19   6    -0.03  -0.02   0.04     0.02  -0.03   0.04     0.03   0.07   0.00
    20   6     0.05  -0.05  -0.02     0.01   0.01   0.00    -0.02  -0.06  -0.02
    21   8    -0.02   0.03  -0.00     0.24  -0.16   0.04    -0.03  -0.02   0.03
    22   6    -0.07  -0.00  -0.00    -0.03   0.09  -0.10    -0.03   0.11  -0.03
    23   6    -0.06  -0.01  -0.01    -0.11  -0.01  -0.12    -0.06   0.08  -0.03
    24   6    -0.05  -0.02  -0.02    -0.06  -0.11  -0.05    -0.04   0.03  -0.02
    25   6    -0.06  -0.01  -0.01     0.02  -0.06   0.02     0.02   0.02  -0.02
    26   6    -0.07  -0.00  -0.00     0.05   0.06  -0.01     0.02   0.06  -0.02
    27   1    -0.06   0.00  -0.01    -0.04   0.16  -0.14    -0.04   0.14  -0.03
    28   7     0.07  -0.07   0.00    -0.02   0.01   0.01    -0.02  -0.08   0.01
    29   1     0.04  -0.02  -0.00     0.02   0.01  -0.03    -0.02  -0.05  -0.02
    30   1    -0.06   0.19   0.08    -0.03   0.20   0.05     0.08  -0.18   0.00
    31   1    -0.23   0.07   0.07    -0.20   0.08   0.04     0.23  -0.04  -0.07
    32   1    -0.06  -0.01  -0.01    -0.16  -0.02  -0.18    -0.10   0.10  -0.03
    33   7    -0.04   0.02   0.00    -0.01   0.02  -0.02     0.08  -0.08   0.03
    34   6    -0.05   0.01  -0.13    -0.05  -0.01  -0.14     0.13  -0.03   0.06
    35   6     0.03  -0.04   0.05     0.06   0.02   0.04     0.07  -0.10   0.01
    36   1    -0.06   0.01  -0.11    -0.09   0.00  -0.12     0.17  -0.05   0.03
    37   1    -0.14   0.02  -0.18    -0.14  -0.02  -0.20     0.17   0.01   0.10
    38   1     0.04  -0.03  -0.18     0.05  -0.06  -0.21     0.08  -0.01   0.10
    39   1     0.05  -0.05   0.03     0.01   0.04   0.03     0.04  -0.09  -0.03
    40   1     0.09  -0.07   0.02     0.14  -0.03   0.00     0.06  -0.14   0.02
    41   1     0.02  -0.05   0.13     0.09   0.07   0.12     0.08  -0.07   0.03
    42   6    -0.00  -0.07  -0.02    -0.02  -0.00   0.02    -0.02  -0.07  -0.05
    43   6    -0.02   0.02   0.05    -0.05  -0.00  -0.03     0.01  -0.04   0.03
    44   6    -0.00   0.15  -0.00    -0.02  -0.07   0.01     0.03   0.06  -0.01
    45   1    -0.06  -0.11  -0.02     0.00   0.00   0.02    -0.08  -0.08  -0.08
    46   1     0.03  -0.10  -0.05    -0.03  -0.01   0.03     0.02  -0.09  -0.10
    47   1    -0.04   0.04   0.14    -0.10  -0.03  -0.10     0.04  -0.01   0.10
    48   1    -0.03  -0.02   0.07    -0.05   0.08  -0.04    -0.00  -0.11   0.06
    49   1     0.02   0.31  -0.07    -0.02  -0.20   0.04     0.06   0.22  -0.08
    50   1     0.08   0.15   0.12    -0.08  -0.05  -0.06     0.12   0.04   0.11
    51   1    -0.10   0.09  -0.10     0.07  -0.02   0.08    -0.08  -0.01  -0.09
    52   8     0.07  -0.09  -0.00    -0.02   0.05  -0.04    -0.03   0.00  -0.10
    53   6     0.08   0.02   0.01    -0.03  -0.01   0.00    -0.04   0.04   0.03
    54   6     0.11  -0.04   0.00    -0.03   0.02  -0.02     0.01   0.00  -0.03
    55   6     0.18  -0.06  -0.01    -0.07   0.03  -0.02    -0.00   0.01  -0.02
    56   6     0.13  -0.05   0.00    -0.01   0.02  -0.02     0.09  -0.02  -0.03
    57   1     0.04   0.02  -0.00    -0.02   0.01   0.04    -0.12   0.08   0.13
    58   1     0.05   0.04   0.01    -0.03  -0.05   0.00    -0.05  -0.06   0.04
    59   1     0.11   0.05   0.04    -0.03   0.00  -0.02     0.00   0.14  -0.01
    60   1     0.27  -0.09  -0.01    -0.19   0.05  -0.03    -0.22   0.04  -0.04
    61   1     0.17  -0.04  -0.10    -0.03   0.04   0.08     0.10   0.07   0.17
    62   1     0.16  -0.06   0.04    -0.03   0.01  -0.10     0.11  -0.07  -0.19
    63   1     0.08  -0.04  -0.00     0.08   0.02  -0.02     0.24  -0.04  -0.05
    64   1     0.16  -0.00   0.01    -0.05  -0.05  -0.01     0.03  -0.14   0.02
    65   1     0.16  -0.10  -0.00    -0.04   0.10  -0.03     0.05   0.08  -0.07
                     16                     17                     18
                      A                      A                      A
 Frequencies --    150.3291               162.6117               171.5629
 Red. masses --      1.8004                 2.7157                 2.2808
 Frc consts  --      0.0240                 0.0423                 0.0396
 IR Inten    --      0.0000                 0.0000                 0.0000
  Atom  AN      X      Y      Z        X      Y      Z        X      Y      Z
     1  26    -0.02  -0.02   0.01     0.00   0.01  -0.04    -0.01  -0.01  -0.01
     2   6    -0.00   0.00  -0.01    -0.00   0.01   0.03     0.01   0.01   0.02
     3  46     0.01   0.00  -0.03     0.01   0.02   0.01     0.01   0.00  -0.00
     4   6    -0.01   0.02  -0.00    -0.04  -0.02   0.00    -0.01  -0.00  -0.02
     5   1     0.02   0.03  -0.01    -0.03   0.02   0.09    -0.00   0.02   0.03
     6   1    -0.05   0.02  -0.03     0.06   0.03   0.12     0.00   0.02   0.03
     7   1    -0.08  -0.03   0.01     0.17   0.02  -0.00     0.03   0.01   0.01
     8   6    -0.00  -0.02   0.03     0.03   0.01   0.03    -0.01  -0.03   0.03
     9   8    -0.00  -0.00  -0.00    -0.03  -0.01   0.04    -0.02   0.03   0.01
    10   6    -0.00  -0.00  -0.02    -0.04  -0.02   0.01    -0.01  -0.01  -0.02
    11   8    -0.02  -0.08   0.12    -0.00   0.03   0.02    -0.06  -0.10   0.15
    12   6    -0.00   0.01   0.03    -0.06  -0.03  -0.10    -0.04   0.00  -0.04
    13   6    -0.00   0.02   0.02    -0.09  -0.05  -0.05    -0.05  -0.01  -0.02
    14   6    -0.00   0.01  -0.01    -0.07  -0.04   0.02    -0.03  -0.01  -0.00
    15   1    -0.01   0.01   0.05    -0.07  -0.03  -0.15    -0.05   0.02  -0.04
    16   1     0.00   0.02   0.03    -0.11  -0.06  -0.06    -0.06  -0.01  -0.01
    17   1    -0.00   0.01  -0.01    -0.08  -0.05   0.06    -0.04  -0.02   0.02
    18   1     0.03  -0.03   0.01    -0.02   0.03   0.02     0.03  -0.00   0.01
    19   6     0.00  -0.01  -0.01    -0.05   0.00  -0.03    -0.02   0.01  -0.03
    20   6     0.01   0.01  -0.00     0.02   0.02   0.04     0.03   0.00   0.02
    21   8    -0.00   0.01  -0.02     0.01   0.00   0.00     0.00   0.02   0.01
    22   6    -0.02  -0.05   0.03     0.10   0.02  -0.05     0.04  -0.01  -0.01
    23   6     0.01  -0.02   0.03     0.04   0.02  -0.02     0.03  -0.00   0.00
    24   6     0.01   0.00   0.00     0.02   0.02   0.06     0.01   0.01   0.02
    25   6    -0.03  -0.00  -0.01     0.07   0.03   0.07     0.01   0.01   0.02
    26   6    -0.05  -0.03   0.01     0.12   0.03   0.01     0.03  -0.00   0.00
    27   1    -0.01  -0.07   0.04     0.10   0.04  -0.06     0.04  -0.02  -0.01
    28   7     0.01   0.00   0.00     0.04   0.01   0.04     0.02  -0.01   0.03
    29   1     0.01  -0.00   0.00     0.01   0.04   0.04     0.03  -0.00   0.02
    30   1    -0.00   0.04  -0.01    -0.04  -0.02   0.01    -0.01  -0.01  -0.02
    31   1    -0.03   0.01   0.02    -0.05  -0.02  -0.01    -0.00  -0.01  -0.01
    32   1     0.04  -0.03   0.05     0.01   0.01  -0.05     0.03  -0.01  -0.00
    33   7     0.00   0.04  -0.01    -0.05  -0.04  -0.00    -0.00   0.01  -0.02
    34   6    -0.01   0.03  -0.01    -0.05  -0.04  -0.03    -0.01   0.00  -0.02
    35   6     0.02   0.07   0.01    -0.07  -0.09  -0.03     0.00   0.03  -0.02
    36   1    -0.01   0.04   0.02    -0.04  -0.04  -0.06    -0.01   0.01  -0.00
    37   1    -0.02   0.01  -0.02    -0.05  -0.01  -0.03    -0.02  -0.01  -0.02
    38   1     0.01   0.05  -0.02    -0.04  -0.07  -0.03     0.00   0.01  -0.03
    39   1     0.07   0.05   0.07    -0.17  -0.06  -0.15    -0.00   0.03   0.00
    40   1     0.01   0.15  -0.01    -0.06  -0.24  -0.00     0.00   0.04  -0.02
    41   1    -0.02   0.01  -0.03    -0.01   0.01   0.04     0.00   0.03  -0.03
    42   6     0.02   0.01   0.01    -0.02   0.00   0.02     0.02   0.01   0.05
    43   6     0.02  -0.00   0.00    -0.06   0.04  -0.00    -0.02   0.02   0.02
    44   6     0.01  -0.01   0.00    -0.04   0.01   0.02    -0.04  -0.01   0.03
    45   1     0.04   0.01   0.02    -0.04   0.00   0.00     0.03  -0.01   0.07
    46   1     0.00   0.03   0.03     0.01  -0.03   0.00     0.00   0.01   0.06
    47   1     0.03   0.00   0.00    -0.13   0.01  -0.04    -0.06   0.00  -0.01
    48   1     0.03  -0.01   0.00    -0.06   0.12  -0.02    -0.01   0.07  -0.01
    49   1     0.01   0.00   0.01    -0.06  -0.14   0.07    -0.07  -0.15   0.10
    50   1     0.02  -0.02   0.00    -0.14   0.06  -0.06    -0.14   0.03  -0.07
    51   1    -0.00  -0.02   0.01     0.08   0.07   0.06     0.08   0.05   0.07
    52   8     0.00   0.02  -0.05     0.04  -0.01   0.02     0.00   0.03  -0.10
    53   6    -0.00   0.02   0.01     0.05  -0.01  -0.02    -0.01   0.00   0.06
    54   6     0.01   0.01  -0.01     0.04  -0.01   0.01     0.02   0.01  -0.04
    55   6    -0.01   0.02  -0.00     0.05  -0.01   0.02    -0.01   0.01  -0.05
    56   6     0.03  -0.00  -0.01     0.02  -0.02   0.01     0.10   0.01  -0.03
    57   1    -0.17   0.12   0.25    -0.10   0.09   0.19     0.23  -0.13  -0.25
    58   1     0.13  -0.26   0.02     0.22  -0.25  -0.01    -0.29   0.36   0.04
    59   1     0.02   0.21  -0.25     0.06   0.15  -0.29    -0.01  -0.23   0.47
    60   1    -0.33   0.06  -0.02    -0.07   0.01   0.01     0.11  -0.02  -0.05
    61   1     0.14   0.10   0.28     0.12   0.04   0.13    -0.07  -0.04  -0.16
    62   1     0.15  -0.10  -0.23     0.12  -0.06  -0.08    -0.07   0.07   0.03
    63   1     0.32  -0.03  -0.03     0.21  -0.04  -0.00    -0.01   0.01  -0.03
    64   1    -0.13  -0.26   0.01    -0.10  -0.19   0.00     0.19   0.12   0.01
    65   1    -0.09   0.24  -0.02    -0.08   0.16   0.03     0.17  -0.11  -0.07
                     19                     20                     21
                      A                      A                      A
 Frequencies --    183.1890               187.6367               191.1459
 Red. masses --      2.7811                 5.1487                 4.4324
 Frc consts  --      0.0550                 0.1068                 0.0954
 IR Inten    --      0.0000                 0.0000                 0.0000
  Atom  AN      X      Y      Z        X      Y      Z        X      Y      Z
     1  26     0.00   0.01   0.00     0.07  -0.04  -0.01    -0.01  -0.04  -0.03
     2   6     0.05   0.04  -0.02    -0.04  -0.01  -0.00     0.03   0.02   0.08
     3  46     0.01  -0.04   0.01    -0.02   0.08  -0.01     0.01  -0.03   0.06
     4   6     0.03  -0.02  -0.03    -0.03   0.04   0.03     0.03   0.03  -0.06
     5   1    -0.00  -0.01  -0.04     0.06  -0.08   0.07     0.02   0.02   0.02
     6   1    -0.00  -0.00  -0.03     0.11  -0.09   0.06    -0.02   0.03   0.00
     7   1    -0.03   0.05   0.00     0.15  -0.08   0.02    -0.01   0.02   0.02
     8   6    -0.03  -0.02  -0.05    -0.06  -0.04  -0.05    -0.02  -0.02   0.00
     9   8     0.03   0.12  -0.07    -0.01   0.02  -0.03     0.02   0.06   0.05
    10   6     0.00   0.01  -0.01    -0.00  -0.02  -0.02     0.01   0.01  -0.09
    11   8    -0.02   0.01  -0.09    -0.03  -0.03  -0.08    -0.04   0.06  -0.09
    12   6     0.00   0.02   0.01     0.06  -0.06  -0.03    -0.09   0.08  -0.07
    13   6     0.01   0.02   0.00     0.06  -0.00  -0.00    -0.12   0.03  -0.03
    14   6     0.01   0.01  -0.01     0.03   0.02  -0.01    -0.05  -0.01  -0.04
    15   1    -0.00   0.02   0.03     0.09  -0.09  -0.03    -0.14   0.13  -0.05
    16   1     0.01   0.02  -0.00     0.08   0.02   0.03    -0.17   0.02  -0.01
    17   1     0.01   0.01  -0.02     0.02   0.06   0.01    -0.05  -0.05   0.00
    18   1    -0.04   0.01  -0.03     0.04  -0.08  -0.06    -0.02   0.13  -0.06
    19   6    -0.00   0.02   0.00     0.02  -0.07  -0.03    -0.02   0.09  -0.06
    20   6     0.06  -0.03  -0.01    -0.04  -0.06  -0.01    -0.00  -0.02   0.05
    21   8     0.00   0.06   0.03    -0.10   0.02   0.02     0.06  -0.00   0.11
    22   6    -0.02   0.03  -0.01     0.10  -0.06   0.03     0.06  -0.07  -0.03
    23   6    -0.02   0.01  -0.03     0.07  -0.06   0.04     0.06  -0.04  -0.02
    24   6    -0.01   0.00  -0.03     0.07  -0.07   0.06     0.03   0.00   0.01
    25   6    -0.01   0.01  -0.02     0.11  -0.09   0.05     0.01   0.00  -0.00
    26   6    -0.02   0.03  -0.01     0.13  -0.08   0.03     0.02  -0.03  -0.01
    27   1    -0.03   0.03  -0.01     0.06  -0.02   0.05     0.07  -0.09  -0.03
    28   7    -0.01   0.01  -0.04    -0.04  -0.02  -0.04    -0.00  -0.07   0.10
    29   1     0.07  -0.07  -0.05    -0.04  -0.06  -0.01     0.00   0.02   0.03
    30   1     0.02  -0.06  -0.02    -0.02   0.08   0.01     0.02   0.03  -0.07
    31   1     0.07  -0.01  -0.04    -0.05   0.02   0.09     0.04   0.02  -0.02
    32   1    -0.01   0.01  -0.03     0.04  -0.05   0.04     0.08  -0.07  -0.03
    33   7     0.03  -0.02  -0.02    -0.03   0.09   0.02     0.03   0.08  -0.07
    34   6     0.00  -0.04   0.01     0.07   0.19  -0.01     0.02   0.08  -0.06
    35   6     0.03   0.05  -0.01     0.00  -0.05   0.02     0.06   0.19  -0.03
    36   1    -0.02  -0.03  -0.01     0.17   0.15   0.08     0.01   0.08  -0.06
    37   1     0.03  -0.05   0.03    -0.01   0.20  -0.06     0.03   0.07  -0.05
    38   1    -0.02  -0.06   0.03     0.13   0.30  -0.06     0.02   0.07  -0.05
    39   1     0.02   0.06   0.05     0.07  -0.07  -0.06     0.16   0.16   0.16
    40   1     0.02   0.11  -0.02     0.01  -0.09   0.03     0.05   0.40  -0.07
    41   1     0.03   0.05  -0.06    -0.04  -0.10   0.09    -0.00   0.09  -0.14
    42   6     0.05   0.02   0.14    -0.05  -0.05   0.03    -0.04  -0.08  -0.08
    43   6    -0.04   0.05   0.05    -0.03  -0.04   0.07    -0.03  -0.05  -0.02
    44   6    -0.10  -0.05   0.09    -0.05  -0.04   0.06     0.04   0.04  -0.04
    45   1     0.16  -0.04   0.23    -0.06  -0.07   0.04    -0.16  -0.05  -0.15
    46   1    -0.02   0.09   0.21    -0.03  -0.03   0.00     0.03  -0.18  -0.14
    47   1    -0.12   0.01   0.00    -0.01  -0.03   0.08    -0.02  -0.04   0.02
    48   1    -0.01   0.16  -0.01    -0.04  -0.07   0.07    -0.06  -0.07   0.02
    49   1    -0.18  -0.38   0.26    -0.06  -0.02   0.07     0.10   0.25  -0.16
    50   1    -0.34   0.04  -0.15    -0.04  -0.06   0.06     0.19  -0.00   0.13
    51   1     0.17   0.09   0.17    -0.08  -0.06   0.06    -0.13  -0.05  -0.10
    52   8    -0.03  -0.06   0.00    -0.07  -0.05  -0.03    -0.02  -0.03   0.01
    53   6    -0.06   0.05   0.02    -0.12   0.07   0.03    -0.03   0.03   0.01
    54   6    -0.01  -0.03   0.00    -0.05  -0.02  -0.02    -0.01  -0.01   0.00
    55   6     0.05  -0.04  -0.01    -0.01  -0.03  -0.02     0.00  -0.01   0.01
    56   6     0.01  -0.04   0.00    -0.01  -0.04  -0.02    -0.00  -0.02   0.01
    57   1    -0.21   0.11   0.14    -0.22   0.09   0.06    -0.10   0.06   0.06
    58   1    -0.00  -0.09   0.02    -0.17   0.05   0.03    -0.00  -0.03   0.01
    59   1    -0.00   0.20  -0.10    -0.05   0.17   0.05    -0.01   0.10  -0.05
    60   1    -0.00  -0.05  -0.01    -0.15  -0.03  -0.03     0.01  -0.01   0.01
    61   1     0.10   0.02   0.03     0.08   0.04   0.09     0.00  -0.01  -0.00
    62   1     0.10  -0.09  -0.05     0.08  -0.11  -0.14    -0.00  -0.01   0.02
    63   1    -0.02  -0.05  -0.01    -0.14  -0.03  -0.03    -0.02  -0.02  -0.00
    64   1     0.04  -0.02   0.02     0.08   0.07   0.02     0.01  -0.01   0.01
    65   1     0.03  -0.08  -0.01     0.06  -0.17  -0.04     0.00  -0.03   0.01
                     22                     23                     24
                      A                      A                      A
 Frequencies --    209.3429               221.3710               225.5502
 Red. masses --      4.3749                 1.2189                 1.2367
 Frc consts  --      0.1130                 0.0352                 0.0371
 IR Inten    --      0.0000                 0.0000                 0.0000
  Atom  AN      X      Y      Z        X      Y      Z        X      Y      Z
     1  26    -0.00   0.04  -0.05     0.01   0.00  -0.01     0.00  -0.00  -0.00
     2   6     0.00   0.01  -0.01     0.00   0.00  -0.01     0.01   0.00  -0.01
     3  46     0.08  -0.05  -0.00    -0.02  -0.01  -0.00    -0.02  -0.01  -0.00
     4   6    -0.03   0.19   0.13    -0.00   0.02   0.01    -0.00   0.01   0.00
     5   1    -0.06  -0.02   0.00    -0.00  -0.01   0.01    -0.00  -0.00   0.00
     6   1    -0.02  -0.06  -0.05     0.01  -0.03  -0.01     0.00  -0.00   0.01
     7   1     0.04  -0.13  -0.10     0.02  -0.03  -0.01     0.01  -0.00   0.00
     8   6    -0.01  -0.01   0.00    -0.00   0.01  -0.00     0.01  -0.01   0.01
     9   8     0.01   0.02  -0.02     0.01   0.01  -0.02     0.02   0.02  -0.02
    10   6     0.04   0.05   0.02     0.00   0.01  -0.00     0.00   0.00  -0.00
    11   8    -0.02  -0.02   0.01    -0.01  -0.01   0.01     0.02   0.01  -0.03
    12   6    -0.04   0.09  -0.07     0.01   0.00  -0.01    -0.00   0.00  -0.00
    13   6    -0.05   0.01  -0.06     0.01   0.01  -0.01    -0.00   0.01  -0.00
    14   6     0.01  -0.01  -0.03     0.00   0.01  -0.01    -0.00   0.00  -0.00
    15   1    -0.08   0.13  -0.08     0.01   0.00  -0.01    -0.00   0.00  -0.00
    16   1    -0.10  -0.02  -0.07     0.01   0.01  -0.00    -0.00   0.01   0.00
    17   1     0.01  -0.05  -0.01     0.00   0.01  -0.00    -0.00   0.00   0.00
    18   1     0.03   0.11  -0.02     0.02   0.00  -0.01     0.01   0.01  -0.02
    19   6     0.02   0.12  -0.01     0.01   0.00  -0.01     0.00   0.00  -0.01
    20   6    -0.01  -0.00  -0.01    -0.01  -0.00  -0.01     0.01  -0.01  -0.01
    21   8    -0.00   0.01  -0.00     0.01   0.00   0.01     0.01   0.00   0.01
    22   6    -0.04  -0.03  -0.02     0.00  -0.01   0.01     0.00  -0.00  -0.00
    23   6    -0.08   0.00   0.02    -0.01  -0.00   0.02     0.00  -0.00   0.00
    24   6    -0.06  -0.02  -0.00    -0.00  -0.01   0.01     0.00  -0.00   0.00
    25   6    -0.01  -0.07  -0.05     0.01  -0.02  -0.00     0.00  -0.00   0.00
    26   6     0.00  -0.08  -0.06     0.01  -0.03  -0.01     0.01  -0.00  -0.00
    27   1    -0.04  -0.04  -0.02     0.00  -0.01   0.01     0.01  -0.00  -0.00
    28   7    -0.01   0.00  -0.01    -0.01   0.00  -0.01    -0.00  -0.01  -0.01
    29   1    -0.00  -0.00  -0.01    -0.00  -0.01  -0.02     0.01  -0.02  -0.02
    30   1     0.04   0.36   0.13     0.00   0.03   0.01     0.00   0.02   0.00
    31   1    -0.21   0.17   0.18    -0.01   0.02   0.02    -0.01   0.01   0.01
    32   1    -0.11   0.04   0.04    -0.02   0.01   0.02    -0.00  -0.00   0.00
    33   7    -0.03   0.09   0.13    -0.00   0.02   0.02    -0.00   0.01   0.00
    34   6    -0.05   0.06   0.06     0.02   0.04   0.01     0.01   0.03   0.00
    35   6    -0.08  -0.12   0.07     0.01  -0.00   0.02     0.00  -0.00   0.00
    36   1    -0.08   0.07  -0.09     0.04   0.03   0.03     0.03   0.02   0.01
    37   1    -0.00   0.15   0.10     0.00   0.04   0.00     0.01   0.04  -0.00
    38   1    -0.10  -0.06   0.11     0.03   0.06   0.01     0.02   0.04  -0.00
    39   1    -0.10  -0.11  -0.17     0.04  -0.02   0.02     0.02  -0.01   0.00
    40   1    -0.10  -0.33   0.13     0.01   0.01   0.02     0.00   0.00   0.00
    41   1    -0.07  -0.09   0.20    -0.02  -0.04   0.03    -0.01  -0.01   0.01
    42   6    -0.01  -0.00   0.01     0.00   0.01   0.01     0.01  -0.01   0.01
    43   6     0.02  -0.02   0.03     0.01  -0.00   0.01    -0.00  -0.00   0.01
    44   6    -0.01  -0.03   0.03    -0.01  -0.01   0.01    -0.01   0.00   0.01
    45   1    -0.00  -0.01   0.02     0.01  -0.00   0.02     0.01  -0.02   0.02
    46   1    -0.01   0.01   0.01    -0.01   0.03   0.01     0.00  -0.00   0.01
    47   1     0.06  -0.00   0.04     0.02   0.00   0.01    -0.01  -0.00   0.02
    48   1     0.02  -0.07   0.03     0.01  -0.01   0.01     0.00  -0.00   0.01
    49   1    -0.02   0.04   0.02    -0.02  -0.04   0.03    -0.02  -0.04   0.03
    50   1     0.04  -0.08   0.04    -0.03  -0.01  -0.01    -0.05   0.03  -0.02
    51   1    -0.08  -0.07   0.01     0.01  -0.00   0.01     0.03   0.02   0.00
    52   8    -0.02   0.00  -0.00    -0.00   0.01  -0.01     0.01  -0.02   0.06
    53   6    -0.04   0.02   0.01     0.02  -0.01   0.01     0.03  -0.00  -0.03
    54   6    -0.02   0.00   0.00     0.01   0.01   0.01     0.01   0.01   0.01
    55   6    -0.03   0.01   0.01     0.01   0.01   0.00     0.03   0.00   0.01
    56   6    -0.03   0.01   0.00     0.03  -0.00   0.01    -0.04   0.03   0.01
    57   1    -0.04   0.01  -0.00    -0.02   0.03   0.09     0.24  -0.13  -0.33
    58   1    -0.06   0.04   0.01     0.08  -0.10   0.01    -0.12   0.34  -0.04
    59   1    -0.02   0.02   0.04     0.01   0.03  -0.09    -0.01  -0.24   0.26
    60   1    -0.13   0.02   0.00     0.45  -0.04   0.03    -0.20   0.03  -0.01
    61   1     0.01   0.03   0.10    -0.21  -0.12  -0.38     0.14   0.07   0.21
    62   1     0.02  -0.03  -0.07    -0.23   0.18   0.34     0.15  -0.09  -0.16
    63   1    -0.12   0.02   0.01     0.35  -0.03  -0.01     0.29   0.01   0.01
    64   1     0.03   0.09  -0.01    -0.15  -0.28   0.02    -0.24  -0.26  -0.02
    65   1     0.01  -0.07   0.00    -0.11   0.28   0.01    -0.20   0.33   0.03
                     25                     26                     27
                      A                      A                      A
 Frequencies --    226.2039               233.0543               233.9974
 Red. masses --      1.8356                 2.8826                 2.7719
 Frc consts  --      0.0553                 0.0922                 0.0894
 IR Inten    --      0.0000                 0.0000                 0.0000
  Atom  AN      X      Y      Z        X      Y      Z        X      Y      Z
     1  26    -0.00  -0.01   0.00    -0.02  -0.03   0.04    -0.01  -0.03   0.03
     2   6    -0.01  -0.02   0.01     0.02   0.01  -0.01    -0.04  -0.02   0.02
     3  46    -0.03  -0.02   0.00    -0.01  -0.03  -0.01     0.06   0.01   0.01
     4   6     0.00   0.04   0.02     0.00   0.01  -0.01     0.01  -0.00  -0.00
     5   1     0.00  -0.01  -0.00     0.01  -0.02  -0.05     0.02  -0.02  -0.06
     6   1    -0.01   0.01   0.01    -0.05   0.11   0.08    -0.04   0.07   0.02
     7   1    -0.00  -0.00   0.00    -0.04   0.14   0.05    -0.05   0.09   0.02
     8   6     0.01  -0.01   0.00     0.02   0.00   0.01    -0.04  -0.01  -0.01
     9   8    -0.02  -0.03   0.02     0.04   0.05  -0.04    -0.05  -0.07   0.05
    10   6     0.02   0.01  -0.01     0.01  -0.01  -0.02     0.01  -0.01  -0.00
    11   8     0.01  -0.01   0.01     0.03  -0.01   0.02    -0.05   0.01  -0.03
    12   6     0.00   0.02   0.01    -0.03   0.01   0.05    -0.00   0.01   0.06
    13   6     0.00   0.01   0.01    -0.03   0.00   0.05     0.01  -0.00   0.03
    14   6     0.01   0.00  -0.01    -0.02  -0.01   0.03     0.01  -0.01   0.01
    15   1    -0.01   0.03   0.03    -0.05   0.02   0.07    -0.01   0.02   0.09
    16   1    -0.01   0.02   0.02    -0.04   0.01   0.06     0.01  -0.00   0.03
    17   1     0.01  -0.00  -0.00    -0.02  -0.02   0.04     0.01  -0.02  -0.01
    18   1     0.02   0.02  -0.03     0.05  -0.01  -0.04    -0.02   0.00   0.02
    19   6     0.02   0.01  -0.01     0.01  -0.02  -0.02    -0.01   0.00   0.04
    20   6     0.04  -0.03   0.02    -0.01  -0.01  -0.02    -0.01   0.01   0.02
    21   8    -0.02  -0.01  -0.00     0.03   0.01   0.02    -0.04  -0.02  -0.01
    22   6     0.01  -0.01  -0.01     0.01   0.05  -0.05    -0.00   0.03  -0.03
    23   6     0.01  -0.01  -0.00     0.04  -0.00  -0.10     0.03  -0.01  -0.07
    24   6     0.00  -0.01  -0.00     0.01   0.02  -0.05     0.01   0.01  -0.05
    25   6    -0.00   0.00   0.01    -0.03   0.09   0.03    -0.03   0.06   0.00
    26   6    -0.00  -0.00   0.00    -0.03   0.12   0.03    -0.04   0.07   0.01
    27   1     0.02  -0.02  -0.02     0.02   0.05  -0.07     0.00   0.03  -0.04
    28   7     0.00  -0.03   0.02    -0.00  -0.02  -0.01    -0.01   0.02   0.00
    29   1     0.03  -0.07   0.03    -0.01   0.01  -0.04    -0.02   0.00   0.04
    30   1     0.01   0.07   0.01     0.01   0.04  -0.01     0.02   0.02   0.01
    31   1    -0.03   0.03   0.04    -0.01  -0.01   0.04     0.00  -0.01   0.01
    32   1     0.01  -0.02  -0.01     0.08  -0.06  -0.15     0.06  -0.05  -0.10
    33   7    -0.01   0.04   0.02    -0.00   0.05  -0.01     0.02   0.01  -0.01
    34   6     0.04   0.09   0.01     0.10   0.15  -0.03     0.03   0.01  -0.00
    35   6     0.00  -0.03   0.01    -0.04  -0.08  -0.08    -0.03  -0.05  -0.06
    36   1     0.09   0.07   0.02     0.20   0.11   0.11     0.03   0.01   0.01
    37   1     0.02   0.10  -0.01    -0.01   0.12  -0.11     0.02   0.00  -0.01
    38   1     0.05   0.12  -0.00     0.19   0.28  -0.10     0.03   0.02  -0.01
    39   1     0.03  -0.03  -0.04    -0.18  -0.03  -0.33    -0.17  -0.00  -0.23
    40   1    -0.00  -0.05   0.02    -0.04  -0.35  -0.02    -0.04  -0.24  -0.02
    41   1    -0.01  -0.04   0.04     0.05   0.06   0.04     0.06   0.08  -0.00
    42   6     0.08  -0.02  -0.01    -0.04  -0.01   0.01     0.01   0.00  -0.02
    43   6     0.02   0.03  -0.06    -0.02  -0.02   0.05    -0.00   0.02  -0.05
    44   6     0.05   0.11  -0.09    -0.05  -0.06   0.06     0.04   0.05  -0.05
    45   1     0.10  -0.01  -0.00    -0.06  -0.03   0.02     0.01   0.03  -0.04
    46   1     0.05  -0.02   0.03    -0.02  -0.00  -0.01     0.01  -0.01  -0.02
    47   1    -0.09  -0.01  -0.04     0.03  -0.00   0.04    -0.04  -0.00  -0.05
    48   1     0.03   0.12  -0.09    -0.02  -0.06   0.06    -0.01   0.06  -0.05
    49   1    -0.01  -0.30   0.07    -0.03   0.09   0.01     0.05  -0.03  -0.05
    50   1    -0.30   0.38  -0.26     0.08  -0.18   0.11    -0.03   0.12  -0.06
    51   1     0.48   0.30  -0.09    -0.22  -0.14   0.07     0.13   0.09  -0.06
    52   8     0.01   0.01   0.00     0.02   0.03  -0.01    -0.05  -0.05  -0.00
    53   6     0.02  -0.02  -0.00     0.06  -0.04  -0.02    -0.12   0.09   0.05
    54   6    -0.00   0.01   0.01     0.02   0.01   0.00    -0.04  -0.02  -0.01
    55   6    -0.02   0.01   0.02    -0.02   0.03   0.03     0.02  -0.04  -0.05
    56   6    -0.02   0.02   0.01     0.01   0.03   0.00    -0.02  -0.06  -0.01
    57   1    -0.01   0.01   0.06     0.06  -0.02   0.04    -0.16   0.07  -0.03
    58   1     0.07  -0.09   0.00     0.12  -0.11  -0.02    -0.25   0.19   0.04
    59   1     0.00   0.01  -0.08     0.02  -0.05  -0.11    -0.05   0.13   0.19
    60   1    -0.06   0.03   0.02    -0.01   0.05   0.03     0.17  -0.11  -0.04
    61   1    -0.01   0.01   0.06    -0.04  -0.00   0.04    -0.03  -0.04  -0.21
    62   1    -0.00   0.00  -0.01    -0.03   0.04   0.04    -0.04  -0.01   0.05
    63   1    -0.17   0.03   0.02    -0.11   0.04   0.02     0.31  -0.10  -0.05
    64   1     0.06   0.15  -0.01     0.08   0.13  -0.01    -0.19  -0.34   0.03
    65   1     0.05  -0.11   0.01     0.06  -0.07  -0.00    -0.15   0.21  -0.00
                     28                     29                     30
                      A                      A                      A
 Frequencies --    247.4070               250.4534               278.8413
 Red. masses --      3.9392                 3.4105                 4.2149
 Frc consts  --      0.1421                 0.1260                 0.1931
 IR Inten    --      0.0000                 0.0000                 0.0000
  Atom  AN      X      Y      Z        X      Y      Z        X      Y      Z
     1  26     0.01   0.03   0.00    -0.01  -0.05   0.01     0.11  -0.01   0.06
     2   6     0.05  -0.01   0.01    -0.02  -0.04  -0.06    -0.01   0.02   0.02
     3  46     0.07   0.03  -0.02    -0.01   0.05   0.02    -0.01   0.01  -0.00
     4   6    -0.03  -0.08  -0.03     0.06   0.07   0.02    -0.00   0.02   0.01
     5   1    -0.02   0.02  -0.01     0.04  -0.02  -0.00     0.09  -0.12  -0.15
     6   1     0.03  -0.04  -0.05    -0.04   0.08   0.08     0.07  -0.13  -0.15
     7   1    -0.01  -0.02  -0.03    -0.01   0.06   0.06    -0.14   0.06   0.04
     8   6     0.01  -0.08  -0.00     0.01  -0.03  -0.03    -0.00   0.04   0.02
     9   8     0.01   0.08  -0.05     0.02  -0.01  -0.09     0.02   0.01   0.02
    10   6    -0.07  -0.01   0.03     0.12  -0.01  -0.02     0.02   0.01   0.03
    11   8    -0.00  -0.07  -0.02     0.03  -0.06  -0.00     0.01   0.02   0.02
    12   6    -0.00  -0.07  -0.04    -0.04   0.10   0.03    -0.06  -0.02  -0.12
    13   6    -0.01  -0.03  -0.01    -0.05  -0.00   0.02    -0.13  -0.01   0.05
    14   6    -0.05   0.01   0.03     0.05  -0.07  -0.01    -0.08  -0.00   0.15
    15   1     0.03  -0.11  -0.10    -0.11   0.17   0.06    -0.07  -0.01  -0.24
    16   1     0.03  -0.02  -0.03    -0.12  -0.03   0.03    -0.16  -0.01   0.07
    17   1    -0.05   0.03   0.03     0.06  -0.14   0.01    -0.09  -0.03   0.27
    18   1    -0.03  -0.08   0.03     0.09   0.07  -0.03     0.17  -0.01  -0.15
    19   6    -0.04  -0.06   0.01     0.07   0.10   0.01     0.04  -0.03  -0.14
    20   6     0.09  -0.11   0.02    -0.02  -0.06  -0.05    -0.04   0.03   0.00
    21   8     0.00   0.02   0.02    -0.08  -0.01  -0.01     0.02   0.00   0.03
    22   6    -0.05   0.04   0.03     0.05  -0.03  -0.02    -0.12   0.07   0.07
    23   6    -0.04   0.03   0.02     0.07  -0.04  -0.03    -0.03  -0.01  -0.01
    24   6    -0.02   0.01  -0.01     0.04  -0.01   0.00     0.05  -0.10  -0.12
    25   6    -0.00  -0.01  -0.03    -0.00   0.04   0.04     0.03  -0.09  -0.11
    26   6    -0.02   0.01  -0.01     0.01   0.02   0.03    -0.08   0.02   0.01
    27   1    -0.08   0.07   0.05     0.06  -0.04  -0.02    -0.19   0.14   0.13
    28   7     0.03  -0.10   0.05    -0.01  -0.03  -0.08    -0.02   0.02   0.00
    29   1     0.09  -0.11  -0.01    -0.02  -0.06  -0.04    -0.04   0.03   0.00
    30   1    -0.07  -0.18  -0.03     0.11   0.22   0.02    -0.01   0.01  -0.01
    31   1     0.07  -0.07  -0.06    -0.09   0.07   0.05    -0.00   0.02   0.01
    32   1    -0.06   0.06   0.05     0.11  -0.09  -0.07    -0.02  -0.01   0.01
    33   7    -0.03  -0.02  -0.04     0.05  -0.01   0.02    -0.02   0.02  -0.00
    34   6    -0.01   0.00  -0.03    -0.07  -0.14  -0.03    -0.07  -0.02  -0.09
    35   6    -0.01   0.00  -0.02     0.00   0.03  -0.01    -0.04   0.02  -0.02
    36   1     0.02  -0.01   0.15    -0.20  -0.09  -0.32    -0.12  -0.00  -0.20
    37   1    -0.11  -0.09  -0.11     0.09  -0.01   0.09    -0.07   0.05  -0.09
    38   1     0.09   0.12  -0.11    -0.20  -0.39   0.09    -0.06  -0.14  -0.08
    39   1    -0.00  -0.00   0.02    -0.11   0.07  -0.06    -0.11   0.04  -0.08
    40   1    -0.00   0.04  -0.03     0.00  -0.06   0.01    -0.04  -0.06  -0.00
    41   1    -0.02  -0.01  -0.03     0.07   0.12  -0.01     0.00   0.08  -0.00
    42   6     0.02  -0.16   0.00    -0.02  -0.05  -0.01    -0.02   0.02  -0.03
    43   6    -0.02  -0.08   0.04    -0.01  -0.04   0.04     0.07  -0.04   0.03
    44   6     0.01   0.03  -0.00    -0.02  -0.00   0.02     0.02   0.02  -0.01
    45   1    -0.04  -0.18  -0.01    -0.02  -0.08   0.01    -0.04   0.04  -0.05
    46   1     0.04  -0.23  -0.01    -0.01  -0.02  -0.02    -0.01   0.01  -0.04
    47   1    -0.08  -0.09   0.10     0.01  -0.03   0.07     0.17   0.01   0.10
    48   1    -0.03  -0.07   0.04    -0.01  -0.07   0.04     0.07  -0.18   0.05
    49   1    -0.01  -0.05   0.03    -0.05  -0.11   0.08    -0.04  -0.11   0.09
    50   1    -0.10   0.16  -0.01    -0.12   0.07  -0.04    -0.13   0.13  -0.10
    51   1     0.15   0.09  -0.07     0.09   0.05  -0.00     0.18   0.08  -0.07
    52   8    -0.03   0.03   0.01    -0.01   0.02  -0.00     0.01   0.01   0.01
    53   6    -0.02   0.01   0.01     0.02  -0.02  -0.01    -0.00   0.00  -0.00
    54   6    -0.04   0.05   0.03    -0.01   0.02   0.01     0.00  -0.01  -0.01
    55   6    -0.12   0.08   0.09    -0.05   0.04   0.05     0.02  -0.02  -0.03
    56   6    -0.11   0.12   0.03    -0.04   0.06   0.01     0.03  -0.04  -0.01
    57   1    -0.00   0.01   0.04     0.05  -0.02   0.01    -0.01   0.00  -0.00
    58   1     0.01  -0.02   0.02     0.06  -0.05  -0.01    -0.01   0.00  -0.00
    59   1    -0.04  -0.01  -0.02    -0.01  -0.05  -0.05     0.00   0.01   0.00
    60   1     0.00   0.15   0.09     0.02   0.08   0.05     0.02  -0.05  -0.03
    61   1    -0.23  -0.04   0.02    -0.11  -0.02   0.01     0.04   0.01  -0.05
    62   1    -0.22   0.17   0.21    -0.10   0.09   0.12     0.04  -0.03  -0.05
    63   1    -0.06   0.14   0.10     0.00   0.07   0.05     0.05  -0.05  -0.04
    64   1    -0.18   0.08  -0.07    -0.07   0.04  -0.03     0.04  -0.05   0.04
    65   1    -0.17   0.21   0.06    -0.06   0.12   0.01     0.04  -0.05  -0.02
                     31                     32                     33
                      A                      A                      A
 Frequencies --    284.1716               292.4779               305.2022
 Red. masses --      2.4204                 1.2698                 2.6908
 Frc consts  --      0.1152                 0.0640                 0.1477
 IR Inten    --      0.0000                 0.0000                 0.0000
  Atom  AN      X      Y      Z        X      Y      Z        X      Y      Z
     1  26    -0.01   0.01  -0.01     0.01   0.00  -0.00     0.03   0.00   0.01
     2   6    -0.06  -0.02  -0.05     0.01  -0.00  -0.00    -0.04  -0.05  -0.06
     3  46     0.03  -0.00   0.05    -0.01   0.00  -0.00     0.02  -0.01   0.05
     4   6    -0.01  -0.04  -0.03     0.02   0.01   0.01    -0.01  -0.02  -0.02
     5   1    -0.02   0.04   0.02     0.02  -0.00  -0.00     0.02  -0.03  -0.04
     6   1     0.00  -0.01  -0.02     0.01  -0.02  -0.02     0.05  -0.05  -0.05
     7   1     0.01  -0.03  -0.02    -0.00  -0.00   0.01    -0.02   0.01   0.00
     8   6    -0.00   0.01  -0.03     0.00  -0.00  -0.00    -0.01  -0.01  -0.04
     9   8     0.02  -0.05  -0.04    -0.01  -0.00  -0.00    -0.03  -0.08  -0.04
    10   6    -0.02   0.00   0.00     0.05   0.00   0.01    -0.02   0.00   0.01
    11   8    -0.01  -0.01   0.02     0.01   0.00  -0.01    -0.03  -0.04  -0.01
    12   6    -0.01   0.00  -0.00    -0.01   0.04  -0.01    -0.03  -0.01  -0.04
    13   6    -0.00  -0.01  -0.02    -0.02  -0.01  -0.00    -0.04  -0.01  -0.00
    14   6    -0.01  -0.00  -0.02     0.02  -0.03   0.00    -0.04   0.00   0.03
    15   1    -0.01  -0.00  -0.01    -0.04   0.07  -0.01    -0.03  -0.00  -0.04
    16   1     0.00  -0.01  -0.03    -0.05  -0.03  -0.01    -0.04  -0.01  -0.00
    17   1    -0.00  -0.00  -0.03     0.03  -0.06   0.01    -0.04   0.00   0.06
    18   1    -0.05   0.01   0.06    -0.00   0.03  -0.00     0.04   0.00   0.01
    19   6    -0.03   0.02   0.05     0.03   0.04  -0.00    -0.02   0.01   0.01
    20   6    -0.12   0.02  -0.07     0.03  -0.01   0.01     0.04  -0.02  -0.03
    21   8    -0.04  -0.04   0.01    -0.01   0.00  -0.01    -0.09  -0.02  -0.03
    22   6     0.00  -0.01  -0.00    -0.00  -0.01   0.02    -0.02   0.03   0.01
    23   6    -0.01   0.01   0.01     0.00  -0.00   0.02    -0.00  -0.00  -0.01
    24   6    -0.01   0.02   0.02     0.01  -0.01   0.00     0.01  -0.02  -0.03
    25   6    -0.00   0.00  -0.01     0.01  -0.02  -0.01     0.03  -0.03  -0.03
    26   6     0.01  -0.01  -0.01    -0.00  -0.02  -0.00     0.00   0.01  -0.00
    27   1     0.01  -0.02  -0.01    -0.01  -0.01   0.03    -0.05   0.07   0.04
    28   7    -0.03   0.04  -0.09     0.00  -0.00   0.00    -0.00   0.03  -0.08
    29   1    -0.12   0.05  -0.03     0.03  -0.02   0.00     0.03  -0.09   0.00
    30   1    -0.03  -0.10  -0.05     0.03   0.04  -0.00    -0.04  -0.08  -0.04
    31   1     0.06  -0.03  -0.05    -0.01   0.01   0.01     0.05  -0.02  -0.03
    32   1    -0.02   0.03   0.03     0.01   0.00   0.03    -0.00   0.00  -0.01
    33   7    -0.02  -0.00  -0.02     0.00  -0.01   0.02    -0.03   0.02  -0.02
    34   6     0.01   0.03  -0.03    -0.03  -0.05  -0.00     0.01   0.06  -0.05
    35   6    -0.01   0.03  -0.01    -0.02   0.03   0.01    -0.01   0.01  -0.01
    36   1     0.05   0.02   0.28    -0.04  -0.02   0.50     0.05   0.04  -0.16
    37   1    -0.20  -0.13  -0.19    -0.37  -0.34  -0.26     0.04   0.15  -0.02
    38   1     0.22   0.23  -0.19     0.32   0.23  -0.28    -0.03   0.01  -0.01
    39   1     0.02   0.02   0.06    -0.17   0.08  -0.07     0.11  -0.03   0.08
    40   1    -0.02   0.11  -0.03     0.01  -0.12   0.02    -0.05   0.16  -0.02
    41   1    -0.04  -0.00  -0.06     0.07   0.15   0.06    -0.09  -0.09  -0.08
    42   6    -0.07   0.04  -0.06     0.03   0.00   0.03     0.09   0.05   0.08
    43   6     0.07  -0.04   0.06    -0.02   0.02  -0.03    -0.04   0.09  -0.08
    44   6    -0.02  -0.00   0.01     0.01   0.00  -0.01     0.03   0.00  -0.01
    45   1    -0.10   0.04  -0.08     0.06  -0.00   0.04     0.25   0.02   0.17
    46   1    -0.03   0.11  -0.13    -0.00   0.00   0.06    -0.03   0.11   0.20
    47   1     0.23   0.04   0.14    -0.07  -0.01  -0.06    -0.21   0.01  -0.19
    48   1     0.07  -0.24   0.09    -0.02   0.09  -0.04    -0.04   0.31  -0.13
    49   1    -0.12  -0.24   0.18     0.04   0.07  -0.06     0.12   0.22  -0.17
    50   1    -0.26   0.14  -0.17     0.09  -0.05   0.05     0.27  -0.17   0.13
    51   1     0.24   0.11  -0.03    -0.07  -0.03   0.01    -0.24  -0.10   0.06
    52   8     0.00  -0.00  -0.00     0.00  -0.00   0.00    -0.02  -0.02  -0.02
    53   6     0.05  -0.04  -0.01    -0.01   0.01   0.00     0.04  -0.04  -0.01
    54   6     0.02  -0.00   0.01    -0.00  -0.00  -0.00     0.01  -0.00   0.00
    55   6     0.04  -0.00   0.01    -0.01  -0.00  -0.00     0.01   0.02   0.06
    56   6     0.02   0.01   0.01    -0.00  -0.01  -0.00    -0.00   0.07   0.00
    57   1     0.08  -0.04  -0.01    -0.02   0.01  -0.00     0.08  -0.04  -0.02
    58   1     0.08  -0.05  -0.01    -0.02   0.02   0.00     0.07  -0.04  -0.01
    59   1     0.01  -0.07  -0.04    -0.00   0.02   0.01     0.00  -0.08  -0.03
    60   1     0.01  -0.00   0.00    -0.02  -0.00  -0.00     0.02   0.09   0.06
    61   1     0.07   0.03   0.03    -0.01  -0.00  -0.00     0.01   0.00   0.09
    62   1     0.07  -0.04  -0.01    -0.01   0.00  -0.01     0.01   0.00   0.09
    63   1    -0.01   0.01   0.01     0.00  -0.01  -0.01     0.01   0.09   0.07
    64   1     0.03   0.03   0.00    -0.01  -0.01   0.00    -0.01   0.08  -0.05
    65   1     0.03  -0.01   0.00    -0.01  -0.00   0.00    -0.01   0.10  -0.01
                     34                     35                     36
                      A                      A                      A
 Frequencies --    321.1446               338.3204               339.7443
 Red. masses --      2.0417                 2.6735                 2.9592
 Frc consts  --      0.1241                 0.1803                 0.2013
 IR Inten    --      0.0000                 0.0000                 0.0000
  Atom  AN      X      Y      Z        X      Y      Z        X      Y      Z
     1  26     0.00   0.01   0.01     0.00  -0.01   0.00     0.02  -0.02   0.02
     2   6     0.01   0.00  -0.01    -0.00   0.00   0.00     0.00   0.02   0.03
     3  46     0.00  -0.01  -0.01     0.01   0.00  -0.00     0.00   0.01  -0.02
     4   6    -0.02  -0.04  -0.02    -0.01  -0.00  -0.00    -0.02  -0.00  -0.01
     5   1    -0.01  -0.00   0.01     0.01  -0.02  -0.02     0.03  -0.07  -0.08
     6   1     0.00   0.03   0.05     0.01  -0.01  -0.02     0.04  -0.03  -0.04
     7   1     0.02  -0.02  -0.02     0.01  -0.01  -0.03     0.03  -0.04  -0.07
     8   6     0.03   0.01   0.02    -0.02  -0.04   0.04    -0.03  -0.00  -0.02
     9   8     0.01   0.00  -0.01    -0.00  -0.00   0.01    -0.01   0.01   0.04
    10   6     0.08  -0.02   0.04    -0.02   0.01  -0.00    -0.03   0.04  -0.00
    11   8     0.06   0.01   0.01    -0.03  -0.01  -0.00    -0.07  -0.00  -0.02
    12   6    -0.01   0.04   0.02    -0.01   0.02   0.02    -0.03   0.09   0.07
    13   6    -0.02  -0.05   0.00    -0.01   0.04   0.02    -0.03   0.11   0.08
    14   6     0.05  -0.08   0.02    -0.01   0.03   0.01    -0.03   0.08   0.03
    15   1    -0.06   0.08   0.00    -0.01   0.02   0.05    -0.05   0.11   0.14
    16   1    -0.07  -0.09  -0.03    -0.00   0.05   0.04    -0.04   0.13   0.13
    17   1     0.06  -0.15   0.02    -0.01   0.05   0.01    -0.03   0.11   0.05
    18   1     0.06   0.06  -0.01    -0.01   0.01  -0.01    -0.00   0.03  -0.00
    19   6     0.06   0.04   0.03    -0.02   0.01  -0.00    -0.03   0.05  -0.01
    20   6     0.01   0.00  -0.01    -0.01   0.01  -0.00    -0.00   0.01   0.01
    21   8     0.01   0.00  -0.02     0.00   0.00  -0.00     0.02   0.01   0.00
    22   6     0.01   0.03  -0.01     0.01  -0.01  -0.03     0.04  -0.02  -0.08
    23   6    -0.00   0.02  -0.01     0.01  -0.01  -0.03     0.05  -0.04  -0.11
    24   6    -0.00   0.01   0.01     0.01  -0.01  -0.02     0.03  -0.04  -0.08
    25   6     0.00   0.03   0.03     0.01  -0.01  -0.02     0.03  -0.02  -0.05
    26   6     0.02   0.03   0.01     0.01  -0.00  -0.02     0.03  -0.01  -0.05
    27   1     0.02   0.04  -0.03     0.02  -0.01  -0.03     0.05  -0.01  -0.10
    28   7     0.01  -0.01   0.01    -0.01   0.00  -0.00     0.00  -0.00   0.02
    29   1     0.01   0.01  -0.01    -0.01   0.01  -0.00     0.00   0.02   0.00
    30   1    -0.03  -0.02  -0.10    -0.01  -0.01   0.00    -0.01   0.01   0.00
    31   1    -0.00  -0.03  -0.04    -0.00   0.00  -0.02    -0.03   0.02  -0.06
    32   1    -0.01   0.01  -0.03     0.02  -0.03  -0.05     0.07  -0.09  -0.15
    33   7    -0.09  -0.02   0.00    -0.01  -0.02   0.01    -0.04  -0.07   0.02
    34   6    -0.03   0.05  -0.08    -0.00  -0.02   0.03    -0.02  -0.06   0.08
    35   6    -0.05  -0.04   0.04     0.00  -0.03   0.02     0.01  -0.11   0.07
    36   1     0.04   0.02  -0.09     0.01  -0.02   0.09     0.01  -0.07   0.28
    37   1    -0.10   0.12  -0.13    -0.02  -0.05   0.01    -0.10  -0.17   0.02
    38   1     0.03   0.06  -0.12     0.01   0.03   0.01     0.05   0.10   0.01
    39   1     0.33  -0.16   0.33     0.08  -0.06   0.08     0.28  -0.19   0.27
    40   1    -0.15   0.42  -0.00    -0.01   0.06   0.01    -0.03   0.20   0.02
    41   1    -0.28  -0.36  -0.17    -0.04  -0.09  -0.01    -0.16  -0.33  -0.03
    42   6     0.00  -0.00  -0.00    -0.00   0.01  -0.01    -0.01  -0.00  -0.02
    43   6    -0.00   0.01   0.01     0.01   0.01   0.00     0.00  -0.00   0.01
    44   6    -0.01  -0.01   0.01    -0.00   0.01   0.00    -0.01  -0.01   0.01
    45   1    -0.01  -0.01  -0.00    -0.01   0.01  -0.01    -0.06   0.01  -0.04
    46   1     0.01  -0.00  -0.01     0.01   0.02  -0.01     0.02  -0.02  -0.05
    47   1    -0.00   0.00   0.00     0.01   0.01   0.00     0.02   0.01   0.02
    48   1    -0.00   0.01   0.01     0.01   0.01   0.00     0.00  -0.03   0.02
    49   1    -0.01  -0.00   0.01    -0.01  -0.02   0.02    -0.02  -0.02   0.02
    50   1    -0.00  -0.02   0.00    -0.03   0.01  -0.02    -0.03  -0.00  -0.01
    51   1    -0.02  -0.01   0.02     0.02   0.01   0.00     0.00   0.00   0.01
    52   8     0.02   0.02   0.02    -0.02  -0.10   0.11    -0.02  -0.00  -0.07
    53   6    -0.05   0.05   0.02     0.02   0.09  -0.17     0.01  -0.06   0.04
    54   6    -0.01   0.00  -0.00    -0.00  -0.02   0.02     0.01  -0.01  -0.02
    55   6    -0.04  -0.01  -0.05    -0.16  -0.00   0.00     0.08   0.02   0.06
    56   6    -0.02  -0.05  -0.00     0.19   0.04   0.02    -0.04   0.04  -0.01
    57   1    -0.10   0.05   0.01    -0.10   0.04  -0.31     0.09  -0.05   0.09
    58   1    -0.09   0.06   0.02     0.19   0.23  -0.17    -0.02  -0.12   0.04
    59   1    -0.00   0.10   0.05     0.01   0.10  -0.23    -0.01  -0.10   0.04
    60   1    -0.04  -0.07  -0.04    -0.21   0.02   0.00     0.10   0.09   0.06
    61   1    -0.06  -0.02  -0.08    -0.26  -0.16   0.05     0.12   0.06   0.08
    62   1    -0.05   0.03  -0.07    -0.23   0.15  -0.04     0.11  -0.08   0.11
    63   1    -0.01  -0.07  -0.05     0.25   0.05   0.07    -0.06   0.07   0.04
    64   1    -0.03  -0.08   0.02     0.27   0.07   0.16    -0.06   0.06  -0.10
    65   1    -0.03  -0.06   0.03     0.27   0.04  -0.19    -0.07   0.07   0.01
                     37                     38                     39
                      A                      A                      A
 Frequencies --    360.8145               376.1125               390.0631
 Red. masses --      4.1282                 3.7709                 2.9827
 Frc consts  --      0.3166                 0.3143                 0.2674
 IR Inten    --      0.0000                 0.0000                 0.0000
  Atom  AN      X      Y      Z        X      Y      Z        X      Y      Z
     1  26    -0.00   0.01   0.01    -0.01  -0.00  -0.00    -0.00   0.02   0.01
     2   6    -0.01   0.05   0.10    -0.05  -0.06   0.09    -0.00  -0.01   0.02
     3  46     0.01  -0.00  -0.04     0.02   0.01  -0.02    -0.01  -0.00  -0.03
     4   6     0.02  -0.01   0.02    -0.01   0.01  -0.00    -0.00  -0.09   0.01
     5   1     0.00   0.01   0.02    -0.04   0.01   0.03     0.04   0.02  -0.04
     6   1    -0.02   0.04   0.06    -0.04   0.05   0.07     0.13  -0.13  -0.21
     7   1    -0.01   0.02   0.04     0.01  -0.00  -0.01     0.16  -0.10  -0.14
     8   6    -0.11  -0.04  -0.04    -0.04   0.05  -0.00    -0.01   0.00   0.00
     9   8    -0.01   0.04   0.12     0.07   0.10  -0.03     0.02   0.03  -0.01
    10   6     0.10  -0.04   0.03    -0.00  -0.00  -0.02    -0.02  -0.00   0.11
    11   8    -0.09  -0.02  -0.07     0.02   0.00   0.04    -0.03   0.01   0.01
    12   6     0.03  -0.01   0.00     0.00  -0.01  -0.01    -0.04   0.05   0.15
    13   6     0.04  -0.10  -0.04     0.00   0.01  -0.00    -0.01  -0.03   0.05
    14   6     0.09  -0.12  -0.02    -0.00   0.01  -0.01     0.00  -0.04   0.06
    15   1     0.01   0.01  -0.03     0.00  -0.01   0.01    -0.09   0.10   0.22
    16   1     0.00  -0.15  -0.10     0.01   0.02   0.01    -0.04  -0.04   0.05
    17   1     0.10  -0.17  -0.05    -0.01   0.02  -0.01     0.01  -0.05   0.05
    18   1    -0.01   0.00  -0.06     0.03  -0.04  -0.06    -0.09   0.05   0.09
    19   6     0.06   0.01   0.03     0.01  -0.03  -0.05    -0.03   0.05   0.15
    20   6    -0.05   0.03   0.03    -0.10  -0.08   0.03    -0.01  -0.01   0.01
    21   8     0.05   0.01   0.07    -0.04  -0.07   0.20     0.00  -0.01   0.03
    22   6    -0.02   0.03   0.05     0.01   0.01  -0.02     0.05  -0.03  -0.06
    23   6    -0.02   0.03   0.05    -0.01   0.01  -0.02     0.01   0.02  -0.01
    24   6    -0.01   0.02   0.04    -0.02   0.01   0.01     0.02   0.01  -0.03
    25   6    -0.01   0.03   0.05    -0.02   0.03   0.03     0.06  -0.06  -0.11
    26   6    -0.02   0.03   0.04     0.00   0.02   0.00     0.09  -0.10  -0.12
    27   1    -0.02   0.02   0.05    -0.01   0.02  -0.00     0.05  -0.06  -0.05
    28   7    -0.06   0.00   0.02    -0.09   0.06  -0.10    -0.02   0.01  -0.00
    29   1    -0.04   0.01  -0.01    -0.09  -0.15   0.03    -0.01  -0.02   0.00
    30   1     0.03   0.04  -0.04     0.01   0.06   0.01    -0.07  -0.25  -0.04
    31   1    -0.01  -0.02   0.04    -0.06   0.02  -0.00     0.18  -0.08  -0.02
    32   1    -0.03   0.05   0.06    -0.01   0.00  -0.03    -0.00   0.04   0.01
    33   7    -0.01   0.02   0.01    -0.00  -0.02  -0.00    -0.03   0.02   0.00
    34   6    -0.02   0.02  -0.07    -0.02  -0.04   0.03    -0.01   0.06  -0.09
    35   6    -0.04   0.01  -0.01    -0.00  -0.05  -0.00    -0.01   0.08   0.03
    36   1    -0.03   0.02  -0.14    -0.03  -0.03   0.10     0.01   0.04  -0.29
    37   1    -0.04   0.08  -0.08    -0.02  -0.09   0.02     0.04   0.22  -0.04
    38   1     0.00  -0.06  -0.08    -0.01   0.01   0.02    -0.06  -0.08  -0.03
    39   1     0.00  -0.00   0.01     0.12  -0.09   0.06    -0.27   0.16  -0.10
    40   1    -0.09   0.07   0.01    -0.04   0.08  -0.00     0.11  -0.19   0.02
    41   1    -0.07  -0.03  -0.07    -0.08  -0.15  -0.05     0.15   0.30   0.17
    42   6    -0.02   0.04  -0.00    -0.00  -0.03   0.12    -0.01  -0.01   0.02
    43   6     0.01   0.01  -0.01    -0.07  -0.08  -0.05    -0.01  -0.02  -0.01
    44   6     0.01   0.01  -0.01     0.08   0.04  -0.08     0.01   0.01  -0.01
    45   1     0.00   0.06  -0.01     0.22   0.01   0.19     0.02  -0.00   0.03
    46   1    -0.02   0.06   0.00    -0.13   0.08   0.24    -0.02   0.01   0.03
    47   1     0.03   0.02  -0.01    -0.16  -0.12  -0.08    -0.03  -0.02  -0.01
    48   1     0.01  -0.01  -0.01    -0.06   0.03  -0.08    -0.01  -0.01  -0.01
    49   1     0.00  -0.02   0.00     0.18   0.10  -0.22     0.03   0.01  -0.04
    50   1    -0.01   0.03  -0.03     0.13   0.14   0.12     0.01   0.03   0.02
    51   1     0.04   0.02  -0.01     0.10   0.03  -0.14     0.03   0.01  -0.03
    52   8    -0.09  -0.09  -0.07    -0.03   0.06   0.04    -0.01   0.01   0.01
    53   6    -0.01  -0.10  -0.06     0.05  -0.03  -0.02     0.02  -0.01  -0.00
    54   6    -0.04  -0.05  -0.04    -0.02   0.05   0.04    -0.00   0.02   0.01
    55   6     0.09   0.01   0.14     0.04   0.00  -0.08     0.01   0.01  -0.02
    56   6     0.09   0.12  -0.04     0.04  -0.07   0.04     0.01  -0.02   0.02
    57   1     0.07  -0.11  -0.06     0.13  -0.04  -0.03     0.05  -0.01  -0.01
    58   1     0.05  -0.11  -0.06     0.14  -0.04  -0.02     0.05  -0.01  -0.00
    59   1    -0.07  -0.17  -0.10    -0.03  -0.12  -0.09    -0.00  -0.04  -0.03
    60   1     0.16   0.20   0.14     0.03  -0.14  -0.07    -0.00  -0.04  -0.02
    61   1     0.13   0.03   0.20     0.08   0.10  -0.14     0.02   0.03  -0.04
    62   1     0.10  -0.14   0.28     0.08  -0.02  -0.14     0.02   0.01  -0.05
    63   1     0.15   0.19   0.15     0.04  -0.11  -0.08    -0.00  -0.03  -0.02
    64   1     0.11   0.17  -0.05     0.07  -0.10   0.16     0.02  -0.02   0.04
    65   1     0.11   0.21  -0.21     0.07  -0.14   0.04     0.02  -0.05   0.03
                     40                     41                     42
                      A                      A                      A
 Frequencies --    413.9870               420.6552               427.2628
 Red. masses --      3.7604                 2.7233                 3.5059
 Frc consts  --      0.3797                 0.2839                 0.3771
 IR Inten    --      0.0000                 0.0000                 0.0000
  Atom  AN      X      Y      Z        X      Y      Z        X      Y      Z
     1  26    -0.02   0.02   0.02    -0.00  -0.01  -0.01    -0.00   0.00  -0.00
     2   6    -0.04  -0.00   0.04    -0.05  -0.02   0.03     0.04  -0.03  -0.02
     3  46    -0.00   0.01   0.01     0.00  -0.00  -0.00    -0.02  -0.01   0.00
     4   6     0.05   0.05   0.06    -0.03  -0.07  -0.08    -0.01   0.04   0.05
     5   1    -0.14   0.13   0.08    -0.00   0.02   0.01     0.02  -0.03  -0.01
     6   1    -0.08   0.05  -0.03     0.00  -0.00   0.00     0.02  -0.01  -0.00
     7   1     0.11  -0.16  -0.19    -0.02   0.04   0.03     0.04  -0.01  -0.01
     8   6     0.04  -0.03  -0.01     0.08  -0.00  -0.00     0.05   0.11  -0.01
     9   8     0.01   0.00   0.04     0.04   0.03  -0.01     0.01   0.02  -0.05
    10   6     0.01   0.02   0.03     0.01  -0.00  -0.03    -0.02   0.00   0.02
    11   8     0.14  -0.05  -0.02     0.09  -0.01   0.01    -0.03   0.09   0.09
    12   6     0.01  -0.07   0.02    -0.01   0.03  -0.01    -0.00  -0.01   0.02
    13   6    -0.01   0.01   0.08    -0.02   0.03  -0.00     0.01  -0.02  -0.00
    14   6    -0.04   0.04   0.11     0.01   0.00  -0.03    -0.01   0.00   0.01
    15   1     0.03  -0.09  -0.01    -0.02   0.04   0.01     0.00  -0.02   0.03
    16   1     0.00   0.06   0.16    -0.03   0.03   0.00     0.02  -0.02  -0.01
    17   1    -0.06   0.07   0.21     0.01  -0.01  -0.05    -0.01   0.01   0.01
    18   1     0.08  -0.13  -0.10     0.03   0.02  -0.05    -0.08   0.05   0.08
    19   6     0.05  -0.10  -0.08     0.02   0.01  -0.05    -0.03   0.00   0.04
    20   6    -0.05  -0.01  -0.02    -0.07   0.01  -0.01     0.06   0.01   0.05
    21   8    -0.01  -0.03   0.09    -0.01  -0.05   0.10    -0.01   0.01  -0.03
    22   6     0.05  -0.07  -0.13    -0.01   0.00   0.01     0.01   0.01  -0.00
    23   6    -0.06   0.04  -0.01     0.01   0.00   0.00     0.01  -0.00  -0.01
    24   6    -0.08   0.06   0.02     0.00   0.01   0.00     0.01  -0.01  -0.00
    25   6    -0.06   0.02  -0.03    -0.01   0.01   0.00     0.02  -0.01  -0.00
    26   6     0.05  -0.10  -0.14    -0.02   0.02   0.02     0.03  -0.01  -0.01
    27   1     0.13  -0.15  -0.21    -0.01  -0.00   0.02    -0.03   0.03   0.03
    28   7     0.01  -0.05  -0.02     0.05  -0.00  -0.03     0.07   0.16  -0.07
    29   1    -0.06  -0.02   0.02    -0.09   0.03   0.06     0.05   0.06   0.04
    30   1     0.07   0.10   0.08    -0.08  -0.16  -0.12     0.03   0.11   0.09
    31   1    -0.02   0.05   0.07     0.09  -0.06  -0.10    -0.10   0.04   0.05
    32   1    -0.09   0.07  -0.00     0.00   0.01   0.01     0.01  -0.01  -0.02
    33   7     0.09   0.02   0.02    -0.10  -0.02  -0.03     0.05  -0.01   0.01
    34   6     0.04  -0.04  -0.04    -0.06   0.04   0.04     0.05  -0.02  -0.02
    35   6    -0.06   0.04  -0.09     0.08  -0.03   0.11    -0.05   0.02  -0.06
    36   1    -0.02  -0.01  -0.03    -0.02   0.02   0.02     0.06  -0.02  -0.01
    37   1    -0.03  -0.05  -0.09     0.00   0.05   0.08     0.03  -0.00  -0.03
    38   1     0.11  -0.09  -0.08    -0.13   0.07   0.08     0.08  -0.01  -0.03
    39   1     0.03   0.02  -0.07    -0.10   0.03   0.05     0.02  -0.00  -0.02
    40   1    -0.25   0.15   0.00     0.34  -0.25   0.00    -0.19   0.14  -0.01
    41   1    -0.10  -0.04  -0.29     0.17   0.13   0.41    -0.08  -0.04  -0.23
    42   6     0.03   0.05  -0.02    -0.01   0.06   0.02    -0.07  -0.07   0.07
    43   6     0.02   0.08  -0.02     0.01   0.02  -0.02    -0.06  -0.16   0.01
    44   6    -0.02  -0.00   0.02     0.01   0.01  -0.01     0.05   0.01  -0.05
    45   1     0.02   0.03  -0.01     0.07   0.06   0.05    -0.02  -0.01   0.05
    46   1     0.05   0.10  -0.06    -0.05   0.13   0.05    -0.09  -0.13   0.12
    47   1    -0.02   0.06  -0.05     0.02   0.02  -0.03    -0.00  -0.13   0.06
    48   1     0.03   0.13  -0.03     0.01   0.02  -0.02    -0.06  -0.22   0.03
    49   1    -0.04  -0.01   0.05     0.02  -0.00  -0.02     0.12   0.04  -0.14
    50   1     0.00  -0.09  -0.05     0.02   0.00  -0.01     0.02   0.18   0.12
    51   1    -0.07  -0.02   0.08     0.01   0.01   0.00     0.15   0.03  -0.18
    52   8     0.03  -0.01  -0.01     0.08  -0.04  -0.02     0.08  -0.03  -0.03
    53   6    -0.06   0.00   0.01    -0.07   0.03   0.02    -0.08   0.02  -0.01
    54   6    -0.01  -0.04  -0.04     0.02  -0.08  -0.06     0.01  -0.11  -0.04
    55   6    -0.02  -0.01   0.04    -0.03  -0.04   0.07     0.00  -0.08   0.09
    56   6    -0.01   0.03  -0.05    -0.02   0.05  -0.07     0.02   0.07  -0.05
    57   1    -0.11   0.01   0.02    -0.19   0.04   0.02    -0.23   0.03  -0.04
    58   1    -0.13   0.00   0.01    -0.19   0.04   0.01    -0.17   0.08  -0.02
    59   1    -0.00   0.07   0.06     0.04   0.16   0.11     0.03   0.16   0.07
    60   1     0.02   0.08   0.04    -0.01   0.11   0.06     0.01   0.07   0.08
    61   1    -0.03  -0.05   0.06    -0.07  -0.12   0.13    -0.01  -0.12   0.16
    62   1    -0.04  -0.03   0.11    -0.07  -0.03   0.15    -0.02  -0.11   0.16
    63   1     0.01   0.05   0.03    -0.01   0.10   0.07     0.03   0.15   0.15
    64   1    -0.02   0.03  -0.08    -0.04   0.08  -0.17     0.02   0.14  -0.16
    65   1    -0.02   0.07  -0.08    -0.05   0.13  -0.09     0.01   0.16  -0.14
                     43                     44                     45
                      A                      A                      A
 Frequencies --    444.3249               451.3769               457.8755
 Red. masses --      3.2741                 3.1329                 2.7733
 Frc consts  --      0.3808                 0.3761                 0.3426
 IR Inten    --      0.0000                 0.0000                 0.0000
  Atom  AN      X      Y      Z        X      Y      Z        X      Y      Z
     1  26     0.01   0.00   0.00    -0.00   0.00   0.00    -0.01   0.01  -0.01
     2   6    -0.06  -0.01   0.05     0.02   0.01   0.03     0.00  -0.00   0.02
     3  46    -0.01  -0.00  -0.02    -0.00  -0.00   0.00    -0.00  -0.00  -0.00
     4   6    -0.03   0.05   0.05     0.06  -0.04  -0.02     0.12  -0.05   0.02
     5   1     0.08  -0.08  -0.06    -0.05   0.04   0.04    -0.04  -0.02   0.02
     6   1     0.04  -0.03  -0.02    -0.04   0.03   0.03    -0.06   0.02   0.08
     7   1    -0.02   0.03   0.04    -0.02  -0.00  -0.01    -0.09   0.04   0.07
     8   6     0.04  -0.05  -0.05    -0.01   0.05  -0.10    -0.00  -0.01   0.00
     9   8     0.03   0.03   0.02    -0.04  -0.01   0.05    -0.01   0.01   0.01
    10   6    -0.02  -0.00   0.02     0.02   0.01   0.00    -0.02   0.06   0.06
    11   8    -0.10  -0.03  -0.04    -0.02  -0.03   0.00    -0.07   0.01  -0.00
    12   6    -0.01   0.01   0.02     0.03  -0.01  -0.03     0.06  -0.01  -0.07
    13   6     0.01  -0.04  -0.04     0.01   0.02   0.02     0.05   0.03  -0.02
    14   6    -0.00  -0.02  -0.01     0.01   0.02   0.01     0.00   0.06   0.02
    15   1    -0.01   0.01   0.03     0.04  -0.02  -0.06     0.12  -0.07  -0.14
    16   1     0.02  -0.06  -0.09     0.01   0.03   0.04     0.08   0.03  -0.05
    17   1     0.01  -0.03  -0.06     0.01   0.03   0.04    -0.01   0.12   0.04
    18   1    -0.14   0.05   0.08     0.08  -0.04  -0.06     0.00   0.03  -0.01
    19   6    -0.05   0.03   0.08     0.03  -0.02  -0.06     0.00   0.02  -0.02
    20   6    -0.07   0.02  -0.01     0.04  -0.00   0.00     0.01   0.01   0.01
    21   8    -0.00  -0.05   0.11     0.01   0.03   0.00    -0.00   0.00   0.01
    22   6    -0.02   0.03   0.05     0.02  -0.04  -0.04     0.03  -0.09  -0.04
    23   6     0.01  -0.01   0.01    -0.01  -0.01  -0.02     0.03  -0.08  -0.05
    24   6     0.04  -0.04  -0.02    -0.03   0.02   0.02    -0.03  -0.02   0.01
    25   6     0.04  -0.03  -0.01    -0.04   0.02   0.02    -0.05   0.01   0.05
    26   6    -0.00   0.02   0.03    -0.02  -0.00  -0.00    -0.07   0.02   0.05
    27   1    -0.03   0.05   0.06     0.04  -0.07  -0.06     0.06  -0.12  -0.07
    28   7     0.06  -0.02  -0.01     0.00   0.03  -0.05     0.02   0.05  -0.05
    29   1    -0.09   0.05   0.07     0.04  -0.01  -0.03     0.01   0.02   0.01
    30   1     0.02   0.16   0.11    -0.00  -0.17  -0.08    -0.00  -0.34  -0.08
    31   1    -0.19   0.05   0.05     0.22  -0.04  -0.02     0.44  -0.05  -0.02
    32   1     0.02  -0.02   0.01     0.00  -0.02  -0.03     0.08  -0.16  -0.12
    33   7     0.05  -0.02  -0.01    -0.02   0.03   0.04     0.01   0.05   0.10
    34   6     0.05  -0.03   0.01    -0.04   0.01  -0.03    -0.04   0.01  -0.08
    35   6    -0.03   0.01  -0.07    -0.00  -0.01   0.05    -0.05  -0.00   0.07
    36   1     0.06  -0.03   0.02    -0.07   0.02  -0.06    -0.09   0.03  -0.16
    37   1     0.07  -0.03   0.02    -0.08   0.04  -0.06    -0.15   0.09  -0.16
    38   1     0.03   0.00   0.02     0.01  -0.05  -0.06     0.09  -0.15  -0.15
    39   1     0.03  -0.01  -0.03    -0.02  -0.00   0.01    -0.04  -0.01   0.01
    40   1    -0.15   0.12  -0.03     0.04  -0.07   0.04    -0.10  -0.03   0.10
    41   1    -0.06  -0.04  -0.21     0.01   0.01   0.11    -0.05  -0.01   0.03
    42   6    -0.00   0.07  -0.01     0.00  -0.03  -0.01    -0.01  -0.01   0.02
    43   6     0.03   0.06  -0.02    -0.00  -0.01   0.01    -0.01  -0.03   0.00
    44   6    -0.00   0.00   0.00    -0.01  -0.01   0.01     0.01   0.00  -0.01
    45   1     0.04   0.07   0.00    -0.06  -0.03  -0.04    -0.01   0.01   0.01
    46   1    -0.02   0.13  -0.01     0.04  -0.08  -0.05    -0.01  -0.02   0.01
    47   1     0.05   0.06  -0.03    -0.01  -0.01   0.01    -0.00  -0.02   0.00
    48   1     0.03   0.05  -0.02    -0.01  -0.01   0.01    -0.01  -0.03   0.00
    49   1    -0.02  -0.02   0.03    -0.01   0.00   0.01     0.02   0.01  -0.03
    50   1    -0.00  -0.04  -0.05    -0.00  -0.01   0.01     0.00   0.03   0.02
    51   1    -0.02   0.00   0.05    -0.01  -0.01   0.00     0.03   0.01  -0.03
    52   8     0.05  -0.06  -0.07    -0.00   0.08  -0.15     0.01  -0.08   0.05
    53   6     0.12   0.10   0.05     0.04   0.06  -0.06     0.05   0.01   0.05
    54   6     0.15  -0.02   0.03     0.01  -0.07   0.15     0.06   0.04  -0.05
    55   6    -0.08  -0.02  -0.02    -0.01  -0.16  -0.01    -0.03   0.08  -0.01
    56   6    -0.08   0.00   0.04    -0.03   0.05   0.18    -0.02  -0.03  -0.06
    57   1     0.02   0.09   0.01    -0.12  -0.00  -0.25     0.10   0.04   0.14
    58   1     0.09   0.13   0.05     0.24   0.24  -0.06    -0.05  -0.07   0.05
    59   1     0.17   0.17   0.08     0.03   0.08  -0.14     0.07   0.01   0.09
    60   1    -0.19  -0.06  -0.03    -0.04  -0.39  -0.01    -0.07   0.17  -0.01
    61   1    -0.18  -0.19   0.03     0.02  -0.07  -0.12    -0.09  -0.04   0.07
    62   1    -0.14   0.20  -0.14     0.02  -0.10  -0.15    -0.07   0.16  -0.00
    63   1    -0.20   0.02   0.05    -0.05   0.11   0.33    -0.06  -0.06  -0.16
    64   1    -0.17   0.02  -0.19    -0.07   0.10   0.01    -0.04  -0.05  -0.08
    65   1    -0.18   0.01   0.26    -0.07   0.14   0.17    -0.04  -0.08   0.05
                     46                     47                     48
                      A                      A                      A
 Frequencies --    466.9236               480.2882               488.8640
 Red. masses --      4.4500                 3.3692                 3.4677
 Frc consts  --      0.5716                 0.4579                 0.4883
 IR Inten    --      0.0000                 0.0000                 0.0000
  Atom  AN      X      Y      Z        X      Y      Z        X      Y      Z
     1  26     0.00   0.02  -0.01    -0.02  -0.03   0.00    -0.02  -0.01  -0.03
     2   6    -0.06  -0.06  -0.05    -0.03  -0.03  -0.06     0.01   0.09  -0.00
     3  46     0.00   0.01  -0.02    -0.00   0.00   0.00     0.00   0.00   0.00
     4   6     0.02   0.00   0.04     0.12  -0.01   0.01     0.05   0.00   0.04
     5   1     0.06  -0.12  -0.05     0.01   0.07   0.01     0.06  -0.05  -0.03
     6   1    -0.02  -0.03   0.05     0.11  -0.05  -0.09     0.07  -0.05  -0.02
     7   1    -0.12   0.06   0.12     0.08  -0.04  -0.08     0.01   0.04   0.04
     8   6     0.01   0.01   0.08    -0.01   0.01   0.04     0.03  -0.08   0.00
     9   8     0.10   0.03  -0.14     0.05   0.00  -0.09    -0.03  -0.01   0.08
    10   6    -0.06   0.08   0.09     0.00  -0.06  -0.09    -0.06   0.03  -0.00
    11   8     0.03   0.08   0.03    -0.09   0.07   0.00     0.15  -0.09  -0.05
    12   6     0.02   0.01  -0.05    -0.01  -0.03   0.07    -0.03   0.01   0.02
    13   6     0.04  -0.00  -0.07    -0.00   0.00   0.04    -0.01   0.03  -0.02
    14   6    -0.03   0.06   0.02    -0.01  -0.03  -0.04    -0.05   0.04  -0.03
    15   1     0.07  -0.04  -0.14    -0.03  -0.01   0.17    -0.04   0.03   0.11
    16   1     0.08  -0.04  -0.17     0.00   0.03   0.10     0.02   0.04  -0.03
    17   1    -0.03   0.09   0.00    -0.00  -0.04  -0.08    -0.04   0.05  -0.06
    18   1    -0.15   0.07   0.14    -0.05  -0.02  -0.02    -0.03  -0.06   0.04
    19   6    -0.05   0.07   0.10    -0.01  -0.07  -0.06    -0.04   0.01   0.02
    20   6    -0.06  -0.02   0.02    -0.03   0.01   0.02    -0.09   0.02  -0.05
    21   8    -0.03  -0.10   0.03    -0.02  -0.05  -0.01     0.08   0.07  -0.09
    22   6     0.01  -0.07   0.01    -0.02   0.10   0.03    -0.01   0.04   0.04
    23   6     0.05  -0.10  -0.04    -0.02   0.08   0.04     0.05  -0.02  -0.01
    24   6     0.02  -0.08  -0.02     0.02   0.05   0.00     0.04  -0.03  -0.01
    25   6    -0.01  -0.03   0.03     0.05   0.01  -0.03     0.05  -0.03   0.00
    26   6    -0.07   0.03   0.09     0.06   0.02  -0.04     0.02   0.03   0.03
    27   1     0.03  -0.07  -0.02    -0.05   0.14   0.06    -0.08   0.08   0.12
    28   7    -0.02  -0.11   0.17     0.01  -0.04   0.11    -0.03  -0.12   0.03
    29   1    -0.07  -0.03   0.10    -0.04   0.04   0.07    -0.08   0.07  -0.12
    30   1    -0.02  -0.13   0.05     0.05  -0.18  -0.08     0.01  -0.11   0.03
    31   1     0.14   0.02  -0.02     0.32  -0.06   0.14     0.15   0.00   0.03
    32   1     0.13  -0.21  -0.12    -0.08   0.17   0.11     0.05  -0.03  -0.03
    33   7     0.03  -0.00   0.04     0.06   0.17   0.06     0.04   0.02   0.06
    34   6     0.03  -0.02  -0.03    -0.12  -0.01  -0.01     0.02  -0.02  -0.03
    35   6    -0.04   0.01  -0.01     0.04  -0.07  -0.01    -0.03   0.01   0.01
    36   1     0.02  -0.01  -0.06    -0.36   0.09   0.04    -0.01  -0.00  -0.07
    37   1    -0.01   0.02  -0.06    -0.20  -0.17  -0.07    -0.03   0.02  -0.07
    38   1     0.07  -0.06  -0.06     0.00  -0.16  -0.08     0.08  -0.09  -0.07
    39   1    -0.02   0.00  -0.02     0.28  -0.15  -0.14    -0.00  -0.00   0.00
    40   1    -0.13   0.05   0.03    -0.05  -0.06   0.04    -0.12   0.05   0.05
    41   1    -0.05  -0.01  -0.12    -0.11  -0.26   0.02    -0.05  -0.02  -0.08
    42   6     0.05   0.03  -0.03    -0.01   0.02   0.01    -0.09   0.08   0.12
    43   6     0.04   0.09  -0.02     0.00   0.01  -0.00    -0.04  -0.09  -0.00
    44   6    -0.02  -0.00   0.02     0.00   0.00  -0.00     0.05   0.01  -0.04
    45   1     0.02   0.01  -0.04     0.03   0.03   0.02     0.29   0.07   0.29
    46   1     0.07   0.05  -0.07    -0.02   0.04   0.02    -0.29   0.32   0.31
    47   1    -0.03   0.06  -0.05     0.01   0.01  -0.01     0.07  -0.04   0.02
    48   1     0.04   0.16  -0.04     0.00   0.00  -0.01    -0.03  -0.18   0.00
    49   1    -0.06  -0.02   0.06     0.01  -0.00  -0.01     0.12   0.01  -0.12
    50   1    -0.00  -0.09  -0.08     0.00   0.01  -0.01     0.02   0.16   0.10
    51   1    -0.07  -0.01   0.09     0.01   0.01   0.00     0.14   0.04  -0.12
    52   8     0.01   0.10  -0.03     0.01  -0.01  -0.02     0.01   0.03  -0.02
    53   6    -0.10  -0.03  -0.06     0.02   0.01   0.01    -0.02   0.00  -0.01
    54   6    -0.09  -0.05   0.03     0.03  -0.02  -0.00    -0.01  -0.01   0.01
    55   6     0.05  -0.08   0.03     0.00  -0.01   0.01    -0.01  -0.02   0.00
    56   6     0.04   0.03   0.03    -0.00   0.01  -0.00    -0.01   0.00   0.01
    57   1    -0.16  -0.05  -0.12    -0.01   0.01   0.00    -0.04  -0.00  -0.03
    58   1    -0.03   0.04  -0.06     0.00   0.02   0.01    -0.00   0.02  -0.01
    59   1    -0.09  -0.01  -0.08     0.03   0.03   0.02    -0.01   0.01  -0.01
    60   1     0.12  -0.12   0.03    -0.02   0.00   0.01     0.01  -0.05   0.00
    61   1     0.13   0.07  -0.04    -0.01  -0.04   0.03    -0.00  -0.00  -0.03
    62   1     0.10  -0.22   0.07    -0.01   0.01  -0.01    -0.00  -0.03   0.00
    63   1     0.10   0.08   0.15    -0.03   0.02   0.02    -0.00   0.01   0.04
    64   1     0.09   0.07   0.08    -0.01   0.02  -0.05    -0.02   0.01   0.00
    65   1     0.08   0.08  -0.13    -0.02   0.01   0.02    -0.01   0.02   0.00
                     49                     50                     51
                      A                      A                      A
 Frequencies --    492.7292               506.5547               564.9989
 Red. masses --      3.9074                 3.2953                 5.5971
 Frc consts  --      0.5589                 0.4982                 1.0527
 IR Inten    --      0.0000                 0.0000                 0.0000
  Atom  AN      X      Y      Z        X      Y      Z        X      Y      Z
     1  26     0.02   0.01   0.01     0.03   0.05   0.03    -0.06  -0.12   0.12
     2   6    -0.03  -0.00  -0.09     0.01   0.02  -0.02    -0.01   0.00  -0.00
     3  46     0.01   0.01   0.01    -0.01  -0.00   0.00    -0.00   0.00  -0.00
     4   6    -0.04  -0.01  -0.01    -0.03   0.03  -0.06     0.02   0.05  -0.04
     5   1    -0.12   0.09   0.08    -0.04  -0.04   0.00     0.07   0.05  -0.06
     6   1    -0.13   0.10   0.07    -0.07   0.03   0.07    -0.02   0.06  -0.03
     7   1     0.01  -0.03  -0.05    -0.02  -0.07  -0.03     0.25  -0.17  -0.21
     8   6    -0.03  -0.02   0.05    -0.01  -0.02  -0.00    -0.00  -0.01   0.01
     9   8     0.06  -0.00  -0.10    -0.01  -0.01   0.01     0.00  -0.00   0.00
    10   6     0.07  -0.03  -0.00     0.03   0.03   0.06     0.01   0.13   0.07
    11   8    -0.13   0.06  -0.03     0.01  -0.01  -0.02    -0.00  -0.00  -0.01
    12   6     0.04  -0.01  -0.04     0.01  -0.03  -0.03     0.01   0.01  -0.15
    13   6     0.01   0.02   0.05     0.00  -0.10  -0.04     0.11  -0.05  -0.25
    14   6     0.05  -0.01   0.04    -0.01  -0.02   0.10    -0.00   0.14   0.03
    15   1     0.06  -0.02  -0.06    -0.00  -0.03  -0.13     0.05  -0.03  -0.29
    16   1    -0.03   0.03   0.11     0.00  -0.13  -0.11     0.20  -0.15  -0.53
    17   1     0.04   0.01   0.12    -0.02  -0.05   0.17    -0.00   0.16   0.01
    18   1     0.11   0.03  -0.12    -0.07   0.00   0.08     0.07   0.07  -0.05
    19   6     0.06  -0.03  -0.09     0.02   0.03   0.11     0.03   0.09   0.00
    20   6    -0.06   0.04   0.02    -0.01   0.02  -0.01    -0.00   0.00   0.00
    21   8     0.01  -0.03  -0.09     0.02   0.02  -0.04     0.00   0.00  -0.01
    22   6     0.02  -0.06  -0.07     0.04  -0.09  -0.06    -0.05   0.14   0.04
    23   6    -0.04   0.00  -0.01    -0.00  -0.05  -0.05     0.00   0.05   0.01
    24   6    -0.07   0.04   0.03    -0.04  -0.02   0.01     0.02   0.04  -0.02
    25   6    -0.07   0.05   0.02    -0.05   0.01   0.03    -0.03   0.07  -0.01
    26   6    -0.01  -0.04  -0.05    -0.03  -0.03  -0.01     0.16  -0.11  -0.15
    27   1     0.01  -0.07  -0.04     0.07  -0.13  -0.08    -0.07   0.16   0.05
    28   7     0.00  -0.08   0.18    -0.00  -0.02   0.02     0.00   0.00   0.00
    29   1    -0.07   0.11   0.05    -0.01   0.04  -0.03    -0.00   0.01   0.01
    30   1     0.02   0.16   0.00    -0.04   0.00  -0.05    -0.00  -0.02  -0.04
    31   1    -0.21   0.00  -0.04     0.02   0.03  -0.05     0.10   0.08  -0.14
    32   1    -0.06   0.02  -0.02     0.05  -0.15  -0.14     0.01   0.04  -0.01
    33   7    -0.06  -0.11  -0.01     0.02   0.13  -0.13    -0.02  -0.03  -0.00
    34   6     0.07   0.01  -0.00    -0.12   0.03   0.07     0.00   0.00   0.01
    35   6    -0.04   0.05   0.05     0.14  -0.05  -0.12     0.00   0.00   0.02
    36   1     0.22  -0.06  -0.05    -0.29   0.10   0.22     0.04  -0.01   0.01
    37   1     0.08   0.14   0.01    -0.01  -0.25   0.13     0.00   0.02   0.01
    38   1     0.02   0.08   0.02    -0.20   0.08   0.12    -0.00   0.03   0.00
    39   1    -0.22   0.11   0.13     0.31  -0.11  -0.21    -0.03   0.02   0.05
    40   1     0.05   0.01   0.00     0.20  -0.09  -0.14     0.05  -0.01   0.00
    41   1     0.07   0.19   0.05     0.02  -0.20   0.05     0.02   0.03   0.05
    42   6    -0.07   0.07   0.10    -0.04   0.03   0.05    -0.00   0.00   0.00
    43   6    -0.03  -0.07  -0.01    -0.02  -0.04  -0.00    -0.00  -0.00   0.00
    44   6     0.04   0.01  -0.03     0.02   0.00  -0.02     0.00  -0.00  -0.00
    45   1     0.18   0.08   0.20     0.08   0.03   0.10     0.01   0.00   0.00
    46   1    -0.19   0.21   0.22    -0.09   0.09   0.10    -0.00  -0.00   0.01
    47   1     0.04  -0.03   0.00     0.02  -0.02   0.01     0.00  -0.00   0.00
    48   1    -0.02  -0.12  -0.01    -0.02  -0.08   0.00    -0.00  -0.01   0.00
    49   1     0.09   0.01  -0.10     0.05   0.01  -0.05     0.00   0.00  -0.00
    50   1     0.02   0.12   0.08     0.01   0.07   0.05    -0.00   0.00   0.00
    51   1     0.11   0.03  -0.10     0.06   0.02  -0.05     0.00   0.00  -0.00
    52   8    -0.02  -0.03  -0.05    -0.00  -0.01  -0.01    -0.00   0.00  -0.01
    53   6     0.05   0.02   0.01     0.01   0.01   0.00     0.00  -0.00   0.00
    54   6     0.05  -0.00   0.01     0.01  -0.00   0.00    -0.00   0.00   0.00
    55   6    -0.00  -0.00  -0.00    -0.01  -0.00  -0.00     0.00   0.00  -0.00
    56   6    -0.01   0.00   0.02    -0.01   0.00   0.00    -0.00   0.00   0.00
    57   1     0.05   0.02  -0.00     0.01   0.01   0.00     0.01  -0.00  -0.00
    58   1     0.07   0.03   0.01     0.01   0.01   0.00     0.01   0.00   0.00
    59   1     0.05   0.02   0.00     0.01   0.01   0.01    -0.00  -0.00  -0.00
    60   1    -0.04  -0.02  -0.01    -0.01   0.00  -0.00     0.00  -0.00  -0.00
    61   1    -0.03  -0.05   0.01    -0.02  -0.02   0.01     0.00   0.00  -0.00
    62   1    -0.02   0.05  -0.05    -0.01   0.02  -0.01     0.00   0.00  -0.00
    63   1    -0.05   0.01   0.03    -0.02   0.00   0.00     0.00  -0.00   0.00
    64   1    -0.04   0.01  -0.06    -0.01   0.00  -0.02    -0.00  -0.00   0.00
    65   1    -0.04   0.01   0.09    -0.01   0.00   0.02    -0.00   0.00   0.00
                     52                     53                     54
                      A                      A                      A
 Frequencies --    576.1929               588.9270               607.5877
 Red. masses --      4.3197                 4.0053                 4.7752
 Frc consts  --      0.8450                 0.8185                 1.0386
 IR Inten    --      0.0000                 0.0000                 0.0000
  Atom  AN      X      Y      Z        X      Y      Z        X      Y      Z
     1  26     0.10   0.02   0.06     0.01   0.06  -0.04    -0.02   0.01  -0.01
     2   6     0.00   0.00  -0.01    -0.00  -0.00  -0.00     0.06  -0.10   0.01
     3  46    -0.00   0.01   0.01     0.00  -0.00   0.00    -0.01  -0.01  -0.00
     4   6     0.00   0.00   0.01     0.02  -0.03  -0.01     0.01   0.01  -0.00
     5   1     0.02  -0.05  -0.03     0.01  -0.12  -0.02     0.05  -0.06  -0.05
     6   1    -0.12   0.09   0.09    -0.22   0.17   0.25    -0.00   0.00   0.03
     7   1    -0.05  -0.01  -0.00     0.17  -0.23  -0.19     0.02   0.01   0.01
     8   6     0.00   0.02   0.01    -0.00   0.01  -0.00     0.05  -0.10  -0.09
     9   8    -0.01  -0.01  -0.00    -0.00  -0.01  -0.00    -0.01  -0.00  -0.07
    10   6    -0.11   0.07   0.02     0.02  -0.04  -0.04     0.01   0.02   0.02
    11   8     0.00   0.00   0.01    -0.00   0.01   0.01    -0.01  -0.12  -0.08
    12   6    -0.13   0.06   0.17    -0.04   0.02   0.11    -0.01  -0.00   0.03
    13   6    -0.03  -0.09  -0.19    -0.00  -0.01  -0.03     0.00  -0.01  -0.01
    14   6    -0.04  -0.02  -0.19    -0.01   0.01   0.05    -0.01   0.01   0.02
    15   1    -0.23   0.17   0.36    -0.07   0.06   0.25    -0.02   0.01   0.07
    16   1     0.03  -0.15  -0.37    -0.01  -0.03  -0.05     0.02  -0.01  -0.02
    17   1    -0.01  -0.10  -0.40    -0.02   0.03   0.13    -0.01  -0.01   0.02
    18   1     0.09  -0.07  -0.15     0.01  -0.04  -0.05    -0.01  -0.03  -0.05
    19   6    -0.03  -0.08  -0.11    -0.00  -0.07  -0.05     0.02  -0.03  -0.04
    20   6     0.00  -0.00  -0.01     0.01  -0.00  -0.00     0.13   0.15   0.06
    21   8    -0.01   0.01  -0.01    -0.00  -0.00   0.01    -0.08  -0.04   0.10
    22   6     0.06  -0.09  -0.09    -0.13   0.11   0.17     0.01   0.00   0.00
    23   6    -0.08   0.05   0.04     0.13  -0.16  -0.09     0.00   0.01   0.01
    24   6     0.01  -0.04  -0.02    -0.01  -0.09  -0.00     0.03  -0.04  -0.03
    25   6    -0.08   0.05   0.06    -0.15   0.10   0.14     0.00  -0.00   0.02
    26   6    -0.05  -0.02  -0.00     0.09  -0.15  -0.12     0.00   0.00   0.00
    27   1     0.08  -0.13  -0.10    -0.22   0.19   0.27     0.01  -0.03   0.01
    28   7    -0.01  -0.01   0.01    -0.01   0.00   0.00     0.28   0.07   0.04
    29   1     0.01  -0.00  -0.01     0.01  -0.02  -0.00     0.09   0.44   0.16
    30   1    -0.05  -0.15   0.04     0.02   0.01  -0.02     0.00  -0.00  -0.01
    31   1     0.14   0.02  -0.04     0.01  -0.04   0.03     0.02   0.01  -0.02
    32   1    -0.16   0.13   0.08     0.24  -0.32  -0.21    -0.01   0.02   0.02
    33   7     0.02  -0.00   0.03     0.00   0.00   0.00    -0.00  -0.00   0.00
    34   6     0.02  -0.02  -0.00    -0.00   0.00  -0.01    -0.01   0.00  -0.00
    35   6    -0.02   0.00   0.01    -0.00   0.02   0.01    -0.00  -0.00   0.00
    36   1     0.02  -0.02  -0.02    -0.01   0.00  -0.02    -0.00   0.00  -0.00
    37   1    -0.01   0.01  -0.02    -0.01   0.01  -0.01    -0.01   0.00  -0.00
    38   1     0.04  -0.04  -0.02     0.01  -0.02  -0.01    -0.00   0.00  -0.00
    39   1    -0.03   0.01   0.00    -0.04   0.03  -0.01     0.00  -0.01  -0.00
    40   1    -0.05   0.00   0.03     0.01  -0.02   0.01    -0.00  -0.01   0.00
    41   1    -0.01   0.01  -0.02     0.01   0.04   0.03    -0.01  -0.01   0.01
    42   6    -0.00  -0.01   0.00     0.01  -0.01  -0.03    -0.12   0.14   0.02
    43   6    -0.00  -0.01   0.00     0.02   0.02  -0.00    -0.00  -0.01  -0.01
    44   6    -0.00  -0.00   0.00    -0.00   0.00   0.01     0.02  -0.01  -0.02
    45   1     0.00  -0.01   0.01    -0.02  -0.01  -0.04    -0.10   0.18  -0.01
    46   1     0.00   0.01  -0.00     0.01  -0.04  -0.01    -0.10   0.05   0.04
    47   1    -0.01  -0.01   0.00     0.01   0.02   0.01     0.23   0.09   0.01
    48   1    -0.00  -0.00   0.00     0.01   0.01   0.01     0.00  -0.21   0.02
    49   1     0.01   0.00  -0.01    -0.02  -0.00   0.03     0.05  -0.03  -0.06
    50   1     0.00   0.00   0.01    -0.00  -0.03  -0.03     0.01   0.04   0.02
    51   1    -0.00  -0.00  -0.00    -0.02  -0.00   0.03     0.07   0.01  -0.03
    52   8     0.01   0.00   0.00     0.00  -0.00   0.00    -0.03  -0.00   0.01
    53   6     0.00   0.00   0.00     0.00   0.00   0.00    -0.09  -0.04  -0.03
    54   6     0.01  -0.00  -0.00     0.01  -0.00  -0.00    -0.13   0.09   0.05
    55   6    -0.00  -0.00   0.00    -0.00  -0.00   0.00     0.00   0.08  -0.03
    56   6    -0.00  -0.00  -0.00     0.00  -0.00  -0.00    -0.00   0.00   0.08
    57   1    -0.01   0.00   0.00    -0.00   0.00   0.00     0.02  -0.05  -0.04
    58   1    -0.01   0.00   0.00    -0.00   0.00   0.00     0.02  -0.06  -0.03
    59   1     0.01   0.01   0.01     0.01   0.01   0.01    -0.20  -0.16  -0.12
    60   1    -0.00   0.00   0.00    -0.00   0.00   0.00     0.06  -0.02  -0.02
    61   1    -0.00  -0.01   0.01    -0.00  -0.01   0.01     0.08   0.23  -0.13
    62   1    -0.00  -0.00   0.00    -0.00   0.00   0.00     0.06  -0.03  -0.02
    63   1    -0.00   0.00   0.00    -0.00   0.00  -0.00     0.06  -0.03  -0.01
    64   1    -0.00   0.00  -0.01    -0.00   0.00  -0.01     0.05  -0.03   0.27
    65   1    -0.00   0.00  -0.00    -0.00   0.00   0.00     0.06  -0.04  -0.02
                     55                     56                     57
                      A                      A                      A
 Frequencies --    613.3407               632.1530               636.3017
 Red. masses --      5.6683                 3.7578                 4.2126
 Frc consts  --      1.2563                 0.8848                 1.0049
 IR Inten    --      0.0000                 0.0000                 0.0000
  Atom  AN      X      Y      Z        X      Y      Z        X      Y      Z
     1  26     0.14  -0.06   0.03     0.03  -0.04  -0.07     0.02  -0.03  -0.03
     2   6    -0.01   0.01   0.02    -0.01   0.01   0.01    -0.01   0.00   0.00
     3  46    -0.02  -0.00  -0.02    -0.00  -0.00  -0.01     0.00   0.00  -0.00
     4   6    -0.01  -0.07   0.04     0.03  -0.02  -0.01     0.03   0.01  -0.02
     5   1    -0.33   0.29   0.26     0.13  -0.12  -0.15    -0.16   0.26   0.20
     6   1    -0.13   0.14   0.02    -0.20   0.23   0.30     0.03  -0.07  -0.05
     7   1    -0.06  -0.03  -0.06    -0.06   0.03   0.01    -0.10   0.10   0.06
     8   6     0.05  -0.05  -0.01     0.01  -0.01  -0.00     0.01   0.00  -0.01
     9   8    -0.00   0.01   0.02     0.00   0.00   0.01     0.00   0.00   0.00
    10   6    -0.07  -0.13  -0.13     0.02  -0.06  -0.07     0.04  -0.08  -0.12
    11   8     0.01  -0.03  -0.01    -0.01   0.00   0.00    -0.01   0.00   0.00
    12   6     0.01   0.03  -0.12     0.02   0.01  -0.01    -0.03   0.08   0.15
    13   6    -0.03   0.08   0.05     0.02   0.01  -0.01     0.09  -0.12  -0.20
    14   6     0.04  -0.03  -0.11    -0.06   0.07   0.15    -0.08   0.12   0.23
    15   1     0.08  -0.04  -0.17    -0.05   0.08   0.15    -0.11   0.17   0.33
    16   1    -0.12   0.08   0.13     0.05   0.06   0.07     0.07  -0.13  -0.21
    17   1     0.03   0.05  -0.13    -0.08   0.15   0.34    -0.12   0.29   0.42
    18   1    -0.16   0.09   0.27    -0.07   0.05   0.13     0.00   0.01  -0.04
    19   6    -0.14   0.12   0.20    -0.02   0.05   0.12     0.01  -0.01  -0.02
    20   6     0.00   0.01  -0.02    -0.01  -0.01  -0.01    -0.00  -0.00   0.00
    21   8     0.00   0.00   0.02     0.01   0.00  -0.01     0.00  -0.00   0.00
    22   6    -0.06   0.04   0.01     0.04  -0.04  -0.04     0.00  -0.00  -0.00
    23   6    -0.04  -0.05  -0.07    -0.13   0.11   0.15     0.01  -0.04  -0.03
    24   6    -0.17   0.14   0.12     0.11  -0.13  -0.15    -0.11   0.12   0.14
    25   6    -0.08   0.09  -0.01    -0.09   0.13   0.11     0.06  -0.10  -0.10
    26   6     0.00  -0.04  -0.08    -0.00  -0.00  -0.02    -0.07   0.10   0.05
    27   1    -0.12   0.12   0.04    -0.01   0.02   0.00    -0.03   0.03   0.03
    28   7     0.07  -0.01  -0.03    -0.00  -0.01  -0.01     0.01   0.00  -0.00
    29   1    -0.01   0.05   0.02    -0.01  -0.03   0.00    -0.00  -0.00   0.01
    30   1    -0.01  -0.07   0.05     0.04   0.02  -0.03     0.07   0.13  -0.03
    31   1    -0.01  -0.11   0.18     0.01  -0.04   0.03    -0.10  -0.02   0.05
    32   1    -0.08  -0.02  -0.07    -0.27   0.35   0.34    -0.03  -0.06  -0.08
    33   7     0.03   0.03   0.04    -0.01   0.00   0.01    -0.01  -0.02   0.01
    34   6     0.01  -0.01  -0.01    -0.01   0.01  -0.01     0.00  -0.00  -0.00
    35   6    -0.02   0.00   0.01    -0.00  -0.00   0.02    -0.01  -0.01   0.02
    36   1    -0.03   0.01  -0.05    -0.01   0.01  -0.02     0.02  -0.01  -0.01
    37   1    -0.01   0.01  -0.03    -0.02   0.02  -0.01    -0.01   0.02  -0.01
    38   1     0.05  -0.08  -0.03     0.01  -0.01  -0.01     0.01   0.00  -0.01
    39   1    -0.01  -0.00  -0.04    -0.01   0.00   0.01    -0.02  -0.00   0.05
    40   1    -0.08  -0.02   0.05     0.01  -0.01   0.01     0.01   0.01   0.01
    41   1    -0.03  -0.01  -0.03     0.00   0.01   0.03    -0.01   0.00   0.03
    42   6    -0.01   0.02   0.00     0.01  -0.01  -0.00     0.00  -0.01  -0.01
    43   6     0.00   0.00  -0.00    -0.00  -0.00   0.00     0.00   0.00   0.00
    44   6     0.00   0.00  -0.00    -0.00   0.00   0.00    -0.00  -0.00   0.00
    45   1     0.03   0.01   0.03     0.02  -0.02   0.01    -0.01  -0.01  -0.01
    46   1    -0.04   0.03   0.03    -0.00   0.01   0.00     0.00  -0.01  -0.01
    47   1     0.03   0.02   0.00    -0.02  -0.01   0.00     0.00   0.00   0.00
    48   1     0.00  -0.03   0.00    -0.00   0.01  -0.00     0.00   0.00   0.00
    49   1     0.00  -0.01   0.00    -0.00   0.00   0.00    -0.00  -0.00   0.00
    50   1     0.00  -0.00  -0.01    -0.00  -0.00   0.00    -0.00  -0.01  -0.01
    51   1     0.00   0.00   0.01    -0.00  -0.00   0.00    -0.00   0.00   0.01
    52   8     0.03   0.03   0.02     0.01   0.01   0.01     0.00   0.00   0.00
    53   6    -0.05  -0.02  -0.02    -0.01  -0.00  -0.00    -0.00  -0.00  -0.00
    54   6    -0.05   0.02   0.01    -0.00   0.00  -0.00    -0.00   0.00   0.00
    55   6     0.00   0.02  -0.01     0.00  -0.00   0.00     0.00   0.00  -0.00
    56   6     0.00   0.00   0.02     0.00   0.00  -0.00     0.00   0.00   0.00
    57   1    -0.03  -0.02  -0.02    -0.01  -0.00  -0.00    -0.00  -0.00  -0.00
    58   1    -0.03  -0.02  -0.02    -0.01  -0.00  -0.00    -0.00  -0.00  -0.00
    59   1    -0.06  -0.03  -0.03    -0.00   0.00  -0.00    -0.01  -0.00  -0.00
    60   1     0.03  -0.01  -0.00     0.00  -0.00   0.00     0.00   0.00  -0.00
    61   1     0.04   0.08  -0.04     0.01   0.01  -0.00     0.00   0.01  -0.00
    62   1     0.03  -0.04   0.01     0.00  -0.01   0.00     0.00  -0.00   0.00
    63   1     0.03  -0.01   0.00     0.00   0.00   0.00     0.00  -0.00  -0.00
    64   1     0.03  -0.00   0.09     0.01   0.00   0.01     0.00  -0.00   0.01
    65   1     0.03  -0.01  -0.04     0.00  -0.00  -0.01     0.00  -0.00  -0.00
                     58                     59                     60
                      A                      A                      A
 Frequencies --    642.9926               660.6455               669.1877
 Red. masses --      5.0594                 9.2417                 4.7078
 Frc consts  --      1.2324                 2.3765                 1.2421
 IR Inten    --      0.0000                 0.0000                 0.0000
  Atom  AN      X      Y      Z        X      Y      Z        X      Y      Z
     1  26     0.01  -0.01  -0.00     0.01  -0.01  -0.02     0.04  -0.10  -0.10
     2   6     0.34  -0.20   0.06    -0.04  -0.01  -0.01    -0.00  -0.01  -0.01
     3  46     0.01   0.01  -0.01    -0.00  -0.01   0.00     0.00  -0.00   0.00
     4   6    -0.01  -0.02   0.01    -0.02  -0.01   0.01    -0.09  -0.02   0.07
     5   1    -0.01   0.02   0.01    -0.03   0.04   0.04    -0.17   0.20   0.21
     6   1    -0.01   0.01   0.01    -0.03   0.03   0.03    -0.14   0.16   0.13
     7   1     0.02   0.01  -0.01    -0.03   0.02   0.02    -0.09   0.12   0.08
     8   6    -0.04  -0.01   0.13    -0.12  -0.38   0.55    -0.03   0.05  -0.06
     9   8    -0.15  -0.04  -0.04     0.04   0.02  -0.04     0.01  -0.00  -0.01
    10   6    -0.00  -0.02   0.00    -0.02   0.01   0.02    -0.05   0.17   0.33
    11   8    -0.00   0.08   0.01     0.16   0.08  -0.15     0.02  -0.02   0.01
    12   6     0.01   0.01  -0.01    -0.01   0.01   0.02     0.02   0.06   0.04
    13   6     0.01   0.01  -0.00    -0.01   0.01  -0.00    -0.01   0.03   0.03
    14   6     0.01   0.01   0.01    -0.01   0.00  -0.01     0.02  -0.02  -0.02
    15   1     0.01   0.01  -0.00    -0.01   0.00   0.05    -0.07   0.16   0.24
    16   1    -0.00   0.01   0.01    -0.01   0.02   0.03    -0.10   0.08   0.22
    17   1     0.00   0.03   0.03    -0.02   0.02   0.02    -0.01   0.09   0.17
    18   1     0.01   0.04   0.01     0.02   0.05  -0.09     0.05  -0.02  -0.12
    19   6    -0.01   0.01   0.01     0.01  -0.00   0.01     0.08   0.01  -0.05
    20   6     0.08   0.00  -0.16     0.03   0.05   0.12     0.01   0.01   0.02
    21   8    -0.12   0.05   0.15    -0.01  -0.03  -0.04    -0.00  -0.00  -0.01
    22   6    -0.00   0.01  -0.00    -0.02   0.01   0.01    -0.08   0.06   0.03
    23   6    -0.01   0.01   0.00     0.00  -0.00   0.00     0.01  -0.00  -0.02
    24   6    -0.01   0.00   0.00    -0.01   0.01   0.02    -0.03   0.07   0.08
    25   6    -0.00   0.01  -0.00    -0.00   0.01   0.01    -0.01   0.03   0.02
    26   6    -0.00   0.01  -0.00    -0.00  -0.00   0.00    -0.01   0.01   0.00
    27   1     0.00  -0.03   0.02    -0.01   0.02  -0.01    -0.16   0.15   0.10
    28   7    -0.13  -0.07   0.03     0.00   0.25  -0.14    -0.02   0.00   0.04
    29   1     0.19   0.10  -0.63     0.01   0.01   0.19     0.01   0.01   0.03
    30   1    -0.01  -0.01   0.01    -0.03  -0.04   0.01    -0.15  -0.21   0.09
    31   1    -0.02  -0.02   0.03     0.02  -0.00  -0.00     0.10   0.03  -0.10
    32   1    -0.03   0.02   0.01    -0.01   0.02   0.03    -0.16   0.25   0.18
    33   7     0.00  -0.00   0.00     0.00   0.01  -0.00     0.01   0.02  -0.04
    34   6     0.00  -0.00  -0.00    -0.00   0.01   0.00    -0.02   0.01   0.01
    35   6    -0.00  -0.00   0.00     0.00  -0.00  -0.01     0.05   0.00  -0.09
    36   1     0.00  -0.00  -0.00    -0.01   0.01   0.01    -0.05   0.02   0.05
    37   1     0.00  -0.00  -0.00    -0.01  -0.00  -0.00     0.03  -0.06   0.04
    38   1     0.00  -0.01   0.00    -0.01   0.00   0.01    -0.07   0.05   0.03
    39   1    -0.00  -0.00  -0.00     0.01  -0.00  -0.02     0.08  -0.02  -0.11
    40   1    -0.01   0.00   0.00    -0.01  -0.00   0.00    -0.00   0.01  -0.06
    41   1    -0.00  -0.00  -0.01    -0.00  -0.01  -0.01     0.02  -0.03  -0.11
    42   6    -0.09   0.09  -0.03     0.01  -0.01   0.02    -0.00   0.00  -0.01
    43   6     0.01   0.03  -0.02     0.00  -0.02   0.00     0.00   0.01  -0.00
    44   6     0.01  -0.00  -0.01     0.00   0.00  -0.01    -0.00  -0.00  -0.00
    45   1     0.05   0.01   0.08    -0.21   0.07  -0.14    -0.04   0.01  -0.03
    46   1    -0.16   0.21   0.03     0.14  -0.23  -0.08     0.01  -0.04  -0.00
    47   1     0.20   0.11   0.02    -0.05  -0.04  -0.02     0.02   0.01   0.01
    48   1     0.01  -0.15   0.02     0.00   0.04  -0.01     0.00  -0.01   0.00
    49   1     0.02  -0.05  -0.01    -0.01  -0.00   0.01    -0.00  -0.00   0.00
    50   1     0.01  -0.01  -0.03    -0.03   0.04  -0.01     0.00  -0.01  -0.01
    51   1     0.03   0.01   0.02     0.02   0.00  -0.04    -0.00   0.00   0.01
    52   8     0.01   0.03  -0.01    -0.09   0.02  -0.22    -0.02  -0.03   0.01
    53   6     0.04   0.02   0.01     0.06   0.02   0.02     0.02   0.01   0.01
    54   6     0.05  -0.04  -0.02     0.04  -0.01   0.01     0.01  -0.00  -0.00
    55   6     0.00  -0.04   0.01    -0.01  -0.01   0.00    -0.00  -0.00   0.00
    56   6     0.00  -0.00  -0.04    -0.01  -0.00   0.01    -0.00  -0.00  -0.01
    57   1    -0.01   0.02   0.01     0.07   0.01  -0.01     0.02   0.01   0.01
    58   1    -0.00   0.03   0.01     0.12   0.05   0.02     0.02   0.00   0.01
    59   1     0.08   0.06   0.05     0.03  -0.01  -0.01     0.01   0.00   0.00
    60   1    -0.02  -0.01   0.01    -0.01  -0.07   0.01    -0.01   0.01  -0.00
    61   1    -0.02  -0.09   0.04    -0.03  -0.04  -0.02    -0.01  -0.03   0.02
    62   1    -0.01  -0.01   0.01    -0.01   0.03  -0.04    -0.01   0.02  -0.00
    63   1    -0.03   0.02   0.01    -0.08   0.03   0.08    -0.01  -0.00  -0.01
    64   1    -0.02   0.02  -0.12    -0.06   0.02  -0.14    -0.01  -0.00  -0.02
    65   1    -0.02   0.02   0.00    -0.07   0.04   0.11    -0.01  -0.00   0.01
                     61                     62                     63
                      A                      A                      A
 Frequencies --    685.9957               702.1154               749.6941
 Red. masses --      6.4249                 4.3039                 8.4970
 Frc consts  --      1.7814                 1.2500                 2.8137
 IR Inten    --      0.0000                 0.0000                 0.0000
  Atom  AN      X      Y      Z        X      Y      Z        X      Y      Z
     1  26     0.02  -0.00   0.00     0.02  -0.02  -0.02    -0.00  -0.00   0.00
     2   6     0.08  -0.13   0.08    -0.01   0.02  -0.01    -0.14   0.23  -0.36
     3  46     0.00   0.00  -0.00    -0.00  -0.00  -0.01     0.00   0.00  -0.03
     4   6     0.08   0.09  -0.07     0.15   0.23  -0.13     0.01   0.01  -0.01
     5   1    -0.04   0.03   0.03    -0.05   0.04   0.08    -0.01   0.06   0.01
     6   1     0.01  -0.01  -0.02     0.00   0.00  -0.04    -0.03  -0.01   0.05
     7   1     0.01  -0.02  -0.02     0.00   0.02   0.01     0.02  -0.02  -0.07
     8   6    -0.16   0.14  -0.16     0.05  -0.05   0.05    -0.11   0.07  -0.02
     9   8     0.04   0.09  -0.08    -0.01  -0.02   0.02    -0.03  -0.26  -0.06
    10   6     0.01   0.04  -0.11     0.04   0.19  -0.02    -0.00  -0.00  -0.03
    11   8     0.23  -0.11   0.03    -0.09   0.06  -0.00     0.13   0.00   0.03
    12   6    -0.03  -0.07  -0.01     0.00  -0.17   0.04    -0.00  -0.00  -0.01
    13   6    -0.06  -0.01   0.01    -0.05  -0.10   0.08    -0.01   0.00   0.01
    14   6    -0.09   0.02  -0.03    -0.15  -0.04  -0.05    -0.02   0.01   0.00
    15   1    -0.09  -0.01  -0.02    -0.14  -0.02   0.15     0.01  -0.02  -0.10
    16   1     0.03   0.05   0.05     0.08   0.05   0.27     0.02   0.00  -0.02
    17   1    -0.07  -0.07  -0.05    -0.12  -0.19  -0.05    -0.00  -0.05  -0.10
    18   1    -0.11  -0.22   0.11    -0.12  -0.02   0.15    -0.08  -0.09   0.04
    19   6     0.00   0.01   0.16     0.07  -0.06   0.13    -0.00   0.02   0.06
    20   6     0.02   0.07   0.19    -0.01  -0.03  -0.06     0.18   0.10  -0.05
    21   8    -0.06  -0.07  -0.11     0.01   0.01   0.04     0.08   0.09   0.37
    22   6    -0.02   0.01   0.01    -0.05   0.02   0.00     0.09  -0.02  -0.01
    23   6    -0.00  -0.00  -0.01     0.02   0.00  -0.03    -0.01  -0.02   0.02
    24   6    -0.01   0.01   0.01    -0.01   0.04   0.05    -0.02  -0.01  -0.00
    25   6    -0.01   0.01   0.00    -0.00   0.00   0.01    -0.02  -0.02  -0.02
    26   6    -0.01  -0.00  -0.01    -0.02  -0.01   0.00    -0.01   0.04  -0.02
    27   1     0.02  -0.02  -0.03    -0.07   0.03   0.03    -0.21   0.24   0.27
    28   7    -0.12   0.06   0.14     0.04  -0.02  -0.04    -0.03   0.04   0.12
    29   1     0.04   0.08   0.10    -0.01  -0.02  -0.06     0.13  -0.02   0.12
    30   1     0.06   0.05  -0.08     0.09   0.09  -0.15     0.01   0.01  -0.01
    31   1     0.10   0.11  -0.13     0.27   0.30  -0.39     0.00   0.01  -0.01
    32   1     0.02  -0.03  -0.02    -0.00   0.04  -0.00    -0.05  -0.01  -0.01
    33   7    -0.02  -0.02   0.02    -0.05  -0.06  -0.00     0.00  -0.00   0.01
    34   6     0.02  -0.00  -0.01     0.01  -0.00  -0.00     0.01  -0.01  -0.00
    35   6    -0.03  -0.00   0.06    -0.03  -0.01   0.06    -0.02  -0.00   0.02
    36   1     0.07  -0.02  -0.02     0.10  -0.04   0.00     0.02  -0.01  -0.02
    37   1     0.01   0.03  -0.01     0.01   0.04   0.00     0.01   0.00  -0.00
    38   1     0.04   0.00  -0.02     0.00   0.06  -0.00     0.01  -0.01  -0.00
    39   1    -0.06   0.01   0.10    -0.08   0.01   0.17    -0.02  -0.00   0.02
    40   1     0.02  -0.00   0.03     0.11   0.02  -0.02    -0.02  -0.01   0.02
    41   1    -0.01   0.03   0.08     0.02   0.05   0.12    -0.02  -0.00   0.03
    42   6    -0.04   0.06   0.03     0.01  -0.01  -0.01     0.04  -0.04  -0.00
    43   6     0.02   0.02  -0.01    -0.00   0.00   0.00    -0.05  -0.07   0.02
    44   6     0.01  -0.00  -0.03    -0.00   0.00   0.01    -0.02  -0.00   0.03
    45   1    -0.29   0.18  -0.17     0.10  -0.06   0.06     0.05  -0.06   0.02
    46   1     0.12  -0.17  -0.10    -0.05   0.06   0.04    -0.00  -0.18   0.09
    47   1     0.06   0.03  -0.04    -0.00   0.01   0.02     0.00  -0.03   0.07
    48   1     0.03   0.00  -0.02    -0.00  -0.01   0.01    -0.05  -0.13   0.03
    49   1     0.01  -0.00  -0.02    -0.00  -0.01   0.01     0.03   0.00  -0.04
    50   1     0.01  -0.00  -0.03     0.00  -0.01  -0.00    -0.02   0.08   0.13
    51   1     0.01  -0.00  -0.02    -0.01   0.00   0.02     0.04   0.01  -0.02
    52   8    -0.14  -0.11  -0.02     0.05   0.03   0.01    -0.11  -0.06  -0.03
    53   6     0.10   0.04   0.03    -0.03  -0.01  -0.01     0.06   0.03   0.02
    54   6     0.07  -0.02  -0.02    -0.02   0.01   0.00     0.02  -0.01  -0.00
    55   6    -0.01  -0.04   0.01     0.00   0.01  -0.00    -0.00  -0.03   0.01
    56   6    -0.00  -0.01  -0.05     0.00   0.00   0.01     0.00  -0.00  -0.04
    57   1     0.13   0.04   0.04    -0.04  -0.01  -0.01     0.10   0.03   0.02
    58   1     0.11   0.03   0.03    -0.04  -0.01  -0.01     0.10   0.02   0.02
    59   1     0.09   0.02   0.02    -0.03  -0.01  -0.01     0.03  -0.01  -0.00
    60   1    -0.07   0.02   0.00     0.02  -0.00  -0.00    -0.03  -0.01   0.01
    61   1    -0.09  -0.18   0.07     0.02   0.05  -0.02    -0.04  -0.10   0.04
    62   1    -0.06   0.09  -0.01     0.02  -0.02   0.00    -0.03   0.03  -0.00
    63   1    -0.05   0.00  -0.03     0.01   0.00   0.01    -0.03   0.00  -0.03
    64   1    -0.06  -0.01  -0.17     0.02   0.00   0.05    -0.03  -0.00  -0.09
    65   1    -0.05   0.01   0.06     0.02  -0.00  -0.01    -0.02   0.00   0.02
                     64                     65                     66
                      A                      A                      A
 Frequencies --    753.9495               771.8626               779.3186
 Red. masses --      3.0293                 2.2146                 1.7718
 Frc consts  --      1.0146                 0.7774                 0.6340
 IR Inten    --      0.0000                 0.0000                 0.0000
  Atom  AN      X      Y      Z        X      Y      Z        X      Y      Z
     1  26    -0.00  -0.00   0.01     0.00   0.00   0.01    -0.00   0.00   0.01
     2   6     0.01  -0.02   0.04    -0.01   0.01  -0.02    -0.01   0.01  -0.01
     3  46    -0.00  -0.00   0.00    -0.00   0.00  -0.00    -0.00  -0.00  -0.00
     4   6     0.00   0.01  -0.01    -0.01  -0.02  -0.00    -0.00  -0.00   0.00
     5   1     0.10   0.12  -0.01     0.21  -0.19   0.01    -0.04   0.01  -0.01
     6   1    -0.28   0.06   0.35    -0.25   0.09   0.08     0.23  -0.16  -0.21
     7   1     0.16  -0.18  -0.39     0.35  -0.18  -0.21    -0.04   0.01   0.05
     8   6     0.01  -0.01   0.00     0.00   0.00  -0.00    -0.00  -0.00   0.00
     9   8     0.01   0.03   0.01    -0.00  -0.01  -0.00    -0.00  -0.01   0.00
    10   6     0.02   0.02   0.04     0.02  -0.02  -0.01     0.04  -0.01   0.03
    11   8    -0.01   0.00  -0.00    -0.00   0.00   0.00    -0.00   0.01   0.00
    12   6    -0.04  -0.05  -0.04    -0.03  -0.03  -0.04    -0.07  -0.11  -0.10
    13   6    -0.03   0.05  -0.00    -0.02   0.04  -0.02    -0.04   0.09  -0.06
    14   6     0.04   0.01  -0.03     0.03   0.02  -0.01     0.11   0.02  -0.02
    15   1    -0.05  -0.02   0.11    -0.07   0.01   0.10    -0.29   0.15   0.70
    16   1    -0.01   0.05  -0.02     0.01   0.05  -0.04    -0.02   0.10  -0.05
    17   1     0.04  -0.04   0.01     0.02   0.04   0.11     0.05   0.12   0.33
    18   1    -0.01  -0.00   0.02     0.01   0.00   0.00    -0.03  -0.01   0.02
    19   6     0.01  -0.03   0.03    -0.00  -0.00   0.04     0.01  -0.04   0.04
    20   6    -0.02  -0.01   0.01     0.00   0.00  -0.00     0.01  -0.00  -0.00
    21   8    -0.01  -0.01  -0.03     0.01   0.01   0.01     0.00   0.00   0.01
    22   6     0.22   0.04   0.03    -0.11   0.04  -0.04    -0.01  -0.01   0.01
    23   6     0.00  -0.05   0.11     0.12   0.08  -0.09    -0.03  -0.01   0.02
    24   6    -0.03  -0.06   0.05     0.10  -0.02   0.13    -0.02   0.01  -0.02
    25   6    -0.10  -0.12  -0.08    -0.05  -0.12   0.02     0.02   0.05   0.01
    26   6    -0.06   0.19  -0.13    -0.09   0.02  -0.01     0.01  -0.01   0.03
    27   1    -0.15   0.27   0.43     0.22  -0.41  -0.25     0.06  -0.05  -0.08
    28   7     0.01   0.00  -0.01     0.00  -0.00   0.00     0.00   0.00   0.00
    29   1    -0.01  -0.00  -0.00    -0.00  -0.00   0.01     0.01  -0.00   0.00
    30   1    -0.00  -0.00  -0.02     0.00   0.01  -0.00    -0.00  -0.01  -0.01
    31   1     0.03   0.01  -0.03    -0.02  -0.03   0.03     0.00  -0.00   0.00
    32   1    -0.09  -0.17  -0.14    -0.17   0.41   0.14     0.11  -0.17  -0.09
    33   7     0.00   0.00  -0.00     0.01   0.01   0.00     0.00   0.00   0.00
    34   6     0.00   0.00  -0.00     0.00  -0.00   0.00     0.00  -0.00  -0.00
    35   6     0.00   0.00  -0.00    -0.00   0.00   0.01     0.00  -0.00  -0.00
    36   1    -0.00   0.00   0.00    -0.01   0.00  -0.01    -0.00  -0.00  -0.00
    37   1     0.00  -0.01   0.00     0.00  -0.00  -0.00     0.00  -0.00   0.00
    38   1     0.00  -0.00   0.00     0.01  -0.02  -0.00    -0.00  -0.00   0.00
    39   1    -0.00   0.01  -0.01     0.01   0.00  -0.01     0.00  -0.00  -0.01
    40   1     0.00  -0.00   0.00    -0.01  -0.01   0.02    -0.00   0.00  -0.00
    41   1    -0.00   0.00   0.00    -0.01  -0.01   0.01     0.00  -0.00  -0.01
    42   6    -0.00  -0.00  -0.01     0.00   0.00   0.01     0.00  -0.00  -0.01
    43   6     0.01   0.01  -0.00    -0.00  -0.01   0.00    -0.01   0.00  -0.00
    44   6     0.00   0.00   0.00    -0.00  -0.00  -0.00    -0.00   0.00   0.00
    45   1     0.02   0.01  -0.01    -0.02  -0.00   0.00    -0.00  -0.01  -0.00
    46   1    -0.03  -0.00   0.02     0.02   0.02  -0.02    -0.00   0.01  -0.00
    47   1     0.02   0.02   0.01    -0.03  -0.02  -0.02     0.01   0.01   0.03
    48   1     0.00  -0.00   0.00    -0.00   0.03  -0.00     0.00  -0.03  -0.00
    49   1    -0.01  -0.01   0.01     0.00   0.01  -0.01     0.02  -0.02  -0.02
    50   1     0.01  -0.02  -0.02    -0.01   0.02   0.02     0.01  -0.00   0.01
    51   1    -0.01   0.00   0.03     0.01  -0.00  -0.03     0.00   0.01   0.02
    52   8     0.01   0.00  -0.00    -0.00  -0.00  -0.00    -0.00  -0.01  -0.00
    53   6    -0.01  -0.00  -0.00    -0.00   0.00   0.00    -0.00  -0.00  -0.00
    54   6    -0.00   0.00   0.00     0.00  -0.00   0.00    -0.00   0.00  -0.00
    55   6     0.00   0.01  -0.00     0.00   0.00  -0.00     0.00   0.00  -0.00
    56   6     0.00   0.00   0.01    -0.00   0.00   0.00     0.00  -0.00   0.00
    57   1    -0.01  -0.00  -0.00     0.00  -0.00  -0.00     0.00  -0.00  -0.00
    58   1    -0.01  -0.00  -0.00     0.00  -0.00   0.00     0.00  -0.00  -0.00
    59   1    -0.00  -0.00  -0.00    -0.00  -0.00  -0.00    -0.00  -0.00  -0.00
    60   1     0.00   0.00  -0.00    -0.00   0.00  -0.00    -0.00   0.00  -0.00
    61   1     0.00   0.01  -0.00    -0.00   0.00  -0.00    -0.00   0.00  -0.00
    62   1     0.00   0.00  -0.00    -0.00   0.00  -0.00    -0.00   0.00  -0.00
    63   1     0.00   0.00   0.01    -0.00  -0.00   0.00    -0.00   0.00   0.00
    64   1     0.00   0.00   0.01    -0.00   0.00   0.00    -0.00   0.00   0.00
    65   1     0.00   0.00   0.00    -0.00  -0.00   0.00    -0.00   0.00   0.01
                     67                     68                     69
                      A                      A                      A
 Frequencies --    784.2090               793.9697               802.1864
 Red. masses --      1.3844                 1.3410                 3.5234
 Frc consts  --      0.5016                 0.4980                 1.3359
 IR Inten    --      0.0000                 0.0000                 0.0000
  Atom  AN      X      Y      Z        X      Y      Z        X      Y      Z
     1  26    -0.02   0.02   0.02    -0.00   0.01   0.00    -0.00   0.01   0.01
     2   6    -0.00  -0.01   0.02     0.00   0.00  -0.01    -0.05   0.01   0.01
     3  46     0.00  -0.00  -0.00     0.00   0.00  -0.00    -0.00  -0.00   0.00
     4   6     0.01  -0.01   0.00     0.02   0.00  -0.01     0.00   0.01  -0.00
     5   1    -0.04  -0.01   0.03    -0.00   0.06   0.02    -0.01   0.02   0.02
     6   1    -0.03   0.01  -0.01    -0.36   0.34   0.40    -0.06   0.05   0.07
     7   1    -0.24   0.24   0.23    -0.34   0.36   0.30     0.02  -0.01  -0.01
     8   6    -0.00  -0.00   0.00    -0.00   0.00  -0.00    -0.03  -0.05  -0.01
     9   8     0.00   0.01   0.01    -0.00  -0.00  -0.00     0.02   0.01   0.01
    10   6     0.02  -0.01  -0.01     0.01  -0.00   0.00    -0.01   0.00  -0.00
    11   8    -0.00   0.00   0.00    -0.00   0.00   0.00    -0.06  -0.07  -0.06
    12   6    -0.01  -0.03  -0.03    -0.04  -0.02   0.03     0.02   0.01  -0.01
    13   6    -0.00   0.02  -0.01    -0.04   0.05   0.01     0.02  -0.04  -0.01
    14   6     0.01   0.02   0.03     0.03  -0.01  -0.04     0.01  -0.03  -0.03
    15   1    -0.06   0.03   0.14     0.04  -0.10  -0.11    -0.01   0.04   0.05
    16   1     0.04  -0.00  -0.09     0.05  -0.06  -0.25    -0.05   0.04   0.20
    17   1     0.05  -0.10  -0.16    -0.01   0.08   0.24    -0.04   0.12   0.19
    18   1    -0.02   0.00   0.02    -0.02  -0.02   0.02     0.01   0.00  -0.05
    19   6     0.00  -0.01   0.01    -0.00  -0.03   0.02    -0.01   0.01  -0.01
    20   6     0.01  -0.01   0.00    -0.00   0.00  -0.00     0.07   0.01   0.01
    21   8    -0.00  -0.01  -0.01     0.00   0.00   0.01    -0.00  -0.03  -0.01
    22   6     0.04  -0.04  -0.04    -0.02   0.02  -0.01    -0.00   0.00  -0.00
    23   6     0.07  -0.04  -0.09    -0.01   0.05   0.02     0.00   0.01   0.00
    24   6    -0.00  -0.00   0.01     0.01   0.01   0.00     0.01  -0.01  -0.01
    25   6    -0.00  -0.02   0.00     0.04  -0.07  -0.05     0.01  -0.01  -0.01
    26   6     0.01  -0.05  -0.00     0.04  -0.06  -0.02    -0.00   0.00  -0.00
    27   1    -0.31   0.30   0.28     0.05  -0.05  -0.07     0.01  -0.02  -0.01
    28   7    -0.00   0.00  -0.00    -0.00  -0.00   0.00     0.02   0.01  -0.01
    29   1     0.01  -0.01  -0.00     0.00   0.00  -0.01     0.05   0.01   0.08
    30   1     0.02   0.03  -0.00     0.02   0.01  -0.02    -0.00  -0.01  -0.00
    31   1    -0.03  -0.01   0.02     0.04   0.01  -0.02     0.02   0.01  -0.02
    32   1    -0.31   0.48   0.32     0.12  -0.14  -0.13     0.03  -0.02  -0.02
    33   7    -0.00  -0.00   0.00    -0.00  -0.00   0.01    -0.00  -0.00  -0.00
    34   6    -0.01   0.01  -0.00    -0.01   0.01  -0.00     0.00  -0.00   0.00
    35   6     0.00  -0.01  -0.00     0.00  -0.01   0.00    -0.00  -0.00   0.00
    36   1    -0.01   0.01  -0.00    -0.01   0.01  -0.00     0.00  -0.00   0.00
    37   1    -0.01  -0.00  -0.00    -0.01   0.00  -0.00    -0.00   0.00  -0.00
    38   1    -0.00   0.00  -0.00    -0.00   0.00  -0.00     0.00   0.00  -0.00
    39   1     0.01  -0.01   0.00     0.00  -0.01   0.01    -0.00  -0.00   0.00
    40   1     0.00   0.01  -0.01     0.01   0.01  -0.01     0.00  -0.00   0.00
    41   1     0.01   0.00  -0.01     0.02   0.01  -0.02    -0.00   0.00   0.00
    42   6    -0.00  -0.01  -0.01     0.00   0.00   0.00    -0.01   0.01   0.00
    43   6     0.00   0.02  -0.01    -0.00  -0.01   0.00    -0.03   0.03  -0.02
    44   6     0.00   0.01  -0.00     0.00  -0.00   0.00    -0.01   0.01  -0.01
    45   1     0.03  -0.01   0.00    -0.00   0.00   0.00     0.00   0.00   0.01
    46   1    -0.05  -0.03   0.05     0.01   0.01  -0.01    -0.03  -0.06   0.05
    47   1     0.06   0.05   0.05    -0.02  -0.01  -0.02     0.17   0.14   0.17
    48   1     0.01  -0.07  -0.00    -0.00   0.02   0.00     0.03  -0.26  -0.04
    49   1     0.01  -0.04  -0.01    -0.01   0.01   0.00     0.10  -0.13  -0.11
    50   1     0.02  -0.04  -0.03    -0.00   0.01   0.01     0.05  -0.04   0.02
    51   1    -0.01   0.01   0.07     0.00  -0.00  -0.02     0.01   0.05   0.19
    52   8    -0.00   0.00   0.00     0.00  -0.00  -0.00    -0.03   0.19   0.12
    53   6     0.00   0.00   0.00    -0.00  -0.00  -0.00     0.12   0.07   0.05
    54   6    -0.00   0.00  -0.00    -0.00   0.00   0.00    -0.02   0.02   0.01
    55   6    -0.00  -0.00   0.00     0.00   0.00  -0.00    -0.03  -0.20   0.09
    56   6     0.00  -0.00  -0.00     0.00   0.00   0.00    -0.01   0.01  -0.22
    57   1     0.00   0.00   0.00    -0.00  -0.00  -0.00     0.11   0.07   0.06
    58   1     0.00   0.00   0.00    -0.00  -0.00  -0.00     0.11   0.07   0.05
    59   1     0.00   0.00   0.00    -0.00  -0.00  -0.00     0.14   0.09   0.07
    60   1    -0.00  -0.00   0.00    -0.00   0.00  -0.00     0.02  -0.27   0.09
    61   1    -0.00  -0.00   0.00    -0.00   0.00  -0.00     0.02  -0.10   0.03
    62   1    -0.00  -0.00   0.00    -0.00   0.00  -0.00     0.01  -0.28   0.09
    63   1    -0.00   0.00  -0.00    -0.00   0.00   0.00     0.04  -0.02  -0.27
    64   1    -0.00  -0.00  -0.00     0.00   0.00   0.00     0.03  -0.01  -0.11
    65   1    -0.00   0.00  -0.00    -0.00  -0.00   0.00     0.04  -0.02  -0.29
                     70                     71                     72
                      A                      A                      A
 Frequencies --    804.6771               809.9909               815.5435
 Red. masses --      1.5213                 1.4523                 1.3950
 Frc consts  --      0.5804                 0.5614                 0.5467
 IR Inten    --      0.0000                 0.0000                 0.0000
  Atom  AN      X      Y      Z        X      Y      Z        X      Y      Z
     1  26    -0.01   0.02   0.03     0.00  -0.00  -0.01    -0.01   0.01   0.02
     2   6     0.01  -0.00  -0.01     0.05  -0.01  -0.02     0.01  -0.00  -0.01
     3  46    -0.00   0.00   0.00    -0.00  -0.00  -0.00     0.00   0.00  -0.00
     4   6     0.00   0.02  -0.01     0.01   0.01  -0.00    -0.00  -0.03   0.01
     5   1    -0.26   0.27   0.17    -0.05   0.06   0.02     0.01  -0.03  -0.00
     6   1    -0.05   0.07   0.16     0.07  -0.06  -0.05    -0.21   0.18   0.19
     7   1     0.06  -0.11  -0.07    -0.02  -0.01  -0.00    -0.12   0.13   0.10
     8   6     0.00   0.01   0.00     0.00  -0.02  -0.01     0.00   0.00  -0.00
     9   8    -0.00  -0.00  -0.00    -0.01  -0.01  -0.01    -0.00  -0.01  -0.01
    10   6    -0.02   0.01  -0.02     0.02   0.00   0.01    -0.02   0.00  -0.01
    11   8     0.01   0.00   0.00    -0.03  -0.02  -0.02     0.01  -0.00  -0.00
    12   6     0.01   0.02   0.00    -0.02  -0.02   0.01     0.06   0.00  -0.09
    13   6     0.03  -0.06  -0.05    -0.02   0.04   0.00     0.06  -0.07  -0.02
    14   6     0.02  -0.05  -0.09     0.01   0.02   0.02    -0.04   0.01   0.03
    15   1     0.00   0.01  -0.06     0.01  -0.05  -0.03    -0.15   0.24   0.44
    16   1    -0.12   0.10   0.39     0.05  -0.04  -0.19    -0.11   0.13   0.48
    17   1    -0.10   0.34   0.53     0.03  -0.08  -0.07     0.02  -0.12  -0.38
    18   1     0.01  -0.01  -0.02    -0.00   0.00  -0.00    -0.00   0.01   0.01
    19   6    -0.02   0.01  -0.00     0.01  -0.02   0.01    -0.01   0.04  -0.03
    20   6    -0.01   0.00   0.00    -0.05   0.03   0.01    -0.01   0.01   0.00
    21   8     0.00   0.01   0.00     0.00   0.02   0.02     0.00   0.01   0.01
    22   6     0.01  -0.01   0.03     0.01   0.00   0.02    -0.01   0.01   0.00
    23   6     0.03  -0.06  -0.03     0.01  -0.04  -0.01    -0.00   0.02   0.01
    24   6     0.01  -0.04  -0.09    -0.02  -0.00  -0.02     0.01  -0.00   0.01
    25   6     0.03  -0.01  -0.02    -0.00   0.02   0.00     0.01  -0.04  -0.03
    26   6     0.01   0.01   0.02     0.00   0.01   0.00     0.02  -0.02  -0.02
    27   1     0.03   0.01  -0.02     0.01   0.03  -0.00     0.04  -0.05  -0.03
    28   7    -0.00  -0.00   0.00     0.02  -0.00  -0.00    -0.00  -0.00   0.00
    29   1    -0.01   0.01  -0.01    -0.05   0.10   0.00    -0.01   0.02  -0.00
    30   1    -0.02  -0.03  -0.01     0.01   0.01  -0.01     0.01   0.01   0.01
    31   1     0.04   0.02  -0.03    -0.01   0.01  -0.00    -0.02  -0.03   0.03
    32   1    -0.12   0.22   0.23    -0.09   0.10   0.10     0.11  -0.13  -0.11
    33   7     0.00   0.00   0.00    -0.00  -0.00  -0.00     0.00  -0.00   0.00
    34   6     0.01  -0.01  -0.00    -0.00   0.00  -0.00    -0.01   0.00   0.00
    35   6    -0.01   0.00   0.01     0.00   0.00  -0.00     0.00  -0.00  -0.00
    36   1     0.01  -0.01   0.00     0.00   0.00  -0.00    -0.01   0.01  -0.00
    37   1     0.01  -0.00   0.00    -0.00   0.00   0.00    -0.01   0.01  -0.00
    38   1     0.01  -0.00  -0.00    -0.00   0.00   0.00    -0.00  -0.00  -0.00
    39   1    -0.01   0.00   0.01    -0.00   0.00   0.00     0.00  -0.01  -0.01
    40   1    -0.00  -0.00   0.01     0.01   0.00  -0.00    -0.01   0.00  -0.00
    41   1    -0.01   0.00   0.01     0.00   0.00   0.00     0.01   0.00  -0.02
    42   6     0.00   0.00   0.00    -0.00   0.02   0.02     0.00   0.00   0.00
    43   6     0.01  -0.01   0.01     0.05  -0.05   0.05     0.01  -0.02   0.01
    44   6     0.00  -0.00   0.00     0.02  -0.02   0.01     0.00  -0.01   0.00
    45   1    -0.01   0.01  -0.01    -0.12   0.06  -0.06    -0.05   0.02  -0.03
    46   1     0.02   0.01  -0.02     0.09   0.03  -0.10     0.03   0.01  -0.03
    47   1    -0.05  -0.04  -0.06    -0.27  -0.25  -0.33    -0.08  -0.07  -0.09
    48   1    -0.01   0.08   0.01    -0.06   0.46   0.08    -0.02   0.13   0.02
    49   1    -0.03   0.04   0.03    -0.17   0.24   0.19    -0.04   0.06   0.04
    50   1    -0.02   0.02  -0.00    -0.11   0.11  -0.02    -0.03   0.03  -0.00
    51   1     0.00  -0.02  -0.07     0.01  -0.10  -0.40     0.00  -0.03  -0.11
    52   8     0.00  -0.02  -0.01     0.00   0.05   0.03    -0.00  -0.00  -0.00
    53   6    -0.01  -0.01  -0.01     0.03   0.01   0.01     0.00   0.00  -0.00
    54   6     0.00  -0.00  -0.00    -0.01   0.01   0.01     0.00   0.00   0.00
    55   6     0.00   0.02  -0.01    -0.01  -0.05   0.02    -0.00   0.00  -0.00
    56   6     0.00  -0.00   0.02    -0.00   0.00  -0.05    -0.00   0.00   0.00
    57   1    -0.01  -0.01  -0.01     0.02   0.02   0.01     0.00   0.00   0.00
    58   1    -0.01  -0.01  -0.01     0.02   0.02   0.01     0.00  -0.00  -0.00
    59   1    -0.01  -0.01  -0.01     0.03   0.02   0.02    -0.00  -0.00  -0.00
    60   1    -0.00   0.03  -0.01     0.01  -0.07   0.02     0.00   0.00  -0.00
    61   1    -0.00   0.01  -0.00     0.01  -0.01   0.00    -0.00  -0.00  -0.00
    62   1    -0.00   0.03  -0.01     0.01  -0.07   0.02    -0.00  -0.00   0.00
    63   1    -0.00   0.00   0.03     0.01  -0.01  -0.07     0.00  -0.00  -0.00
    64   1    -0.00   0.00   0.01     0.01  -0.00  -0.01     0.00   0.00   0.00
    65   1    -0.00   0.00   0.03     0.01  -0.01  -0.08     0.00  -0.00  -0.00
                     73                     74                     75
                      A                      A                      A
 Frequencies --    822.1362               854.4762               860.8650
 Red. masses --      1.3969                 1.6278                 1.5698
 Frc consts  --      0.5563                 0.7002                 0.6854
 IR Inten    --      0.0000                 0.0000                 0.0000
  Atom  AN      X      Y      Z        X      Y      Z        X      Y      Z
     1  26    -0.00  -0.00   0.00     0.00  -0.00  -0.00     0.00   0.00  -0.00
     2   6     0.02  -0.01  -0.00    -0.00   0.00   0.00    -0.02   0.01  -0.00
     3  46     0.00  -0.00  -0.00     0.00  -0.00  -0.00     0.00   0.00  -0.00
     4   6     0.00   0.01   0.00    -0.00  -0.01   0.00     0.02   0.01   0.01
     5   1     0.36  -0.35  -0.23    -0.18   0.12   0.21     0.22  -0.10  -0.20
     6   1     0.11  -0.16  -0.23     0.09  -0.14  -0.20     0.14  -0.20  -0.06
     7   1    -0.12   0.18   0.11    -0.13   0.19   0.12    -0.36   0.29   0.14
     8   6     0.00   0.00  -0.00     0.00  -0.00   0.00    -0.00   0.00   0.00
     9   8    -0.00  -0.00  -0.00     0.00   0.00   0.00     0.00  -0.00   0.00
    10   6    -0.02  -0.00  -0.01     0.04  -0.01   0.02    -0.01   0.00   0.00
    11   8     0.01  -0.01  -0.00    -0.01   0.00  -0.00     0.00   0.00   0.00
    12   6     0.02   0.03   0.00    -0.09  -0.02   0.06     0.00   0.01   0.00
    13   6     0.02  -0.04   0.00    -0.02   0.03  -0.13     0.01  -0.01   0.00
    14   6     0.01  -0.04  -0.05     0.05   0.06   0.02    -0.01  -0.01  -0.00
    15   1     0.02   0.02  -0.04     0.10  -0.23  -0.37    -0.00   0.02  -0.03
    16   1    -0.04   0.02   0.17    -0.19   0.31   0.55     0.02   0.02   0.06
    17   1    -0.08   0.24   0.41     0.09  -0.13  -0.18    -0.01   0.01   0.03
    18   1    -0.01   0.01   0.03     0.01  -0.01  -0.03    -0.01  -0.01   0.03
    19   6    -0.03   0.02  -0.02     0.02  -0.04   0.05    -0.01   0.00  -0.01
    20   6    -0.02   0.01   0.01     0.00   0.00  -0.01     0.02   0.00  -0.01
    21   8    -0.00   0.00   0.00    -0.00  -0.00   0.00    -0.00  -0.00   0.00
    22   6     0.02  -0.01  -0.05     0.00   0.02  -0.02     0.04   0.08   0.08
    23   6    -0.00   0.06  -0.00     0.02   0.04   0.01     0.03  -0.10   0.03
    24   6     0.02   0.02   0.10     0.05  -0.05   0.01    -0.07  -0.02   0.02
    25   6    -0.06  -0.01   0.03    -0.04  -0.01   0.03    -0.06   0.02  -0.02
    26   6    -0.01  -0.03  -0.04    -0.01  -0.01  -0.03     0.04   0.04  -0.09
    27   1    -0.25   0.18   0.22    -0.01  -0.02   0.02     0.45  -0.33  -0.28
    28   7     0.00   0.00   0.00     0.00  -0.00  -0.00    -0.00  -0.00   0.00
    29   1    -0.01   0.02   0.00     0.00  -0.00  -0.01     0.02  -0.01  -0.01
    30   1    -0.01  -0.03   0.01     0.00   0.01  -0.01     0.01   0.00   0.02
    31   1     0.02   0.02  -0.01    -0.03  -0.02   0.02     0.00   0.02  -0.00
    32   1     0.03  -0.08  -0.16     0.09  -0.07  -0.09    -0.25   0.16   0.17
    33   7    -0.00  -0.00  -0.00     0.00   0.00   0.00    -0.01  -0.01  -0.00
    34   6    -0.00  -0.00  -0.00    -0.00   0.00   0.00    -0.01   0.01  -0.00
    35   6    -0.00  -0.01  -0.00     0.00  -0.00  -0.00     0.00  -0.01  -0.01
    36   1     0.01  -0.00   0.00    -0.01   0.01  -0.00     0.01  -0.00   0.00
    37   1     0.00   0.00   0.00    -0.00  -0.00  -0.00    -0.01   0.01   0.00
    38   1    -0.01   0.01   0.00     0.00  -0.01  -0.00    -0.02   0.02   0.00
    39   1     0.00  -0.01   0.01     0.01  -0.01  -0.01    -0.01  -0.01   0.02
    40   1     0.00   0.01  -0.01    -0.01   0.01   0.00     0.02   0.02  -0.02
    41   1     0.01   0.00  -0.00     0.01   0.00  -0.02     0.02   0.01  -0.02
    42   6    -0.00   0.00  -0.00    -0.00   0.00   0.00     0.01   0.01   0.01
    43   6     0.02  -0.00   0.01    -0.00   0.00  -0.00    -0.02  -0.01  -0.00
    44   6     0.01  -0.00   0.00     0.00   0.00  -0.00    -0.01  -0.00   0.00
    45   1    -0.02   0.01  -0.02     0.01  -0.00   0.01    -0.01   0.00   0.00
    46   1    -0.01  -0.02   0.01    -0.01  -0.00   0.01     0.05   0.04  -0.05
    47   1    -0.06  -0.05  -0.09     0.01   0.00   0.00     0.01   0.01   0.04
    48   1    -0.02   0.12   0.03    -0.00  -0.01   0.00     0.01  -0.05  -0.04
    49   1    -0.06   0.07   0.07    -0.00   0.00   0.00     0.05  -0.03  -0.07
    50   1    -0.03   0.01  -0.04     0.00  -0.00  -0.00     0.01   0.03   0.07
    51   1    -0.01  -0.03  -0.10    -0.00   0.00   0.00     0.02   0.02   0.03
    52   8    -0.00  -0.00  -0.00     0.00   0.00   0.00    -0.00  -0.00  -0.00
    53   6    -0.00  -0.00  -0.00    -0.00  -0.00   0.00    -0.00   0.00  -0.00
    54   6     0.00  -0.00  -0.00    -0.00   0.00   0.00     0.00  -0.00  -0.00
    55   6     0.00   0.00  -0.00    -0.00  -0.00   0.00     0.00   0.00  -0.00
    56   6    -0.00   0.00   0.00    -0.00   0.00  -0.00     0.00  -0.00   0.00
    57   1    -0.00  -0.00  -0.00    -0.00  -0.00  -0.00     0.00   0.00  -0.00
    58   1    -0.00  -0.00  -0.00    -0.00   0.00  -0.00     0.00  -0.00   0.00
    59   1     0.00  -0.00   0.00     0.00   0.00   0.00    -0.00  -0.00  -0.00
    60   1    -0.00   0.00  -0.00     0.00  -0.00   0.00    -0.00   0.00  -0.00
    61   1    -0.00  -0.00   0.00     0.00   0.00  -0.00    -0.00  -0.00   0.00
    62   1    -0.00   0.00  -0.00     0.00  -0.00   0.00    -0.00   0.00  -0.00
    63   1    -0.00   0.00   0.00     0.00  -0.00  -0.00    -0.00   0.00   0.00
    64   1    -0.00   0.00   0.00     0.00  -0.00   0.00    -0.00  -0.00  -0.00
    65   1    -0.00  -0.00   0.00     0.00  -0.00  -0.00    -0.00   0.00   0.00
                     76                     77                     78
                      A                      A                      A
 Frequencies --    867.6755               872.2686               885.1113
 Red. masses --      2.9375                 1.5569                 3.0766
 Frc consts  --      1.3030                 0.6979                 1.4201
 IR Inten    --      0.0000                 0.0000                 0.0000
  Atom  AN      X      Y      Z        X      Y      Z        X      Y      Z
     1  26     0.00  -0.00   0.00    -0.00   0.00   0.00    -0.00   0.00  -0.00
     2   6     0.14   0.01  -0.10     0.02  -0.00  -0.01    -0.09   0.02   0.02
     3  46     0.00   0.00  -0.00     0.00   0.00  -0.00     0.00   0.00   0.00
     4   6     0.01  -0.00   0.00     0.00   0.01   0.02    -0.11   0.01  -0.06
     5   1     0.07  -0.09  -0.09    -0.32   0.48   0.42     0.01   0.01   0.00
     6   1    -0.02   0.04   0.05     0.12  -0.24  -0.25     0.01  -0.02   0.00
     7   1     0.01  -0.01  -0.00    -0.09   0.21   0.09    -0.07   0.04   0.03
     8   6     0.02  -0.03  -0.01     0.00  -0.00  -0.00    -0.05  -0.02   0.00
     9   8    -0.04  -0.06  -0.06    -0.00  -0.01  -0.01     0.02   0.02   0.01
    10   6     0.01   0.00   0.01    -0.02  -0.00  -0.02     0.01   0.00  -0.02
    11   8    -0.04  -0.05  -0.04    -0.00  -0.01  -0.00    -0.04  -0.06  -0.05
    12   6    -0.01  -0.00   0.01     0.05   0.01  -0.03     0.01  -0.00  -0.00
    13   6     0.00   0.01  -0.02     0.01  -0.02   0.07    -0.00  -0.01   0.01
    14   6     0.01   0.01   0.00    -0.03  -0.02  -0.01    -0.00  -0.00   0.01
    15   1     0.00  -0.02  -0.04    -0.03   0.11   0.15    -0.04   0.05   0.01
    16   1    -0.00   0.05   0.07     0.03  -0.21  -0.30     0.02  -0.02  -0.03
    17   1     0.02  -0.03  -0.00    -0.05   0.14  -0.00     0.00  -0.03   0.01
    18   1     0.04  -0.00   0.01     0.02   0.01  -0.03     0.01   0.01  -0.17
    19   6    -0.01  -0.01   0.00     0.00   0.02  -0.01     0.04   0.01   0.02
    20   6    -0.15  -0.07   0.18    -0.02  -0.01   0.02     0.14   0.06  -0.03
    21   8     0.04   0.11   0.04     0.01   0.01   0.00    -0.02  -0.05  -0.00
    22   6     0.00  -0.01   0.01     0.01   0.04  -0.02     0.01   0.00  -0.00
    23   6    -0.01  -0.02   0.00     0.03   0.05   0.01     0.00   0.00   0.00
    24   6    -0.02   0.02  -0.00     0.09  -0.09   0.01     0.00  -0.00   0.01
    25   6     0.01   0.01  -0.01    -0.08  -0.04   0.04    -0.01  -0.00   0.00
    26   6     0.00   0.00   0.01    -0.02   0.00  -0.05     0.00  -0.00  -0.01
    27   1    -0.01   0.02  -0.00     0.03  -0.09   0.04    -0.01   0.03   0.01
    28   7    -0.03  -0.01  -0.04    -0.00   0.00  -0.00    -0.08  -0.01   0.01
    29   1    -0.17  -0.14   0.29    -0.02  -0.01   0.04     0.15  -0.03  -0.14
    30   1     0.02   0.02   0.01     0.00  -0.01   0.03    -0.15  -0.12  -0.11
    31   1    -0.01   0.00  -0.00    -0.02   0.00   0.02     0.07   0.01  -0.05
    32   1    -0.00   0.03   0.06    -0.01  -0.06  -0.18     0.00  -0.01  -0.01
    33   7    -0.00  -0.01  -0.00    -0.00  -0.01  -0.00     0.02   0.07   0.01
    34   6    -0.01   0.01  -0.00    -0.01   0.01  -0.00     0.08  -0.07   0.00
    35   6     0.00  -0.00  -0.00     0.00  -0.01  -0.01    -0.03   0.01   0.05
    36   1     0.00   0.00  -0.00     0.01  -0.00   0.00     0.00  -0.02   0.01
    37   1    -0.01   0.01  -0.00    -0.01   0.01   0.00     0.10  -0.11   0.01
    38   1    -0.01   0.01   0.00    -0.02   0.02   0.00     0.08  -0.10   0.00
    39   1    -0.01   0.00   0.01     0.00  -0.01   0.02     0.02  -0.01  -0.06
    40   1     0.01   0.01  -0.01     0.01   0.02  -0.02    -0.10  -0.05   0.10
    41   1     0.01   0.01  -0.01     0.01   0.01  -0.01    -0.06  -0.04   0.05
    42   6    -0.02   0.02   0.11    -0.00  -0.00   0.01    -0.01   0.06   0.03
    43   6     0.01   0.07  -0.01     0.00   0.01  -0.00    -0.01  -0.02   0.01
    44   6     0.01   0.00  -0.07    -0.00   0.00  -0.01     0.00  -0.02   0.00
    45   1    -0.41   0.10  -0.13    -0.04   0.01  -0.02    -0.19   0.06  -0.06
    46   1     0.21  -0.22  -0.11     0.02  -0.01  -0.01     0.08  -0.11  -0.04
    47   1     0.08   0.13   0.17     0.00   0.01   0.02     0.05  -0.02  -0.11
    48   1     0.16  -0.09  -0.17     0.02  -0.01  -0.02    -0.02   0.02   0.02
    49   1     0.14  -0.18  -0.20     0.01  -0.02  -0.02    -0.00   0.05  -0.01
    50   1     0.11  -0.11  -0.06     0.01  -0.01  -0.01    -0.05   0.10   0.08
    51   1     0.00   0.05   0.24    -0.00   0.01   0.03     0.05  -0.02  -0.16
    52   8     0.04   0.06   0.04     0.00   0.01   0.00     0.04   0.13   0.08
    53   6    -0.02  -0.04  -0.03    -0.00  -0.00  -0.00    -0.05  -0.09  -0.06
    54   6     0.04  -0.03  -0.02     0.00  -0.00  -0.00     0.12  -0.08  -0.04
    55   6     0.01   0.02  -0.02     0.00   0.00  -0.00     0.04   0.06  -0.05
    56   6     0.01  -0.01   0.03     0.00  -0.00   0.00     0.03  -0.02   0.07
    57   1    -0.13  -0.02  -0.02    -0.01  -0.00  -0.00    -0.32  -0.06  -0.04
    58   1    -0.13  -0.02  -0.03    -0.01  -0.00  -0.00    -0.32  -0.04  -0.06
    59   1     0.07   0.07   0.05     0.01   0.01   0.00     0.20   0.19   0.14
    60   1     0.01   0.06  -0.02     0.00   0.01  -0.00    -0.01   0.19  -0.05
    61   1    -0.00  -0.01   0.01    -0.00  -0.00   0.00    -0.03  -0.10   0.07
    62   1     0.00   0.03  -0.00     0.00   0.00  -0.00    -0.02   0.15  -0.02
    63   1    -0.00   0.01   0.07    -0.00   0.00   0.01    -0.03   0.03   0.19
    64   1    -0.00   0.01  -0.02    -0.00   0.00  -0.00    -0.02   0.03  -0.12
    65   1    -0.00   0.01   0.04    -0.00   0.00   0.00    -0.03   0.03   0.15
                     79                     80                     81
                      A                      A                      A
 Frequencies --    888.0364               922.3596               935.1285
 Red. masses --      3.2261                 2.3159                 1.8020
 Frc consts  --      1.4990                 1.1609                 0.9284
 IR Inten    --      0.0000                 0.0000                 0.0000
  Atom  AN      X      Y      Z        X      Y      Z        X      Y      Z
     1  26     0.00  -0.00   0.00     0.00   0.00  -0.00     0.00  -0.01   0.00
     2   6    -0.06   0.01   0.01     0.08  -0.04  -0.00     0.01  -0.00   0.00
     3  46     0.00   0.00  -0.00    -0.00  -0.00  -0.00    -0.00   0.00   0.00
     4   6     0.22  -0.02   0.12    -0.00  -0.01   0.01     0.01   0.11  -0.02
     5   1    -0.03  -0.00   0.02     0.01  -0.02  -0.02    -0.06   0.01   0.05
     6   1    -0.03   0.04  -0.02     0.00   0.00   0.01    -0.03   0.03  -0.01
     7   1     0.14  -0.11  -0.07    -0.00   0.01   0.01     0.02  -0.02  -0.01
     8   6    -0.02  -0.01   0.00    -0.05  -0.00  -0.01     0.00  -0.00   0.00
     9   8     0.02   0.01   0.01    -0.02  -0.01  -0.02    -0.00   0.00  -0.00
    10   6    -0.02  -0.00   0.03    -0.00   0.00  -0.01     0.00  -0.02   0.03
    11   8    -0.00  -0.03  -0.02     0.00  -0.04  -0.03     0.01  -0.01  -0.01
    12   6    -0.01   0.00   0.00    -0.00  -0.01  -0.00     0.01   0.05  -0.01
    13   6     0.01   0.02  -0.01    -0.00   0.00  -0.00     0.01   0.01  -0.01
    14   6    -0.00   0.00  -0.02    -0.01   0.01  -0.01     0.10  -0.03   0.08
    15   1     0.06  -0.07   0.03    -0.01   0.00  -0.02     0.17  -0.10   0.12
    16   1    -0.01   0.03   0.01     0.03   0.02   0.02    -0.29  -0.13  -0.03
    17   1    -0.01   0.06  -0.03    -0.02   0.01  -0.00     0.12  -0.16  -0.01
    18   1    -0.04  -0.05   0.08     0.02  -0.01  -0.17    -0.18  -0.16   0.71
    19   6    -0.07  -0.01  -0.02     0.02   0.01   0.02    -0.14  -0.04  -0.10
    20   6     0.08   0.04  -0.02    -0.10   0.05   0.04    -0.01   0.01   0.01
    21   8    -0.01  -0.04  -0.00    -0.00   0.03   0.00    -0.00  -0.00   0.00
    22   6    -0.01  -0.01  -0.01    -0.00   0.00   0.00    -0.01  -0.00  -0.00
    23   6    -0.01   0.00  -0.00    -0.00  -0.00  -0.00    -0.00   0.02  -0.00
    24   6     0.00   0.00  -0.01    -0.01   0.00  -0.00     0.01  -0.01  -0.00
    25   6     0.01   0.00  -0.00     0.00   0.00  -0.00    -0.00   0.00  -0.00
    26   6    -0.01   0.01   0.02     0.00  -0.00   0.00    -0.00   0.00   0.00
    27   1    -0.05   0.05   0.01     0.04  -0.06  -0.01     0.01  -0.02  -0.02
    28   7    -0.04  -0.00   0.01     0.05   0.07   0.03    -0.00   0.01  -0.00
    29   1     0.10  -0.02  -0.10    -0.14   0.22   0.24    -0.01   0.02   0.02
    30   1     0.32   0.26   0.23     0.01   0.00   0.02    -0.06  -0.07  -0.10
    31   1    -0.16  -0.01   0.09    -0.02  -0.02   0.02     0.22   0.13  -0.14
    32   1     0.03   0.00   0.02    -0.02  -0.00  -0.01    -0.03   0.03  -0.00
    33   7    -0.04  -0.15  -0.03     0.00  -0.00   0.00    -0.02   0.01  -0.02
    34   6    -0.17   0.13  -0.00    -0.01   0.00   0.00     0.03  -0.02  -0.02
    35   6     0.05  -0.01  -0.10     0.00   0.00  -0.00    -0.01  -0.01   0.02
    36   1     0.00   0.03  -0.02    -0.00   0.00  -0.00     0.03  -0.01   0.02
    37   1    -0.20   0.23  -0.02    -0.02   0.02  -0.00     0.11  -0.10   0.03
    38   1    -0.15   0.20  -0.01     0.00   0.00  -0.00    -0.05   0.04   0.03
    39   1    -0.05   0.02   0.13     0.00  -0.00  -0.01    -0.02   0.00   0.04
    40   1     0.20   0.09  -0.20    -0.01  -0.00   0.00     0.03   0.01  -0.01
    41   1     0.12   0.08  -0.08     0.00  -0.00  -0.01    -0.00   0.01   0.03
    42   6    -0.01   0.03   0.01     0.09  -0.08  -0.15     0.02   0.00  -0.02
    43   6    -0.01  -0.01   0.01    -0.02  -0.07  -0.04    -0.01  -0.02  -0.01
    44   6     0.00  -0.01   0.00    -0.04   0.05   0.09    -0.02   0.00   0.02
    45   1    -0.08   0.03  -0.02     0.61  -0.00   0.05     0.05   0.02  -0.02
    46   1     0.03  -0.06  -0.01    -0.21   0.24   0.14     0.00   0.02  -0.00
    47   1     0.03  -0.01  -0.07    -0.15  -0.09   0.11    -0.02  -0.02   0.01
    48   1    -0.02   0.01   0.03    -0.06  -0.06   0.03     0.01  -0.02  -0.03
    49   1    -0.01   0.04   0.01    -0.05   0.01   0.11     0.02  -0.01  -0.02
    50   1    -0.03   0.06   0.04    -0.01  -0.02   0.05    -0.01   0.03   0.06
    51   1     0.03  -0.02  -0.10    -0.08   0.05   0.19     0.01   0.02   0.02
    52   8     0.00   0.06   0.04    -0.04   0.07   0.04    -0.02   0.01   0.01
    53   6    -0.02  -0.05  -0.03    -0.01  -0.04  -0.03     0.00  -0.00  -0.01
    54   6     0.06  -0.04  -0.03     0.06  -0.03  -0.02     0.01  -0.00  -0.01
    55   6     0.02   0.03  -0.03     0.02   0.01  -0.02     0.01  -0.01  -0.01
    56   6     0.02  -0.01   0.04     0.02  -0.01   0.02     0.00   0.00   0.01
    57   1    -0.16  -0.03  -0.02    -0.14  -0.03  -0.02     0.00   0.01   0.02
    58   1    -0.16  -0.02  -0.03    -0.13  -0.01  -0.03    -0.04  -0.02  -0.01
    59   1     0.10   0.09   0.07     0.11   0.09   0.07     0.02   0.01   0.02
    60   1    -0.01   0.11  -0.03    -0.02   0.07  -0.02    -0.00   0.03  -0.01
    61   1    -0.02  -0.06   0.04    -0.03  -0.08   0.04    -0.01  -0.05   0.02
    62   1    -0.01   0.07  -0.01    -0.01   0.08  -0.02    -0.01   0.01   0.01
    63   1    -0.02   0.01   0.10    -0.03   0.01   0.07    -0.00  -0.00   0.01
    64   1    -0.01   0.01  -0.07    -0.02   0.01  -0.11     0.00   0.00   0.02
    65   1    -0.02   0.02   0.08    -0.02   0.02   0.08     0.00  -0.00   0.02
                     82                     83                     84
                      A                      A                      A
 Frequencies --    943.6217               950.8278               951.5830
 Red. masses --      1.6740                 1.5631                 1.5532
 Frc consts  --      0.8782                 0.8326                 0.8286
 IR Inten    --      0.0000                 0.0000                 0.0000
  Atom  AN      X      Y      Z        X      Y      Z        X      Y      Z
     1  26    -0.00   0.00   0.00     0.00  -0.00  -0.00    -0.00  -0.00  -0.00
     2   6     0.02  -0.02   0.02    -0.00   0.00  -0.00    -0.00   0.00  -0.00
     3  46     0.00   0.00   0.00     0.00   0.00  -0.00     0.00   0.00  -0.00
     4   6    -0.00  -0.01  -0.00     0.00  -0.01  -0.00    -0.00   0.02   0.01
     5   1    -0.00  -0.00   0.01     0.00   0.00  -0.00    -0.00  -0.00   0.00
     6   1    -0.02   0.01  -0.03     0.01  -0.00   0.00    -0.00   0.00   0.00
     7   1     0.02  -0.03  -0.00    -0.00   0.00   0.00     0.00   0.00  -0.00
     8   6     0.02  -0.01  -0.00    -0.01  -0.00   0.00    -0.01   0.00  -0.01
     9   8    -0.00   0.01  -0.00     0.00  -0.00  -0.00     0.00  -0.00  -0.00
    10   6     0.00   0.00  -0.00     0.00   0.00   0.00    -0.00  -0.01  -0.00
    11   8    -0.01  -0.00  -0.00     0.00  -0.00  -0.00     0.00  -0.00   0.00
    12   6    -0.00  -0.00   0.00    -0.00  -0.00   0.00     0.00   0.00  -0.00
    13   6    -0.00  -0.00   0.00    -0.00  -0.00   0.00     0.00   0.00  -0.00
    14   6    -0.01   0.00  -0.01    -0.00   0.00  -0.00     0.01  -0.00   0.01
    15   1    -0.01   0.01  -0.02    -0.01   0.01  -0.00     0.01  -0.01   0.01
    16   1     0.02   0.01   0.00     0.01   0.01   0.00    -0.02  -0.01  -0.00
    17   1    -0.01   0.02   0.01    -0.01   0.01   0.00     0.01  -0.02  -0.01
    18   1     0.01   0.02  -0.04    -0.01  -0.00   0.00    -0.00  -0.00  -0.01
    19   6     0.01   0.00   0.01     0.00   0.00   0.00    -0.01  -0.00  -0.00
    20   6    -0.03   0.05  -0.02     0.00  -0.00   0.01     0.00   0.00   0.00
    21   8    -0.01  -0.01  -0.00     0.00   0.00   0.00     0.00  -0.00   0.00
    22   6     0.00  -0.01  -0.01    -0.00   0.00   0.00    -0.00  -0.00   0.00
    23   6     0.00   0.00  -0.00    -0.00  -0.00   0.00    -0.00   0.00  -0.00
    24   6     0.01   0.00   0.01    -0.00  -0.00  -0.00    -0.00  -0.00  -0.00
    25   6    -0.01  -0.01   0.00     0.00   0.00  -0.00     0.00   0.00  -0.00
    26   6    -0.01  -0.01   0.01     0.00   0.00  -0.00     0.00   0.00  -0.00
    27   1    -0.09   0.18   0.02     0.01  -0.02  -0.00     0.01  -0.01  -0.00
    28   7    -0.02  -0.02  -0.00    -0.01   0.01   0.00    -0.01   0.00   0.00
    29   1    -0.02  -0.06  -0.03     0.00   0.00   0.00     0.00   0.00   0.00
    30   1     0.01   0.02   0.01     0.01   0.02   0.01    -0.02  -0.04  -0.01
    31   1    -0.03  -0.02   0.01    -0.03  -0.01   0.00     0.05   0.02  -0.01
    32   1     0.04  -0.01   0.01    -0.01  -0.00  -0.00    -0.00   0.00  -0.00
    33   7     0.00   0.00   0.00     0.00   0.00   0.00    -0.00  -0.00  -0.00
    34   6    -0.00   0.00   0.00     0.00   0.00   0.00    -0.00  -0.00  -0.00
    35   6     0.00   0.00  -0.00    -0.00   0.00   0.00     0.00  -0.00  -0.00
    36   1    -0.01   0.00  -0.00    -0.01   0.00  -0.00     0.01  -0.01   0.01
    37   1    -0.01   0.01  -0.00    -0.01   0.00  -0.00     0.01  -0.00   0.01
    38   1     0.01  -0.01  -0.00     0.01  -0.01  -0.00    -0.01   0.02   0.00
    39   1     0.00   0.00  -0.01     0.00  -0.00  -0.00    -0.00   0.00   0.01
    40   1    -0.00  -0.00   0.00    -0.00  -0.00   0.00     0.01   0.01  -0.01
    41   1    -0.00  -0.00   0.00    -0.00  -0.00   0.01     0.01   0.01  -0.01
    42   6     0.13   0.07  -0.02    -0.01  -0.01  -0.01    -0.00  -0.00  -0.00
    43   6    -0.04  -0.08  -0.01     0.00   0.00  -0.00     0.00   0.00  -0.00
    44   6    -0.10  -0.01   0.08     0.01   0.00  -0.00     0.00   0.00  -0.00
    45   1    -0.12   0.13  -0.17     0.04  -0.01   0.02     0.02   0.00   0.01
    46   1     0.26   0.01  -0.18    -0.04   0.00   0.03    -0.02   0.00   0.01
    47   1    -0.06  -0.08  -0.00     0.00   0.01   0.00     0.00   0.00  -0.00
    48   1     0.16  -0.05  -0.27    -0.03  -0.00   0.04    -0.01  -0.00   0.02
    49   1     0.22  -0.06  -0.31    -0.03   0.01   0.04    -0.01   0.00   0.02
    50   1    -0.05   0.32   0.55     0.00  -0.03  -0.06    -0.00  -0.01  -0.03
    51   1     0.15   0.09   0.03    -0.02  -0.01   0.00    -0.01  -0.00   0.00
    52   8     0.04  -0.02  -0.01     0.01  -0.01  -0.02     0.01  -0.02   0.01
    53   6     0.01   0.01   0.01     0.13   0.03  -0.03     0.07  -0.04   0.07
    54   6    -0.03   0.01   0.00    -0.06  -0.02  -0.08    -0.04  -0.08   0.05
    55   6    -0.01   0.00   0.00    -0.04  -0.02  -0.05    -0.07   0.12  -0.02
    56   6    -0.02   0.00   0.00    -0.09   0.00   0.10     0.00  -0.06  -0.06
    57   1     0.03   0.01   0.01     0.07   0.10   0.17    -0.33  -0.10  -0.19
    58   1     0.03   0.01   0.01    -0.26  -0.08  -0.02     0.23   0.26   0.06
    59   1    -0.00  -0.00  -0.00     0.34   0.21   0.25     0.21   0.21   0.02
    60   1     0.02  -0.01   0.00     0.09   0.25  -0.04     0.13  -0.03  -0.00
    61   1     0.02   0.07  -0.02     0.05   0.05   0.06     0.16   0.51  -0.23
    62   1     0.01  -0.06   0.02    -0.01  -0.25   0.18     0.09  -0.20   0.02
    63   1     0.02  -0.00  -0.01     0.15  -0.00   0.12    -0.01   0.06   0.23
    64   1     0.02  -0.00   0.08     0.11   0.01   0.51    -0.00   0.07  -0.25
    65   1     0.02  -0.01  -0.06     0.10  -0.03  -0.30    -0.02   0.09  -0.17
                     85                     86                     87
                      A                      A                      A
 Frequencies --    958.4710               962.5354              1002.7881
 Red. masses --      1.6942                 1.2077                 1.9247
 Frc consts  --      0.9170                 0.6592                 1.1403
 IR Inten    --      0.0000                 0.0000                 0.0000
  Atom  AN      X      Y      Z        X      Y      Z        X      Y      Z
     1  26    -0.00   0.00  -0.00     0.00  -0.00  -0.00     0.00  -0.00  -0.00
     2   6    -0.00  -0.00  -0.00    -0.00  -0.00   0.00     0.00   0.01  -0.02
     3  46     0.00   0.00  -0.00     0.00   0.00   0.00     0.00   0.00  -0.00
     4   6    -0.05   0.13   0.12     0.00  -0.00  -0.00     0.05   0.01  -0.02
     5   1     0.00  -0.04  -0.01     0.00  -0.00  -0.00    -0.03  -0.04   0.01
     6   1    -0.02   0.03   0.04     0.00  -0.00  -0.00     0.02  -0.01   0.04
     7   1     0.04  -0.01  -0.01    -0.00   0.00   0.00    -0.05   0.01   0.00
     8   6    -0.00   0.01   0.00    -0.00   0.00  -0.00     0.00   0.00   0.01
     9   8    -0.00  -0.00  -0.00     0.00  -0.00  -0.00     0.00  -0.01  -0.01
    10   6    -0.01  -0.07  -0.07    -0.00   0.00   0.00    -0.03  -0.00   0.02
    11   8    -0.00  -0.00   0.00    -0.00  -0.00   0.00    -0.01  -0.02  -0.01
    12   6    -0.01  -0.00  -0.01     0.00   0.00  -0.00     0.00   0.00  -0.01
    13   6     0.01   0.01  -0.00    -0.00   0.00  -0.00     0.01   0.01   0.00
    14   6     0.03  -0.00   0.03     0.00  -0.00  -0.00     0.03  -0.01   0.02
    15   1     0.01  -0.01   0.01     0.00   0.00   0.00     0.12  -0.11   0.10
    16   1    -0.03  -0.01   0.00    -0.00  -0.00  -0.00    -0.14  -0.07  -0.01
    17   1     0.04  -0.07  -0.04    -0.00   0.00   0.00     0.03  -0.02  -0.02
    18   1     0.12   0.09  -0.42    -0.00  -0.01   0.00     0.09   0.03  -0.35
    19   6     0.01   0.01   0.04    -0.00  -0.00  -0.00    -0.06   0.00   0.02
    20   6     0.00   0.00  -0.00     0.00   0.00   0.00     0.05  -0.06   0.11
    21   8    -0.00   0.00   0.00    -0.00  -0.00   0.00     0.01   0.01   0.00
    22   6    -0.00  -0.01  -0.00    -0.00   0.00   0.00    -0.00   0.00   0.01
    23   6     0.00   0.00  -0.00    -0.00  -0.00   0.00    -0.00   0.01  -0.00
    24   6    -0.00   0.00  -0.00     0.00  -0.00   0.00    -0.00  -0.00  -0.00
    25   6     0.00  -0.00  -0.00     0.00   0.00  -0.00     0.01   0.01  -0.00
    26   6    -0.00   0.00   0.00    -0.00  -0.00   0.00     0.00   0.00  -0.01
    27   1    -0.01  -0.00   0.01     0.00   0.00  -0.00     0.03  -0.13   0.05
    28   7    -0.00  -0.00   0.00    -0.00   0.00   0.00    -0.07  -0.01  -0.02
    29   1     0.00  -0.01  -0.01     0.00  -0.00  -0.00     0.05  -0.27   0.12
    30   1    -0.27  -0.44  -0.05     0.00   0.00   0.00     0.08   0.08   0.04
    31   1     0.52   0.13   0.00    -0.00  -0.00   0.00    -0.04   0.03  -0.05
    32   1     0.03   0.00   0.01    -0.00   0.00  -0.00    -0.04   0.02  -0.02
    33   7    -0.03  -0.06   0.01    -0.00   0.00  -0.00    -0.01   0.02  -0.03
    34   6    -0.03  -0.01  -0.02     0.00   0.00  -0.00     0.02  -0.02   0.01
    35   6     0.05  -0.01  -0.06    -0.00  -0.00   0.00    -0.04   0.01   0.00
    36   1     0.14  -0.08   0.07    -0.00   0.00   0.00     0.01  -0.01  -0.01
    37   1     0.04   0.05   0.04     0.00  -0.00   0.00     0.00  -0.00  -0.01
    38   1    -0.12   0.21   0.02    -0.00  -0.00  -0.00     0.05  -0.04  -0.01
    39   1    -0.04   0.02   0.04    -0.00  -0.00   0.00     0.04  -0.01   0.03
    40   1     0.02   0.05  -0.05     0.00  -0.00  -0.00     0.11  -0.01  -0.08
    41   1     0.11   0.06  -0.16    -0.00  -0.00   0.00    -0.09  -0.05   0.19
    42   6     0.00   0.00   0.00     0.00   0.00  -0.00    -0.02   0.07  -0.06
    43   6    -0.00  -0.00  -0.00    -0.00  -0.00  -0.00    -0.02  -0.01  -0.08
    44   6    -0.00  -0.00   0.00    -0.00   0.00   0.00     0.00   0.02   0.09
    45   1    -0.01   0.00  -0.00     0.00   0.00  -0.00     0.16   0.24  -0.11
    46   1     0.01  -0.01  -0.00    -0.00  -0.00   0.00    -0.15  -0.10   0.15
    47   1     0.00   0.00  -0.00    -0.00  -0.00  -0.00     0.24   0.07  -0.21
    48   1     0.00  -0.00  -0.01    -0.00  -0.00   0.00    -0.18  -0.17   0.16
    49   1     0.00   0.00  -0.01    -0.00   0.00   0.00    -0.13   0.16   0.22
    50   1    -0.00   0.01   0.01    -0.00   0.00  -0.00    -0.10   0.10   0.04
    51   1     0.00   0.00  -0.00    -0.00   0.00   0.00    -0.01  -0.03  -0.13
    52   8     0.01  -0.00  -0.01     0.00  -0.00   0.00     0.10  -0.02  -0.01
    53   6    -0.00   0.01  -0.00     0.00   0.03  -0.05    -0.02   0.01   0.01
    54   6    -0.00   0.01  -0.01    -0.00  -0.01   0.02    -0.02   0.02   0.01
    55   6     0.00  -0.01   0.00     0.03   0.05   0.06    -0.01  -0.00   0.01
    56   6    -0.01   0.01   0.01    -0.04  -0.07  -0.02    -0.01   0.02  -0.00
    57   1     0.05   0.02   0.03     0.23   0.09   0.19     0.05   0.00   0.00
    58   1    -0.03  -0.03  -0.00    -0.24  -0.20  -0.04     0.04  -0.00   0.01
    59   1    -0.01  -0.02   0.01    -0.00  -0.06   0.09    -0.08  -0.06  -0.04
    60   1    -0.01   0.01   0.00    -0.11  -0.40   0.06    -0.00  -0.06   0.01
    61   1    -0.01  -0.04   0.02    -0.05   0.02  -0.15     0.01   0.04  -0.03
    62   1    -0.01   0.01   0.00     0.02   0.33  -0.27     0.01  -0.01  -0.01
    63   1     0.01  -0.01  -0.02     0.08   0.09   0.41     0.01  -0.01  -0.07
    64   1     0.01  -0.01   0.06     0.07   0.13  -0.08     0.00  -0.02   0.07
    65   1     0.01  -0.01  -0.01     0.03   0.13  -0.40     0.01  -0.02  -0.01
                     88                     89                     90
                      A                      A                      A
 Frequencies --   1007.6022              1022.5006              1027.5434
 Red. masses --      1.6400                 1.9736                 1.6629
 Frc consts  --      0.9810                 1.2157                 1.0345
 IR Inten    --      0.0000                 0.0000                 0.0000
  Atom  AN      X      Y      Z        X      Y      Z        X      Y      Z
     1  26    -0.00   0.00   0.00    -0.00   0.00   0.00    -0.00  -0.00   0.00
     2   6     0.01   0.01  -0.01     0.00   0.00  -0.00     0.00   0.00  -0.00
     3  46     0.00   0.00  -0.00    -0.00  -0.00   0.00    -0.00  -0.00  -0.00
     4   6    -0.07  -0.02   0.00     0.06  -0.02   0.15    -0.03   0.01  -0.00
     5   1     0.01   0.04  -0.01     0.01   0.03  -0.00    -0.03  -0.03   0.02
     6   1    -0.00  -0.00  -0.02     0.01  -0.01   0.04     0.03  -0.02   0.06
     7   1     0.09   0.03   0.00    -0.01  -0.00   0.00    -0.10  -0.05  -0.02
     8   6     0.02  -0.01  -0.00     0.01  -0.01  -0.00     0.02  -0.00  -0.01
     9   8     0.00  -0.00  -0.00    -0.00   0.00   0.00    -0.00   0.00   0.00
    10   6     0.04   0.01  -0.03     0.02  -0.01  -0.01     0.01  -0.00  -0.01
    11   8    -0.01   0.01   0.00    -0.00   0.02   0.01     0.01   0.03   0.02
    12   6    -0.00  -0.00   0.01    -0.02  -0.01   0.01    -0.00  -0.00   0.00
    13   6    -0.01  -0.01  -0.00    -0.00   0.00  -0.00    -0.00  -0.00  -0.00
    14   6    -0.03   0.02  -0.03    -0.04   0.02  -0.03    -0.00   0.00  -0.00
    15   1    -0.16   0.15  -0.13    -0.18   0.15  -0.14    -0.01   0.00  -0.01
    16   1     0.18   0.09   0.01     0.27   0.14   0.03     0.03   0.01   0.00
    17   1    -0.04   0.01   0.04    -0.04   0.07  -0.02    -0.00  -0.02   0.02
    18   1    -0.11  -0.04   0.53    -0.03   0.00   0.26    -0.01   0.06   0.14
    19   6     0.08  -0.00  -0.03     0.07   0.00  -0.01     0.01   0.00  -0.01
    20   6     0.03  -0.06   0.06     0.00  -0.04   0.01     0.00  -0.06  -0.00
    21   8     0.01   0.00   0.00     0.00   0.00  -0.00     0.00   0.00  -0.00
    22   6    -0.00  -0.00  -0.00    -0.00   0.00  -0.00     0.00   0.00   0.00
    23   6    -0.00  -0.01   0.00     0.00   0.00  -0.00     0.00   0.01  -0.01
    24   6    -0.00   0.00  -0.01    -0.00   0.00  -0.00     0.00  -0.00   0.00
    25   6    -0.00  -0.00   0.00    -0.00  -0.01   0.00     0.01   0.00   0.00
    26   6     0.00   0.00   0.00     0.00  -0.00  -0.00    -0.00  -0.00  -0.01
    27   1     0.01  -0.05   0.01    -0.00   0.02  -0.01    -0.00  -0.01   0.02
    28   7    -0.01  -0.02  -0.02     0.02  -0.01  -0.01     0.05  -0.01  -0.01
    29   1     0.02  -0.18   0.09    -0.01  -0.05   0.04    -0.01  -0.06   0.07
    30   1    -0.11  -0.10  -0.08     0.01  -0.08   0.07    -0.05  -0.06  -0.01
    31   1     0.03  -0.03   0.03     0.11  -0.09   0.30     0.04   0.01  -0.02
    32   1     0.01  -0.01  -0.00     0.05  -0.01   0.01    -0.00   0.01  -0.02
    33   7     0.04  -0.04   0.05    -0.08   0.05  -0.10    -0.05   0.00   0.06
    34   6    -0.04   0.05  -0.01     0.07  -0.07  -0.07     0.02  -0.05   0.10
    35   6     0.07  -0.03   0.00    -0.09   0.01  -0.00     0.02   0.06  -0.11
    36   1    -0.04   0.04   0.01     0.04  -0.04   0.11     0.18  -0.12  -0.18
    37   1    -0.02   0.01   0.01     0.31  -0.30   0.09    -0.34   0.41  -0.12
    38   1    -0.08   0.05   0.02    -0.19   0.17   0.07     0.34  -0.25  -0.11
    39   1    -0.09   0.03  -0.03     0.04  -0.02   0.09     0.20  -0.02  -0.12
    40   1    -0.22   0.02   0.16     0.22   0.02  -0.17     0.25  -0.02  -0.21
    41   1     0.18   0.09  -0.36    -0.16  -0.07   0.34    -0.12  -0.10   0.24
    42   6    -0.01   0.06  -0.04    -0.01   0.02  -0.01    -0.01   0.03  -0.01
    43   6    -0.01  -0.00  -0.05    -0.00   0.01  -0.01     0.00   0.02  -0.01
    44   6    -0.00   0.00   0.06    -0.00  -0.01   0.02    -0.01  -0.02   0.02
    45   1     0.08   0.14  -0.06     0.00   0.02  -0.00    -0.03  -0.01   0.01
    46   1    -0.08  -0.05   0.08    -0.01   0.00   0.00    -0.01   0.03  -0.02
    47   1     0.18   0.05  -0.16     0.07   0.02  -0.06     0.09   0.04  -0.09
    48   1    -0.11  -0.10   0.09    -0.02  -0.02   0.01     0.00  -0.01  -0.01
    49   1    -0.07   0.11   0.12    -0.01   0.03   0.01     0.01   0.03  -0.02
    50   1    -0.07   0.09   0.07    -0.02   0.05   0.05    -0.03   0.08   0.09
    51   1     0.01  -0.02  -0.12     0.02  -0.01  -0.06     0.04  -0.01  -0.09
    52   8    -0.01   0.00   0.00    -0.05   0.01   0.00    -0.09   0.02   0.01
    53   6    -0.00  -0.00  -0.00     0.01  -0.00  -0.00     0.01   0.01  -0.00
    54   6     0.00  -0.00  -0.00     0.01  -0.01  -0.01     0.01  -0.02  -0.01
    55   6    -0.00   0.00   0.00     0.00  -0.00  -0.01     0.00  -0.00  -0.02
    56   6     0.00  -0.00  -0.00     0.01  -0.01   0.00     0.01  -0.02   0.01
    57   1    -0.00  -0.00  -0.00    -0.01  -0.00   0.00     0.03   0.01   0.01
    58   1    -0.00  -0.00  -0.00    -0.01   0.00  -0.00     0.00  -0.01   0.00
    59   1     0.00   0.00   0.00     0.03   0.02   0.01     0.01   0.00   0.01
    60   1     0.01  -0.01   0.00     0.00   0.02  -0.01     0.01   0.09  -0.02
    61   1     0.00   0.01  -0.01    -0.00  -0.01   0.01    -0.00  -0.04   0.04
    62   1     0.00  -0.01  -0.00    -0.00  -0.00   0.01    -0.01  -0.02   0.03
    63   1    -0.00   0.00   0.01    -0.01   0.01   0.03    -0.01   0.02   0.11
    64   1    -0.00   0.00  -0.02    -0.00   0.01  -0.03    -0.00   0.03  -0.09
    65   1    -0.00   0.00   0.01    -0.01   0.01   0.01    -0.01   0.03  -0.00
                     91                     92                     93
                      A                      A                      A
 Frequencies --   1032.8442              1035.4377              1039.7786
 Red. masses --      1.3743                 1.6329                 1.7904
 Frc consts  --      0.8638                 1.0314                 1.1405
 IR Inten    --      0.0000                 0.0000                 0.0000
  Atom  AN      X      Y      Z        X      Y      Z        X      Y      Z
     1  26    -0.00  -0.00   0.00     0.00  -0.00  -0.00    -0.00   0.00   0.00
     2   6    -0.00  -0.00  -0.00     0.00   0.00   0.00    -0.00  -0.00  -0.00
     3  46     0.00   0.00  -0.00    -0.00  -0.00   0.00     0.00   0.00  -0.00
     4   6    -0.00   0.00   0.00     0.02   0.00  -0.03    -0.01  -0.00   0.02
     5   1    -0.00  -0.00   0.00     0.01  -0.00  -0.01    -0.01   0.01   0.00
     6   1     0.00  -0.00   0.00    -0.02   0.02  -0.04     0.02  -0.02   0.04
     7   1    -0.00  -0.00  -0.00     0.03   0.02   0.01    -0.01  -0.01  -0.01
     8   6    -0.00   0.00  -0.00     0.02   0.00  -0.00    -0.02  -0.01   0.00
     9   8     0.00  -0.00  -0.00    -0.00   0.00   0.01     0.00  -0.00  -0.01
    10   6     0.00  -0.00  -0.00    -0.02   0.00   0.01     0.02  -0.00  -0.01
    11   8    -0.00  -0.01  -0.00     0.01   0.02   0.02    -0.02  -0.05  -0.04
    12   6    -0.00   0.00  -0.00     0.00  -0.00  -0.00    -0.00   0.00   0.00
    13   6     0.00  -0.00   0.00     0.00   0.00  -0.00    -0.00  -0.00   0.00
    14   6     0.00   0.00  -0.00     0.01  -0.01   0.01    -0.01   0.01  -0.01
    15   1    -0.01   0.01  -0.01     0.11  -0.11   0.08    -0.11   0.11  -0.08
    16   1     0.00   0.00   0.00    -0.11  -0.05  -0.01     0.12   0.05   0.01
    17   1     0.00   0.00  -0.00     0.01  -0.00  -0.01    -0.01  -0.00   0.01
    18   1    -0.00  -0.01   0.01     0.08   0.08  -0.27    -0.08  -0.07   0.23
    19   6     0.00  -0.00   0.00    -0.03   0.01   0.01     0.02  -0.00  -0.01
    20   6     0.00   0.01   0.00    -0.00  -0.07  -0.01     0.00   0.09   0.02
    21   8    -0.00  -0.00   0.00     0.01   0.01  -0.00    -0.01  -0.01   0.01
    22   6    -0.00   0.00   0.00     0.00  -0.00   0.00    -0.00  -0.00  -0.00
    23   6     0.00   0.00  -0.00    -0.00  -0.01   0.00     0.00   0.00  -0.00
    24   6    -0.00  -0.00  -0.00     0.00   0.00   0.00    -0.00  -0.00  -0.00
    25   6     0.00   0.00   0.00    -0.00   0.00  -0.00     0.00  -0.00   0.00
    26   6    -0.00   0.00  -0.00     0.00  -0.00   0.00    -0.00   0.00  -0.00
    27   1     0.00  -0.00   0.00    -0.01   0.02  -0.00     0.01  -0.04   0.01
    28   7    -0.01   0.00   0.00     0.06  -0.01  -0.01    -0.07   0.01   0.00
    29   1     0.00   0.01  -0.01    -0.02  -0.05   0.09     0.03   0.07  -0.09
    30   1    -0.00  -0.00   0.00     0.04   0.06   0.01    -0.03  -0.04  -0.01
    31   1     0.00  -0.00   0.00    -0.04   0.01  -0.05     0.03  -0.01   0.05
    32   1     0.00   0.00  -0.00    -0.02   0.00  -0.00     0.02  -0.00   0.01
    33   7    -0.00   0.00  -0.00     0.03   0.00  -0.02    -0.02  -0.00   0.01
    34   6     0.00  -0.00   0.00    -0.01   0.02  -0.03     0.01  -0.01   0.02
    35   6    -0.00   0.00  -0.00    -0.01  -0.02   0.05     0.01   0.01  -0.03
    36   1     0.01  -0.00  -0.00    -0.09   0.06   0.07     0.06  -0.04  -0.04
    37   1    -0.00   0.01  -0.00     0.11  -0.14   0.04    -0.05   0.07  -0.02
    38   1     0.00   0.00  -0.00    -0.11   0.07   0.04     0.05  -0.03  -0.02
    39   1     0.00  -0.00  -0.00    -0.08   0.01   0.04     0.04  -0.00  -0.02
    40   1     0.01  -0.00  -0.01    -0.11   0.00   0.10     0.07   0.00  -0.06
    41   1    -0.00  -0.00   0.01     0.04   0.04  -0.10    -0.02  -0.02   0.05
    42   6     0.00  -0.00   0.00    -0.02   0.02  -0.01     0.02  -0.03   0.01
    43   6    -0.00  -0.01   0.00     0.00   0.03  -0.01    -0.00  -0.04   0.00
    44   6     0.00   0.00  -0.00    -0.01  -0.02   0.01     0.02   0.04  -0.01
    45   1     0.01   0.01  -0.01    -0.04  -0.05   0.03     0.05   0.09  -0.06
    46   1     0.00  -0.01   0.00    -0.00   0.06  -0.04     0.00  -0.09   0.05
    47   1    -0.02  -0.01   0.02     0.10   0.04  -0.10    -0.14  -0.07   0.12
    48   1    -0.00   0.00   0.00     0.02  -0.00  -0.02    -0.03  -0.00   0.03
    49   1    -0.00  -0.01   0.01     0.03   0.04  -0.05    -0.04  -0.04   0.08
    50   1     0.01  -0.02  -0.02    -0.04   0.10   0.12     0.05  -0.14  -0.16
    51   1    -0.01   0.00   0.02     0.06  -0.01  -0.11    -0.09   0.01   0.15
    52   8     0.02  -0.02   0.01    -0.08   0.04   0.03     0.12   0.01   0.01
    53   6     0.00   0.05  -0.07     0.00   0.06   0.03    -0.03   0.08   0.06
    54   6     0.00   0.04  -0.05    -0.01  -0.04  -0.03    -0.04  -0.02  -0.01
    55   6    -0.10  -0.03   0.03     0.01  -0.02  -0.08     0.01  -0.01  -0.06
    56   6     0.09  -0.01   0.04     0.02  -0.08   0.02    -0.01  -0.06   0.01
    57   1     0.26   0.11   0.20     0.22   0.04   0.04     0.26   0.03   0.00
    58   1    -0.28  -0.21  -0.06     0.16  -0.01   0.03     0.29   0.02   0.06
    59   1    -0.01  -0.06   0.09    -0.16  -0.14  -0.09    -0.31  -0.23  -0.19
    60   1     0.12  -0.14   0.04     0.04   0.37  -0.08     0.02   0.31  -0.06
    61   1     0.13   0.36  -0.15    -0.01  -0.13   0.15    -0.01  -0.11   0.12
    62   1     0.07  -0.39   0.11    -0.04  -0.10   0.15    -0.03  -0.07   0.12
    63   1    -0.13   0.02   0.07    -0.02   0.07   0.39     0.01   0.06   0.30
    64   1    -0.09  -0.01  -0.36    -0.00   0.09  -0.26     0.02   0.07  -0.10
    65   1    -0.10   0.04   0.41    -0.03   0.11  -0.07    -0.01   0.08  -0.15
                     94                     95                     96
                      A                      A                      A
 Frequencies --   1051.2116              1057.8060              1070.3539
 Red. masses --      1.2318                 1.2320                 1.1428
 Frc consts  --      0.8020                 0.8122                 0.7714
 IR Inten    --      0.0000                 0.0000                 0.0000
  Atom  AN      X      Y      Z        X      Y      Z        X      Y      Z
     1  26     0.00   0.01  -0.00     0.01  -0.00   0.00    -0.00   0.00  -0.00
     2   6    -0.00  -0.00  -0.00     0.00  -0.00   0.00     0.00  -0.00   0.00
     3  46     0.00  -0.00  -0.00    -0.00   0.00   0.00     0.00  -0.00  -0.00
     4   6    -0.00   0.01  -0.00    -0.00   0.00  -0.01     0.01   0.01  -0.01
     5   1     0.34   0.42  -0.13     0.08   0.15  -0.11     0.02  -0.09  -0.01
     6   1    -0.21   0.16  -0.30     0.16  -0.28   0.31     0.03  -0.04   0.08
     7   1     0.32   0.15   0.13     0.36   0.34   0.10    -0.19  -0.13  -0.06
     8   6    -0.00   0.00   0.00     0.00   0.00   0.00    -0.01  -0.00   0.00
     9   8    -0.00  -0.00  -0.00     0.00   0.00   0.00    -0.00  -0.00  -0.00
    10   6     0.00  -0.01   0.00    -0.00  -0.00   0.00    -0.00  -0.01   0.01
    11   8     0.00  -0.00  -0.00     0.00   0.00   0.00    -0.00   0.01   0.00
    12   6    -0.01  -0.00  -0.00     0.00   0.01  -0.00    -0.01   0.00  -0.01
    13   6     0.00  -0.00  -0.00    -0.00  -0.00   0.00    -0.01  -0.03   0.03
    14   6     0.01  -0.00   0.01     0.00  -0.00   0.00     0.04   0.04   0.00
    15   1    -0.00  -0.01   0.00     0.03  -0.02   0.03    -0.22   0.20  -0.18
    16   1     0.02   0.03   0.04    -0.02  -0.02  -0.02    -0.42  -0.24  -0.03
    17   1     0.01   0.00  -0.02     0.00   0.00  -0.03     0.02   0.55  -0.30
    18   1     0.01   0.00  -0.03     0.01  -0.01  -0.02    -0.03  -0.12   0.01
    19   6    -0.01  -0.00  -0.00    -0.01   0.00   0.00     0.03  -0.05   0.03
    20   6     0.01  -0.01   0.01    -0.01   0.01  -0.01    -0.00  -0.01   0.00
    21   8     0.00   0.00   0.00    -0.00  -0.00  -0.00     0.00   0.00   0.00
    22   6    -0.00   0.01  -0.02    -0.05  -0.03  -0.04    -0.00   0.01  -0.01
    23   6    -0.03  -0.07   0.03     0.02   0.00   0.02     0.01  -0.00   0.01
    24   6     0.03   0.01   0.01    -0.05   0.03  -0.04     0.00  -0.00   0.01
    25   6    -0.06  -0.03  -0.01    -0.04  -0.04   0.02     0.00  -0.01   0.00
    26   6     0.02  -0.02   0.06     0.02   0.04  -0.04    -0.01  -0.00  -0.01
    27   1     0.06   0.42  -0.37    -0.11  -0.10   0.08     0.03   0.23  -0.20
    28   7    -0.00   0.00   0.00     0.00  -0.00   0.00     0.01   0.00   0.00
    29   1     0.01  -0.00   0.00    -0.01   0.01   0.01    -0.00  -0.01   0.01
    30   1    -0.00  -0.01   0.01     0.00   0.01  -0.01     0.01   0.03  -0.06
    31   1     0.03   0.01  -0.02    -0.02   0.00  -0.00     0.01   0.01  -0.01
    32   1    -0.08  -0.06   0.01     0.51   0.02   0.41     0.16   0.01   0.14
    33   7    -0.01   0.01   0.00    -0.01   0.01   0.01     0.00  -0.01   0.00
    34   6     0.01  -0.01   0.01     0.01   0.00   0.01    -0.01  -0.00  -0.00
    35   6    -0.01  -0.01  -0.02    -0.01  -0.02  -0.01     0.01   0.01   0.00
    36   1    -0.01   0.00  -0.02    -0.06   0.03  -0.01     0.03  -0.01  -0.00
    37   1    -0.03   0.02  -0.02    -0.01  -0.02  -0.01     0.00   0.01   0.00
    38   1     0.06  -0.07  -0.01     0.05  -0.08  -0.00    -0.01   0.03   0.00
    39   1     0.03  -0.02   0.04    -0.01  -0.02   0.08    -0.00   0.01  -0.03
    40   1     0.06   0.02  -0.06     0.03   0.06  -0.05    -0.01  -0.02   0.02
    41   1     0.00   0.01   0.03     0.04   0.04   0.00    -0.01  -0.01  -0.01
    42   6    -0.01   0.00  -0.00     0.01  -0.00   0.00    -0.00   0.00  -0.00
    43   6    -0.01  -0.00  -0.00     0.00   0.00  -0.00    -0.01   0.00  -0.00
    44   6     0.01   0.00  -0.00    -0.00  -0.00   0.00     0.00   0.00   0.00
    45   1     0.05   0.02   0.02    -0.01  -0.01  -0.00     0.03  -0.00   0.02
    46   1     0.00   0.03  -0.02    -0.00  -0.04   0.02     0.01   0.01  -0.01
    47   1     0.01   0.01  -0.00     0.01   0.00  -0.01     0.02   0.01  -0.01
    48   1    -0.04  -0.03   0.04     0.00  -0.00  -0.00    -0.02  -0.02   0.02
    49   1    -0.02   0.01   0.04    -0.00   0.01   0.00    -0.01   0.01   0.02
    50   1    -0.00  -0.02  -0.04    -0.01   0.01   0.01    -0.00  -0.00  -0.01
    51   1    -0.02  -0.01  -0.00     0.00  -0.00  -0.01    -0.01  -0.01  -0.02
    52   8     0.01  -0.00  -0.00    -0.01   0.00   0.00     0.00   0.00   0.00
    53   6    -0.00   0.00   0.00     0.00  -0.00  -0.00    -0.00   0.00   0.00
    54   6    -0.00   0.00   0.00     0.00  -0.00  -0.00    -0.00   0.00   0.00
    55   6    -0.00   0.00  -0.00    -0.00  -0.00   0.00     0.00  -0.00  -0.00
    56   6    -0.00   0.00   0.00     0.00   0.00   0.00     0.00  -0.00  -0.00
    57   1     0.00   0.00   0.00    -0.00  -0.00   0.00    -0.00  -0.00  -0.00
    58   1     0.00  -0.00   0.00    -0.00  -0.00  -0.00     0.00   0.00   0.00
    59   1    -0.01  -0.01  -0.00     0.00   0.00   0.00    -0.00  -0.00  -0.00
    60   1     0.00   0.00   0.00     0.00  -0.00   0.00    -0.00   0.01  -0.00
    61   1     0.00   0.00  -0.00     0.00   0.00  -0.00    -0.00  -0.01   0.00
    62   1     0.00  -0.00   0.00     0.00   0.00  -0.00    -0.00   0.00   0.00
    63   1     0.00  -0.00  -0.00    -0.00  -0.00  -0.00    -0.00   0.00   0.01
    64   1     0.00  -0.00   0.00    -0.00  -0.00  -0.00     0.00   0.00  -0.00
    65   1     0.00  -0.00  -0.00    -0.00  -0.00   0.00    -0.00   0.00  -0.00
                     97                     98                     99
                      A                      A                      A
 Frequencies --   1076.3031              1084.9496              1089.7589
 Red. masses --      1.1884                 1.0985                 1.1975
 Frc consts  --      0.8111                 0.7618                 0.8379
 IR Inten    --      0.0000                 0.0000                 0.0000
  Atom  AN      X      Y      Z        X      Y      Z        X      Y      Z
     1  26     0.00   0.00   0.00    -0.00  -0.00   0.00    -0.00   0.00   0.00
     2   6     0.00  -0.00   0.00    -0.00  -0.00   0.00    -0.00   0.00  -0.00
     3  46    -0.00  -0.00  -0.00     0.00  -0.00  -0.00     0.00  -0.00  -0.00
     4   6     0.01  -0.01  -0.00    -0.01  -0.00   0.00    -0.02   0.00   0.02
     5   1     0.12   0.18  -0.03    -0.30  -0.36   0.17     0.19   0.23  -0.07
     6   1     0.13  -0.19   0.23    -0.09   0.08  -0.20     0.18  -0.20   0.32
     7   1    -0.24  -0.14  -0.06    -0.18  -0.10  -0.06    -0.30  -0.26  -0.11
     8   6     0.00   0.00  -0.00    -0.00   0.00   0.00     0.02  -0.00  -0.00
     9   8    -0.00  -0.00  -0.00    -0.00  -0.00  -0.00     0.00  -0.00  -0.00
    10   6     0.01   0.01   0.00    -0.01   0.00  -0.01     0.01   0.00  -0.01
    11   8     0.00  -0.01  -0.00     0.00  -0.00  -0.00    -0.00   0.01   0.01
    12   6     0.01  -0.01   0.01     0.02   0.01  -0.00     0.01  -0.01   0.01
    13   6    -0.01   0.01  -0.01     0.01   0.01  -0.01    -0.02   0.00  -0.01
    14   6    -0.02  -0.01  -0.01    -0.01  -0.01  -0.00    -0.02   0.00  -0.01
    15   1     0.18  -0.17   0.15     0.03  -0.00   0.05     0.17  -0.16   0.13
    16   1     0.07   0.05   0.01     0.15   0.05  -0.05    -0.09  -0.01   0.02
    17   1    -0.02  -0.13   0.06    -0.01  -0.22   0.16    -0.02  -0.01  -0.02
    18   1     0.01   0.08   0.05     0.01  -0.00  -0.01     0.02   0.08   0.01
    19   6    -0.01   0.03  -0.02    -0.01   0.01  -0.01     0.02   0.02  -0.00
    20   6     0.00  -0.00   0.01     0.00  -0.01   0.01     0.01   0.01   0.01
    21   8     0.00   0.00   0.00     0.00   0.01   0.00    -0.00  -0.00   0.00
    22   6    -0.01   0.01  -0.03     0.03   0.02  -0.01    -0.01  -0.00  -0.01
    23   6     0.01   0.01   0.00     0.02   0.01   0.02     0.00   0.01  -0.02
    24   6     0.01   0.01   0.01    -0.00  -0.03   0.02     0.02   0.01   0.01
    25   6    -0.01  -0.02   0.02    -0.02  -0.01  -0.01     0.02  -0.00   0.02
    26   6    -0.01  -0.01  -0.01    -0.01   0.01  -0.02    -0.02  -0.02   0.00
    27   1     0.02   0.26  -0.23     0.09   0.33  -0.28     0.00   0.14  -0.11
    28   7    -0.01   0.00   0.00    -0.00   0.00   0.00    -0.00  -0.02  -0.01
    29   1     0.00  -0.00  -0.01     0.00  -0.01   0.01     0.02   0.00  -0.04
    30   1     0.01   0.03  -0.04    -0.01  -0.04   0.07    -0.03  -0.04  -0.02
    31   1    -0.03  -0.02   0.04    -0.00   0.01  -0.03     0.00  -0.01   0.04
    32   1     0.16   0.00   0.11     0.39   0.01   0.31    -0.12   0.00  -0.13
    33   7     0.02  -0.01  -0.01    -0.00  -0.00  -0.00    -0.02  -0.00   0.01
    34   6    -0.05  -0.04  -0.03     0.02   0.02   0.01     0.04   0.04   0.01
    35   6     0.02   0.06   0.04    -0.01  -0.02  -0.01    -0.00  -0.04  -0.03
    36   1     0.28  -0.17   0.04    -0.13   0.08  -0.02    -0.26   0.16  -0.01
    37   1     0.02   0.15   0.04    -0.01  -0.07  -0.02     0.02  -0.18  -0.02
    38   1    -0.15   0.30   0.00     0.05  -0.12   0.00     0.08  -0.22   0.01
    39   1     0.14   0.00  -0.29    -0.08   0.01   0.10    -0.19   0.03   0.22
    40   1    -0.18  -0.14   0.18     0.06   0.05  -0.06     0.12   0.10  -0.12
    41   1    -0.12  -0.13   0.04     0.04   0.04  -0.02     0.11   0.10  -0.08
    42   6    -0.00   0.00  -0.00    -0.00   0.01  -0.00    -0.00   0.02   0.01
    43   6    -0.01  -0.00  -0.00    -0.02  -0.00   0.00    -0.00  -0.03  -0.01
    44   6     0.01   0.00  -0.00     0.01   0.00  -0.00     0.01   0.03   0.01
    45   1     0.03   0.01   0.01     0.05   0.01   0.02    -0.01   0.11  -0.06
    46   1     0.01   0.02  -0.01     0.02   0.03  -0.03     0.02  -0.03  -0.01
    47   1     0.01   0.00   0.00     0.01   0.01   0.01    -0.05  -0.04   0.02
    48   1    -0.03  -0.02   0.03    -0.05  -0.03   0.06    -0.01  -0.01  -0.01
    49   1    -0.01   0.01   0.02    -0.02   0.01   0.03    -0.03  -0.01   0.06
    50   1    -0.00  -0.02  -0.03    -0.00  -0.02  -0.04     0.02  -0.07  -0.08
    51   1    -0.01  -0.00   0.00    -0.01  -0.01  -0.01    -0.05   0.02   0.10
    52   8     0.00  -0.00  -0.00     0.00  -0.00   0.00    -0.02   0.00  -0.00
    53   6    -0.00   0.00   0.00    -0.00   0.00   0.00     0.00  -0.00  -0.00
    54   6     0.00  -0.00   0.00     0.00  -0.00   0.00     0.00  -0.00  -0.00
    55   6    -0.00   0.00   0.00    -0.00   0.00   0.00     0.00  -0.00   0.00
    56   6    -0.00   0.00  -0.00    -0.00   0.00   0.00     0.00  -0.00  -0.00
    57   1     0.00   0.00  -0.00     0.00   0.00   0.00    -0.00  -0.00  -0.00
    58   1     0.00  -0.00   0.00     0.00  -0.00   0.00    -0.00  -0.00  -0.00
    59   1    -0.00  -0.00  -0.00    -0.00  -0.00  -0.00     0.01   0.01   0.01
    60   1     0.00  -0.00   0.00     0.00  -0.00   0.00     0.00  -0.00   0.00
    61   1     0.00   0.00  -0.00     0.00   0.00  -0.00     0.00   0.00   0.00
    62   1     0.00  -0.00  -0.00     0.00  -0.00   0.00     0.00  -0.00  -0.00
    63   1     0.00  -0.00  -0.00     0.00  -0.00  -0.00     0.00  -0.00  -0.00
    64   1     0.00  -0.00   0.00    -0.00  -0.00   0.00    -0.00  -0.00  -0.00
    65   1     0.00  -0.00  -0.00     0.00  -0.00   0.00     0.00  -0.00   0.00
                    100                    101                    102
                      A                      A                      A
 Frequencies --   1091.4479              1104.5973              1112.9679
 Red. masses --      1.8414                 1.4378                 1.5862
 Frc consts  --      1.2924                 1.0336                 1.1576
 IR Inten    --      0.0000                 0.0000                 0.0000
  Atom  AN      X      Y      Z        X      Y      Z        X      Y      Z
     1  26    -0.00  -0.00   0.00     0.00  -0.00  -0.01     0.01   0.00  -0.00
     2   6     0.01  -0.01   0.00     0.00  -0.01   0.00     0.01  -0.01   0.01
     3  46     0.00  -0.00  -0.00    -0.00  -0.00   0.00     0.00   0.00  -0.00
     4   6    -0.01  -0.00   0.02     0.01   0.03  -0.04     0.01   0.01  -0.02
     5   1     0.11   0.14  -0.04     0.07   0.17   0.01    -0.07  -0.09   0.04
     6   1     0.10  -0.11   0.17     0.10  -0.11   0.18    -0.04   0.06  -0.07
     7   1    -0.13  -0.11  -0.05    -0.16  -0.12  -0.05     0.00  -0.01  -0.01
     8   6    -0.08   0.01   0.01     0.01   0.00   0.00     0.02   0.00  -0.00
     9   8    -0.00  -0.01  -0.01    -0.00   0.00   0.00    -0.00   0.00  -0.00
    10   6     0.00   0.01  -0.01    -0.03  -0.04   0.03     0.04  -0.03   0.05
    11   8    -0.01  -0.04  -0.03     0.01   0.00   0.01     0.01  -0.02  -0.01
    12   6     0.02   0.02  -0.01    -0.06   0.01  -0.01    -0.07  -0.05   0.01
    13   6    -0.01   0.01  -0.01     0.05  -0.01   0.04    -0.01  -0.04   0.03
    14   6    -0.01   0.00  -0.00     0.07  -0.02   0.04    -0.00  -0.02   0.01
    15   1    -0.01   0.04  -0.02    -0.41   0.34  -0.29     0.15  -0.28   0.14
    16   1     0.00   0.03   0.01     0.55   0.21   0.06     0.30   0.09   0.02
    17   1    -0.00  -0.14   0.06     0.09  -0.08  -0.03    -0.03   0.49  -0.26
    18   1    -0.07  -0.20   0.06     0.03   0.03  -0.15     0.05   0.37   0.05
    19   6     0.01  -0.01   0.01    -0.10  -0.02  -0.02    -0.04   0.07  -0.05
    20   6    -0.02  -0.02   0.01    -0.01   0.01  -0.02    -0.02   0.06  -0.01
    21   8     0.01   0.02  -0.00     0.00   0.00  -0.00    -0.00   0.00   0.00
    22   6    -0.01  -0.00  -0.01    -0.02  -0.00  -0.01     0.00   0.00   0.00
    23   6     0.00   0.01  -0.01    -0.00   0.01  -0.01    -0.00  -0.00   0.00
    24   6     0.01   0.01   0.00     0.02  -0.00   0.01    -0.00  -0.01   0.01
    25   6     0.01  -0.00   0.01     0.01  -0.00   0.02     0.00   0.01  -0.00
    26   6    -0.01  -0.01   0.00    -0.01  -0.00  -0.00    -0.00   0.01  -0.00
    27   1    -0.00   0.05  -0.05    -0.02   0.05  -0.04     0.01  -0.03   0.01
    28   7    -0.01   0.07   0.04     0.01  -0.01  -0.00    -0.02  -0.01  -0.00
    29   1    -0.05   0.01   0.13    -0.02  -0.00   0.01    -0.04  -0.05   0.12
    30   1    -0.02  -0.03   0.02     0.03   0.04   0.02    -0.01   0.10  -0.26
    31   1     0.00  -0.01   0.02     0.00   0.10  -0.21     0.02  -0.02   0.09
    32   1    -0.06  -0.01  -0.07    -0.00  -0.01  -0.05     0.01   0.01   0.03
    33   7    -0.01  -0.01   0.00     0.03  -0.01  -0.01    -0.04   0.03   0.03
    34   6     0.01   0.02   0.01    -0.01   0.02   0.01     0.02  -0.03  -0.00
    35   6    -0.00  -0.01  -0.01    -0.01   0.00   0.02     0.03  -0.02  -0.02
    36   1    -0.09   0.06  -0.02    -0.07   0.04  -0.01     0.02  -0.02   0.03
    37   1    -0.01  -0.05  -0.01    -0.02  -0.00  -0.01     0.04  -0.02   0.01
    38   1     0.04  -0.09   0.00     0.03  -0.04  -0.01     0.00  -0.00   0.01
    39   1    -0.06   0.01   0.08    -0.03   0.01   0.01    -0.06   0.01   0.04
    40   1     0.05   0.03  -0.05    -0.02  -0.01   0.02     0.01   0.04  -0.02
    41   1     0.03   0.03  -0.01    -0.01  -0.01   0.01     0.08   0.05  -0.12
    42   6    -0.01  -0.05  -0.06     0.01  -0.00   0.01     0.06  -0.01  -0.01
    43   6    -0.01   0.12   0.06    -0.00  -0.00  -0.02    -0.06   0.04   0.04
    44   6    -0.02  -0.11  -0.04     0.00   0.01   0.01     0.02  -0.05  -0.03
    45   1     0.10  -0.39   0.24    -0.01   0.01  -0.00     0.03  -0.06   0.02
    46   1    -0.08   0.17  -0.02     0.01  -0.07   0.02     0.02  -0.08   0.04
    47   1     0.17   0.16  -0.06     0.03   0.01  -0.02     0.04   0.07   0.07
    48   1     0.00   0.02   0.06    -0.00  -0.02  -0.00    -0.13  -0.09   0.17
    49   1     0.11   0.04  -0.21    -0.02   0.01   0.03    -0.00   0.03  -0.02
    50   1    -0.09   0.22   0.24    -0.00   0.00  -0.00    -0.03   0.03  -0.01
    51   1     0.19  -0.06  -0.35    -0.01  -0.01  -0.01     0.05  -0.05  -0.16
    52   8     0.10  -0.00   0.00    -0.02  -0.00  -0.00    -0.01  -0.00  -0.00
    53   6    -0.01   0.01   0.00     0.00  -0.00  -0.00    -0.00   0.00  -0.00
    54   6    -0.01   0.01   0.01    -0.00  -0.00  -0.00     0.00  -0.00  -0.00
    55   6    -0.00   0.00  -0.00     0.00  -0.00  -0.00    -0.00   0.00   0.00
    56   6    -0.00   0.00   0.00     0.00  -0.00   0.00    -0.00   0.00   0.00
    57   1     0.02   0.00   0.00    -0.01  -0.00   0.00     0.01   0.00   0.00
    58   1     0.02   0.00   0.01    -0.01  -0.00  -0.00     0.00  -0.00   0.00
    59   1    -0.05  -0.03  -0.03     0.01   0.01   0.01    -0.01  -0.01  -0.00
    60   1    -0.00   0.00   0.00    -0.00   0.00  -0.00     0.00  -0.01   0.00
    61   1     0.00   0.01  -0.01    -0.00  -0.01   0.00     0.00   0.01  -0.01
    62   1     0.00  -0.01   0.00    -0.00   0.00  -0.00     0.00  -0.00  -0.00
    63   1    -0.00   0.00  -0.00    -0.00  -0.00   0.00     0.01  -0.00  -0.01
    64   1     0.00   0.00   0.01    -0.00  -0.00  -0.01     0.00  -0.00   0.01
    65   1     0.00   0.00  -0.00    -0.00   0.00   0.00     0.00  -0.01  -0.00
                    103                    104                    105
                      A                      A                      A
 Frequencies --   1117.3604              1128.6431              1143.4659
 Red. masses --      1.9710                 2.2169                 1.6100
 Frc consts  --      1.4499                 1.6638                 1.2403
 IR Inten    --      0.0000                 0.0000                 0.0000
  Atom  AN      X      Y      Z        X      Y      Z        X      Y      Z
     1  26    -0.00  -0.00   0.00     0.00  -0.00  -0.00    -0.00  -0.00  -0.00
     2   6     0.03  -0.03   0.02    -0.00   0.01  -0.01     0.00  -0.00   0.00
     3  46     0.00   0.00   0.00    -0.00  -0.00   0.00    -0.00  -0.00  -0.00
     4   6    -0.00  -0.01   0.01     0.00   0.00  -0.00     0.03  -0.01  -0.05
     5   1     0.06   0.05  -0.03    -0.01  -0.00  -0.01    -0.01  -0.00   0.02
     6   1     0.01  -0.01   0.01     0.04  -0.05   0.08     0.03  -0.03   0.02
     7   1     0.01   0.00   0.01     0.06   0.04   0.02    -0.01  -0.02  -0.02
     8   6     0.04  -0.01  -0.00    -0.00  -0.00   0.00    -0.01   0.00   0.01
     9   8    -0.01   0.01   0.00     0.00   0.00   0.00    -0.00   0.00   0.00
    10   6    -0.02   0.02  -0.03    -0.01  -0.01   0.00    -0.01   0.03   0.03
    11   8    -0.00   0.02   0.01     0.00   0.00   0.00     0.00   0.01   0.00
    12   6     0.04   0.02  -0.00    -0.01   0.00  -0.00     0.03   0.04  -0.01
    13   6     0.00   0.02  -0.02     0.01  -0.00   0.00     0.01   0.01  -0.00
    14   6    -0.00   0.02  -0.01     0.01  -0.00   0.01    -0.01   0.00  -0.01
    15   1    -0.05   0.11  -0.05    -0.06   0.05  -0.06    -0.09   0.15  -0.08
    16   1    -0.24  -0.08  -0.02     0.04   0.02   0.01    -0.00   0.00  -0.01
    17   1     0.01  -0.24   0.13     0.01  -0.00  -0.01    -0.00  -0.22   0.13
    18   1    -0.02  -0.11  -0.04     0.02   0.01  -0.01    -0.02  -0.29  -0.18
    19   6     0.03  -0.04   0.03    -0.01  -0.01  -0.00    -0.06  -0.04   0.02
    20   6    -0.06   0.11  -0.07     0.07  -0.11   0.07    -0.01  -0.02  -0.02
    21   8    -0.01   0.00  -0.00     0.00  -0.00  -0.00     0.00   0.00  -0.00
    22   6     0.00   0.00   0.00    -0.00  -0.01   0.00    -0.00  -0.01  -0.00
    23   6    -0.00  -0.00  -0.00     0.01   0.01  -0.00     0.00   0.00   0.00
    24   6     0.00   0.00  -0.00    -0.00   0.01  -0.01     0.01   0.00   0.01
    25   6     0.00  -0.00   0.00    -0.00  -0.00   0.00     0.00   0.01  -0.00
    26   6     0.00  -0.00   0.01    -0.01  -0.01  -0.00    -0.01  -0.00  -0.00
    27   1     0.00  -0.03   0.02    -0.05  -0.01   0.09    -0.01   0.04  -0.03
    28   7     0.02  -0.04  -0.01     0.00   0.01  -0.01     0.03   0.00   0.01
    29   1    -0.10  -0.25   0.23     0.07  -0.20   0.06    -0.01  -0.07   0.01
    30   1     0.01  -0.06   0.16     0.00  -0.01   0.03     0.03   0.21  -0.41
    31   1    -0.01   0.01  -0.05    -0.00   0.02  -0.05    -0.07  -0.17   0.45
    32   1    -0.07  -0.00  -0.05    -0.01   0.00  -0.04    -0.03  -0.00  -0.03
    33   7     0.02  -0.01  -0.02     0.01  -0.00  -0.01    -0.09   0.07   0.08
    34   6    -0.01   0.02   0.00    -0.00   0.01   0.00     0.02  -0.08  -0.02
    35   6    -0.02   0.01   0.01    -0.01   0.00   0.00     0.06  -0.04  -0.04
    36   1    -0.02   0.01  -0.01    -0.01   0.01  -0.00     0.21  -0.14   0.05
    37   1    -0.02   0.01  -0.00    -0.01   0.01  -0.00     0.08   0.05   0.04
    38   1    -0.00  -0.00  -0.00     0.00  -0.00  -0.00    -0.07   0.15   0.01
    39   1     0.03  -0.01  -0.03     0.01  -0.00  -0.00    -0.14   0.03   0.12
    40   1    -0.01  -0.02   0.01    -0.00  -0.00   0.00     0.03   0.10  -0.05
    41   1    -0.05  -0.03   0.07    -0.01  -0.01   0.02     0.18   0.12  -0.23
    42   6     0.14   0.03   0.02     0.01   0.15  -0.12     0.01   0.02   0.01
    43   6    -0.13   0.02   0.04    -0.06  -0.05   0.17    -0.01  -0.01  -0.00
    44   6     0.06  -0.05  -0.04    -0.00  -0.02  -0.12     0.01   0.01  -0.00
    45   1    -0.05   0.05  -0.07     0.12   0.20  -0.10    -0.03   0.03  -0.02
    46   1     0.14  -0.33   0.09    -0.01   0.48  -0.17     0.03  -0.01  -0.02
    47   1     0.07   0.11   0.13    -0.37  -0.14   0.27    -0.01  -0.01   0.01
    48   1    -0.31  -0.25   0.35    -0.17   0.15   0.26    -0.02  -0.01   0.02
    49   1    -0.08   0.06   0.10     0.10  -0.18  -0.20    -0.01  -0.00   0.03
    50   1    -0.03  -0.03  -0.15     0.09  -0.13  -0.10     0.01  -0.02  -0.04
    51   1    -0.01  -0.10  -0.21    -0.02   0.01   0.11    -0.02  -0.00   0.02
    52   8    -0.04   0.00   0.00     0.00   0.00   0.00    -0.00   0.00   0.00
    53   6     0.00  -0.00  -0.00    -0.00  -0.00   0.00     0.00  -0.00  -0.00
    54   6     0.00  -0.00  -0.00     0.00   0.00  -0.00    -0.01   0.00   0.00
    55   6     0.00  -0.00  -0.00    -0.00  -0.00   0.00     0.00  -0.00  -0.00
    56   6     0.00  -0.00  -0.00    -0.00   0.00  -0.00     0.00  -0.00   0.00
    57   1    -0.01  -0.00   0.00    -0.00  -0.00  -0.00    -0.01  -0.00   0.00
    58   1    -0.01   0.00  -0.00     0.00   0.00   0.00    -0.01   0.00  -0.00
    59   1     0.02   0.01   0.01    -0.00  -0.00  -0.00     0.01   0.01   0.01
    60   1     0.00   0.01  -0.00     0.00  -0.00   0.00    -0.00   0.01  -0.00
    61   1    -0.00  -0.01   0.01    -0.00  -0.00   0.00    -0.00  -0.01   0.01
    62   1    -0.00  -0.00   0.00     0.00  -0.00   0.00    -0.00   0.00   0.00
    63   1     0.00   0.00   0.01     0.00   0.00   0.00    -0.01   0.00   0.01
    64   1     0.00   0.01  -0.01     0.00  -0.00   0.00    -0.00   0.00  -0.01
    65   1    -0.00   0.00  -0.00     0.00  -0.00  -0.00    -0.00   0.01   0.00
                    106                    107                    108
                      A                      A                      A
 Frequencies --   1164.4802              1173.3859              1192.6028
 Red. masses --      2.1106                 2.1870                 1.3522
 Frc consts  --      1.6862                 1.7741                 1.1331
 IR Inten    --      0.0000                 0.0000                 0.0000
  Atom  AN      X      Y      Z        X      Y      Z        X      Y      Z
     1  26    -0.00  -0.00  -0.00    -0.00   0.00  -0.00    -0.00   0.00   0.00
     2   6     0.00   0.02  -0.02     0.00  -0.01   0.02     0.02  -0.02   0.02
     3  46     0.00   0.00  -0.00    -0.00  -0.00   0.00     0.00   0.00  -0.00
     4   6    -0.01  -0.01  -0.04    -0.05  -0.00  -0.04    -0.00   0.00  -0.00
     5   1    -0.00  -0.00   0.01    -0.03  -0.04   0.02     0.12   0.15  -0.05
     6   1     0.02  -0.02   0.04     0.03  -0.02   0.06    -0.08   0.10  -0.16
     7   1    -0.01  -0.01  -0.01     0.02   0.00  -0.01    -0.17  -0.13  -0.05
     8   6     0.09  -0.02  -0.01    -0.06   0.01   0.00    -0.00  -0.00   0.00
     9   8     0.00   0.00   0.00    -0.00  -0.00   0.00    -0.00   0.01   0.01
    10   6    -0.04   0.02  -0.01    -0.00  -0.00   0.00     0.01  -0.00   0.00
    11   8    -0.01   0.02   0.02     0.01  -0.03  -0.02    -0.00   0.02   0.01
    12   6     0.02  -0.03   0.02    -0.02  -0.02   0.01    -0.00   0.01  -0.01
    13   6     0.02  -0.00   0.01    -0.01  -0.01   0.00    -0.01   0.00  -0.00
    14   6     0.02   0.03  -0.00     0.01  -0.00   0.01    -0.00  -0.01   0.00
    15   1    -0.14   0.12  -0.11     0.04  -0.08   0.04     0.03  -0.02   0.02
    16   1    -0.18  -0.10  -0.01     0.04   0.01   0.01     0.02   0.02   0.00
    17   1     0.04  -0.19   0.09     0.01   0.09  -0.05    -0.01   0.02  -0.01
    18   1     0.06   0.36   0.05    -0.03   0.10   0.14    -0.01  -0.09  -0.00
    19   6     0.01  -0.02  -0.00     0.03   0.03  -0.02     0.00  -0.00   0.00
    20   6     0.04   0.08   0.12    -0.03  -0.06  -0.09     0.07   0.04  -0.07
    21   8    -0.01  -0.02   0.01     0.01   0.01  -0.01     0.00   0.01  -0.00
    22   6    -0.01  -0.00  -0.00    -0.00  -0.01   0.01     0.00   0.02  -0.02
    23   6     0.00  -0.01   0.01     0.00  -0.00   0.00    -0.03  -0.01  -0.02
    24   6     0.01   0.00   0.00     0.01   0.00   0.00    -0.01  -0.02   0.01
    25   6     0.00   0.00  -0.00     0.00   0.01  -0.00     0.01  -0.01   0.03
    26   6    -0.01  -0.00  -0.01    -0.01  -0.00  -0.01     0.02   0.02   0.01
    27   1     0.01   0.06  -0.07    -0.00   0.03  -0.02    -0.03  -0.12   0.11
    28   7    -0.09  -0.09  -0.09     0.05   0.07   0.07    -0.05  -0.04  -0.03
    29   1     0.03   0.46   0.05    -0.02  -0.34  -0.02    -0.15  -0.12   0.79
    30   1     0.00  -0.02   0.08    -0.03  -0.09   0.14    -0.00  -0.01   0.01
    31   1    -0.02  -0.06   0.14     0.02  -0.04   0.08     0.01  -0.00   0.00
    32   1    -0.02  -0.00  -0.01    -0.06  -0.00  -0.05     0.15   0.00   0.13
    33   7     0.08   0.05   0.00     0.16   0.06  -0.02     0.01   0.00  -0.00
    34   6    -0.05  -0.03  -0.00    -0.08  -0.02   0.01    -0.01  -0.00   0.00
    35   6    -0.05  -0.06  -0.00    -0.10  -0.08   0.00    -0.00  -0.00  -0.00
    36   1     0.19  -0.11   0.02     0.26  -0.15  -0.01     0.02  -0.01  -0.00
    37   1    -0.03   0.18   0.02    -0.09   0.28   0.02    -0.01   0.02   0.00
    38   1    -0.06   0.19  -0.02    -0.04   0.24  -0.04    -0.00   0.01  -0.00
    39   1    -0.14   0.00   0.27    -0.17  -0.01   0.41    -0.03   0.01   0.03
    40   1     0.14   0.12  -0.14     0.25   0.17  -0.23     0.03   0.01  -0.02
    41   1     0.07   0.10   0.04     0.06   0.13   0.13     0.00   0.00  -0.00
    42   6    -0.01  -0.05  -0.03     0.00   0.03   0.02    -0.05   0.02  -0.01
    43   6     0.02   0.05   0.03    -0.01  -0.03  -0.03     0.04  -0.03   0.01
    44   6    -0.02  -0.04  -0.02     0.01   0.03   0.01    -0.02   0.03  -0.01
    45   1     0.16  -0.01   0.03    -0.12  -0.03   0.00    -0.04  -0.12   0.09
    46   1    -0.09   0.01   0.08     0.07   0.01  -0.07    -0.05   0.01   0.01
    47   1     0.00   0.04   0.04     0.01  -0.02  -0.04    -0.05  -0.08  -0.10
    48   1     0.03   0.06   0.02    -0.01  -0.05  -0.03     0.06   0.10  -0.05
    49   1     0.06  -0.01  -0.11    -0.05   0.02   0.08     0.02  -0.04  -0.04
    50   1    -0.02   0.07   0.11     0.01  -0.05  -0.07     0.03  -0.02   0.00
    51   1     0.06  -0.01  -0.08    -0.04   0.00   0.05    -0.02   0.04   0.13
    52   8    -0.05  -0.00  -0.01     0.03   0.00   0.00     0.01  -0.01  -0.00
    53   6    -0.01   0.00   0.00     0.00  -0.00  -0.00     0.00  -0.00   0.00
    54   6     0.02  -0.02  -0.01    -0.02   0.01   0.01    -0.02   0.01  -0.00
    55   6    -0.01   0.00   0.00     0.01  -0.00  -0.00     0.00  -0.00   0.00
    56   6    -0.01   0.01   0.00     0.01  -0.00  -0.00     0.00  -0.00   0.00
    57   1     0.03  -0.00  -0.00    -0.02   0.00   0.01    -0.02  -0.00   0.00
    58   1     0.02  -0.01   0.00    -0.02   0.01  -0.00    -0.00   0.01  -0.00
    59   1    -0.02  -0.02  -0.02     0.02   0.01   0.01     0.01   0.01   0.01
    60   1     0.02  -0.02   0.01    -0.01   0.01  -0.00    -0.01  -0.00   0.00
    61   1     0.01   0.05  -0.02    -0.01  -0.03   0.02    -0.01  -0.02   0.01
    62   1     0.01  -0.02  -0.01    -0.01   0.02   0.00    -0.00   0.01  -0.00
    63   1     0.02  -0.01  -0.02    -0.01   0.00   0.01    -0.01   0.00   0.01
    64   1     0.01  -0.00   0.05    -0.01   0.00  -0.03    -0.00  -0.00  -0.02
    65   1     0.01  -0.02  -0.02    -0.01   0.01   0.02    -0.01   0.01   0.01
                    109                    110                    111
                      A                      A                      A
 Frequencies --   1194.9802              1202.1843              1204.5427
 Red. masses --      1.2849                 2.1909                 1.5265
 Frc consts  --      1.0810                 1.8656                 1.3049
 IR Inten    --      0.0000                 0.0000                 0.0000
  Atom  AN      X      Y      Z        X      Y      Z        X      Y      Z
     1  26     0.00  -0.00  -0.00     0.00   0.00  -0.00     0.00   0.00  -0.00
     2   6     0.01  -0.02   0.01     0.01  -0.00   0.00    -0.00  -0.01   0.01
     3  46     0.00   0.00  -0.00    -0.00  -0.00  -0.00    -0.00   0.00  -0.00
     4   6     0.01  -0.00   0.01     0.01  -0.00   0.00     0.02  -0.01   0.01
     5   1    -0.23  -0.29   0.10     0.04   0.05  -0.01     0.05   0.07  -0.00
     6   1     0.15  -0.19   0.30    -0.02   0.03  -0.04    -0.02   0.04  -0.05
     7   1     0.31   0.23   0.09    -0.05  -0.03  -0.02    -0.05  -0.02  -0.03
     8   6    -0.00   0.00   0.00    -0.01   0.01   0.00    -0.02   0.01  -0.01
     9   8    -0.00   0.00   0.00    -0.00   0.00   0.00    -0.00  -0.00  -0.00
    10   6    -0.00   0.00  -0.00    -0.02   0.01  -0.01    -0.05   0.03  -0.02
    11   8     0.00   0.00   0.00     0.01  -0.02  -0.01     0.01  -0.03  -0.01
    12   6    -0.00  -0.01   0.01     0.00  -0.03   0.02     0.01  -0.09   0.04
    13   6     0.01  -0.00   0.00     0.01  -0.00   0.01     0.04  -0.01   0.02
    14   6     0.00   0.01  -0.00     0.01   0.02  -0.01     0.04   0.06  -0.01
    15   1    -0.03   0.02  -0.02    -0.09   0.06  -0.06    -0.19   0.10  -0.12
    16   1    -0.02  -0.02  -0.00    -0.11  -0.07  -0.00    -0.27  -0.17  -0.01
    17   1     0.00  -0.02   0.02     0.02  -0.11   0.06     0.06  -0.25   0.14
    18   1     0.01   0.11   0.03    -0.01   0.25   0.02     0.08   0.70   0.12
    19   6    -0.00   0.00  -0.01    -0.01   0.00  -0.01    -0.01   0.02  -0.03
    20   6     0.03   0.02  -0.04    -0.01  -0.02  -0.05    -0.01  -0.01  -0.02
    21   8     0.00   0.01  -0.00    -0.00  -0.00  -0.00     0.00   0.01   0.00
    22   6    -0.01  -0.04   0.04    -0.00   0.00  -0.01    -0.01   0.00  -0.01
    23   6     0.05   0.01   0.04    -0.01  -0.01  -0.00    -0.02  -0.02  -0.00
    24   6     0.03   0.04  -0.02    -0.00  -0.01   0.01     0.01  -0.01   0.01
    25   6    -0.03   0.02  -0.05     0.01  -0.00   0.01     0.01   0.00   0.01
    26   6    -0.05  -0.03  -0.02     0.01   0.01  -0.00     0.01   0.02  -0.01
    27   1     0.05   0.28  -0.24    -0.02  -0.04   0.04    -0.03  -0.06   0.04
    28   7    -0.03  -0.01  -0.01     0.01   0.05   0.04     0.00   0.04   0.04
    29   1    -0.08  -0.03   0.41    -0.02  -0.22   0.05     0.00  -0.19  -0.03
    30   1     0.01   0.01  -0.01     0.01   0.01  -0.00     0.03   0.02   0.01
    31   1    -0.02   0.01  -0.02    -0.01  -0.02   0.04    -0.02  -0.03   0.08
    32   1    -0.28  -0.02  -0.24     0.04  -0.00   0.04     0.06  -0.00   0.07
    33   7    -0.02  -0.01  -0.00    -0.02   0.00  -0.00    -0.05  -0.00  -0.00
    34   6     0.01   0.00   0.00     0.01  -0.00   0.00     0.02  -0.01   0.00
    35   6     0.01   0.01   0.00     0.01   0.00   0.00     0.03   0.01   0.00
    36   1    -0.03   0.02   0.00    -0.03   0.01   0.01    -0.06   0.03   0.02
    37   1     0.00  -0.03  -0.01     0.01  -0.02  -0.00     0.01  -0.05  -0.01
    38   1     0.01  -0.03   0.00     0.01  -0.02   0.00     0.01  -0.05   0.01
    39   1     0.06  -0.01  -0.06    -0.01   0.00  -0.02     0.00   0.01  -0.07
    40   1    -0.06  -0.01   0.04    -0.03  -0.01   0.02    -0.07  -0.03   0.06
    41   1    -0.00  -0.01   0.00     0.01  -0.00  -0.04     0.02  -0.01  -0.08
    42   6    -0.03   0.00   0.01    -0.01   0.01   0.00    -0.01   0.00  -0.00
    43   6     0.01  -0.02  -0.01     0.01  -0.02  -0.01     0.01  -0.01  -0.00
    44   6     0.00   0.02   0.01     0.00   0.01   0.00    -0.00   0.01   0.00
    45   1    -0.03  -0.11   0.08    -0.05  -0.08   0.05    -0.02  -0.04   0.02
    46   1     0.03   0.06  -0.07     0.01   0.03  -0.03    -0.01  -0.00   0.00
    47   1     0.01  -0.02  -0.06    -0.00  -0.02  -0.04    -0.00  -0.02  -0.03
    48   1     0.03   0.01  -0.05     0.02   0.01  -0.03     0.00   0.01  -0.00
    49   1    -0.02   0.00   0.03    -0.01  -0.00   0.02     0.00  -0.01  -0.01
    50   1     0.01  -0.02  -0.03     0.01  -0.01  -0.01     0.01  -0.01  -0.00
    51   1    -0.03   0.01   0.05    -0.02   0.01   0.04    -0.01   0.01   0.03
    52   8     0.01  -0.00  -0.00    -0.03   0.03   0.02     0.03  -0.01  -0.01
    53   6    -0.00   0.00   0.00    -0.07   0.05   0.03     0.02  -0.02  -0.01
    54   6    -0.00  -0.00  -0.00     0.21  -0.13  -0.08    -0.07   0.04   0.03
    55   6    -0.00   0.00   0.00    -0.07   0.04   0.03     0.02  -0.01  -0.01
    56   6    -0.00   0.00   0.00    -0.07   0.05   0.02     0.02  -0.01  -0.01
    57   1     0.00  -0.00  -0.00     0.18  -0.01  -0.06    -0.05   0.01   0.03
    58   1     0.01   0.00   0.00     0.18  -0.07   0.03    -0.06   0.02  -0.01
    59   1    -0.01  -0.00  -0.00    -0.28  -0.21  -0.16     0.09   0.07   0.05
    60   1    -0.00  -0.01   0.00     0.13  -0.14   0.04    -0.04   0.05  -0.01
    61   1     0.00   0.00  -0.00     0.10   0.34  -0.17    -0.03  -0.11   0.05
    62   1     0.00   0.00  -0.00     0.08  -0.17  -0.05    -0.03   0.07   0.01
    63   1     0.00  -0.00  -0.00     0.14  -0.03  -0.12    -0.05   0.01   0.03
    64   1    -0.00  -0.00   0.01     0.07  -0.03   0.39    -0.03   0.00  -0.13
    65   1     0.00  -0.00   0.00     0.08  -0.11  -0.14    -0.03   0.03   0.06
                    112                    113                    114
                      A                      A                      A
 Frequencies --   1232.2289              1235.1073              1236.2543
 Red. masses --      2.3882                 1.9669                 2.4868
 Frc consts  --      2.1365                 1.7678                 2.2393
 IR Inten    --      0.0000                 0.0000                 0.0000
  Atom  AN      X      Y      Z        X      Y      Z        X      Y      Z
     1  26     0.01  -0.01  -0.01     0.00  -0.01  -0.01    -0.00   0.01   0.01
     2   6    -0.00   0.01  -0.00    -0.00  -0.01   0.01     0.01   0.01  -0.01
     3  46     0.00   0.00  -0.00    -0.00   0.00  -0.00     0.00   0.00  -0.00
     4   6    -0.00   0.00  -0.02    -0.03  -0.01  -0.05    -0.04  -0.01  -0.06
     5   1    -0.02   0.06  -0.17    -0.06  -0.03  -0.06     0.05   0.00   0.09
     6   1    -0.10  -0.10  -0.06    -0.03  -0.08   0.00     0.04   0.10  -0.02
     7   1    -0.00  -0.17   0.08     0.04  -0.05   0.06    -0.02   0.11  -0.06
     8   6    -0.01   0.00   0.00     0.01  -0.00  -0.00    -0.01   0.00   0.00
     9   8     0.00   0.00   0.00    -0.00  -0.00  -0.01     0.00   0.00   0.01
    10   6    -0.01  -0.00   0.01     0.00  -0.00   0.01     0.01   0.01  -0.01
    11   8     0.00  -0.00  -0.00     0.00  -0.01  -0.00     0.00   0.00   0.00
    12   6     0.00  -0.01   0.01     0.01   0.00   0.00    -0.00  -0.01   0.00
    13   6     0.01   0.00   0.00     0.00  -0.00   0.00     0.00  -0.01   0.01
    14   6     0.00   0.01   0.00    -0.00   0.00  -0.00     0.00   0.01  -0.01
    15   1    -0.06   0.05  -0.03    -0.02   0.02  -0.00     0.00  -0.01  -0.00
    16   1    -0.05  -0.01   0.02    -0.02  -0.00   0.01    -0.01  -0.03  -0.01
    17   1     0.00  -0.01   0.03    -0.01  -0.00   0.02     0.01  -0.04   0.01
    18   1     0.02   0.17   0.02     0.01   0.07  -0.02     0.01   0.00  -0.02
    19   6    -0.01  -0.01  -0.00    -0.01  -0.01   0.00    -0.01   0.01  -0.01
    20   6     0.02  -0.04   0.01    -0.02   0.05  -0.01     0.01  -0.03   0.01
    21   8    -0.00  -0.00  -0.00     0.00   0.01   0.00    -0.00  -0.01   0.00
    22   6     0.11   0.07   0.06     0.06   0.03   0.03    -0.07  -0.04  -0.04
    23   6     0.04   0.12  -0.06     0.03   0.06  -0.02    -0.04  -0.08   0.03
    24   6    -0.11   0.03  -0.10    -0.05   0.02  -0.05     0.06  -0.03   0.06
    25   6    -0.10  -0.08   0.02    -0.06  -0.04  -0.00     0.07   0.05  -0.01
    26   6     0.01  -0.08   0.12    -0.00  -0.05   0.06     0.00   0.06  -0.08
    27   1     0.11  -0.05   0.15     0.13   0.04  -0.06    -0.13  -0.04   0.02
    28   7    -0.02   0.00  -0.00     0.02   0.01   0.01    -0.01  -0.00  -0.00
    29   1    -0.03   0.32   0.12     0.02  -0.36  -0.10    -0.02   0.20   0.07
    30   1     0.00   0.03  -0.04    -0.01   0.04  -0.07    -0.02   0.04  -0.08
    31   1    -0.02  -0.01   0.02    -0.02  -0.01  -0.02    -0.00  -0.02  -0.00
    32   1     0.12   0.09  -0.06     0.02   0.04  -0.06    -0.03  -0.06   0.07
    33   7     0.01  -0.01   0.04     0.04  -0.05   0.13     0.05  -0.08   0.19
    34   6    -0.00   0.01  -0.02    -0.01   0.03  -0.06    -0.01   0.05  -0.09
    35   6    -0.00   0.01  -0.02    -0.02   0.04  -0.06    -0.03   0.06  -0.09
    36   1    -0.02   0.01   0.04    -0.07   0.05   0.12    -0.12   0.08   0.17
    37   1     0.05  -0.05   0.02     0.17  -0.17   0.06     0.25  -0.26   0.08
    38   1    -0.05   0.02   0.02    -0.16   0.08   0.06    -0.24   0.10   0.09
    39   1     0.02   0.00   0.01     0.13  -0.02   0.00     0.22  -0.04  -0.03
    40   1     0.06  -0.01  -0.04     0.17  -0.03  -0.14     0.24  -0.05  -0.20
    41   1    -0.02  -0.01   0.04    -0.09  -0.05   0.21    -0.15  -0.09   0.33
    42   6     0.03   0.02   0.01    -0.04  -0.03  -0.01     0.03   0.02   0.00
    43   6    -0.09  -0.01  -0.04     0.09   0.01   0.03    -0.06  -0.01  -0.02
    44   6     0.07  -0.00   0.04    -0.07   0.01  -0.03     0.04  -0.00   0.02
    45   1    -0.16  -0.19   0.07     0.15   0.16  -0.05    -0.10  -0.12   0.04
    46   1     0.16   0.34  -0.23    -0.14  -0.30   0.20     0.09   0.19  -0.13
    47   1    -0.00   0.05   0.15     0.03  -0.05  -0.18    -0.02   0.03   0.11
    48   1     0.12  -0.16  -0.27    -0.12   0.15   0.26     0.08  -0.09  -0.17
    49   1    -0.13   0.12   0.23     0.12  -0.12  -0.22    -0.08   0.07   0.14
    50   1    -0.05  -0.02  -0.14     0.05   0.01   0.13    -0.03  -0.01  -0.08
    51   1    -0.06  -0.09  -0.14     0.05   0.08   0.14    -0.03  -0.05  -0.08
    52   8     0.01  -0.00  -0.00    -0.01   0.00   0.00     0.01  -0.00  -0.00
    53   6     0.00   0.00  -0.00     0.00  -0.00   0.00     0.00   0.00  -0.00
    54   6    -0.01  -0.01   0.01    -0.00   0.01  -0.01    -0.00  -0.01   0.01
    55   6     0.00   0.00  -0.00     0.00  -0.00   0.00    -0.00   0.00  -0.00
    56   6     0.00   0.00  -0.00     0.00  -0.00   0.00     0.00   0.00  -0.00
    57   1     0.01   0.01   0.01    -0.01  -0.01  -0.01     0.01   0.00   0.01
    58   1    -0.01  -0.01  -0.00     0.01   0.01   0.00    -0.01  -0.01  -0.00
    59   1    -0.00  -0.01   0.01     0.01   0.01  -0.00    -0.00  -0.01   0.00
    60   1    -0.00   0.01  -0.00    -0.00  -0.01   0.00     0.00   0.01  -0.00
    61   1     0.00   0.00   0.00    -0.00  -0.01  -0.00     0.00   0.00  -0.00
    62   1    -0.00   0.01   0.00     0.00   0.00  -0.00    -0.00   0.00   0.00
    63   1    -0.00  -0.00  -0.02    -0.00   0.00   0.02    -0.00  -0.00  -0.02
    64   1    -0.01  -0.00  -0.01     0.00   0.00   0.00    -0.00  -0.00  -0.00
    65   1     0.00  -0.01   0.00    -0.00   0.01   0.00     0.00  -0.00   0.00
                    115                    116                    117
                      A                      A                      A
 Frequencies --   1245.3169              1252.1793              1255.8123
 Red. masses --      3.1023                 1.4942                 3.2811
 Frc consts  --      2.8346                 1.3804                 3.0487
 IR Inten    --      0.0000                 0.0000                 0.0000
  Atom  AN      X      Y      Z        X      Y      Z        X      Y      Z
     1  26    -0.00  -0.00  -0.00     0.00  -0.00  -0.00     0.00  -0.00  -0.00
     2   6     0.01   0.00  -0.00    -0.00  -0.00  -0.00     0.00   0.00  -0.00
     3  46     0.00   0.00   0.00     0.00   0.00   0.00     0.00   0.00  -0.00
     4   6    -0.00   0.00  -0.00    -0.02   0.07  -0.04     0.00   0.00  -0.00
     5   1    -0.00  -0.01   0.00    -0.01  -0.01   0.00    -0.00   0.00   0.00
     6   1     0.00  -0.00   0.00    -0.01   0.01  -0.01    -0.00  -0.00  -0.00
     7   1     0.00   0.00   0.00     0.01   0.03   0.02     0.00  -0.00   0.00
     8   6    -0.00  -0.00  -0.00     0.00   0.00   0.00    -0.02  -0.02  -0.02
     9   8    -0.00   0.00   0.00     0.00   0.00   0.00     0.00   0.00   0.00
    10   6     0.00  -0.00   0.00     0.01   0.03   0.02    -0.00   0.00   0.00
    11   8     0.00   0.00  -0.00     0.00   0.00   0.00     0.01   0.02   0.02
    12   6     0.00   0.00  -0.00    -0.01  -0.01   0.00    -0.00  -0.00   0.00
    13   6    -0.00   0.00  -0.00     0.00  -0.02   0.01     0.00  -0.00   0.00
    14   6    -0.00  -0.00  -0.00     0.01   0.01   0.00     0.00  -0.00   0.00
    15   1     0.00   0.00   0.00    -0.01  -0.01  -0.00    -0.00  -0.00  -0.00
    16   1     0.01   0.00  -0.00     0.01  -0.02   0.01     0.00  -0.00   0.00
    17   1    -0.00   0.01  -0.00     0.02  -0.02   0.02     0.00  -0.01   0.00
    18   1    -0.00  -0.02   0.01    -0.01  -0.05  -0.04     0.04   0.03   0.01
    19   6    -0.00  -0.00   0.00    -0.03   0.01  -0.00    -0.00   0.00  -0.00
    20   6    -0.00   0.00  -0.01     0.00  -0.00  -0.00     0.00   0.00   0.00
    21   8    -0.00  -0.00  -0.00     0.00   0.00   0.00    -0.00  -0.00   0.00
    22   6     0.00   0.00   0.00     0.00   0.00   0.00     0.00   0.00   0.00
    23   6     0.00   0.00   0.00     0.00   0.00   0.00     0.00   0.00  -0.00
    24   6    -0.00   0.00  -0.00    -0.00   0.00  -0.00    -0.00  -0.00  -0.00
    25   6    -0.00  -0.00  -0.00    -0.01  -0.00  -0.00    -0.00  -0.00  -0.00
    26   6    -0.00  -0.00   0.00     0.00  -0.00   0.00     0.00  -0.00   0.00
    27   1     0.01   0.01  -0.01     0.00  -0.00   0.00     0.00   0.00   0.00
    28   7     0.00  -0.00   0.00    -0.00  -0.01  -0.00    -0.01   0.00   0.00
    29   1    -0.01  -0.04   0.03    -0.00   0.02   0.01     0.00  -0.01   0.00
    30   1    -0.00  -0.00  -0.01    -0.11  -0.04  -0.33    -0.00   0.00  -0.02
    31   1     0.00  -0.00   0.01     0.15  -0.25   0.79     0.00  -0.01   0.04
    32   1    -0.00   0.00  -0.00     0.00   0.00   0.00     0.00   0.00   0.00
    33   7     0.00  -0.00  -0.00     0.07  -0.10  -0.08     0.00  -0.01   0.00
    34   6     0.00   0.00   0.00    -0.01   0.06   0.04     0.00   0.00  -0.00
    35   6    -0.00   0.00   0.00    -0.04   0.02   0.04    -0.00   0.00   0.00
    36   1    -0.00   0.00  -0.00    -0.11   0.07  -0.07    -0.01   0.00   0.00
    37   1    -0.01  -0.00  -0.00    -0.11  -0.02  -0.05    -0.00  -0.01  -0.00
    38   1    -0.00  -0.00   0.00     0.10  -0.17  -0.01    -0.00  -0.01   0.00
    39   1     0.00  -0.00  -0.00     0.08  -0.02  -0.04     0.01  -0.00  -0.00
    40   1     0.00  -0.00  -0.00     0.01  -0.09   0.03     0.00  -0.01   0.00
    41   1    -0.00  -0.00   0.00    -0.10  -0.07   0.10    -0.01  -0.00   0.01
    42   6    -0.01  -0.00  -0.00     0.00  -0.00   0.00    -0.00  -0.00  -0.00
    43   6     0.01   0.00   0.00     0.00   0.00   0.00    -0.00  -0.00   0.00
    44   6    -0.01   0.00  -0.00    -0.00  -0.00  -0.00     0.00   0.00   0.00
    45   1     0.02   0.04  -0.01     0.01   0.02  -0.01    -0.00  -0.02   0.01
    46   1    -0.03  -0.05   0.04    -0.00  -0.01   0.01     0.00   0.01  -0.00
    47   1    -0.02  -0.01   0.00     0.00   0.00  -0.01     0.01   0.00  -0.00
    48   1    -0.01   0.02   0.03    -0.01   0.00   0.01     0.01   0.00  -0.01
    49   1     0.02  -0.01  -0.03     0.00  -0.00  -0.01     0.00  -0.01  -0.00
    50   1     0.01  -0.00   0.02     0.00   0.00   0.01    -0.00   0.00  -0.00
    51   1     0.01   0.01   0.02     0.00   0.00   0.00    -0.01  -0.00  -0.00
    52   8     0.00   0.01  -0.02    -0.00   0.00   0.00     0.00  -0.04  -0.03
    53   6     0.00   0.06  -0.10     0.00   0.00   0.00    -0.07  -0.08  -0.04
    54   6    -0.00  -0.19   0.33    -0.00  -0.00  -0.01     0.23   0.28   0.16
    55   6    -0.00   0.06  -0.10     0.00   0.00   0.00    -0.07  -0.08  -0.05
    56   6     0.00   0.06  -0.10     0.00   0.00   0.00    -0.07  -0.08  -0.05
    57   1     0.25   0.15   0.27     0.00  -0.00  -0.00    -0.28  -0.06  -0.07
    58   1    -0.31  -0.30  -0.07     0.01   0.00   0.00    -0.23  -0.02  -0.04
    59   1    -0.02  -0.14   0.20     0.00   0.00  -0.00    -0.05  -0.02  -0.04
    60   1     0.07   0.40  -0.09    -0.00  -0.01   0.00     0.16   0.15  -0.02
    61   1     0.08   0.09   0.10    -0.00  -0.00  -0.00     0.09   0.03   0.18
    62   1    -0.06   0.01   0.11     0.00   0.01  -0.01    -0.01  -0.38   0.27
    63   1    -0.01  -0.07  -0.38    -0.00  -0.00  -0.00     0.14   0.04   0.24
    64   1    -0.06  -0.09  -0.04    -0.00  -0.00   0.00     0.12   0.19  -0.03
    65   1     0.05  -0.10  -0.05    -0.00  -0.00   0.01     0.03   0.12  -0.44
                    118                    119                    120
                      A                      A                      A
 Frequencies --   1271.0681              1277.1416              1283.5938
 Red. masses --      1.1773                 9.5712                 1.4937
 Frc consts  --      1.1206                 9.1980                 1.4500
 IR Inten    --      0.0000                 0.0000                 0.0000
  Atom  AN      X      Y      Z        X      Y      Z        X      Y      Z
     1  26    -0.00  -0.00  -0.00    -0.00   0.00  -0.00     0.00  -0.00  -0.00
     2   6    -0.00  -0.01   0.01    -0.36  -0.37   0.32     0.00   0.01   0.00
     3  46    -0.00   0.00   0.00    -0.00  -0.00   0.00     0.00  -0.00  -0.00
     4   6    -0.00   0.00  -0.00     0.00  -0.00  -0.00    -0.00  -0.01   0.00
     5   1    -0.01  -0.01   0.00     0.03   0.03  -0.01    -0.01  -0.00   0.00
     6   1     0.00  -0.01   0.01    -0.01   0.03  -0.02    -0.00  -0.01   0.01
     7   1     0.00   0.00   0.00     0.03   0.02  -0.01     0.01  -0.00   0.00
     8   6     0.01  -0.00  -0.00     0.03  -0.01  -0.00    -0.07   0.01   0.00
     9   8    -0.00  -0.00  -0.01     0.01  -0.14  -0.23    -0.00   0.00   0.01
    10   6     0.00  -0.00   0.00    -0.01   0.01  -0.01    -0.01   0.02  -0.02
    11   8    -0.00   0.00  -0.00     0.01   0.02   0.01     0.01   0.01   0.00
    12   6     0.00   0.00  -0.00    -0.01  -0.00  -0.00    -0.02  -0.04   0.01
    13   6    -0.00   0.00  -0.00     0.00  -0.00   0.00     0.01  -0.02   0.01
    14   6    -0.00  -0.00  -0.00     0.01   0.00   0.00     0.03   0.02   0.00
    15   1     0.00   0.01   0.00    -0.00  -0.01  -0.02    -0.02  -0.04  -0.00
    16   1     0.01   0.00  -0.00    -0.02  -0.01   0.01    -0.02  -0.04   0.01
    17   1    -0.00   0.00  -0.00     0.01   0.00   0.00     0.03  -0.03   0.02
    18   1    -0.01  -0.00  -0.00    -0.15   0.00   0.02    -0.00  -0.04   0.03
    19   6    -0.00  -0.01   0.00     0.02  -0.00  -0.00    -0.00   0.05  -0.02
    20   6     0.01   0.03  -0.01     0.06   0.02   0.02     0.01  -0.12  -0.10
    21   8     0.00   0.01   0.00     0.24   0.40   0.01     0.00  -0.00  -0.00
    22   6     0.00   0.00  -0.00    -0.01  -0.01  -0.00     0.00   0.00   0.00
    23   6     0.00  -0.00   0.00    -0.01  -0.00  -0.01    -0.00   0.00  -0.00
    24   6     0.00   0.00   0.00    -0.00  -0.00   0.00     0.00   0.00  -0.00
    25   6    -0.00  -0.00  -0.00     0.02   0.00   0.01    -0.00  -0.00   0.00
    26   6    -0.00  -0.00   0.00     0.00   0.02  -0.01    -0.00  -0.00   0.00
    27   1     0.02   0.03  -0.05    -0.06  -0.10   0.13     0.02   0.00  -0.01
    28   7     0.01  -0.00   0.00    -0.02  -0.03  -0.02     0.01   0.01   0.01
    29   1     0.01  -0.34   0.05     0.07   0.25  -0.17    -0.11   0.58   0.25
    30   1    -0.00   0.00  -0.01     0.01  -0.00   0.03     0.01  -0.02   0.07
    31   1     0.00  -0.00   0.01    -0.00  -0.01   0.02    -0.02  -0.01  -0.00
    32   1     0.00  -0.00   0.01    -0.02  -0.00  -0.01    -0.00   0.00  -0.00
    33   7     0.00  -0.00  -0.00     0.00   0.00   0.01    -0.01   0.00   0.01
    34   6    -0.00   0.00   0.00    -0.01  -0.00  -0.01     0.00  -0.00  -0.00
    35   6    -0.00   0.00   0.00     0.00   0.00  -0.01     0.00  -0.00  -0.00
    36   1    -0.00   0.00  -0.00     0.02  -0.01   0.02     0.01  -0.00   0.00
    37   1    -0.00   0.00   0.00     0.03  -0.01   0.02     0.01  -0.01   0.00
    38   1     0.00  -0.00  -0.00    -0.00   0.00  -0.00    -0.01   0.01   0.00
    39   1     0.00  -0.00   0.00     0.00   0.00   0.04     0.00   0.00  -0.01
    40   1     0.00  -0.00  -0.00     0.00  -0.01  -0.00    -0.00   0.01  -0.00
    41   1    -0.00  -0.00   0.00    -0.00  -0.00   0.02     0.01   0.00  -0.01
    42   6    -0.06  -0.02  -0.02     0.02  -0.03   0.01     0.01  -0.02   0.05
    43   6     0.01   0.05  -0.00    -0.02  -0.00   0.01     0.02   0.03  -0.00
    44   6     0.04  -0.06   0.03    -0.00   0.00  -0.01    -0.02  -0.03  -0.01
    45   1     0.13   0.27  -0.13    -0.01   0.18  -0.13     0.08   0.55  -0.32
    46   1    -0.15  -0.08   0.11     0.05   0.26  -0.12    -0.01  -0.19   0.11
    47   1    -0.34   0.01   0.51     0.08   0.02  -0.08    -0.03   0.04   0.12
    48   1     0.30   0.02  -0.38    -0.06  -0.02   0.06    -0.10   0.02   0.16
    49   1    -0.04   0.13   0.09     0.01  -0.02  -0.02     0.02   0.02  -0.06
    50   1    -0.07   0.07   0.02     0.00  -0.00  -0.01    -0.02   0.05   0.07
    51   1     0.06  -0.09  -0.24    -0.01   0.00   0.00     0.05   0.00  -0.03
    52   8    -0.01   0.00   0.00    -0.02   0.00  -0.00     0.03   0.00   0.00
    53   6    -0.00  -0.00   0.00    -0.00   0.01  -0.00    -0.00   0.00   0.00
    54   6     0.00   0.00  -0.00     0.03  -0.02   0.01     0.01  -0.00  -0.01
    55   6     0.00  -0.00   0.00    -0.01   0.00  -0.00    -0.00   0.00   0.00
    56   6    -0.00  -0.00   0.00    -0.01   0.01  -0.01    -0.00   0.00   0.00
    57   1    -0.00  -0.00  -0.00     0.02   0.00   0.01    -0.00  -0.00  -0.01
    58   1     0.00   0.00   0.00    -0.00  -0.02  -0.00     0.00  -0.00   0.00
    59   1     0.00   0.00   0.00    -0.02  -0.03  -0.01    -0.02  -0.02  -0.02
    60   1    -0.00  -0.00   0.00     0.02   0.02  -0.00     0.00  -0.01   0.00
    61   1     0.00  -0.00   0.00     0.02   0.04  -0.01    -0.00   0.01  -0.01
    62   1     0.00  -0.00  -0.00     0.00  -0.01  -0.01     0.01  -0.01  -0.01
    63   1     0.00  -0.00   0.00     0.01  -0.00  -0.02     0.01  -0.00  -0.00
    64   1     0.00   0.01  -0.01     0.01  -0.00   0.04     0.00  -0.00   0.02
    65   1    -0.00   0.00  -0.00     0.00  -0.01  -0.01     0.01  -0.01  -0.01
                    121                    122                    123
                      A                      A                      A
 Frequencies --   1299.5728              1332.8556              1350.8013
 Red. masses --      2.4353                 2.1261                 1.3841
 Frc consts  --      2.4233                 2.2254                 1.4880
 IR Inten    --      0.0000                 0.0000                 0.0000
  Atom  AN      X      Y      Z        X      Y      Z        X      Y      Z
     1  26    -0.00   0.01   0.01    -0.00   0.00   0.00     0.00  -0.00  -0.00
     2   6    -0.00  -0.00   0.01     0.00   0.00  -0.00    -0.02  -0.01   0.01
     3  46    -0.00   0.00  -0.00     0.00   0.00  -0.00    -0.00   0.00  -0.00
     4   6    -0.00   0.02   0.02     0.05   0.07  -0.15     0.00   0.00  -0.00
     5   1     0.02  -0.00   0.01     0.01  -0.00   0.00    -0.01  -0.01   0.00
     6   1     0.01   0.02  -0.03    -0.00  -0.00   0.02    -0.00  -0.01   0.00
     7   1    -0.01   0.01  -0.00    -0.01  -0.00  -0.01    -0.00  -0.01   0.00
     8   6    -0.02  -0.00  -0.01    -0.02  -0.01  -0.01    -0.01  -0.00  -0.00
     9   8    -0.00  -0.00   0.00    -0.00   0.00   0.00     0.00  -0.00  -0.00
    10   6     0.05  -0.09   0.08    -0.13  -0.01  -0.00    -0.00  -0.00   0.00
    11   8     0.01  -0.02  -0.01     0.00   0.00   0.00     0.00   0.00   0.00
    12   6     0.10   0.11  -0.03    -0.00   0.06  -0.03    -0.00  -0.00   0.00
    13   6    -0.02   0.10  -0.07    -0.01   0.05  -0.04     0.00   0.00  -0.00
    14   6    -0.13  -0.07  -0.03     0.03  -0.11   0.07    -0.00  -0.00   0.00
    15   1     0.04   0.19  -0.03     0.09  -0.01   0.03     0.00  -0.00   0.00
    16   1    -0.01   0.13  -0.04     0.13   0.14  -0.00    -0.00  -0.00  -0.00
    17   1    -0.16   0.09  -0.05     0.02   0.16  -0.11    -0.00   0.00  -0.00
    18   1     0.08   0.65   0.08     0.03   0.22   0.12     0.00   0.01   0.01
    19   6    -0.01  -0.18   0.06     0.11  -0.06   0.03     0.00   0.00  -0.00
    20   6     0.00  -0.05  -0.04     0.00  -0.00  -0.00    -0.01  -0.03   0.01
    21   8     0.00   0.00  -0.00    -0.00  -0.00  -0.00     0.01   0.01  -0.00
    22   6    -0.01  -0.01  -0.01    -0.01  -0.01   0.01     0.00   0.00   0.00
    23   6     0.00  -0.01   0.01    -0.00   0.00  -0.00     0.00   0.00   0.00
    24   6     0.00  -0.01   0.01     0.01  -0.00   0.00    -0.00   0.00  -0.00
    25   6     0.01   0.01  -0.01    -0.00  -0.00  -0.00    -0.01  -0.00  -0.00
    26   6     0.00   0.01  -0.00     0.01   0.01  -0.00     0.00  -0.00   0.00
    27   1    -0.02  -0.01  -0.01    -0.00   0.01  -0.01     0.01   0.00  -0.02
    28   7    -0.01   0.03   0.02    -0.00   0.00   0.01     0.00  -0.00  -0.01
    29   1    -0.04   0.18   0.08    -0.00  -0.00   0.01    -0.00   0.16  -0.04
    30   1    -0.03   0.17  -0.43     0.08  -0.24   0.67     0.00   0.00  -0.00
    31   1     0.08   0.08  -0.15    -0.07  -0.13   0.41     0.00  -0.00   0.00
    32   1    -0.00  -0.01   0.00    -0.00  -0.00  -0.02    -0.01   0.00  -0.01
    33   7     0.04  -0.01  -0.03    -0.07  -0.01   0.04     0.00  -0.00   0.00
    34   6    -0.01   0.01   0.01     0.01  -0.01  -0.02    -0.00   0.00  -0.00
    35   6    -0.02  -0.00   0.01     0.04   0.01  -0.02    -0.00   0.00   0.00
    36   1    -0.04   0.02  -0.00     0.01  -0.01   0.05     0.00  -0.00   0.00
    37   1    -0.03   0.03  -0.01     0.03  -0.04  -0.00     0.00  -0.00   0.00
    38   1     0.03  -0.02  -0.01    -0.05  -0.03   0.03     0.00  -0.00  -0.00
    39   1     0.01  -0.01   0.01    -0.03   0.02  -0.00     0.00   0.00   0.00
    40   1     0.06  -0.02  -0.03    -0.14   0.00   0.09     0.00  -0.00   0.00
    41   1    -0.02  -0.01   0.02     0.01  -0.02   0.00    -0.00  -0.00  -0.00
    42   6     0.01  -0.01   0.02    -0.00  -0.01   0.01     0.00   0.11  -0.02
    43   6     0.00   0.01  -0.00     0.00   0.00  -0.01     0.08  -0.01  -0.10
    44   6    -0.01  -0.01  -0.00    -0.00  -0.00   0.00    -0.01  -0.03  -0.00
    45   1     0.00   0.15  -0.10    -0.00   0.03  -0.02    -0.14  -0.43   0.28
    46   1     0.01  -0.02   0.02     0.01   0.03  -0.01    -0.00  -0.34   0.10
    47   1     0.00   0.01   0.02    -0.00   0.00   0.01    -0.37  -0.08   0.45
    48   1    -0.04  -0.00   0.06    -0.02  -0.01   0.02    -0.21  -0.01   0.27
    49   1     0.01   0.01  -0.02     0.00   0.01  -0.00    -0.06   0.09   0.05
    50   1    -0.01   0.01   0.01    -0.01   0.01   0.00    -0.03   0.12   0.16
    51   1     0.01   0.00   0.00     0.01   0.00   0.00     0.04   0.02   0.09
    52   8     0.01  -0.00  -0.00     0.01   0.00   0.00     0.00   0.00   0.00
    53   6    -0.00  -0.00   0.00    -0.00   0.00   0.00    -0.00  -0.00   0.00
    54   6     0.00   0.00  -0.00    -0.00  -0.00  -0.00     0.00   0.00  -0.00
    55   6    -0.00  -0.00   0.00     0.00   0.00   0.00    -0.00  -0.00   0.00
    56   6    -0.00  -0.00   0.00     0.00   0.00   0.00    -0.00   0.00   0.00
    57   1     0.00  -0.00   0.00     0.00   0.00   0.00    -0.00  -0.00  -0.00
    58   1     0.00   0.01   0.00     0.00   0.00   0.00    -0.00   0.00   0.00
    59   1    -0.00  -0.00  -0.01    -0.00  -0.00  -0.00    -0.00   0.00  -0.01
    60   1     0.00   0.00   0.00    -0.00  -0.00   0.00    -0.00  -0.00   0.00
    61   1     0.00   0.00  -0.00    -0.00  -0.00  -0.00    -0.00   0.00  -0.00
    62   1    -0.00   0.01  -0.01     0.00   0.00  -0.00     0.00  -0.00  -0.00
    63   1     0.00   0.00   0.00     0.00   0.00  -0.00     0.00  -0.00  -0.00
    64   1    -0.00   0.00  -0.00    -0.00  -0.00   0.00    -0.00   0.00  -0.00
    65   1     0.00  -0.00   0.00     0.00  -0.00   0.00     0.00  -0.00  -0.00
                    124                    125                    126
                      A                      A                      A
 Frequencies --   1351.4810              1373.3340              1386.4746
 Red. masses --      1.4514                 3.7349                 4.8012
 Frc consts  --      1.5619                 4.1503                 5.4378
 IR Inten    --      0.0000                 0.0000                 0.0000
  Atom  AN      X      Y      Z        X      Y      Z        X      Y      Z
     1  26     0.00  -0.00   0.00    -0.00  -0.00  -0.01     0.00  -0.00  -0.00
     2   6     0.01   0.01  -0.01    -0.00   0.00   0.00     0.00   0.00  -0.00
     3  46     0.00  -0.00   0.00     0.00   0.00  -0.00    -0.00  -0.00   0.00
     4   6    -0.00  -0.00   0.01    -0.04  -0.02  -0.02    -0.01  -0.02   0.03
     5   1     0.01   0.01  -0.01     0.03   0.06  -0.03     0.07   0.09  -0.03
     6   1    -0.00   0.01  -0.01     0.04   0.04   0.03    -0.05  -0.02  -0.04
     7   1    -0.01   0.00  -0.01     0.04  -0.01   0.03    -0.13  -0.11  -0.04
     8   6     0.02   0.00   0.00     0.07   0.03   0.03    -0.15  -0.07  -0.06
     9   8    -0.00   0.00   0.00    -0.00  -0.00  -0.00     0.00   0.00   0.00
    10   6     0.00   0.00  -0.00     0.22   0.07  -0.00     0.00   0.05  -0.02
    11   8    -0.00  -0.00  -0.00    -0.00  -0.04  -0.02     0.02   0.06   0.05
    12   6    -0.00   0.00  -0.00    -0.08   0.15  -0.10    -0.18   0.05  -0.06
    13   6     0.00  -0.01   0.00     0.02  -0.15   0.11     0.18   0.01   0.06
    14   6     0.00   0.01  -0.00    -0.01   0.15  -0.08    -0.04  -0.02  -0.01
    15   1    -0.01   0.00  -0.01     0.18  -0.11   0.12     0.05  -0.17   0.05
    16   1     0.00  -0.01   0.00     0.13  -0.13   0.06    -0.10  -0.15   0.01
    17   1     0.00  -0.01   0.01     0.01  -0.06   0.06    -0.04  -0.11   0.06
    18   1    -0.00  -0.03  -0.02    -0.02   0.21  -0.05     0.12   0.07   0.10
    19   6    -0.00   0.00   0.00    -0.12  -0.16   0.05     0.04  -0.04   0.01
    20   6     0.02   0.05   0.00     0.00  -0.03  -0.02    -0.01   0.03   0.03
    21   8    -0.01  -0.01   0.00     0.00  -0.00   0.00    -0.00  -0.00  -0.00
    22   6    -0.00  -0.01   0.00    -0.01   0.04  -0.06    -0.10  -0.19   0.07
    23   6    -0.00   0.00  -0.00     0.06   0.01   0.05     0.08   0.13  -0.02
    24   6    -0.00  -0.00  -0.00    -0.06  -0.06   0.01    -0.08  -0.13   0.05
    25   6     0.01  -0.00   0.01     0.04   0.04  -0.03    -0.10   0.04  -0.13
    26   6    -0.00   0.00  -0.01    -0.04  -0.04   0.03     0.21   0.14   0.06
    27   1    -0.04   0.00   0.05    -0.03  -0.02   0.01    -0.09   0.13  -0.13
    28   7    -0.00  -0.00  -0.00    -0.03   0.03   0.03     0.05  -0.05  -0.04
    29   1     0.03  -0.23   0.04    -0.01   0.06   0.03     0.01  -0.08  -0.04
    30   1    -0.00   0.00  -0.02     0.01  -0.27   0.63    -0.01   0.06  -0.13
    31   1    -0.00   0.00  -0.01     0.04  -0.09   0.18     0.02   0.01  -0.05
    32   1     0.01   0.00   0.00    -0.02   0.01  -0.02    -0.03   0.10  -0.16
    33   7     0.00   0.00  -0.00    -0.03   0.01   0.00     0.01   0.00  -0.00
    34   6     0.00  -0.00   0.00     0.01  -0.01  -0.01     0.01  -0.00   0.00
    35   6    -0.00  -0.00   0.00     0.02  -0.00  -0.03    -0.01   0.00   0.01
    36   1    -0.00   0.00  -0.00    -0.03   0.01   0.04    -0.02   0.01  -0.02
    37   1    -0.00   0.00  -0.00     0.00   0.03  -0.00    -0.05   0.01  -0.03
    38   1     0.00   0.00  -0.00    -0.02   0.01   0.01    -0.04   0.03   0.03
    39   1    -0.00  -0.00  -0.00    -0.07   0.02   0.09    -0.00   0.00  -0.02
    40   1     0.00   0.00  -0.00    -0.15   0.02   0.08     0.07  -0.01  -0.04
    41   1    -0.00   0.00   0.00    -0.01  -0.01   0.09    -0.01  -0.01  -0.04
    42   6    -0.02  -0.10   0.08     0.00   0.01  -0.00     0.00  -0.01   0.00
    43   6     0.06   0.03  -0.12     0.00  -0.00  -0.00    -0.01   0.00   0.01
    44   6    -0.02  -0.02   0.01    -0.00  -0.00   0.00     0.00  -0.00  -0.01
    45   1    -0.13   0.15  -0.14    -0.02   0.00  -0.01     0.00   0.02  -0.01
    46   1     0.10   0.62  -0.28    -0.01  -0.02   0.02    -0.01   0.04  -0.00
    47   1    -0.13   0.02   0.20    -0.00  -0.00   0.01     0.02   0.00  -0.03
    48   1    -0.32  -0.11   0.40    -0.00   0.00   0.01     0.02  -0.00  -0.02
    49   1    -0.01   0.06  -0.02     0.01   0.01  -0.01    -0.02   0.02   0.02
    50   1    -0.04   0.09   0.11     0.00  -0.01  -0.01    -0.01   0.02   0.02
    51   1     0.04   0.02   0.03     0.01   0.01   0.00    -0.00   0.00   0.04
    52   8    -0.01  -0.00  -0.00    -0.02  -0.01  -0.01     0.04   0.02   0.01
    53   6    -0.00  -0.00  -0.00    -0.01  -0.01  -0.01     0.05   0.03   0.02
    54   6    -0.00   0.00   0.00    -0.00   0.01   0.01    -0.00  -0.03  -0.02
    55   6     0.00  -0.00  -0.00    -0.00  -0.01   0.00     0.01   0.05  -0.01
    56   6     0.00  -0.00  -0.00    -0.00  -0.00  -0.01     0.00   0.01   0.04
    57   1     0.01   0.00   0.00     0.03   0.00   0.02    -0.20  -0.01  -0.11
    58   1     0.01   0.00  -0.00     0.03   0.02  -0.00    -0.21  -0.09   0.01
    59   1     0.01   0.01   0.01     0.03   0.04   0.02    -0.16  -0.18  -0.14
    60   1     0.00   0.00  -0.00     0.00   0.04  -0.00    -0.03  -0.20   0.00
    61   1     0.00  -0.00   0.01     0.03   0.03  -0.00    -0.11  -0.16   0.05
    62   1    -0.00   0.00   0.00    -0.02   0.04  -0.01     0.07  -0.17   0.08
    63   1     0.00   0.00   0.00     0.01   0.01   0.03    -0.01  -0.05  -0.13
    64   1     0.00   0.00  -0.00     0.02   0.01   0.02    -0.08  -0.02  -0.13
    65   1    -0.00   0.00   0.00    -0.01   0.01   0.02     0.07  -0.02  -0.13
                    127                    128                    129
                      A                      A                      A
 Frequencies --   1388.6191              1392.0283              1393.1920
 Red. masses --      2.6738                 1.2530                 4.0246
 Frc consts  --      3.0377                 1.4306                 4.6025
 IR Inten    --      0.0000                 0.0000                 0.0000
  Atom  AN      X      Y      Z        X      Y      Z        X      Y      Z
     1  26     0.00  -0.00   0.00    -0.00   0.00  -0.00     0.00  -0.00   0.00
     2   6     0.00   0.00  -0.00     0.00   0.00  -0.00    -0.00  -0.00   0.00
     3  46    -0.00   0.00  -0.00     0.00  -0.00   0.00    -0.00   0.00  -0.00
     4   6    -0.01  -0.00   0.00     0.00  -0.00   0.00    -0.02   0.00  -0.02
     5   1    -0.00  -0.01  -0.01     0.00   0.00  -0.00    -0.13  -0.15   0.04
     6   1    -0.07  -0.03  -0.07     0.01   0.00   0.01    -0.13  -0.06  -0.12
     7   1    -0.12  -0.05  -0.05     0.01  -0.00   0.00    -0.17   0.02  -0.08
     8   6     0.15   0.07   0.06    -0.02  -0.01  -0.01    -0.01  -0.00  -0.01
     9   8    -0.00  -0.00   0.00     0.00   0.00   0.00    -0.00  -0.00  -0.00
    10   6     0.01   0.01  -0.00    -0.00   0.00  -0.00     0.11   0.00   0.02
    11   8    -0.02  -0.06  -0.05     0.00   0.01   0.01     0.01   0.00   0.01
    12   6    -0.01  -0.02   0.01    -0.00   0.00  -0.00     0.09   0.01   0.01
    13   6     0.03   0.03  -0.01     0.00  -0.00   0.00    -0.13  -0.07  -0.01
    14   6    -0.02  -0.03   0.01     0.00  -0.00   0.00     0.02   0.09  -0.03
    15   1    -0.04   0.01  -0.02     0.00  -0.01   0.00     0.01   0.09   0.01
    16   1    -0.05  -0.01  -0.01     0.00  -0.00   0.00     0.11   0.05   0.01
    17   1    -0.02   0.02  -0.01     0.00  -0.00   0.00     0.03   0.05  -0.02
    18   1    -0.14  -0.11  -0.06     0.02   0.01   0.02     0.02   0.08  -0.08
    19   6     0.01   0.01  -0.00     0.00  -0.00  -0.00    -0.09  -0.04   0.00
    20   6     0.00  -0.04  -0.03    -0.00   0.00   0.00    -0.00   0.00   0.00
    21   8    -0.00  -0.00   0.00    -0.00  -0.00  -0.00     0.00   0.00   0.00
    22   6    -0.06  -0.14   0.08     0.00   0.01  -0.01    -0.02  -0.13   0.14
    23   6     0.00   0.06  -0.04     0.00  -0.00   0.00    -0.13  -0.02  -0.11
    24   6     0.00  -0.00  -0.00    -0.00  -0.01   0.00     0.14   0.19  -0.08
    25   6    -0.07  -0.02  -0.02     0.00   0.01  -0.00    -0.07  -0.14   0.12
    26   6     0.14   0.11   0.01    -0.01  -0.01   0.00     0.11   0.11  -0.07
    27   1    -0.03   0.09  -0.09    -0.00  -0.00   0.00     0.05   0.06  -0.07
    28   7    -0.05   0.06   0.04     0.01  -0.01  -0.01     0.01  -0.00  -0.00
    29   1    -0.02   0.08   0.05     0.00  -0.01  -0.00     0.00  -0.01  -0.00
    30   1     0.00   0.00   0.02    -0.00   0.00  -0.01     0.02  -0.08   0.29
    31   1     0.01  -0.00   0.01    -0.00   0.00  -0.00     0.06  -0.03   0.07
    32   1    -0.04   0.04  -0.09     0.00  -0.00   0.00    -0.04  -0.01  -0.03
    33   7    -0.00   0.00   0.00     0.00   0.00   0.00    -0.01   0.00  -0.00
    34   6    -0.01   0.01  -0.00    -0.00   0.00   0.00     0.01  -0.01  -0.00
    35   6    -0.00   0.00   0.00    -0.00  -0.00   0.00     0.02  -0.00  -0.02
    36   1     0.03  -0.01   0.00     0.02  -0.01  -0.00    -0.05   0.02   0.02
    37   1     0.06  -0.02   0.04     0.01  -0.01   0.01    -0.03   0.05  -0.02
    38   1     0.06  -0.03  -0.04     0.01  -0.01  -0.01    -0.04   0.03   0.02
    39   1    -0.01   0.00  -0.01     0.01  -0.00  -0.01    -0.07   0.02   0.08
    40   1     0.02  -0.01  -0.01     0.01   0.00  -0.01    -0.12   0.01   0.06
    41   1    -0.01  -0.01  -0.02     0.00   0.00  -0.01    -0.02  -0.03   0.11
    42   6    -0.00   0.01  -0.00    -0.00  -0.00   0.00    -0.00   0.00   0.00
    43   6     0.00  -0.00  -0.00     0.00  -0.00  -0.00     0.00  -0.00  -0.00
    44   6    -0.00   0.00   0.01    -0.00   0.00   0.00    -0.00   0.00   0.00
    45   1     0.02   0.01   0.00    -0.00  -0.00   0.00     0.02  -0.01   0.02
    46   1     0.01  -0.05  -0.00    -0.00   0.01  -0.00     0.02  -0.01  -0.02
    47   1    -0.01   0.00   0.02     0.00  -0.00  -0.01    -0.01  -0.00   0.00
    48   1    -0.00   0.01   0.00    -0.00  -0.00   0.00    -0.00  -0.00   0.01
    49   1     0.02  -0.02  -0.02     0.01  -0.00  -0.01     0.01  -0.01  -0.01
    50   1     0.01  -0.03  -0.02     0.01  -0.02  -0.01    -0.00  -0.01  -0.01
    51   1     0.01  -0.00  -0.04     0.01   0.00  -0.01    -0.00  -0.00  -0.01
    52   8    -0.04  -0.02  -0.01     0.01   0.00   0.00     0.00   0.00   0.00
    53   6    -0.07  -0.04  -0.03     0.00  -0.00   0.01     0.06   0.03   0.03
    54   6     0.01   0.03   0.02     0.00   0.01  -0.02    -0.01  -0.01  -0.01
    55   6    -0.01  -0.07   0.02    -0.01  -0.09   0.04     0.00   0.03  -0.01
    56   6    -0.00  -0.01  -0.05    -0.00  -0.00   0.10     0.00   0.00   0.05
    57   1     0.29   0.02   0.16     0.01  -0.01  -0.01    -0.24  -0.02  -0.13
    58   1     0.31   0.13  -0.01    -0.01   0.01   0.00    -0.26  -0.10   0.01
    59   1     0.23   0.26   0.19    -0.00   0.01  -0.03    -0.17  -0.19  -0.15
    60   1     0.04   0.27  -0.00     0.03   0.41   0.00    -0.02  -0.12   0.00
    61   1     0.14   0.22  -0.08     0.16   0.31  -0.21    -0.06  -0.10   0.04
    62   1    -0.09   0.23  -0.12    -0.09   0.33  -0.23     0.04  -0.10   0.06
    63   1     0.02   0.07   0.18    -0.01  -0.15  -0.36    -0.01  -0.07  -0.18
    64   1     0.10   0.02   0.17    -0.12   0.07  -0.36    -0.08   0.02  -0.19
    65   1    -0.09   0.01   0.18     0.14   0.06  -0.37     0.08   0.01  -0.19
                    130                    131                    132
                      A                      A                      A
 Frequencies --   1397.8388              1399.8280              1401.6990
 Red. masses --      3.5178                 1.2667                 2.5649
 Frc consts  --      4.0498                 1.4624                 2.9691
 IR Inten    --      0.0000                 0.0000                 0.0000
  Atom  AN      X      Y      Z        X      Y      Z        X      Y      Z
     1  26    -0.00  -0.00   0.01     0.00   0.00  -0.00     0.00   0.00  -0.00
     2   6    -0.00  -0.00   0.00     0.00   0.00  -0.00     0.00   0.00  -0.00
     3  46    -0.00   0.00  -0.00    -0.00   0.00   0.00     0.00  -0.00  -0.00
     4   6    -0.00   0.03  -0.04    -0.00  -0.01   0.00     0.00  -0.01   0.01
     5   1     0.08   0.12  -0.06    -0.01  -0.01   0.01    -0.01  -0.03   0.02
     6   1     0.02   0.06  -0.01     0.00  -0.01   0.01     0.01  -0.01   0.02
     7   1     0.00  -0.05  -0.00    -0.00  -0.00  -0.01     0.03   0.02   0.02
     8   6     0.09   0.04   0.04     0.04   0.01   0.01     0.18   0.06   0.06
     9   8    -0.00  -0.00  -0.00    -0.00   0.00   0.00    -0.00  -0.00   0.00
    10   6     0.05  -0.06   0.05    -0.01   0.01  -0.01    -0.03   0.03  -0.02
    11   8    -0.01  -0.04  -0.03    -0.01  -0.02  -0.01    -0.03  -0.07  -0.06
    12   6     0.19  -0.11   0.10    -0.03   0.02  -0.02    -0.11   0.01  -0.03
    13   6    -0.14   0.03  -0.08     0.03  -0.00   0.01     0.14   0.06   0.02
    14   6    -0.01   0.01  -0.01     0.00  -0.00   0.00    -0.04  -0.07   0.02
    15   1    -0.14   0.21  -0.10     0.02  -0.03   0.02    -0.02  -0.08  -0.00
    16   1    -0.02   0.12  -0.03     0.01  -0.02   0.00    -0.12  -0.07  -0.01
    17   1    -0.02   0.11  -0.06     0.00  -0.02   0.01    -0.04  -0.02   0.00
    18   1    -0.09  -0.14  -0.12    -0.02   0.03   0.00    -0.15  -0.11   0.00
    19   6    -0.06   0.09  -0.04     0.01  -0.02   0.01     0.05  -0.00   0.01
    20   6     0.00  -0.02  -0.01     0.00  -0.01  -0.01     0.01  -0.04  -0.03
    21   8     0.00   0.00   0.00    -0.00  -0.00  -0.00    -0.00  -0.00  -0.00
    22   6    -0.05  -0.03  -0.04     0.01   0.01   0.00     0.02   0.03  -0.00
    23   6     0.13   0.07   0.07    -0.01  -0.01  -0.01    -0.04  -0.03  -0.02
    24   6    -0.13  -0.15   0.04     0.01   0.02  -0.01     0.04   0.03   0.00
    25   6     0.01   0.08  -0.09     0.00  -0.01   0.02     0.00  -0.01   0.01
    26   6     0.05   0.02   0.04    -0.01  -0.00  -0.01    -0.03  -0.02  -0.00
    27   1    -0.09   0.06  -0.05     0.01  -0.01   0.01     0.03  -0.04   0.04
    28   7    -0.03   0.03   0.02    -0.01   0.02   0.01    -0.06   0.07   0.05
    29   1    -0.01   0.03   0.02    -0.00   0.01   0.01    -0.01   0.07   0.04
    30   1     0.02  -0.07   0.25     0.01   0.01   0.03    -0.02   0.02  -0.15
    31   1     0.05  -0.01   0.06     0.00   0.00  -0.00    -0.05   0.00  -0.01
    32   1    -0.04   0.04  -0.11     0.00  -0.01   0.01     0.03  -0.01   0.05
    33   7    -0.01   0.00   0.00    -0.01   0.01   0.00     0.01  -0.01  -0.00
    34   6    -0.02   0.01  -0.00    -0.09   0.05  -0.00     0.04  -0.03   0.00
    35   6     0.01   0.00  -0.01    -0.03  -0.00   0.04     0.01   0.00  -0.02
    36   1     0.06  -0.03   0.02     0.39  -0.17   0.03    -0.24   0.11  -0.02
    37   1     0.09  -0.03   0.06     0.35  -0.27   0.24    -0.16   0.16  -0.11
    38   1     0.08  -0.05  -0.06     0.34  -0.30  -0.22    -0.16   0.18   0.10
    39   1    -0.04   0.02   0.05     0.14  -0.05  -0.23    -0.07   0.02   0.13
    40   1    -0.07  -0.01   0.04     0.23   0.05  -0.13    -0.10  -0.04   0.06
    41   1    -0.02  -0.02   0.04     0.07   0.09  -0.25    -0.04  -0.05   0.13
    42   6    -0.00   0.00   0.00    -0.00   0.00   0.00    -0.00   0.00   0.00
    43   6     0.00   0.00  -0.01     0.00  -0.00  -0.00     0.01  -0.00  -0.01
    44   6    -0.01   0.01   0.02    -0.00   0.00   0.00    -0.01   0.01   0.02
    45   1    -0.00   0.01  -0.00     0.00   0.00   0.00     0.01   0.00   0.01
    46   1     0.01   0.00  -0.00     0.00  -0.01  -0.00     0.02  -0.04  -0.01
    47   1    -0.01  -0.00   0.02    -0.00  -0.00   0.01    -0.02  -0.00   0.03
    48   1    -0.02  -0.00   0.02    -0.00   0.00   0.00    -0.02   0.00   0.02
    49   1     0.05  -0.05  -0.05     0.01  -0.01  -0.01     0.06  -0.06  -0.06
    50   1     0.01  -0.04  -0.04     0.00  -0.01  -0.01     0.01  -0.06  -0.05
    51   1    -0.00  -0.01  -0.08     0.00  -0.00  -0.02     0.01  -0.01  -0.11
    52   8    -0.03  -0.01  -0.01    -0.01  -0.00  -0.00    -0.05  -0.01  -0.01
    53   6     0.07   0.03   0.03     0.03   0.01   0.01     0.08   0.03   0.03
    54   6    -0.01  -0.00  -0.00    -0.00  -0.00   0.00    -0.02   0.00   0.00
    55   6     0.01   0.03  -0.01     0.00   0.01  -0.01     0.01   0.02  -0.01
    56   6     0.00  -0.00   0.04     0.00  -0.00   0.01     0.00  -0.00   0.04
    57   1    -0.28  -0.02  -0.14    -0.11  -0.01  -0.05    -0.32  -0.02  -0.15
    58   1    -0.30  -0.12   0.01    -0.12  -0.05   0.00    -0.33  -0.13   0.01
    59   1    -0.18  -0.21  -0.16    -0.07  -0.09  -0.06    -0.19  -0.23  -0.17
    60   1    -0.02  -0.12   0.00    -0.00  -0.05   0.00    -0.02  -0.09  -0.00
    61   1    -0.05  -0.09   0.07    -0.02  -0.04   0.03    -0.02  -0.06   0.06
    62   1     0.02  -0.10   0.08     0.01  -0.05   0.03     0.00  -0.06   0.07
    63   1    -0.01  -0.06  -0.15    -0.00  -0.01  -0.04    -0.00  -0.06  -0.15
    64   1    -0.04   0.04  -0.15    -0.01   0.01  -0.03    -0.03   0.05  -0.15
    65   1     0.05   0.03  -0.15     0.01   0.01  -0.03     0.04   0.04  -0.15
                    133                    134                    135
                      A                      A                      A
 Frequencies --   1409.2865              1412.0774              1414.9354
 Red. masses --      2.7299                 1.2692                 1.5390
 Frc consts  --      3.1944                 1.4911                 1.8153
 IR Inten    --      0.0000                 0.0000                 0.0000
  Atom  AN      X      Y      Z        X      Y      Z        X      Y      Z
     1  26     0.00   0.00   0.00    -0.00  -0.00   0.00    -0.00   0.00  -0.00
     2   6    -0.00  -0.00   0.00     0.00   0.00   0.00     0.00   0.00  -0.00
     3  46    -0.00  -0.00  -0.00     0.00   0.00  -0.00     0.00   0.00   0.00
     4   6    -0.03   0.02  -0.05     0.00  -0.00   0.00     0.00  -0.00   0.00
     5   1     0.02  -0.03   0.06    -0.01   0.00  -0.01     0.04  -0.01   0.07
     6   1     0.05  -0.06   0.10    -0.01   0.01  -0.01     0.06  -0.07   0.12
     7   1     0.04   0.01   0.04    -0.01  -0.00  -0.01     0.06  -0.01   0.04
     8   6    -0.05  -0.01  -0.01     0.03   0.01   0.01    -0.02  -0.00  -0.00
     9   8     0.00  -0.00  -0.00    -0.00  -0.00  -0.00    -0.00   0.00   0.00
    10   6     0.16  -0.05   0.07    -0.01   0.00  -0.00     0.00   0.00  -0.00
    11   8     0.01   0.02   0.01    -0.00  -0.01  -0.01     0.00   0.01   0.01
    12   6    -0.03  -0.09   0.04     0.00   0.00  -0.00     0.02   0.00   0.00
    13   6     0.16   0.13  -0.02    -0.01  -0.00  -0.00    -0.03  -0.02  -0.00
    14   6    -0.15  -0.07  -0.03     0.01  -0.00   0.00     0.01   0.02  -0.00
    15   1    -0.20   0.07  -0.11     0.00   0.00   0.01     0.02   0.01   0.01
    16   1    -0.30  -0.08  -0.05     0.01   0.01   0.00     0.03   0.01   0.00
    17   1    -0.17   0.03  -0.03     0.01   0.00  -0.00     0.02   0.00  -0.00
    18   1     0.01  -0.11  -0.04    -0.02  -0.01  -0.00     0.02   0.03  -0.00
    19   6    -0.08   0.06  -0.04     0.01  -0.00   0.00    -0.00  -0.01   0.00
    20   6    -0.00   0.01   0.01    -0.00  -0.00  -0.01    -0.00   0.01   0.01
    21   8     0.00   0.00   0.00    -0.00  -0.00   0.00    -0.00  -0.00   0.00
    22   6     0.03   0.03   0.01    -0.01  -0.00  -0.00     0.03   0.01   0.02
    23   6    -0.07  -0.02  -0.05     0.01   0.00   0.01    -0.07  -0.00  -0.06
    24   6     0.06   0.02   0.03    -0.01   0.00  -0.01     0.05  -0.03   0.05
    25   6    -0.02   0.02  -0.03     0.00  -0.00   0.01    -0.04   0.05  -0.08
    26   6    -0.02  -0.03   0.02     0.00   0.00  -0.00     0.01  -0.02   0.04
    27   1     0.04  -0.05   0.05    -0.00   0.01  -0.01     0.04  -0.04   0.05
    28   7     0.02  -0.02  -0.02    -0.01   0.01   0.01     0.01  -0.01  -0.01
    29   1     0.01  -0.03  -0.02     0.00  -0.01  -0.01     0.00  -0.02  -0.01
    30   1     0.04  -0.06   0.39    -0.00   0.01  -0.02    -0.01  -0.02  -0.00
    31   1     0.15  -0.03   0.09    -0.01   0.00  -0.00    -0.03   0.00  -0.01
    32   1     0.09  -0.01   0.09    -0.01  -0.00  -0.01     0.11   0.01   0.09
    33   7    -0.01   0.01  -0.01     0.00  -0.00   0.00     0.00   0.00   0.00
    34   6    -0.04   0.02  -0.00     0.00  -0.00   0.00     0.00   0.00   0.00
    35   6     0.04  -0.00  -0.05    -0.00   0.00   0.00    -0.00  -0.00   0.00
    36   1     0.19  -0.08   0.02    -0.02   0.01   0.00     0.00  -0.00  -0.01
    37   1     0.14  -0.11   0.10    -0.01   0.01  -0.00    -0.01  -0.01  -0.01
    38   1     0.15  -0.15  -0.09    -0.01   0.01   0.00    -0.02   0.00   0.01
    39   1    -0.13   0.05   0.20     0.00  -0.00  -0.00     0.02  -0.01  -0.01
    40   1    -0.27  -0.00   0.14     0.01  -0.00  -0.00     0.00   0.01  -0.00
    41   1    -0.04  -0.05   0.23    -0.00  -0.00  -0.01     0.01   0.01  -0.00
    42   6     0.00  -0.00   0.00     0.00  -0.01  -0.00     0.00  -0.00   0.00
    43   6    -0.00   0.00   0.00    -0.02  -0.00   0.03     0.00   0.00  -0.00
    44   6     0.01  -0.01  -0.02     0.04  -0.05  -0.12    -0.00   0.00   0.01
    45   1    -0.00   0.01  -0.01    -0.00   0.05  -0.05    -0.01  -0.01  -0.00
    46   1    -0.01   0.03  -0.00    -0.04   0.03   0.03    -0.00   0.02  -0.00
    47   1     0.02   0.01  -0.01     0.11   0.04  -0.06    -0.01  -0.00   0.01
    48   1     0.01   0.01  -0.01     0.06   0.07  -0.08    -0.01  -0.01   0.01
    49   1    -0.06   0.03   0.07    -0.35   0.21   0.38     0.02  -0.02  -0.03
    50   1    -0.00   0.06   0.07    -0.02   0.37   0.39    -0.01  -0.01  -0.03
    51   1    -0.02   0.00   0.09    -0.10   0.04   0.55    -0.00  -0.01  -0.04
    52   8     0.01   0.00   0.00    -0.01  -0.00  -0.00     0.00   0.00   0.00
    53   6    -0.02  -0.01  -0.01     0.02   0.01   0.01     0.07   0.03   0.02
    54   6     0.00  -0.00  -0.00    -0.00   0.00   0.00    -0.01   0.00   0.00
    55   6    -0.00   0.00   0.00     0.00  -0.01   0.00    -0.00  -0.07   0.03
    56   6    -0.00   0.00   0.00     0.00  -0.00  -0.00     0.00  -0.00  -0.08
    57   1     0.08   0.00   0.03    -0.06  -0.01  -0.04    -0.29  -0.01  -0.12
    58   1     0.08   0.03  -0.00    -0.07  -0.03   0.00    -0.30  -0.09   0.00
    59   1     0.05   0.06   0.04    -0.04  -0.04  -0.04    -0.19  -0.23  -0.17
    60   1     0.00  -0.00   0.00     0.00   0.03  -0.00     0.01   0.30  -0.00
    61   1    -0.01  -0.01  -0.00     0.02   0.03  -0.01     0.12   0.22  -0.15
    62   1     0.01  -0.01  -0.01    -0.01   0.03  -0.01    -0.07   0.25  -0.15
    63   1    -0.01   0.00  -0.00    -0.03   0.01   0.01    -0.01   0.12   0.29
    64   1    -0.01  -0.01   0.00    -0.00  -0.01   0.01     0.10  -0.06   0.30
    65   1     0.00  -0.00  -0.01    -0.00   0.01  -0.01    -0.12  -0.03   0.30
                    136                    137                    138
                      A                      A                      A
 Frequencies --   1415.3471              1419.8502              1433.2611
 Red. masses --      2.5695                 1.2978                 3.5721
 Frc consts  --      3.0327                 1.5415                 4.3233
 IR Inten    --      0.0000                 0.0000                 0.0000
  Atom  AN      X      Y      Z        X      Y      Z        X      Y      Z
     1  26     0.01  -0.00   0.00    -0.00   0.00  -0.00    -0.00  -0.01   0.00
     2   6     0.00   0.00  -0.00     0.00   0.00  -0.00     0.00   0.00  -0.00
     3  46    -0.00  -0.00   0.00     0.00  -0.00  -0.00    -0.00  -0.00  -0.00
     4   6    -0.01   0.00  -0.01    -0.02  -0.03   0.03     0.01   0.00   0.01
     5   1    -0.08   0.01  -0.14    -0.01  -0.02   0.01     0.24   0.31  -0.10
     6   1    -0.12   0.15  -0.25     0.01  -0.02   0.00     0.04   0.22  -0.12
     7   1    -0.11   0.03  -0.09    -0.00  -0.00   0.02     0.23   0.33  -0.01
     8   6    -0.04  -0.01  -0.01     0.00  -0.00  -0.00     0.00  -0.00  -0.00
     9   8    -0.00   0.00   0.00    -0.00   0.00   0.00    -0.00   0.00   0.00
    10   6     0.01  -0.02   0.02    -0.07   0.01  -0.02    -0.01  -0.00   0.00
    11   8     0.00   0.01   0.01    -0.00  -0.00  -0.00    -0.00  -0.00  -0.00
    12   6    -0.03  -0.01  -0.00    -0.00   0.03  -0.01    -0.00   0.01  -0.01
    13   6     0.07   0.04   0.00    -0.04  -0.03   0.01    -0.00  -0.01   0.00
    14   6    -0.04  -0.03  -0.01     0.04   0.01   0.01     0.01   0.01  -0.00
    15   1    -0.04  -0.01  -0.03     0.06  -0.04   0.03     0.02  -0.01   0.02
    16   1    -0.09  -0.04  -0.01     0.08   0.02   0.01     0.00  -0.01   0.00
    17   1    -0.04  -0.02   0.01     0.05  -0.03   0.02     0.01  -0.02   0.01
    18   1     0.03  -0.02   0.02     0.00   0.03   0.03     0.01   0.02   0.01
    19   6    -0.01   0.02  -0.01     0.04  -0.01   0.01     0.01  -0.01   0.00
    20   6    -0.00   0.01   0.01    -0.00  -0.00  -0.00    -0.00   0.00  -0.00
    21   8    -0.00  -0.00   0.00    -0.00  -0.00  -0.00    -0.00  -0.00  -0.00
    22   6    -0.06  -0.02  -0.05    -0.00   0.01  -0.01     0.08  -0.11   0.22
    23   6     0.13   0.00   0.12     0.00  -0.01   0.01    -0.05   0.14  -0.16
    24   6    -0.09   0.06  -0.11     0.00  -0.00   0.00    -0.09  -0.13   0.05
    25   6     0.08  -0.09   0.17    -0.01   0.00  -0.02     0.17   0.05   0.08
    26   6    -0.03   0.04  -0.08     0.01  -0.00   0.01    -0.16  -0.02  -0.16
    27   1    -0.07   0.08  -0.11    -0.01  -0.01   0.01     0.21   0.25  -0.17
    28   7     0.02  -0.02  -0.02    -0.00   0.00   0.00    -0.00   0.00   0.00
    29   1     0.00  -0.01  -0.01    -0.00   0.00   0.00    -0.00  -0.00  -0.00
    30   1     0.03   0.07   0.06     0.11   0.39  -0.12    -0.02  -0.03  -0.08
    31   1     0.11  -0.01   0.01     0.34   0.01  -0.05    -0.07   0.01  -0.02
    32   1    -0.22  -0.02  -0.18    -0.00  -0.00   0.01     0.21   0.13   0.00
    33   7    -0.00  -0.00  -0.00     0.00   0.00  -0.01     0.00  -0.00  -0.00
    34   6    -0.01   0.00  -0.00    -0.04   0.02  -0.00    -0.01   0.01   0.00
    35   6     0.01   0.00  -0.01     0.05   0.01  -0.07     0.01  -0.01  -0.02
    36   1     0.04  -0.02   0.01     0.13  -0.05   0.04     0.06  -0.03  -0.02
    37   1     0.02  -0.02   0.01     0.18  -0.05   0.13     0.02  -0.06   0.01
    38   1     0.02  -0.03  -0.01     0.20  -0.14  -0.13     0.03  -0.04  -0.01
    39   1    -0.07   0.02   0.07    -0.24   0.09   0.36     0.05  -0.02   0.08
    40   1    -0.07  -0.01   0.04    -0.34  -0.09   0.20    -0.15   0.02   0.07
    41   1    -0.03  -0.04   0.07    -0.12  -0.15   0.33     0.04   0.06   0.15
    42   6    -0.00   0.00   0.00     0.00  -0.00  -0.00    -0.02   0.01   0.00
    43   6     0.00   0.00  -0.00     0.00  -0.00  -0.00    -0.00   0.00  -0.00
    44   6    -0.00   0.01   0.01    -0.00   0.00   0.00     0.00  -0.00  -0.00
    45   1     0.02  -0.00   0.01    -0.01   0.00  -0.00     0.18   0.01   0.08
    46   1     0.01  -0.02  -0.01    -0.01   0.00   0.01     0.13  -0.11  -0.13
    47   1    -0.01  -0.01   0.00    -0.00  -0.00  -0.00     0.01   0.01   0.01
    48   1    -0.00  -0.01   0.00    -0.00  -0.00   0.00    -0.00   0.01  -0.00
    49   1     0.04  -0.03  -0.04     0.00   0.00  -0.01    -0.01   0.02   0.01
    50   1     0.00  -0.04  -0.04    -0.00  -0.00  -0.01    -0.01   0.01   0.00
    51   1     0.01  -0.01  -0.07     0.00   0.00  -0.00    -0.00   0.00   0.02
    52   8     0.01   0.00   0.00    -0.00  -0.00  -0.00     0.00   0.00   0.00
    53   6     0.05   0.02   0.02    -0.00  -0.00  -0.00    -0.00  -0.00   0.00
    54   6    -0.00   0.00   0.00    -0.00  -0.00   0.00    -0.00   0.00   0.00
    55   6    -0.00  -0.05   0.02    -0.00   0.00  -0.00     0.00   0.00  -0.00
    56   6     0.00  -0.00  -0.06     0.00  -0.00   0.00    -0.00   0.00   0.00
    57   1    -0.21  -0.01  -0.08     0.00   0.00   0.00     0.00  -0.00   0.00
    58   1    -0.21  -0.07   0.00     0.00   0.00  -0.00    -0.00   0.00  -0.00
    59   1    -0.14  -0.17  -0.12     0.00   0.00   0.00     0.00   0.00  -0.00
    60   1     0.01   0.24  -0.00     0.00  -0.01   0.00    -0.00  -0.00  -0.00
    61   1     0.09   0.18  -0.13    -0.01  -0.01   0.01    -0.00  -0.00   0.00
    62   1    -0.05   0.20  -0.13     0.01  -0.01   0.00     0.00  -0.00   0.00
    63   1    -0.01   0.10   0.23    -0.00  -0.00  -0.01     0.00  -0.00  -0.00
    64   1     0.08  -0.05   0.24    -0.00   0.00  -0.01    -0.00  -0.00  -0.00
    65   1    -0.10  -0.03   0.24     0.00   0.00  -0.01     0.00  -0.00  -0.00
                    139                    140                    141
                      A                      A                      A
 Frequencies --   1439.6972              1456.1312              1459.2162
 Red. masses --      1.1262                 1.0623                 6.6126
 Frc consts  --      1.3753                 1.3271                 8.2958
 IR Inten    --      0.0000                 0.0000                 0.0000
  Atom  AN      X      Y      Z        X      Y      Z        X      Y      Z
     1  26     0.00  -0.00  -0.00    -0.00  -0.00   0.00     0.00  -0.01   0.00
     2   6    -0.00  -0.00   0.00     0.00   0.00   0.00     0.00   0.00   0.00
     3  46    -0.00  -0.00  -0.00     0.00  -0.00   0.00     0.00   0.00  -0.00
     4   6    -0.06  -0.03  -0.02    -0.00   0.00  -0.01    -0.07  -0.13   0.13
     5   1     0.01   0.02   0.00     0.00   0.01  -0.00     0.00   0.00  -0.01
     6   1     0.03  -0.02   0.01     0.00   0.00   0.00    -0.01   0.02  -0.01
     7   1     0.02   0.01  -0.00     0.01   0.01   0.00     0.00   0.00  -0.01
     8   6     0.00   0.00   0.00    -0.01   0.00   0.00    -0.03  -0.01  -0.01
     9   8     0.00  -0.00  -0.00    -0.00  -0.00  -0.00    -0.00  -0.00  -0.00
    10   6     0.00   0.01  -0.01     0.01   0.01  -0.00     0.13   0.44  -0.26
    11   8    -0.00  -0.00  -0.00     0.00   0.00   0.00     0.02   0.00   0.01
    12   6     0.00  -0.00   0.00     0.00  -0.00   0.00     0.07  -0.05   0.04
    13   6     0.00   0.01  -0.01     0.00   0.00  -0.00    -0.03   0.09  -0.08
    14   6    -0.00  -0.02   0.01    -0.00  -0.01   0.00     0.07  -0.29   0.18
    15   1    -0.01   0.01  -0.01    -0.00   0.00  -0.00    -0.11   0.14  -0.10
    16   1    -0.01   0.00  -0.01    -0.00   0.00  -0.00     0.04   0.15  -0.04
    17   1    -0.01   0.02  -0.01    -0.00   0.01  -0.01     0.05   0.43  -0.24
    18   1    -0.01  -0.01  -0.01     0.01   0.00   0.02     0.04   0.25  -0.07
    19   6    -0.00   0.00  -0.00    -0.00  -0.00  -0.00    -0.18  -0.09   0.01
    20   6     0.00   0.00  -0.00     0.00   0.00   0.00    -0.00   0.00   0.00
    21   8     0.00   0.00   0.00    -0.00  -0.00   0.00    -0.00  -0.00   0.00
    22   6     0.01  -0.00   0.01     0.00  -0.00   0.01    -0.00   0.01  -0.01
    23   6    -0.01   0.01  -0.01    -0.00   0.00  -0.00     0.02   0.01   0.01
    24   6    -0.00  -0.01   0.01    -0.00  -0.00   0.00    -0.02  -0.00  -0.00
    25   6     0.01   0.01   0.00     0.00   0.00   0.00     0.01   0.00   0.01
    26   6    -0.02  -0.01  -0.01    -0.01  -0.00  -0.00    -0.01  -0.00  -0.01
    27   1     0.02   0.01  -0.00     0.01   0.01  -0.00    -0.00  -0.00   0.00
    28   7    -0.00   0.00   0.00     0.01  -0.01  -0.01     0.01  -0.01  -0.01
    29   1     0.00   0.00  -0.00     0.00  -0.00  -0.00     0.00  -0.01  -0.00
    30   1     0.21   0.49   0.27     0.01   0.00   0.05    -0.10  -0.15  -0.05
    31   1     0.62  -0.05   0.06     0.02  -0.02   0.04    -0.16  -0.07   0.03
    32   1     0.02   0.01   0.01     0.01   0.00   0.00    -0.01   0.01  -0.01
    33   7    -0.01  -0.01  -0.00    -0.01  -0.01   0.01     0.01   0.01   0.00
    34   6     0.03  -0.02  -0.01    -0.02  -0.05   0.02    -0.01   0.01  -0.00
    35   6    -0.02  -0.01   0.04    -0.01   0.01   0.00    -0.00  -0.00  -0.02
    36   1    -0.12   0.05   0.11    -0.43   0.17  -0.24     0.07  -0.03   0.03
    37   1    -0.09   0.14  -0.06     0.33   0.17   0.26     0.00  -0.03   0.00
    38   1    -0.11   0.01   0.08     0.38   0.46  -0.33    -0.01  -0.07   0.01
    39   1     0.04  -0.02  -0.26     0.04  -0.01   0.04     0.03  -0.01   0.09
    40   1     0.16   0.15  -0.11     0.07  -0.13  -0.01    -0.04  -0.04   0.02
    41   1     0.05   0.05  -0.15    -0.02  -0.03  -0.11     0.01   0.03   0.05
    42   6    -0.00  -0.00   0.00     0.00   0.00   0.00    -0.00   0.00   0.00
    43   6    -0.00   0.00  -0.00    -0.00   0.00   0.00     0.00   0.00  -0.00
    44   6     0.00  -0.00  -0.00    -0.00  -0.00  -0.00     0.00   0.00   0.00
    45   1     0.01   0.00   0.00    -0.00   0.00  -0.00     0.02   0.00   0.01
    46   1     0.01  -0.00  -0.01    -0.00   0.00  -0.00     0.02  -0.00  -0.02
    47   1     0.00   0.00   0.00     0.00  -0.00  -0.00    -0.00  -0.00  -0.00
    48   1    -0.00   0.00   0.00     0.00  -0.00  -0.00    -0.00  -0.00   0.00
    49   1    -0.00  -0.00   0.00    -0.00   0.00   0.00     0.00  -0.00  -0.00
    50   1    -0.00   0.00   0.00     0.00  -0.00   0.00    -0.00   0.00   0.00
    51   1    -0.00  -0.00   0.00     0.00   0.00   0.00    -0.01  -0.00  -0.00
    52   8    -0.00  -0.00  -0.00     0.00   0.00   0.00     0.01   0.00   0.00
    53   6    -0.00  -0.00   0.00     0.00   0.00  -0.00    -0.00  -0.00   0.00
    54   6     0.00   0.00  -0.00    -0.00   0.00   0.00     0.00  -0.00  -0.00
    55   6     0.00  -0.00  -0.00    -0.00   0.00   0.00    -0.00  -0.00   0.00
    56   6    -0.00  -0.00   0.00     0.00   0.00  -0.00     0.00   0.00  -0.00
    57   1     0.00  -0.00  -0.00    -0.01   0.00   0.01     0.02  -0.00   0.00
    58   1    -0.00  -0.00   0.00     0.01   0.00  -0.00    -0.01   0.01  -0.00
    59   1     0.00   0.00   0.00    -0.00  -0.01   0.01    -0.00   0.01  -0.02
    60   1    -0.00  -0.00  -0.00     0.03   0.02   0.00    -0.00   0.01  -0.00
    61   1     0.00   0.00  -0.00    -0.02  -0.02  -0.01    -0.00  -0.00  -0.01
    62   1    -0.00   0.00   0.00     0.02  -0.01  -0.04     0.00  -0.00  -0.01
    63   1    -0.00  -0.00  -0.00    -0.01   0.00   0.00    -0.00   0.01   0.03
    64   1     0.00   0.00  -0.00    -0.00  -0.01   0.01    -0.02  -0.03   0.00
    65   1     0.00   0.00  -0.00    -0.00   0.00   0.00     0.01  -0.03   0.00
                    142                    143                    144
                      A                      A                      A
 Frequencies --   1468.7653              1473.3186              1482.4704
 Red. masses --      1.0599                 1.0608                 1.0588
 Frc consts  --      1.3472                 1.3567                 1.3709
 IR Inten    --      0.0000                 0.0000                 0.0000
  Atom  AN      X      Y      Z        X      Y      Z        X      Y      Z
     1  26    -0.00  -0.00  -0.00    -0.00  -0.00   0.00     0.00  -0.00  -0.00
     2   6     0.00   0.00  -0.00     0.00   0.00  -0.00    -0.00   0.00  -0.00
     3  46     0.00   0.00  -0.00     0.00  -0.00  -0.00    -0.00   0.00  -0.00
     4   6     0.00  -0.00   0.00     0.01   0.01   0.01    -0.00  -0.00   0.00
     5   1     0.00   0.00  -0.00     0.00   0.00  -0.00     0.00  -0.00  -0.00
     6   1    -0.00   0.00  -0.00    -0.00   0.01  -0.00    -0.00   0.00  -0.00
     7   1     0.00   0.00   0.00     0.01   0.02   0.01     0.00  -0.00  -0.00
     8   6    -0.00   0.00  -0.00    -0.01   0.00   0.00    -0.00   0.00  -0.00
     9   8     0.00  -0.00  -0.00    -0.00   0.00   0.00     0.00   0.00   0.00
    10   6     0.00   0.00  -0.00     0.00  -0.00   0.00     0.00   0.00  -0.00
    11   8     0.00  -0.00   0.00     0.00   0.00   0.00     0.00  -0.00   0.00
    12   6     0.00  -0.00   0.00    -0.00  -0.00   0.00     0.00   0.00  -0.00
    13   6    -0.00   0.00  -0.00     0.00   0.00   0.00    -0.00  -0.00  -0.00
    14   6     0.00  -0.00   0.00    -0.00   0.00  -0.00     0.00  -0.00   0.00
    15   1    -0.00   0.00  -0.00    -0.00  -0.00   0.00     0.00  -0.00  -0.00
    16   1     0.00   0.00  -0.00    -0.00  -0.00   0.00     0.00   0.00   0.00
    17   1     0.00   0.00  -0.00    -0.00  -0.00   0.00     0.00   0.00  -0.00
    18   1     0.00   0.00  -0.00    -0.01  -0.03   0.02     0.00   0.01  -0.00
    19   6    -0.00  -0.00   0.00     0.00   0.00  -0.00    -0.00  -0.00   0.00
    20   6    -0.00  -0.00  -0.00    -0.00   0.00   0.00    -0.00  -0.00   0.00
    21   8    -0.00  -0.00   0.00    -0.00  -0.00   0.00     0.00  -0.00   0.00
    22   6     0.00  -0.00   0.00     0.00  -0.00   0.00    -0.00   0.00  -0.00
    23   6     0.00   0.00  -0.00    -0.00   0.00  -0.00     0.00  -0.00   0.00
    24   6    -0.00  -0.00   0.00    -0.00  -0.00   0.00    -0.00   0.00   0.00
    25   6     0.00   0.00   0.00     0.00   0.00   0.00    -0.00   0.00  -0.00
    26   6    -0.00  -0.00  -0.00    -0.00  -0.00  -0.00     0.00   0.00   0.00
    27   1     0.00   0.00  -0.00     0.00   0.00  -0.00    -0.00  -0.00   0.00
    28   7     0.00  -0.00  -0.00     0.00  -0.00  -0.00     0.00  -0.00   0.00
    29   1     0.00   0.00  -0.00     0.00  -0.00  -0.00     0.00   0.00  -0.00
    30   1    -0.00  -0.01  -0.00    -0.05  -0.10  -0.05    -0.00  -0.00  -0.00
    31   1    -0.01   0.00  -0.00    -0.12   0.01   0.00    -0.00  -0.00   0.00
    32   1     0.00   0.00  -0.00     0.00   0.00   0.00    -0.00  -0.00  -0.00
    33   7     0.00   0.00  -0.00     0.00  -0.00  -0.01     0.00  -0.00   0.00
    34   6     0.00  -0.00  -0.00    -0.01  -0.02  -0.06     0.00   0.00   0.00
    35   6     0.00  -0.00   0.00     0.01   0.00   0.01     0.00  -0.00   0.00
    36   1    -0.00   0.00   0.04    -0.15   0.09   0.66     0.01  -0.01  -0.01
    37   1     0.00   0.03   0.00     0.18   0.54   0.16    -0.01  -0.02  -0.01
    38   1    -0.01  -0.03   0.01     0.06  -0.31  -0.02    -0.01  -0.00   0.01
    39   1    -0.01   0.00  -0.00    -0.13   0.04  -0.04    -0.02   0.01  -0.03
    40   1     0.00   0.00  -0.00     0.05   0.01  -0.02    -0.01   0.04  -0.01
    41   1    -0.00  -0.00   0.00    -0.08  -0.12  -0.04    -0.00  -0.01   0.02
    42   6     0.00  -0.00  -0.00    -0.00   0.00   0.00    -0.00   0.00   0.00
    43   6    -0.00  -0.00  -0.00    -0.00   0.00   0.00     0.00   0.00  -0.00
    44   6     0.00   0.00  -0.00    -0.00  -0.00   0.00     0.00  -0.00   0.00
    45   1    -0.00  -0.00  -0.00     0.00   0.00   0.00     0.00  -0.00   0.00
    46   1    -0.00  -0.00   0.00     0.00  -0.00  -0.00     0.00  -0.00  -0.00
    47   1     0.01   0.00   0.00    -0.00  -0.00  -0.00    -0.01  -0.00   0.00
    48   1    -0.00   0.01  -0.00     0.00  -0.00  -0.00     0.00  -0.01   0.00
    49   1    -0.01  -0.01   0.01    -0.00   0.00  -0.00     0.01   0.01  -0.02
    50   1     0.00   0.01   0.01     0.00  -0.00  -0.00    -0.01   0.00  -0.02
    51   1    -0.01  -0.00   0.01     0.00   0.00   0.00    -0.00  -0.00  -0.00
    52   8     0.00  -0.00   0.00     0.00   0.00   0.00     0.00  -0.00   0.00
    53   6     0.00   0.03  -0.04    -0.00  -0.00   0.00     0.00   0.02  -0.03
    54   6    -0.00   0.00  -0.00     0.00   0.00   0.00    -0.00   0.01  -0.02
    55   6     0.02   0.01   0.03    -0.00   0.00   0.00    -0.04  -0.00  -0.01
    56   6    -0.02  -0.03   0.00     0.00   0.00  -0.00     0.04  -0.00   0.00
    57   1    -0.30   0.07   0.09     0.02  -0.00   0.00    -0.26   0.06   0.08
    58   1     0.29  -0.14  -0.00    -0.02   0.02  -0.00     0.25  -0.10   0.00
    59   1    -0.03  -0.28   0.42    -0.00   0.01  -0.03    -0.03  -0.23   0.34
    60   1    -0.20   0.17  -0.01     0.03   0.02   0.00     0.45  -0.08   0.03
    61   1    -0.17  -0.10  -0.32    -0.01  -0.01  -0.00     0.07  -0.03   0.32
    62   1     0.13  -0.18  -0.05     0.02  -0.01  -0.03     0.04   0.10  -0.24
    63   1     0.21  -0.08  -0.14    -0.03   0.01   0.02    -0.40   0.03   0.01
    64   1     0.20   0.32  -0.02    -0.02  -0.04   0.01    -0.08  -0.21   0.13
    65   1    -0.13   0.13   0.13     0.01  -0.01  -0.01    -0.02   0.19  -0.16
                    145                    146                    147
                      A                      A                      A
 Frequencies --   1484.1242              1485.1703              1486.1664
 Red. masses --      1.0596                 1.0893                 1.0608
 Frc consts  --      1.3751                 1.4157                 1.3805
 IR Inten    --      0.0000                 0.0000                 0.0000
  Atom  AN      X      Y      Z        X      Y      Z        X      Y      Z
     1  26    -0.00  -0.00   0.00     0.00   0.00   0.00     0.00   0.00   0.00
     2   6    -0.00  -0.00   0.00    -0.00  -0.00  -0.00    -0.00  -0.00  -0.00
     3  46     0.00   0.00   0.00     0.00  -0.00  -0.00     0.00  -0.00  -0.00
     4   6     0.00   0.00   0.00    -0.00   0.00  -0.00    -0.00  -0.00   0.00
     5   1     0.00  -0.00  -0.00    -0.01  -0.02   0.01    -0.00  -0.00   0.00
     6   1    -0.01   0.01  -0.01     0.00  -0.01   0.01    -0.00  -0.00   0.00
     7   1     0.02   0.01   0.00    -0.01  -0.02   0.00    -0.00  -0.01   0.00
     8   6    -0.00  -0.00  -0.00     0.00  -0.00  -0.00    -0.01   0.00  -0.00
     9   8     0.00  -0.00  -0.00    -0.00   0.00   0.00    -0.00   0.00   0.00
    10   6    -0.00   0.01  -0.00     0.00  -0.00   0.00     0.00   0.00  -0.00
    11   8     0.00  -0.00   0.00    -0.00   0.00   0.00     0.00   0.00   0.00
    12   6     0.00   0.00   0.00     0.00   0.00  -0.00     0.00  -0.00   0.00
    13   6    -0.00  -0.00  -0.00    -0.00  -0.00   0.00    -0.00   0.00  -0.00
    14   6     0.00  -0.00   0.00    -0.00   0.00  -0.00    -0.00  -0.00   0.00
    15   1     0.00   0.00   0.00     0.00   0.00   0.01    -0.00   0.00   0.00
    16   1     0.00   0.00   0.00     0.00  -0.00   0.00     0.00   0.00   0.00
    17   1     0.00   0.00  -0.00    -0.00  -0.00   0.00    -0.00   0.00  -0.00
    18   1     0.00   0.01  -0.00     0.01  -0.00   0.00     0.00   0.01   0.00
    19   6    -0.00  -0.00   0.00    -0.00   0.00  -0.00    -0.00  -0.00  -0.00
    20   6     0.00   0.00  -0.00    -0.00   0.00  -0.00    -0.00   0.00   0.00
    21   8     0.00   0.00  -0.00    -0.00   0.00   0.00     0.00   0.00  -0.00
    22   6     0.00   0.00  -0.00    -0.01   0.01  -0.02    -0.00   0.00  -0.01
    23   6     0.00  -0.00   0.00     0.00  -0.01   0.01     0.00  -0.00   0.00
    24   6    -0.00  -0.00  -0.00     0.01   0.01  -0.00     0.00   0.00  -0.00
    25   6    -0.00   0.00  -0.00    -0.01   0.00  -0.01    -0.00   0.00  -0.00
    26   6     0.00  -0.00   0.00     0.01   0.00   0.01     0.00   0.00   0.00
    27   1    -0.00  -0.00   0.00    -0.05  -0.07   0.09    -0.01  -0.02   0.02
    28   7    -0.00   0.00  -0.00    -0.00   0.00   0.00     0.00  -0.00  -0.00
    29   1     0.00  -0.00  -0.00     0.00  -0.01  -0.01     0.00  -0.00  -0.00
    30   1    -0.04  -0.06  -0.07     0.00  -0.00   0.01    -0.00  -0.00   0.00
    31   1    -0.08  -0.00   0.01     0.00   0.00  -0.00    -0.00  -0.00   0.00
    32   1    -0.00  -0.00  -0.00    -0.02  -0.01  -0.00    -0.00  -0.00  -0.00
    33   7     0.01  -0.01   0.01     0.00   0.00   0.00     0.00   0.00   0.00
    34   6    -0.01   0.00   0.01     0.00   0.00   0.00    -0.00  -0.00   0.00
    35   6     0.04  -0.04   0.02     0.00   0.00   0.00     0.00   0.00   0.00
    36   1    -0.04   0.02  -0.13     0.00  -0.00  -0.01    -0.00   0.00   0.00
    37   1     0.04  -0.07   0.03    -0.00  -0.01  -0.00     0.00   0.00   0.00
    38   1     0.06   0.11  -0.06    -0.00   0.00   0.00     0.00   0.00  -0.00
    39   1    -0.42   0.13  -0.46    -0.01   0.00   0.01    -0.01   0.00   0.00
    40   1    -0.04   0.62  -0.10     0.02  -0.03  -0.00     0.01  -0.00  -0.00
    41   1    -0.13  -0.17   0.28    -0.01  -0.02  -0.02    -0.00  -0.01  -0.01
    42   6    -0.00   0.00   0.00    -0.06   0.01   0.02    -0.02   0.00   0.01
    43   6    -0.00  -0.00  -0.00    -0.01  -0.02  -0.01    -0.00   0.01   0.00
    44   6    -0.00  -0.00  -0.00     0.01  -0.02   0.00    -0.00  -0.01   0.00
    45   1     0.01   0.00   0.01     0.53   0.07   0.20     0.14   0.02   0.05
    46   1     0.01  -0.01  -0.01     0.43  -0.22  -0.46     0.11  -0.06  -0.12
    47   1     0.00   0.00   0.00     0.13   0.08   0.10    -0.04  -0.02  -0.04
    48   1    -0.00   0.00   0.00    -0.05   0.16   0.02     0.00  -0.06   0.00
    49   1    -0.00   0.00   0.00     0.04   0.11  -0.07     0.01   0.13  -0.04
    50   1     0.00  -0.00   0.00    -0.11   0.06  -0.08    -0.02  -0.03  -0.07
    51   1     0.00   0.00   0.00    -0.02  -0.00   0.08     0.09   0.05   0.05
    52   8     0.00   0.00  -0.00    -0.00  -0.00   0.00     0.00   0.00  -0.00
    53   6     0.00  -0.00   0.00     0.00  -0.00  -0.01    -0.02   0.02   0.03
    54   6    -0.00  -0.00   0.00     0.00   0.00  -0.00     0.00  -0.01   0.01
    55   6     0.00   0.00   0.00     0.00  -0.00   0.00     0.01   0.00   0.00
    56   6    -0.00  -0.00  -0.00    -0.00   0.01  -0.00     0.03  -0.04  -0.00
    57   1     0.02   0.00   0.01    -0.05   0.03   0.08     0.20  -0.16  -0.40
    58   1    -0.03   0.02  -0.00     0.03   0.07  -0.00    -0.06  -0.35   0.02
    59   1    -0.00   0.02  -0.03    -0.02  -0.05   0.03     0.11   0.22  -0.07
    60   1    -0.01   0.01  -0.00    -0.05   0.02  -0.00    -0.06   0.03  -0.00
    61   1    -0.01  -0.01  -0.02    -0.02  -0.00  -0.06    -0.04  -0.02  -0.07
    62   1     0.01  -0.01  -0.01     0.01  -0.02   0.01     0.02  -0.05   0.02
    63   1     0.03  -0.00  -0.00     0.02   0.03   0.08    -0.31  -0.05  -0.18
    64   1     0.01   0.02  -0.01    -0.09  -0.10  -0.04     0.17   0.11   0.20
    65   1    -0.00  -0.01   0.01     0.08  -0.14  -0.03    -0.21   0.46  -0.03
                    148                    149                    150
                      A                      A                      A
 Frequencies --   1486.4982              1487.9970              1494.6680
 Red. masses --      1.0622                 1.0649                 1.0807
 Frc consts  --      1.3829                 1.3892                 1.4224
 IR Inten    --      0.0000                 0.0000                 0.0000
  Atom  AN      X      Y      Z        X      Y      Z        X      Y      Z
     1  26     0.00   0.00   0.00    -0.00   0.00   0.00    -0.00  -0.00  -0.00
     2   6     0.00  -0.00  -0.00     0.00   0.00   0.00     0.00   0.00   0.00
     3  46    -0.00   0.00   0.00     0.00  -0.00   0.00     0.00   0.00   0.00
     4   6    -0.00  -0.00   0.00     0.00   0.00   0.00     0.00  -0.00   0.00
     5   1    -0.00  -0.00   0.00    -0.00  -0.00   0.00     0.00   0.00  -0.00
     6   1     0.00  -0.00   0.00    -0.00  -0.00   0.00    -0.00   0.00  -0.00
     7   1    -0.00  -0.00   0.00     0.00   0.00   0.00     0.00   0.00  -0.00
     8   6    -0.01   0.00   0.00    -0.02   0.00   0.00    -0.01  -0.00  -0.00
     9   8    -0.00   0.00   0.00     0.00  -0.00  -0.00     0.00  -0.00  -0.00
    10   6     0.00   0.00  -0.00     0.00   0.00  -0.00     0.00   0.00  -0.00
    11   8     0.00  -0.00   0.00     0.00   0.00   0.00     0.00   0.00   0.00
    12   6     0.00  -0.00   0.00     0.00  -0.00   0.00    -0.00   0.00  -0.00
    13   6    -0.00   0.00  -0.00     0.00   0.00  -0.00    -0.00  -0.00   0.00
    14   6    -0.00  -0.00  -0.00    -0.00  -0.00   0.00     0.00   0.00   0.00
    15   1    -0.00   0.00   0.00    -0.00   0.00   0.00     0.01  -0.01   0.00
    16   1    -0.00   0.00  -0.00    -0.00   0.00  -0.00     0.00  -0.00   0.00
    17   1    -0.00   0.00  -0.00    -0.00   0.00  -0.00     0.00  -0.00   0.00
    18   1     0.00   0.00  -0.00     0.00   0.01   0.01     0.00   0.01   0.00
    19   6    -0.00   0.00  -0.00    -0.00  -0.00  -0.00    -0.00  -0.00   0.00
    20   6    -0.00   0.00   0.00    -0.00   0.00   0.00    -0.00   0.00  -0.00
    21   8    -0.00  -0.00   0.00    -0.00   0.00   0.00    -0.00  -0.00  -0.00
    22   6    -0.00   0.00  -0.00    -0.00   0.00  -0.00     0.00  -0.00   0.00
    23   6     0.00  -0.00   0.00     0.00  -0.00   0.00    -0.00   0.00  -0.00
    24   6     0.00   0.00  -0.00     0.00   0.00  -0.00    -0.00  -0.00  -0.00
    25   6    -0.00  -0.00  -0.00    -0.00   0.00  -0.00     0.00  -0.00   0.00
    26   6     0.00   0.00   0.00     0.00  -0.00   0.00    -0.00  -0.00  -0.00
    27   1    -0.01  -0.01   0.01    -0.00  -0.01   0.01     0.01   0.01  -0.01
    28   7     0.00  -0.01  -0.00     0.01  -0.01  -0.01     0.00  -0.00  -0.00
    29   1     0.00  -0.01  -0.00     0.00  -0.00  -0.00    -0.00  -0.03   0.01
    30   1     0.00   0.00   0.00    -0.00  -0.01  -0.00    -0.00  -0.00  -0.00
    31   1     0.00   0.00  -0.00    -0.01  -0.00   0.00    -0.00  -0.00   0.00
    32   1    -0.00  -0.00  -0.00    -0.00  -0.00  -0.00     0.00   0.00  -0.00
    33   7    -0.00   0.00  -0.00     0.00  -0.00  -0.00     0.00  -0.00  -0.00
    34   6     0.00   0.00  -0.00    -0.00  -0.00  -0.00    -0.00  -0.00  -0.00
    35   6    -0.00   0.00  -0.00     0.00   0.00   0.00    -0.00  -0.00  -0.00
    36   1     0.01  -0.00   0.01    -0.02   0.01   0.03    -0.00   0.00   0.00
    37   1    -0.01   0.00  -0.01     0.03   0.04   0.02     0.00   0.00   0.00
    38   1    -0.01  -0.01   0.01     0.03   0.00  -0.02     0.00  -0.00  -0.00
    39   1     0.01  -0.00   0.02    -0.03   0.01  -0.01     0.00  -0.00  -0.00
    40   1     0.00  -0.02   0.00     0.01   0.00  -0.01    -0.00   0.00   0.00
    41   1     0.00   0.01  -0.01    -0.02  -0.03  -0.01     0.00   0.00   0.00
    42   6    -0.01   0.00   0.00    -0.01   0.00   0.00     0.01  -0.01  -0.00
    43   6    -0.00  -0.00  -0.00    -0.00   0.00   0.00    -0.02  -0.06  -0.03
    44   6    -0.00  -0.00  -0.00     0.00  -0.00  -0.00     0.00   0.02   0.00
    45   1     0.08   0.01   0.03     0.05   0.01   0.02    -0.09  -0.02  -0.03
    46   1     0.06  -0.03  -0.07     0.04  -0.02  -0.04    -0.07   0.05   0.07
    47   1     0.03   0.02   0.02    -0.00  -0.00  -0.01     0.44   0.25   0.39
    48   1    -0.01   0.04  -0.00    -0.00  -0.01   0.00    -0.10   0.64   0.00
    49   1    -0.01   0.04   0.01     0.00   0.02  -0.01    -0.00  -0.24   0.05
    50   1     0.01  -0.02  -0.00    -0.01   0.01  -0.01     0.07  -0.00   0.10
    51   1     0.04   0.02   0.02     0.00   0.00   0.02    -0.11  -0.07  -0.15
    52   8     0.00   0.00   0.00     0.00   0.00   0.00     0.00   0.00   0.00
    53   6     0.02  -0.03   0.00    -0.00   0.03  -0.00    -0.00   0.01   0.01
    54   6    -0.02  -0.02   0.00    -0.01  -0.00  -0.02     0.00  -0.00   0.00
    55   6    -0.04   0.01  -0.00     0.01  -0.02  -0.05     0.00  -0.00  -0.00
    56   6    -0.02  -0.03   0.00    -0.02  -0.01   0.01     0.01  -0.01  -0.00
    57   1     0.07   0.06   0.20    -0.08  -0.04  -0.15     0.04  -0.03  -0.09
    58   1    -0.17   0.30  -0.01     0.13  -0.23   0.01    -0.00  -0.08   0.00
    59   1    -0.06   0.02  -0.23     0.03  -0.05   0.18     0.02   0.05  -0.01
    60   1     0.42  -0.03   0.03    -0.04  -0.29  -0.00    -0.01  -0.01  -0.00
    61   1     0.00  -0.09   0.24     0.30   0.25   0.35     0.01   0.01   0.01
    62   1     0.09   0.04  -0.27    -0.32   0.32   0.33    -0.01   0.01   0.01
    63   1     0.22  -0.10  -0.20     0.27  -0.05  -0.06    -0.06  -0.01  -0.03
    64   1     0.26   0.39  -0.01     0.10   0.22  -0.09     0.03   0.01   0.04
    65   1    -0.18   0.18   0.18    -0.03  -0.05   0.13    -0.04   0.08  -0.01
                    151                    152                    153
                      A                      A                      A
 Frequencies --   1502.0139              1503.2797              1504.3300
 Red. masses --      1.0583                 1.0662                 1.0598
 Frc consts  --      1.4067                 1.4196                 1.4131
 IR Inten    --      0.0000                 0.0000                 0.0000
  Atom  AN      X      Y      Z        X      Y      Z        X      Y      Z
     1  26     0.00   0.00  -0.00     0.00  -0.00  -0.00    -0.00   0.00   0.00
     2   6    -0.00  -0.00  -0.00     0.00   0.00   0.00    -0.00  -0.00  -0.00
     3  46     0.00  -0.00   0.00    -0.00  -0.00   0.00     0.00  -0.00  -0.00
     4   6     0.01   0.00   0.00    -0.00  -0.00  -0.00     0.00   0.00   0.00
     5   1    -0.01  -0.01   0.00     0.00   0.00  -0.00    -0.00  -0.00   0.00
     6   1    -0.01  -0.00  -0.00     0.00   0.00  -0.00    -0.00  -0.00   0.00
     7   1    -0.06  -0.08  -0.03     0.01   0.01   0.00    -0.01  -0.01  -0.00
     8   6    -0.00   0.00   0.00     0.00   0.00   0.00    -0.01  -0.00  -0.00
     9   8     0.00   0.00   0.00     0.00  -0.00  -0.00    -0.00   0.00   0.00
    10   6    -0.01  -0.00   0.00     0.00   0.00  -0.00    -0.00   0.00  -0.00
    11   8    -0.00  -0.00  -0.00    -0.00  -0.00  -0.00     0.00   0.00   0.00
    12   6    -0.00   0.00  -0.00    -0.00  -0.00   0.00     0.00   0.00  -0.00
    13   6     0.00  -0.00   0.00     0.00   0.00  -0.00    -0.00  -0.00   0.00
    14   6     0.00   0.00  -0.00    -0.00  -0.00   0.00     0.00   0.00  -0.00
    15   1     0.00  -0.00  -0.00    -0.01   0.01  -0.01     0.01  -0.00   0.01
    16   1     0.00  -0.00   0.00    -0.00   0.00  -0.00     0.00   0.00   0.00
    17   1     0.00  -0.00   0.00    -0.00   0.00  -0.00     0.00  -0.00   0.00
    18   1    -0.00  -0.01   0.01    -0.01  -0.01  -0.00     0.00   0.01   0.00
    19   6     0.00   0.00   0.00    -0.00   0.00  -0.00     0.00  -0.00   0.00
    20   6    -0.00   0.00   0.00    -0.00   0.00   0.00     0.00   0.00   0.00
    21   8     0.00   0.00   0.00    -0.00  -0.00  -0.00     0.00   0.00   0.00
    22   6    -0.01   0.00  -0.01     0.00  -0.00   0.01    -0.00   0.00  -0.00
    23   6     0.01  -0.00   0.01    -0.00   0.00  -0.00     0.00  -0.00   0.00
    24   6     0.00   0.00  -0.00    -0.00  -0.00   0.00     0.00   0.00  -0.00
    25   6    -0.01  -0.00  -0.00     0.00   0.00   0.00    -0.00  -0.00  -0.00
    26   6     0.01   0.00   0.01    -0.00  -0.00  -0.00     0.00   0.00   0.00
    27   1    -0.01  -0.01   0.01     0.01   0.02  -0.03    -0.01  -0.01   0.01
    28   7     0.00  -0.00  -0.00     0.00   0.00  -0.00     0.00  -0.00  -0.00
    29   1     0.00  -0.00  -0.00     0.00  -0.00  -0.01    -0.00   0.00   0.00
    30   1    -0.00   0.01  -0.05     0.00  -0.00   0.00    -0.00  -0.00  -0.01
    31   1    -0.01  -0.00   0.01     0.00   0.00  -0.00    -0.00  -0.00   0.00
    32   1    -0.01  -0.00  -0.01     0.00   0.00   0.00    -0.00  -0.00  -0.00
    33   7    -0.01  -0.01  -0.01     0.00   0.00   0.00    -0.00  -0.00  -0.00
    34   6    -0.00  -0.01  -0.01    -0.00   0.00   0.00    -0.00  -0.00  -0.00
    35   6    -0.03  -0.04  -0.03     0.00   0.00   0.00    -0.00  -0.00  -0.00
    36   1    -0.09   0.04   0.10     0.00  -0.00  -0.01    -0.02   0.01   0.01
    37   1     0.08   0.12   0.06    -0.00  -0.01  -0.00     0.02   0.02   0.01
    38   1     0.07  -0.02  -0.05    -0.00   0.00   0.00     0.02   0.00  -0.01
    39   1     0.42  -0.15  -0.11    -0.04   0.01   0.01     0.04  -0.01  -0.01
    40   1    -0.32   0.29   0.10     0.03  -0.02  -0.01    -0.03   0.03   0.01
    41   1     0.35   0.49   0.37    -0.03  -0.04  -0.03     0.03   0.04   0.03
    42   6     0.00   0.00  -0.00     0.02  -0.00  -0.01    -0.01   0.00   0.00
    43   6    -0.00  -0.00   0.00    -0.01  -0.03   0.00     0.00   0.01  -0.00
    44   6     0.00  -0.01   0.00    -0.01  -0.04   0.02    -0.01   0.02  -0.02
    45   1     0.00  -0.00   0.00    -0.15  -0.03  -0.05     0.08   0.02   0.03
    46   1     0.00   0.00  -0.00    -0.12   0.07   0.13     0.07  -0.03  -0.08
    47   1     0.02   0.01   0.01     0.14   0.06   0.07    -0.06  -0.02  -0.02
    48   1    -0.00   0.02  -0.00    -0.01   0.18  -0.02     0.01  -0.08   0.00
    49   1     0.02   0.07  -0.04     0.11   0.53  -0.24    -0.11  -0.22   0.18
    50   1    -0.04   0.00  -0.05    -0.21  -0.04  -0.34     0.23  -0.09   0.21
    51   1     0.02   0.01   0.04     0.23   0.14   0.26     0.05  -0.00  -0.16
    52   8     0.00  -0.00  -0.00    -0.00   0.00   0.00    -0.00   0.00   0.00
    53   6    -0.00   0.00   0.00     0.01  -0.01  -0.01     0.01  -0.02  -0.02
    54   6    -0.00   0.00   0.00     0.01  -0.01  -0.01     0.02  -0.01  -0.01
    55   6    -0.00  -0.00  -0.00     0.01  -0.00  -0.01     0.02  -0.00  -0.02
    56   6    -0.00   0.00  -0.00     0.01  -0.01   0.00     0.02  -0.02   0.01
    57   1     0.00  -0.01  -0.02    -0.06   0.08   0.20    -0.06   0.12   0.32
    58   1     0.00  -0.02   0.00    -0.01   0.21  -0.01    -0.03   0.34  -0.02
    59   1     0.00   0.00   0.01    -0.06  -0.08  -0.03    -0.09  -0.12  -0.07
    60   1     0.01  -0.00   0.00    -0.16  -0.05  -0.01    -0.29  -0.10  -0.02
    61   1     0.00  -0.00   0.01     0.04   0.07  -0.04     0.09   0.14  -0.05
    62   1     0.00   0.00  -0.01    -0.08   0.02   0.16    -0.15   0.05   0.29
    63   1     0.02   0.00   0.01    -0.12  -0.01  -0.04    -0.29  -0.02  -0.11
    64   1    -0.00   0.00  -0.01     0.02  -0.01   0.06     0.06  -0.01   0.15
    65   1     0.01  -0.02   0.01    -0.04   0.12  -0.04    -0.11   0.30  -0.08
                    154                    155                    156
                      A                      A                      A
 Frequencies --   1509.1817              1640.0039              1715.6217
 Red. masses --      1.0574                 7.4281                12.8739
 Frc consts  --      1.4189                11.7711                22.3256
 IR Inten    --      0.0000                 0.0000                 0.0000
  Atom  AN      X      Y      Z        X      Y      Z        X      Y      Z
     1  26     0.00  -0.00   0.00    -0.00   0.00  -0.00     0.00  -0.00  -0.00
     2   6    -0.00  -0.00  -0.00    -0.00  -0.01  -0.01     0.14   0.59   0.58
     3  46    -0.00  -0.00   0.00    -0.00   0.00   0.00    -0.00  -0.00   0.00
     4   6    -0.00  -0.00  -0.00     0.00   0.00  -0.00    -0.00  -0.00  -0.00
     5   1     0.00  -0.00   0.00     0.00  -0.00  -0.00    -0.00  -0.00   0.00
     6   1     0.00  -0.00   0.00     0.00  -0.00  -0.00    -0.00  -0.00  -0.00
     7   1    -0.00  -0.00   0.00     0.00  -0.00  -0.00    -0.01   0.01   0.00
     8   6     0.00   0.00   0.00    -0.19   0.47   0.32    -0.00   0.02   0.01
     9   8     0.00   0.00   0.00     0.00   0.01   0.01    -0.03  -0.29  -0.40
    10   6    -0.00  -0.00   0.00    -0.02  -0.00  -0.00    -0.01   0.00  -0.00
    11   8    -0.00  -0.00  -0.00    -0.01  -0.15  -0.11    -0.00  -0.00  -0.00
    12   6     0.00  -0.00   0.00    -0.00   0.01  -0.01    -0.00   0.00  -0.00
    13   6    -0.00   0.00  -0.00    -0.00   0.00  -0.00     0.00  -0.00   0.00
    14   6     0.00  -0.00   0.00    -0.00  -0.00   0.00     0.00  -0.00   0.00
    15   1    -0.01   0.01  -0.00     0.01   0.00   0.01     0.00  -0.00   0.00
    16   1     0.00   0.00  -0.00    -0.00   0.00   0.00     0.01   0.00  -0.00
    17   1    -0.00   0.00  -0.00    -0.00   0.00   0.00     0.00  -0.01  -0.00
    18   1    -0.01  -0.00  -0.00    -0.58   0.24  -0.01     0.02  -0.02  -0.02
    19   6    -0.00  -0.00   0.00     0.04  -0.03   0.01     0.00   0.00   0.00
    20   6     0.00   0.00   0.00     0.01   0.04   0.05    -0.01  -0.01  -0.01
    21   8     0.00   0.00   0.00     0.00   0.00   0.00    -0.07  -0.13  -0.02
    22   6    -0.00   0.00  -0.00    -0.00  -0.00   0.00     0.00   0.00  -0.00
    23   6    -0.00  -0.00   0.00    -0.00  -0.00  -0.00    -0.00  -0.00   0.00
    24   6     0.00   0.00   0.00     0.00   0.00   0.00     0.00   0.00  -0.00
    25   6    -0.00   0.00  -0.00    -0.00   0.00  -0.00    -0.00  -0.00   0.00
    26   6     0.00   0.00   0.00     0.00   0.00   0.00     0.00  -0.00  -0.00
    27   1    -0.00  -0.00   0.00     0.00  -0.01  -0.00    -0.02   0.00   0.01
    28   7    -0.00  -0.00  -0.00     0.20  -0.25  -0.18     0.01  -0.01  -0.02
    29   1    -0.00  -0.00   0.00     0.02  -0.03  -0.01    -0.01   0.02   0.08
    30   1     0.00   0.00   0.00     0.00   0.01  -0.01     0.00   0.01  -0.01
    31   1     0.00  -0.00  -0.00    -0.01   0.00   0.00     0.00  -0.00  -0.00
    32   1     0.00  -0.00   0.00     0.00  -0.00   0.00     0.00   0.00   0.00
    33   7     0.00   0.00   0.00     0.00  -0.00  -0.00     0.00   0.00  -0.00
    34   6     0.00   0.00   0.00    -0.00   0.00   0.00     0.00   0.00  -0.00
    35   6     0.00   0.00   0.00     0.00  -0.00   0.00    -0.00   0.00   0.00
    36   1     0.01  -0.00  -0.00     0.03  -0.01  -0.01     0.01  -0.01   0.01
    37   1    -0.01  -0.01  -0.00    -0.05  -0.04  -0.04    -0.01  -0.01  -0.00
    38   1    -0.01  -0.00   0.00    -0.03  -0.01   0.03    -0.00  -0.03   0.00
    39   1    -0.00   0.00   0.00     0.00   0.00  -0.00     0.00  -0.00   0.01
    40   1     0.00  -0.00  -0.00    -0.00   0.01  -0.00    -0.02  -0.01   0.01
    41   1    -0.00  -0.00  -0.00     0.00   0.00  -0.00     0.00   0.00   0.00
    42   6    -0.00   0.00   0.00    -0.00   0.01   0.00    -0.01   0.01  -0.00
    43   6    -0.02  -0.01  -0.00    -0.00  -0.00   0.00     0.00  -0.00  -0.00
    44   6    -0.06  -0.01  -0.02     0.00   0.00  -0.00    -0.00   0.00   0.00
    45   1     0.02   0.00   0.01     0.01   0.01   0.01     0.02  -0.05   0.06
    46   1     0.03   0.00  -0.03     0.01  -0.00  -0.01     0.03  -0.02  -0.01
    47   1     0.05   0.03   0.04     0.00  -0.00  -0.01    -0.01  -0.00   0.01
    48   1     0.00   0.05  -0.03     0.00  -0.00  -0.00    -0.00  -0.00   0.01
    49   1    -0.20   0.21   0.19    -0.01  -0.00   0.01     0.00   0.00  -0.00
    50   1     0.42  -0.40   0.12    -0.01   0.01   0.00     0.00  -0.01  -0.01
    51   1     0.61   0.27  -0.07    -0.03  -0.01   0.02     0.01   0.00  -0.01
    52   8     0.00  -0.00  -0.00    -0.01  -0.03  -0.02    -0.00  -0.00  -0.00
    53   6    -0.00   0.01   0.00    -0.00  -0.01  -0.00    -0.00  -0.00  -0.00
    54   6    -0.00   0.01   0.00     0.03   0.02   0.01     0.00  -0.00  -0.00
    55   6    -0.01   0.00   0.00    -0.01   0.01   0.00    -0.00   0.00   0.00
    56   6    -0.01   0.01  -0.00    -0.01   0.00   0.01    -0.00   0.00   0.00
    57   1    -0.02  -0.02  -0.07    -0.01  -0.00   0.00    -0.00   0.00   0.00
    58   1     0.03  -0.09   0.00    -0.01   0.00  -0.00     0.00   0.00  -0.00
    59   1     0.02  -0.00   0.05     0.01   0.01   0.00    -0.00  -0.00  -0.00
    60   1     0.06   0.02   0.00    -0.01   0.00   0.00     0.01  -0.00  -0.00
    61   1    -0.02  -0.03   0.01    -0.04  -0.04  -0.04    -0.00  -0.00   0.00
    62   1     0.04  -0.02  -0.06     0.06  -0.12   0.01     0.01  -0.01  -0.01
    63   1     0.08   0.02   0.06    -0.01   0.00  -0.00    -0.00   0.00   0.00
    64   1    -0.05  -0.04  -0.05    -0.04  -0.04  -0.03    -0.00  -0.00   0.00
    65   1     0.06  -0.13   0.01     0.06  -0.04  -0.12     0.00  -0.00  -0.01
                    157                    158                    159
                      A                      A                      A
 Frequencies --   2868.1849              2877.7029              2895.1824
 Red. masses --      1.0735                 1.0712                 1.0689
 Frc consts  --      5.2029                 5.2267                 5.2790
 IR Inten    --      0.0000                 0.0000                 0.0000
  Atom  AN      X      Y      Z        X      Y      Z        X      Y      Z
     1  26     0.00   0.00  -0.00    -0.00  -0.00   0.00     0.00   0.00   0.00
     2   6     0.00   0.00   0.00     0.00   0.00   0.00     0.00  -0.00  -0.00
     3  46     0.00  -0.00   0.00     0.00  -0.00  -0.00     0.00   0.00  -0.00
     4   6    -0.00   0.02   0.01     0.00  -0.07  -0.02    -0.00   0.00   0.00
     5   1    -0.00   0.00  -0.00     0.00   0.00   0.00    -0.00  -0.00  -0.00
     6   1    -0.00  -0.00   0.00     0.00   0.00  -0.00    -0.00  -0.00  -0.00
     7   1    -0.00   0.00  -0.00    -0.00   0.00  -0.00     0.00  -0.00   0.00
     8   6     0.00  -0.00  -0.00     0.00  -0.00  -0.00    -0.00   0.00   0.00
     9   8    -0.00  -0.00  -0.00    -0.00  -0.00  -0.00    -0.00   0.00   0.00
    10   6    -0.00   0.00   0.00     0.00  -0.00   0.00     0.00   0.00   0.00
    11   8    -0.00   0.00   0.00    -0.00   0.00   0.00     0.00  -0.00  -0.00
    12   6     0.00   0.00  -0.00     0.00   0.00   0.00    -0.00  -0.00  -0.00
    13   6     0.00  -0.00   0.00    -0.00   0.00  -0.00     0.00  -0.00   0.00
    14   6     0.00  -0.00   0.00    -0.00   0.00  -0.00     0.00   0.00   0.00
    15   1    -0.00  -0.00  -0.00    -0.00  -0.00   0.00     0.00  -0.00  -0.00
    16   1    -0.00   0.00  -0.00     0.00  -0.00   0.00    -0.00   0.00   0.00
    17   1    -0.00  -0.00  -0.00    -0.00  -0.00  -0.00    -0.00   0.00  -0.00
    18   1     0.00  -0.00  -0.00     0.00  -0.00  -0.00    -0.00   0.00   0.00
    19   6    -0.00  -0.00   0.00     0.00   0.00  -0.00    -0.00   0.00   0.00
    20   6    -0.00   0.00   0.00    -0.00   0.00  -0.00     0.02   0.00   0.00
    21   8    -0.00  -0.00  -0.00    -0.00  -0.00   0.00     0.00   0.00   0.00
    22   6     0.00   0.00   0.00     0.00  -0.00   0.00    -0.00  -0.00   0.00
    23   6    -0.00   0.00  -0.00     0.00  -0.00  -0.00    -0.00   0.00  -0.00
    24   6     0.00  -0.00   0.00    -0.00   0.00  -0.00     0.00  -0.00   0.00
    25   6     0.00   0.00  -0.00    -0.00  -0.00   0.00     0.00   0.00  -0.00
    26   6     0.00  -0.00   0.00     0.00   0.00   0.00     0.00   0.00  -0.00
    27   1    -0.00  -0.00  -0.00    -0.00  -0.00  -0.00    -0.00  -0.00   0.00
    28   7    -0.00   0.00   0.00    -0.00   0.00   0.00     0.00   0.00   0.00
    29   1     0.00   0.00   0.00     0.00   0.00   0.00    -0.23  -0.01  -0.06
    30   1     0.01   0.00  -0.00    -0.03  -0.02  -0.01     0.00   0.00   0.00
    31   1    -0.00  -0.20  -0.07     0.02   0.91   0.33    -0.00  -0.01  -0.00
    32   1    -0.00  -0.00   0.00     0.00   0.00  -0.00    -0.00  -0.00   0.00
    33   7     0.00  -0.00   0.00    -0.00  -0.00  -0.00    -0.00   0.00   0.00
    34   6    -0.04  -0.06  -0.00    -0.01  -0.01   0.00     0.00   0.00   0.00
    35   6    -0.00   0.00  -0.00     0.00   0.01   0.00    -0.00  -0.00  -0.00
    36   1     0.39   0.88  -0.03     0.08   0.19  -0.01    -0.00  -0.00   0.00
    37   1     0.00  -0.03  -0.04     0.01  -0.01  -0.02    -0.00  -0.00   0.00
    38   1     0.03  -0.02   0.08    -0.02  -0.01  -0.02    -0.01  -0.00  -0.01
    39   1    -0.01  -0.03  -0.00    -0.03  -0.11  -0.00     0.00   0.01  -0.00
    40   1     0.00   0.00   0.01    -0.00   0.00  -0.01    -0.00  -0.00  -0.00
    41   1     0.01  -0.01   0.00     0.01   0.00   0.00     0.00  -0.00  -0.00
    42   6    -0.00  -0.00  -0.00    -0.00  -0.00  -0.00    -0.05  -0.01  -0.05
    43   6     0.00  -0.00   0.00     0.00  -0.00   0.00     0.00  -0.00   0.00
    44   6    -0.00  -0.00   0.00    -0.00  -0.00   0.00     0.00   0.00   0.00
    45   1    -0.00   0.00   0.00    -0.00  -0.00  -0.00    -0.01  -0.03  -0.05
    46   1     0.00   0.00   0.00     0.01   0.00   0.01     0.72   0.17   0.62
    47   1    -0.00   0.00  -0.00    -0.00   0.00  -0.00    -0.01   0.03  -0.00
    48   1     0.00  -0.00   0.00     0.00  -0.00   0.00    -0.05  -0.01  -0.03
    49   1     0.00   0.00   0.00    -0.00  -0.00  -0.00    -0.01  -0.00  -0.01
    50   1     0.00   0.00  -0.00     0.00   0.00  -0.00    -0.01  -0.00   0.00
    51   1     0.00   0.00  -0.00     0.00   0.00  -0.00     0.00  -0.00   0.00
    52   8    -0.00   0.00   0.00    -0.00   0.00   0.00     0.00  -0.00  -0.00
    53   6    -0.00   0.00   0.00    -0.00   0.00   0.00     0.00   0.00   0.00
    54   6     0.00  -0.00  -0.00     0.00  -0.00  -0.00     0.00  -0.00  -0.00
    55   6    -0.00   0.00   0.00    -0.00   0.00   0.00     0.00  -0.00   0.00
    56   6    -0.00   0.00   0.00    -0.00   0.00   0.00     0.00  -0.00   0.00
    57   1     0.00  -0.00   0.00     0.00  -0.00   0.00    -0.00  -0.00  -0.00
    58   1     0.00  -0.00   0.00     0.00  -0.00  -0.00     0.00  -0.00  -0.00
    59   1     0.00  -0.00  -0.00     0.00  -0.00  -0.00     0.00  -0.00   0.00
    60   1     0.00  -0.00  -0.00     0.00  -0.00  -0.00     0.00  -0.00   0.00
    61   1     0.00  -0.00  -0.00     0.00  -0.00  -0.00    -0.00   0.00   0.00
    62   1     0.00  -0.00   0.00     0.00   0.00   0.00    -0.00  -0.00  -0.00
    63   1     0.00  -0.00   0.00     0.00  -0.00   0.00    -0.00   0.00  -0.00
    64   1     0.00  -0.00  -0.00     0.00  -0.00  -0.00    -0.00   0.00   0.00
    65   1     0.00  -0.00  -0.00     0.00  -0.00  -0.00    -0.00  -0.00  -0.00
                    160                    161                    162
                      A                      A                      A
 Frequencies --   2902.8247              2909.8789              2920.6817
 Red. masses --      1.0705                 1.0743                 1.0661
 Frc consts  --      5.3148                 5.3597                 5.3584
 IR Inten    --      0.0000                 0.0000                 0.0000
  Atom  AN      X      Y      Z        X      Y      Z        X      Y      Z
     1  26     0.00   0.00  -0.00     0.00   0.00   0.00     0.00  -0.00   0.00
     2   6     0.00   0.00   0.00    -0.00  -0.00  -0.00     0.00   0.00   0.00
     3  46     0.00   0.00   0.00    -0.00  -0.00  -0.00    -0.00   0.00  -0.00
     4   6     0.00  -0.01  -0.00     0.00   0.00   0.00     0.00  -0.00  -0.00
     5   1    -0.00   0.00  -0.00    -0.00  -0.00  -0.00    -0.00  -0.00  -0.00
     6   1     0.00   0.00   0.00    -0.00  -0.00  -0.00    -0.00  -0.00  -0.00
     7   1    -0.00   0.00  -0.00     0.00  -0.00   0.00    -0.00   0.00  -0.00
     8   6     0.00  -0.00  -0.00    -0.00  -0.00  -0.00     0.00   0.00  -0.00
     9   8    -0.00  -0.00  -0.00     0.00   0.00   0.00    -0.00  -0.00  -0.00
    10   6     0.00  -0.00  -0.00     0.00   0.00   0.00    -0.00  -0.00  -0.00
    11   8    -0.00   0.00   0.00     0.00   0.00   0.00    -0.00  -0.00   0.00
    12   6     0.00   0.00  -0.00    -0.00  -0.00  -0.00    -0.00  -0.00  -0.00
    13   6    -0.00   0.00  -0.00     0.00  -0.00   0.00     0.00  -0.00   0.00
    14   6     0.00   0.00  -0.00     0.00   0.00   0.00     0.00   0.00   0.00
    15   1    -0.00  -0.00   0.00     0.00   0.00  -0.00     0.00   0.00  -0.00
    16   1     0.00  -0.00   0.00    -0.00   0.00   0.00    -0.00   0.00  -0.00
    17   1    -0.00  -0.00   0.00    -0.00   0.00   0.00    -0.00  -0.00  -0.00
    18   1     0.00  -0.00  -0.00    -0.00   0.00   0.00     0.00  -0.00  -0.00
    19   6    -0.00   0.00  -0.00    -0.00  -0.00   0.00    -0.00   0.00   0.00
    20   6    -0.00  -0.00  -0.00    -0.07  -0.00  -0.02     0.00   0.00   0.00
    21   8    -0.00  -0.00  -0.00     0.00   0.00   0.00    -0.00  -0.00  -0.00
    22   6     0.00   0.00   0.00    -0.00  -0.00   0.00    -0.00  -0.00  -0.00
    23   6    -0.00   0.00  -0.00    -0.00  -0.00  -0.00    -0.00  -0.00   0.00
    24   6     0.00   0.00   0.00     0.00  -0.00   0.00     0.00  -0.00   0.00
    25   6    -0.00  -0.00  -0.00     0.00   0.00   0.00     0.00   0.00  -0.00
    26   6    -0.00  -0.00   0.00    -0.00   0.00  -0.00     0.00  -0.00   0.00
    27   1    -0.00  -0.00  -0.00     0.00  -0.00   0.00     0.00   0.00   0.00
    28   7    -0.00  -0.00  -0.00    -0.00  -0.00  -0.00     0.00   0.00   0.00
    29   1     0.04   0.00   0.01     0.94   0.05   0.23    -0.01  -0.00  -0.00
    30   1    -0.01  -0.00   0.00    -0.00   0.00   0.00    -0.01   0.00  -0.00
    31   1     0.00   0.10   0.04    -0.00  -0.01  -0.00     0.00   0.04   0.01
    32   1     0.00   0.00  -0.00    -0.00  -0.00   0.00     0.00   0.00  -0.00
    33   7    -0.00  -0.00   0.00     0.00   0.00  -0.00    -0.00   0.00  -0.00
    34   6    -0.00  -0.00  -0.00    -0.00   0.00  -0.00    -0.04  -0.00  -0.06
    35   6    -0.02  -0.07  -0.01     0.00   0.00   0.00     0.00   0.00   0.00
    36   1     0.02   0.05  -0.00    -0.00  -0.01   0.00    -0.05  -0.09  -0.03
    37   1    -0.01  -0.00   0.02     0.00   0.00  -0.00     0.01  -0.00  -0.06
    38   1     0.02   0.00   0.03     0.00   0.00   0.00     0.55   0.12   0.81
    39   1     0.31   0.94  -0.00    -0.01  -0.04   0.00    -0.01  -0.03  -0.00
    40   1     0.02  -0.03   0.03    -0.00   0.00  -0.00    -0.01  -0.00  -0.02
    41   1    -0.04  -0.02  -0.01     0.00   0.00   0.00    -0.00   0.01   0.00
    42   6    -0.00  -0.00  -0.00    -0.02  -0.00  -0.01    -0.00  -0.00  -0.00
    43   6     0.00  -0.00   0.00     0.00  -0.00   0.00     0.00  -0.00   0.00
    44   6    -0.00  -0.00   0.00     0.00  -0.00   0.00    -0.00   0.00   0.00
    45   1    -0.00   0.00   0.00    -0.00  -0.01  -0.01    -0.00   0.00   0.00
    46   1     0.00   0.00   0.00     0.17   0.04   0.15     0.01   0.00   0.01
    47   1    -0.00   0.00  -0.00    -0.01   0.03  -0.01    -0.00   0.00  -0.00
    48   1    -0.00  -0.00  -0.00    -0.04  -0.00  -0.03     0.00  -0.00   0.00
    49   1    -0.00  -0.00  -0.00    -0.00  -0.00  -0.00    -0.00  -0.00  -0.00
    50   1     0.00   0.00  -0.00     0.00  -0.00   0.00     0.00   0.00  -0.00
    51   1     0.00   0.00  -0.00     0.00   0.00  -0.00     0.00  -0.00   0.00
    52   8    -0.00   0.00   0.00     0.00   0.00   0.00    -0.00  -0.00  -0.00
    53   6    -0.00   0.00   0.00    -0.00   0.00   0.00    -0.00  -0.00   0.00
    54   6     0.00  -0.00  -0.00     0.00   0.00  -0.00     0.00   0.00  -0.00
    55   6    -0.00   0.00   0.00    -0.00   0.00   0.00    -0.00   0.00   0.00
    56   6    -0.00   0.00   0.00    -0.00   0.00   0.00     0.00  -0.00   0.00
    57   1     0.00   0.00  -0.00     0.00   0.00  -0.00    -0.00  -0.00  -0.00
    58   1     0.00  -0.00   0.00     0.00   0.00  -0.00     0.00  -0.00  -0.00
    59   1     0.00  -0.00  -0.00     0.00  -0.00  -0.00    -0.00  -0.00   0.00
    60   1     0.00  -0.00  -0.00     0.00  -0.00  -0.00     0.00  -0.00  -0.00
    61   1     0.00  -0.00  -0.00     0.00  -0.00  -0.00     0.00  -0.00  -0.00
    62   1     0.00  -0.00   0.00     0.00   0.00   0.00    -0.00  -0.00  -0.00
    63   1     0.00  -0.00  -0.00    -0.00  -0.00   0.00    -0.00   0.00  -0.00
    64   1     0.00  -0.00  -0.00     0.00  -0.00  -0.00    -0.00   0.00   0.00
    65   1    -0.00  -0.00  -0.00     0.00   0.00   0.00     0.00   0.00  -0.00
                    163                    164                    165
                      A                      A                      A
 Frequencies --   2957.3967              2969.6515              2971.4338
 Red. masses --      1.0828                 1.0761                 1.0722
 Frc consts  --      5.5795                 5.5916                 5.5776
 IR Inten    --      0.0000                 0.0000                 0.0000
  Atom  AN      X      Y      Z        X      Y      Z        X      Y      Z
     1  26    -0.00   0.00  -0.00     0.00   0.00   0.00     0.00   0.00   0.00
     2   6     0.00   0.00  -0.00     0.00  -0.00  -0.00    -0.00  -0.00  -0.00
     3  46     0.00   0.00   0.00     0.00  -0.00   0.00    -0.00  -0.00  -0.00
     4   6    -0.00   0.00   0.00     0.00   0.00   0.00    -0.00  -0.00   0.00
     5   1     0.00  -0.00   0.00    -0.00   0.00  -0.00     0.00   0.00   0.00
     6   1     0.00   0.00  -0.00    -0.00  -0.00  -0.00     0.00   0.00  -0.00
     7   1     0.00  -0.00   0.00    -0.00   0.00  -0.00     0.00  -0.00   0.00
     8   6     0.00   0.00   0.00    -0.00   0.00  -0.00    -0.00   0.00   0.00
     9   8    -0.00  -0.00  -0.00    -0.00   0.00   0.00     0.00   0.00   0.00
    10   6     0.00   0.00  -0.00     0.00   0.00   0.00    -0.00  -0.00   0.00
    11   8    -0.00  -0.00  -0.00    -0.00  -0.00  -0.00     0.00   0.00  -0.00
    12   6    -0.00  -0.00   0.00    -0.00  -0.00  -0.00     0.00   0.00  -0.00
    13   6    -0.00   0.00  -0.00     0.00  -0.00   0.00    -0.00   0.00  -0.00
    14   6    -0.00  -0.00  -0.00     0.00   0.00   0.00    -0.00  -0.00  -0.00
    15   1     0.00   0.00  -0.00     0.00   0.00   0.00    -0.00  -0.00  -0.00
    16   1     0.00  -0.00   0.00    -0.00   0.00   0.00     0.00  -0.00   0.00
    17   1     0.00   0.00   0.00    -0.00   0.00   0.00     0.00  -0.00  -0.00
    18   1     0.00  -0.00   0.00     0.00  -0.00   0.00     0.00   0.01  -0.00
    19   6    -0.00   0.00  -0.00    -0.00   0.00   0.00     0.00   0.00  -0.00
    20   6     0.00   0.00   0.00     0.00  -0.00  -0.00    -0.00  -0.00  -0.00
    21   8    -0.00  -0.00   0.00    -0.00  -0.00   0.00     0.00  -0.00   0.00
    22   6     0.00   0.00   0.00    -0.00  -0.00  -0.00     0.00   0.00   0.00
    23   6     0.00   0.00  -0.00     0.00   0.00  -0.00     0.00   0.00  -0.00
    24   6    -0.00  -0.00  -0.00     0.00  -0.00   0.00    -0.00   0.00  -0.00
    25   6    -0.00   0.00   0.00     0.00   0.00  -0.00    -0.00  -0.00   0.00
    26   6    -0.00   0.00   0.00     0.00   0.00   0.00    -0.00   0.00  -0.00
    27   1    -0.00  -0.00  -0.00     0.01   0.00   0.01    -0.00  -0.00  -0.00
    28   7    -0.00   0.00  -0.00     0.00   0.00   0.00     0.00  -0.00  -0.00
    29   1    -0.03  -0.00  -0.01    -0.01  -0.00  -0.00     0.00   0.00   0.00
    30   1     0.00  -0.00  -0.00     0.00  -0.00   0.00     0.03  -0.01  -0.01
    31   1    -0.00  -0.00  -0.00    -0.00  -0.00  -0.00     0.00   0.02   0.01
    32   1    -0.00  -0.00   0.00    -0.00  -0.00   0.00    -0.00  -0.00   0.00
    33   7    -0.00  -0.00   0.00    -0.00   0.00   0.00     0.00  -0.00  -0.00
    34   6     0.00   0.00   0.00    -0.00  -0.00   0.01     0.04   0.00  -0.06
    35   6     0.00   0.00  -0.00    -0.00  -0.00  -0.00     0.00   0.00   0.00
    36   1    -0.00  -0.00   0.00    -0.00  -0.00   0.00     0.03   0.04  -0.03
    37   1     0.00   0.00   0.00     0.05   0.01  -0.07    -0.56  -0.09   0.81
    38   1    -0.00  -0.00  -0.00    -0.01  -0.00  -0.00     0.03   0.01   0.01
    39   1    -0.00  -0.00   0.00     0.00   0.00  -0.00    -0.01  -0.02   0.00
    40   1     0.00   0.00  -0.00     0.00   0.00   0.00    -0.01  -0.00  -0.02
    41   1     0.00  -0.00   0.00     0.00  -0.00  -0.00     0.00  -0.00   0.00
    42   6    -0.00   0.01   0.02     0.02  -0.04  -0.06     0.00  -0.00  -0.00
    43   6     0.04  -0.06   0.03     0.02  -0.01   0.01     0.00  -0.00   0.00
    44   6    -0.00   0.00  -0.00    -0.00   0.00  -0.00    -0.00   0.00  -0.00
    45   1     0.08  -0.13  -0.19    -0.31   0.51   0.74    -0.03   0.04   0.06
    46   1    -0.04  -0.01  -0.03     0.02  -0.01  -0.02    -0.00  -0.00  -0.00
    47   1    -0.35   0.85  -0.18    -0.06   0.17  -0.03    -0.00   0.01  -0.00
    48   1    -0.17  -0.06  -0.13    -0.17  -0.03  -0.13    -0.02  -0.00  -0.02
    49   1     0.04   0.01   0.03     0.01   0.00   0.01     0.00   0.00   0.00
    50   1    -0.02  -0.01   0.01    -0.01  -0.00   0.00    -0.00  -0.00   0.00
    51   1     0.02  -0.05   0.01     0.01  -0.02   0.00     0.00  -0.00   0.00
    52   8    -0.00  -0.00  -0.00    -0.00  -0.00   0.00     0.00  -0.00  -0.00
    53   6     0.00  -0.00  -0.00     0.00  -0.00  -0.00     0.00  -0.00  -0.00
    54   6    -0.00   0.00   0.00    -0.00   0.00  -0.00     0.00   0.00   0.00
    55   6     0.00  -0.00  -0.00     0.00  -0.00  -0.00     0.00   0.00  -0.00
    56   6     0.00  -0.00  -0.00     0.00  -0.00   0.00     0.00  -0.00   0.00
    57   1    -0.00   0.00  -0.00    -0.00   0.00  -0.00     0.00   0.00  -0.00
    58   1    -0.00  -0.00   0.00    -0.00  -0.00   0.00    -0.00  -0.00   0.00
    59   1    -0.00   0.00   0.00    -0.00   0.00   0.00    -0.00   0.00  -0.00
    60   1    -0.00   0.00   0.00     0.00   0.00   0.00    -0.00   0.00   0.00
    61   1    -0.00   0.00   0.00    -0.00   0.00   0.00    -0.00   0.00   0.00
    62   1     0.00   0.00  -0.00    -0.00   0.00  -0.00    -0.00  -0.00  -0.00
    63   1     0.00   0.00  -0.00     0.00   0.00  -0.00     0.00   0.00  -0.00
    64   1    -0.00   0.00   0.00    -0.00   0.00   0.00    -0.00   0.00   0.00
    65   1    -0.00  -0.00  -0.00    -0.00  -0.00  -0.00    -0.00  -0.00  -0.00
                    166                    167                    168
                      A                      A                      A
 Frequencies --   2985.9681              3003.9729              3011.3659
 Red. masses --      1.0614                 1.0708                 1.0672
 Frc consts  --      5.5757                 5.6930                 5.7021
 IR Inten    --      0.0000                 0.0000                 0.0000
  Atom  AN      X      Y      Z        X      Y      Z        X      Y      Z
     1  26     0.00   0.00   0.00    -0.00   0.00   0.00    -0.00  -0.00   0.00
     2   6    -0.00  -0.00  -0.00    -0.00   0.00   0.00     0.00   0.00   0.00
     3  46     0.00   0.00  -0.00    -0.00  -0.00  -0.00     0.00   0.00  -0.00
     4   6    -0.00   0.00   0.00    -0.07   0.02   0.01    -0.01   0.00   0.00
     5   1    -0.00   0.00  -0.00     0.00   0.00  -0.00    -0.00  -0.00  -0.00
     6   1    -0.00  -0.00  -0.00    -0.00   0.00   0.00    -0.00   0.00   0.00
     7   1     0.00  -0.00   0.00     0.00  -0.00   0.00     0.00  -0.00   0.01
     8   6    -0.00   0.00   0.00     0.00   0.00   0.00    -0.00   0.00   0.00
     9   8     0.00   0.00   0.00     0.00  -0.00  -0.00    -0.00  -0.00  -0.00
    10   6     0.00   0.00   0.00    -0.00  -0.00   0.00    -0.00  -0.00   0.00
    11   8     0.00  -0.00  -0.00     0.00  -0.00  -0.00     0.00   0.00   0.00
    12   6    -0.00  -0.00  -0.00     0.00   0.00  -0.00    -0.00   0.00   0.00
    13   6     0.00  -0.00   0.00    -0.00  -0.00   0.00    -0.00  -0.00   0.00
    14   6     0.00   0.00   0.00     0.00   0.00  -0.00     0.00   0.00   0.00
    15   1     0.00   0.00  -0.00    -0.00  -0.00  -0.00     0.00   0.00  -0.00
    16   1    -0.00   0.00  -0.00     0.00  -0.00   0.00    -0.00   0.00   0.00
    17   1     0.00   0.00   0.00    -0.01  -0.00  -0.00    -0.00  -0.00  -0.00
    18   1     0.00   0.00   0.00    -0.00  -0.00  -0.00    -0.00  -0.00   0.00
    19   6    -0.00   0.00  -0.00     0.00   0.00   0.00     0.00   0.00   0.00
    20   6    -0.00  -0.00  -0.00    -0.00   0.00  -0.00     0.00  -0.00   0.00
    21   8     0.00   0.00   0.00    -0.00  -0.00   0.00    -0.00  -0.00   0.00
    22   6    -0.00  -0.00  -0.00    -0.00  -0.00  -0.00     0.00  -0.00   0.00
    23   6    -0.00  -0.00  -0.00     0.00  -0.00   0.00    -0.00  -0.00   0.00
    24   6     0.00  -0.00   0.00    -0.00  -0.00  -0.00     0.00  -0.00   0.00
    25   6     0.00   0.00  -0.00     0.00   0.00   0.00     0.00   0.00   0.00
    26   6     0.00   0.00  -0.00    -0.00  -0.00  -0.00    -0.00   0.00  -0.00
    27   1     0.00   0.00   0.00     0.00   0.00   0.00    -0.00  -0.00  -0.00
    28   7     0.00  -0.00  -0.00    -0.00  -0.00   0.00     0.00  -0.00  -0.00
    29   1     0.02  -0.00   0.01     0.00   0.00   0.00    -0.00  -0.00  -0.00
    30   1     0.00  -0.00  -0.00     0.90  -0.32  -0.18     0.20  -0.07  -0.04
    31   1    -0.00  -0.00  -0.00    -0.03   0.04   0.02    -0.01   0.02   0.01
    32   1    -0.00  -0.00   0.00     0.00   0.00  -0.00     0.00   0.00  -0.00
    33   7    -0.00  -0.00  -0.00    -0.00   0.00  -0.00    -0.00   0.00  -0.00
    34   6     0.00   0.00  -0.00    -0.00  -0.00   0.00     0.00   0.00  -0.00
    35   6    -0.00   0.00  -0.00     0.01  -0.00   0.01    -0.03  -0.01  -0.06
    36   1    -0.00  -0.00  -0.00    -0.00  -0.01   0.00    -0.00  -0.01  -0.00
    37   1    -0.00  -0.00   0.01     0.02   0.00  -0.03    -0.01  -0.00   0.01
    38   1    -0.00  -0.00  -0.00    -0.00   0.00  -0.00     0.01   0.00   0.02
    39   1    -0.00  -0.00   0.00     0.01   0.02   0.01    -0.03  -0.05  -0.02
    40   1     0.00   0.00   0.00    -0.11  -0.04  -0.19     0.48   0.18   0.82
    41   1     0.00  -0.00  -0.00    -0.05   0.05   0.00    -0.05   0.02  -0.03
    42   6    -0.00  -0.01  -0.01    -0.00   0.00   0.00    -0.00   0.00   0.00
    43   6    -0.05  -0.03  -0.04     0.00   0.00   0.00     0.00   0.00   0.00
    44   6     0.01   0.01   0.00     0.00  -0.00   0.00    -0.00  -0.00   0.00
    45   1    -0.05   0.08   0.12     0.00  -0.00  -0.00     0.00  -0.00  -0.00
    46   1     0.04   0.01   0.03    -0.00   0.00   0.00     0.00   0.00   0.00
    47   1    -0.13   0.24  -0.07     0.00  -0.00   0.00     0.00  -0.00   0.00
    48   1     0.73   0.08   0.56    -0.00  -0.00  -0.00    -0.00  -0.00  -0.00
    49   1    -0.14  -0.02  -0.11    -0.00  -0.00  -0.00    -0.00  -0.00  -0.00
    50   1    -0.05  -0.05   0.04     0.00   0.00  -0.00     0.00   0.00  -0.00
    51   1     0.01  -0.00   0.00    -0.00   0.00  -0.00     0.00  -0.00   0.00
    52   8     0.00   0.00   0.00    -0.00  -0.00  -0.00    -0.00  -0.00  -0.00
    53   6    -0.00   0.00   0.00    -0.00  -0.00  -0.00     0.00  -0.00   0.00
    54   6    -0.00   0.00   0.00     0.00  -0.00  -0.00    -0.00   0.00   0.00
    55   6     0.00  -0.00   0.00    -0.00   0.00   0.00     0.00   0.00   0.00
    56   6     0.00  -0.00   0.00    -0.00  -0.00   0.00     0.00  -0.00   0.00
    57   1    -0.00  -0.00   0.00     0.00   0.00  -0.00    -0.00   0.00  -0.00
    58   1     0.00   0.00  -0.00    -0.00  -0.00   0.00     0.00  -0.00  -0.00
    59   1     0.00  -0.00  -0.00     0.00  -0.00  -0.00    -0.00   0.00   0.00
    60   1     0.00  -0.00  -0.00    -0.00  -0.00  -0.00     0.00  -0.00  -0.00
    61   1    -0.00   0.00   0.00     0.00  -0.00  -0.00     0.00  -0.00  -0.00
    62   1     0.00   0.00   0.00     0.00   0.00   0.00    -0.00  -0.00  -0.00
    63   1     0.00   0.00  -0.00     0.00   0.00  -0.00     0.00   0.00  -0.00
    64   1    -0.00   0.00   0.00     0.00  -0.00  -0.00    -0.00   0.00   0.00
    65   1    -0.00  -0.00   0.00     0.00   0.00   0.00    -0.00  -0.00  -0.00
                    169                    170                    171
                      A                      A                      A
 Frequencies --   3018.1566              3027.1052              3030.1517
 Red. masses --      1.0824                 1.0628                 1.0825
 Frc consts  --      5.8094                 5.7379                 5.8558
 IR Inten    --      0.0000                 0.0000                 0.0000
  Atom  AN      X      Y      Z        X      Y      Z        X      Y      Z
     1  26     0.00  -0.00  -0.00    -0.00  -0.00  -0.00     0.00  -0.00   0.00
     2   6    -0.00  -0.00  -0.00     0.00   0.00  -0.00     0.00   0.00   0.00
     3  46     0.00   0.00  -0.00     0.00   0.00   0.00    -0.00   0.00  -0.00
     4   6    -0.00   0.00   0.00     0.00   0.00   0.00    -0.00   0.00   0.00
     5   1    -0.00  -0.00  -0.00     0.00  -0.00   0.00    -0.00   0.00  -0.00
     6   1     0.00   0.00   0.00     0.00   0.00  -0.00     0.00   0.00   0.00
     7   1    -0.00  -0.00   0.00     0.00  -0.00   0.00    -0.00  -0.00   0.00
     8   6    -0.00   0.00  -0.00    -0.00   0.00   0.00    -0.00   0.00  -0.00
     9   8     0.00   0.00   0.00    -0.00   0.00   0.00     0.00  -0.00  -0.00
    10   6     0.00   0.00   0.00     0.00  -0.00   0.00     0.00   0.00  -0.00
    11   8     0.00  -0.00   0.00    -0.00  -0.00  -0.00    -0.00  -0.00   0.00
    12   6     0.00   0.00  -0.00    -0.00  -0.00   0.00    -0.00  -0.00   0.00
    13   6     0.00   0.00  -0.00     0.00  -0.00   0.00     0.00  -0.00   0.00
    14   6    -0.00   0.00   0.00    -0.00   0.00  -0.00    -0.00   0.00  -0.00
    15   1    -0.00  -0.00   0.00     0.00   0.00   0.00     0.00   0.00  -0.00
    16   1     0.00  -0.00   0.00    -0.00   0.00  -0.00    -0.00   0.00  -0.00
    17   1     0.00   0.00   0.00     0.00   0.00   0.00     0.00   0.00   0.00
    18   1    -0.00   0.00  -0.00     0.00   0.00   0.00     0.00   0.00  -0.00
    19   6     0.00   0.00   0.00    -0.00   0.00  -0.00    -0.00   0.00   0.00
    20   6    -0.00  -0.00  -0.00     0.00   0.00   0.00    -0.00  -0.00  -0.00
    21   8     0.00   0.00   0.00    -0.00  -0.00   0.00    -0.00  -0.00   0.00
    22   6    -0.00  -0.00  -0.00     0.00   0.00   0.00    -0.00   0.00  -0.00
    23   6    -0.00  -0.00   0.00    -0.00  -0.00   0.00    -0.00  -0.00   0.00
    24   6     0.00   0.00   0.00    -0.00   0.00  -0.00     0.00   0.00   0.00
    25   6    -0.00  -0.00  -0.00    -0.00  -0.00  -0.00    -0.00  -0.00  -0.00
    26   6     0.00   0.00  -0.00     0.00   0.00  -0.00     0.00  -0.00   0.00
    27   1     0.00   0.00   0.00    -0.00  -0.00  -0.00     0.00   0.00   0.00
    28   7     0.00  -0.00   0.00     0.00  -0.00   0.00    -0.00  -0.00   0.00
    29   1     0.01  -0.00   0.00    -0.00  -0.00  -0.00     0.00   0.00   0.00
    30   1     0.00  -0.00  -0.00    -0.00   0.00   0.00     0.00  -0.00  -0.00
    31   1    -0.00  -0.00  -0.00     0.00  -0.00  -0.00    -0.00   0.00   0.00
    32   1     0.00   0.00  -0.00     0.00   0.00  -0.00     0.00   0.00  -0.00
    33   7     0.00   0.00  -0.00    -0.00  -0.00   0.00     0.00  -0.00  -0.00
    34   6     0.00   0.00   0.00     0.00   0.00   0.00    -0.00  -0.00   0.00
    35   6     0.00  -0.00   0.00     0.00   0.00   0.00     0.00  -0.00  -0.00
    36   1    -0.00  -0.00   0.00    -0.00  -0.00   0.00    -0.00  -0.00   0.00
    37   1     0.00   0.00  -0.00    -0.00   0.00   0.00     0.00   0.00  -0.00
    38   1    -0.00   0.00   0.00    -0.00   0.00  -0.00     0.00   0.00   0.00
    39   1    -0.00  -0.00   0.00    -0.00  -0.00   0.00    -0.00  -0.00  -0.00
    40   1    -0.00  -0.00  -0.00    -0.00  -0.00  -0.00     0.00   0.00   0.00
    41   1    -0.00   0.00  -0.00     0.00  -0.00   0.00    -0.00   0.00  -0.00
    42   6    -0.00  -0.00  -0.00     0.00  -0.00  -0.00    -0.00  -0.00  -0.00
    43   6    -0.01  -0.00  -0.01    -0.00  -0.01   0.00    -0.00  -0.00  -0.00
    44   6    -0.07  -0.02  -0.04    -0.03  -0.04   0.04    -0.00  -0.00   0.00
    45   1    -0.01   0.02   0.02    -0.00   0.00   0.01    -0.00   0.00   0.00
    46   1     0.02   0.01   0.02     0.00   0.00   0.00     0.00   0.00   0.00
    47   1    -0.01   0.01  -0.01    -0.02   0.05  -0.01    -0.00   0.00  -0.00
    48   1     0.15   0.02   0.12     0.02   0.00   0.02     0.00   0.00   0.00
    49   1     0.74   0.10   0.58    -0.22  -0.05  -0.14    -0.01  -0.00  -0.00
    50   1     0.14   0.15  -0.13     0.65   0.56  -0.41     0.02   0.02  -0.01
    51   1    -0.03  -0.02  -0.01    -0.04   0.03   0.01    -0.00   0.01  -0.00
    52   8     0.00   0.00   0.00     0.00  -0.00  -0.00    -0.00  -0.00   0.00
    53   6    -0.00   0.00   0.00     0.00   0.00  -0.00    -0.00  -0.01   0.02
    54   6    -0.00  -0.00  -0.00    -0.00  -0.00   0.00     0.00   0.00  -0.00
    55   6     0.00   0.00   0.00     0.00  -0.00  -0.00    -0.00  -0.01  -0.06
    56   6     0.00  -0.00  -0.00    -0.00  -0.01   0.00     0.00   0.04  -0.01
    57   1     0.00  -0.00   0.00     0.00  -0.00   0.00     0.01   0.17  -0.06
    58   1     0.00  -0.00  -0.01    -0.00   0.00   0.01     0.01  -0.01  -0.17
    59   1     0.00  -0.00  -0.00    -0.00   0.00   0.00    -0.00  -0.00   0.01
    60   1     0.00  -0.00  -0.00    -0.00   0.00   0.01    -0.05   0.04   0.78
    61   1    -0.00   0.00   0.00    -0.00   0.00   0.00    -0.04   0.02  -0.02
    62   1    -0.00  -0.00  -0.00    -0.00  -0.00  -0.00     0.09   0.04   0.01
    63   1     0.00  -0.00  -0.00     0.00   0.07  -0.02    -0.04  -0.51   0.18
    64   1    -0.01   0.01   0.00     0.00  -0.00  -0.00     0.06  -0.02  -0.03
    65   1    -0.01  -0.00  -0.00     0.00  -0.00   0.00    -0.08  -0.02  -0.03
                    172                    173                    174
                      A                      A                      A
 Frequencies --   3032.1614              3040.7755              3044.2837
 Red. masses --      1.0696                 1.0823                 1.0816
 Frc consts  --      5.7941                 5.8962                 5.9057
 IR Inten    --      0.0000                 0.0000                 0.0000
  Atom  AN      X      Y      Z        X      Y      Z        X      Y      Z
     1  26     0.00   0.00   0.00    -0.00   0.00  -0.00    -0.00   0.00  -0.00
     2   6    -0.00   0.00   0.00    -0.00  -0.00  -0.00    -0.00  -0.00  -0.00
     3  46    -0.00  -0.00  -0.00     0.00  -0.00   0.00     0.00  -0.00  -0.00
     4   6     0.00  -0.00  -0.00     0.00  -0.00   0.00     0.00   0.00   0.00
     5   1    -0.00   0.00  -0.00     0.00  -0.00   0.00    -0.00  -0.00  -0.00
     6   1    -0.00  -0.00  -0.00     0.00   0.00  -0.00    -0.00  -0.00  -0.00
     7   1     0.00  -0.00   0.00     0.00  -0.00   0.00     0.00  -0.00   0.00
     8   6     0.00  -0.00  -0.00     0.00  -0.00   0.00     0.00  -0.00  -0.00
     9   8     0.00  -0.00  -0.00    -0.00   0.00   0.00     0.00   0.00   0.00
    10   6     0.00  -0.00   0.00    -0.00  -0.00   0.00     0.00   0.00   0.00
    11   8    -0.00   0.00   0.00     0.00   0.00  -0.00    -0.00   0.00   0.00
    12   6     0.00   0.00  -0.00     0.00   0.00   0.00    -0.00  -0.00   0.00
    13   6    -0.00   0.00  -0.00    -0.00   0.00  -0.00    -0.00   0.00  -0.00
    14   6     0.00  -0.00   0.00     0.00  -0.00   0.00    -0.00  -0.00  -0.00
    15   1    -0.00  -0.00   0.00    -0.00  -0.00   0.00     0.00   0.00   0.00
    16   1     0.00  -0.00   0.00     0.00  -0.00   0.00     0.00  -0.00   0.00
    17   1    -0.00   0.00   0.00    -0.00   0.00  -0.00     0.00   0.00   0.00
    18   1     0.00  -0.00  -0.00     0.00  -0.00   0.00     0.00  -0.00   0.00
    19   6    -0.00   0.00  -0.00     0.00  -0.00  -0.00    -0.00   0.00  -0.00
    20   6    -0.00  -0.00  -0.00     0.00   0.00   0.00     0.00  -0.00   0.00
    21   8     0.00   0.00  -0.00     0.00   0.00  -0.00     0.00   0.00   0.00
    22   6    -0.00  -0.00  -0.00    -0.00  -0.00   0.00    -0.00  -0.00  -0.00
    23   6    -0.00  -0.00  -0.00     0.00   0.00  -0.00    -0.00  -0.00   0.00
    24   6     0.00  -0.00   0.00    -0.00  -0.00  -0.00     0.00   0.00  -0.00
    25   6     0.00   0.00   0.00     0.00  -0.00   0.00    -0.00  -0.00   0.00
    26   6    -0.00   0.00  -0.00    -0.00   0.00  -0.00     0.00   0.00  -0.00
    27   1     0.00   0.00   0.00    -0.00  -0.00  -0.00     0.00   0.00   0.00
    28   7    -0.00   0.00   0.00    -0.00   0.00  -0.00    -0.00   0.00   0.00
    29   1     0.00   0.00   0.00    -0.00  -0.00  -0.00    -0.00  -0.00  -0.00
    30   1    -0.00   0.00   0.00    -0.00   0.00   0.00    -0.00   0.00   0.00
    31   1     0.00   0.00   0.00     0.00  -0.00  -0.00     0.00  -0.00  -0.00
    32   1     0.00   0.00  -0.00    -0.00  -0.00   0.00     0.00   0.00  -0.00
    33   7    -0.00   0.00   0.00    -0.00   0.00   0.00    -0.00   0.00  -0.00
    34   6    -0.00  -0.00   0.00     0.00   0.00  -0.00     0.00   0.00  -0.00
    35   6    -0.00   0.00  -0.00    -0.00   0.00  -0.00    -0.00   0.00  -0.00
    36   1     0.00   0.00   0.00     0.00   0.00  -0.00    -0.00  -0.00  -0.00
    37   1     0.00   0.00  -0.00    -0.00  -0.00   0.00    -0.00   0.00   0.00
    38   1     0.00   0.00   0.00    -0.00  -0.00  -0.00    -0.00   0.00  -0.00
    39   1    -0.00   0.00  -0.00    -0.00   0.00  -0.00    -0.00  -0.00  -0.00
    40   1     0.00   0.00   0.00    -0.00   0.00  -0.00     0.00   0.00   0.00
    41   1     0.00  -0.00   0.00     0.00  -0.00   0.00     0.00  -0.00   0.00
    42   6    -0.00   0.00   0.00     0.00   0.00   0.00    -0.00  -0.00  -0.00
    43   6    -0.00   0.00  -0.00     0.00   0.00   0.00    -0.00  -0.00  -0.00
    44   6     0.00   0.00  -0.00    -0.00  -0.00   0.00    -0.00  -0.00  -0.00
    45   1     0.00  -0.00  -0.00     0.00  -0.00  -0.00    -0.00   0.00   0.00
    46   1    -0.00  -0.00  -0.00    -0.00  -0.00  -0.00     0.00   0.00   0.00
    47   1     0.00  -0.01   0.00     0.00  -0.00   0.00    -0.00   0.00  -0.00
    48   1    -0.00   0.00  -0.00    -0.00  -0.00  -0.00     0.00   0.00   0.00
    49   1     0.02   0.00   0.01    -0.00  -0.00  -0.00     0.01   0.00   0.01
    50   1    -0.04  -0.03   0.03     0.00   0.00  -0.00     0.00   0.00  -0.00
    51   1     0.01  -0.02   0.00     0.00  -0.00   0.00    -0.00  -0.00  -0.00
    52   8    -0.00   0.00   0.00    -0.00   0.00  -0.00     0.00   0.00   0.00
    53   6     0.00   0.01  -0.00    -0.00  -0.03   0.04     0.04  -0.03  -0.02
    54   6    -0.00  -0.00  -0.00    -0.00  -0.00   0.00    -0.00   0.00   0.00
    55   6     0.00  -0.00  -0.04    -0.04   0.03   0.02    -0.04   0.01   0.01
    56   6    -0.01  -0.06   0.02     0.03  -0.03  -0.01    -0.04   0.03   0.01
    57   1    -0.00  -0.09   0.03     0.03   0.41  -0.14     0.02   0.06  -0.04
    58   1     0.00   0.00  -0.01     0.01  -0.02  -0.34     0.01  -0.01   0.09
    59   1    -0.03   0.02   0.01    -0.03   0.01   0.03    -0.46   0.30   0.17
    60   1    -0.04   0.03   0.58    -0.02   0.01  -0.05    -0.02   0.00  -0.05
    61   1     0.03  -0.02  -0.03     0.50  -0.34  -0.16     0.38  -0.26  -0.13
    62   1    -0.00  -0.00  -0.02    -0.00   0.02   0.02     0.12   0.08   0.07
    63   1     0.05   0.75  -0.27     0.02   0.05  -0.03    -0.02  -0.01   0.01
    64   1     0.01  -0.04   0.00    -0.42   0.28   0.17     0.49  -0.33  -0.20
    65   1     0.03  -0.01   0.02     0.02  -0.01  -0.00     0.01   0.03   0.02
                    175                    176                    177
                      A                      A                      A
 Frequencies --   3044.5882              3048.0814              3049.5786
 Red. masses --      1.0752                 1.0494                 1.0616
 Frc consts  --      5.8721                 5.7446                 5.8170
 IR Inten    --      0.0000                 0.0000                 0.0000
  Atom  AN      X      Y      Z        X      Y      Z        X      Y      Z
     1  26     0.00   0.00  -0.00     0.00  -0.00   0.00    -0.00   0.00  -0.00
     2   6    -0.00  -0.00   0.00    -0.00   0.00   0.00    -0.00  -0.00   0.00
     3  46    -0.00  -0.00   0.00    -0.00   0.00  -0.00     0.00  -0.00   0.00
     4   6     0.00  -0.00  -0.00     0.00  -0.00  -0.00    -0.00   0.00  -0.00
     5   1    -0.00   0.00  -0.00    -0.00   0.00  -0.00    -0.00   0.00  -0.00
     6   1    -0.00  -0.00  -0.00    -0.00  -0.00  -0.00    -0.00   0.00  -0.00
     7   1     0.00  -0.00   0.00     0.00  -0.00   0.00     0.00  -0.00   0.00
     8   6    -0.00  -0.00   0.00    -0.00  -0.00  -0.00     0.00  -0.00   0.00
     9   8     0.00   0.00  -0.00     0.00  -0.00  -0.00     0.00   0.00  -0.00
    10   6    -0.00  -0.00   0.00     0.00  -0.00  -0.00     0.00   0.00   0.00
    11   8     0.00   0.00  -0.00     0.00  -0.00   0.00    -0.00   0.00  -0.00
    12   6     0.00   0.00   0.00    -0.00   0.00  -0.00     0.00   0.00   0.00
    13   6    -0.00   0.00  -0.00     0.00  -0.00   0.00    -0.00   0.00  -0.00
    14   6     0.00   0.00   0.00     0.00   0.00   0.00     0.00  -0.00   0.00
    15   1    -0.00  -0.00  -0.00    -0.00  -0.00  -0.00    -0.00  -0.00  -0.00
    16   1    -0.00  -0.00   0.00    -0.00   0.00   0.00     0.00  -0.00   0.00
    17   1    -0.00  -0.00  -0.00    -0.00   0.00   0.00    -0.00   0.00   0.00
    18   1    -0.00  -0.00   0.00     0.00  -0.00  -0.00     0.00  -0.00  -0.00
    19   6     0.00   0.00  -0.00    -0.00   0.00   0.00    -0.00   0.00   0.00
    20   6     0.00  -0.00  -0.00    -0.00  -0.00  -0.00    -0.00  -0.00  -0.00
    21   8     0.00   0.00  -0.00     0.00  -0.00  -0.00     0.00   0.00  -0.00
    22   6    -0.00  -0.00   0.00    -0.00  -0.00  -0.00    -0.00  -0.00  -0.00
    23   6     0.00   0.00  -0.00    -0.00  -0.00  -0.00     0.00   0.00  -0.00
    24   6     0.00  -0.00   0.00     0.00  -0.00   0.00    -0.00  -0.00   0.00
    25   6     0.00   0.00   0.00     0.00   0.00  -0.00     0.00   0.00   0.00
    26   6    -0.00   0.00  -0.00    -0.00   0.00  -0.00    -0.00   0.00  -0.00
    27   1    -0.00  -0.00   0.00     0.00   0.00   0.00     0.00   0.00   0.00
    28   7     0.00   0.00  -0.00     0.00   0.00   0.00     0.00  -0.00  -0.00
    29   1    -0.00  -0.00   0.00     0.00   0.00   0.00     0.00   0.00   0.00
    30   1    -0.00   0.00   0.00    -0.00   0.00   0.00     0.00  -0.00  -0.00
    31   1     0.00   0.00  -0.00     0.00   0.00  -0.00    -0.00  -0.00  -0.00
    32   1    -0.00  -0.00   0.00     0.00   0.00  -0.00    -0.00  -0.00   0.00
    33   7    -0.00   0.00   0.00    -0.00  -0.00   0.00    -0.00   0.00  -0.00
    34   6    -0.00  -0.00   0.00    -0.00  -0.00   0.00     0.00   0.00  -0.00
    35   6    -0.00   0.00  -0.00    -0.00   0.00  -0.00    -0.00   0.00  -0.00
    36   1     0.00   0.00  -0.00     0.00   0.00   0.00    -0.00  -0.00  -0.00
    37   1     0.00  -0.00  -0.00     0.00   0.00  -0.00    -0.00  -0.00   0.00
    38   1     0.00  -0.00   0.00    -0.00  -0.00   0.00     0.00   0.00   0.00
    39   1    -0.00   0.00  -0.00    -0.00  -0.00  -0.00    -0.00   0.00  -0.00
    40   1    -0.00   0.00  -0.00    -0.00   0.00  -0.00     0.00   0.00   0.00
    41   1     0.00  -0.00   0.00     0.00  -0.00   0.00     0.01  -0.01   0.00
    42   6    -0.00   0.00   0.00    -0.00   0.00   0.00    -0.00   0.00   0.00
    43   6    -0.00   0.00  -0.00    -0.00   0.00  -0.00    -0.00   0.00  -0.00
    44   6    -0.00   0.00  -0.00    -0.00   0.00  -0.00    -0.00   0.00  -0.00
    45   1     0.00  -0.00  -0.00     0.00  -0.00  -0.00     0.00  -0.00  -0.00
    46   1    -0.00  -0.00  -0.00     0.00   0.00   0.00     0.00   0.00   0.00
    47   1     0.00  -0.00   0.00     0.00  -0.00   0.00     0.00  -0.00   0.00
    48   1    -0.00   0.00  -0.00     0.00   0.00   0.00     0.00   0.00   0.00
    49   1     0.00   0.00   0.00     0.00   0.00   0.00     0.00   0.00   0.00
    50   1    -0.00  -0.00   0.00    -0.00  -0.00   0.00    -0.00  -0.00   0.00
    51   1     0.01  -0.01   0.00     0.01  -0.02   0.00     0.01  -0.01   0.00
    52   8    -0.00   0.00  -0.00    -0.00   0.00   0.00    -0.00   0.00  -0.00
    53   6    -0.01  -0.04   0.05    -0.00  -0.03  -0.04    -0.01  -0.01  -0.02
    54   6    -0.00  -0.00   0.00     0.00  -0.00  -0.00    -0.00  -0.00  -0.00
    55   6     0.03  -0.02   0.00     0.03   0.02   0.01    -0.04  -0.03  -0.02
    56   6    -0.02   0.00   0.01    -0.00  -0.00  -0.00     0.03   0.00   0.01
    57   1     0.04   0.62  -0.22     0.03   0.47  -0.20     0.01   0.21  -0.09
    58   1     0.01  -0.03  -0.41    -0.02   0.00   0.69    -0.02   0.01   0.41
    59   1     0.03  -0.04   0.01     0.05  -0.05  -0.03     0.09  -0.06  -0.04
    60   1     0.02  -0.01  -0.16     0.01   0.01   0.11    -0.02  -0.01  -0.05
    61   1    -0.35   0.24   0.12     0.05  -0.02  -0.01    -0.07   0.02   0.01
    62   1     0.01  -0.01  -0.00    -0.41  -0.21  -0.18     0.63   0.32   0.28
    63   1     0.00   0.20  -0.07    -0.00  -0.01   0.00     0.02   0.09  -0.03
    64   1     0.27  -0.19  -0.11    -0.01   0.01   0.01    -0.08   0.06   0.04
    65   1    -0.04  -0.01  -0.01     0.03   0.02   0.01    -0.32  -0.17  -0.13
                    178                    179                    180
                      A                      A                      A
 Frequencies --   3052.8216              3054.1127              3055.7690
 Red. masses --      1.0704                 1.0702                 1.0688
 Frc consts  --      5.8775                 5.8815                 5.8802
 IR Inten    --      0.0000                 0.0000                 0.0000
  Atom  AN      X      Y      Z        X      Y      Z        X      Y      Z
     1  26    -0.00   0.00  -0.00    -0.00   0.00   0.00    -0.00   0.00  -0.00
     2   6     0.00   0.00  -0.00    -0.00   0.00   0.00    -0.00  -0.00  -0.00
     3  46     0.00   0.00   0.00    -0.00  -0.00  -0.00     0.00  -0.00  -0.00
     4   6    -0.00   0.00   0.00    -0.01   0.00   0.00     0.00  -0.00  -0.00
     5   1     0.00  -0.00   0.00    -0.00   0.00  -0.00     0.00   0.00   0.00
     6   1     0.00   0.00  -0.00     0.00   0.01  -0.00    -0.00  -0.00   0.00
     7   1     0.00  -0.00   0.00     0.00  -0.00   0.00    -0.00   0.00  -0.00
     8   6     0.00   0.00   0.00     0.00   0.00   0.00     0.00   0.00  -0.00
     9   8    -0.00   0.00   0.00     0.00  -0.00  -0.00     0.00   0.00   0.00
    10   6     0.00   0.00   0.00    -0.00  -0.00   0.00     0.00   0.00   0.00
    11   8    -0.00  -0.00  -0.00     0.00  -0.00  -0.00    -0.00   0.00   0.00
    12   6    -0.00  -0.00   0.00     0.00   0.00   0.00     0.00  -0.00   0.00
    13   6    -0.00   0.00  -0.00    -0.00  -0.00  -0.00    -0.00   0.00  -0.00
    14   6    -0.00   0.00  -0.00     0.00   0.00   0.00    -0.00  -0.00  -0.00
    15   1     0.00   0.00   0.00    -0.00  -0.00  -0.00    -0.00  -0.00   0.00
    16   1     0.00  -0.00   0.00    -0.00  -0.00   0.00     0.00  -0.00   0.00
    17   1     0.00   0.00   0.00    -0.00  -0.00  -0.00     0.00   0.00   0.00
    18   1     0.00   0.00   0.00    -0.00  -0.00  -0.00    -0.00   0.00   0.00
    19   6    -0.00   0.00  -0.00    -0.00  -0.00   0.00    -0.00   0.00   0.00
    20   6     0.00  -0.00   0.00    -0.00   0.00  -0.00     0.00  -0.00   0.00
    21   8    -0.00  -0.00   0.00     0.00  -0.00   0.00     0.00   0.00   0.00
    22   6    -0.00  -0.00   0.00    -0.00  -0.00  -0.00    -0.00  -0.00  -0.00
    23   6     0.00  -0.00   0.00     0.00  -0.00   0.00     0.00   0.00   0.00
    24   6    -0.00   0.00  -0.00    -0.00  -0.00  -0.00    -0.00   0.00  -0.00
    25   6    -0.00  -0.00  -0.00    -0.00   0.00  -0.00    -0.00  -0.00   0.00
    26   6     0.00   0.00  -0.00     0.00   0.00  -0.00     0.00  -0.00   0.00
    27   1     0.00  -0.00  -0.00     0.00   0.00   0.00     0.00   0.00   0.00
    28   7    -0.00   0.00   0.00     0.00  -0.00   0.00    -0.00  -0.00  -0.00
    29   1    -0.00  -0.00  -0.00     0.00   0.00   0.00    -0.00  -0.00  -0.00
    30   1     0.00  -0.00  -0.00     0.08  -0.03  -0.01    -0.00   0.00   0.00
    31   1    -0.00  -0.00  -0.00    -0.00   0.00   0.00     0.00  -0.00  -0.00
    32   1     0.00  -0.00   0.00    -0.00   0.00  -0.00     0.00   0.00  -0.00
    33   7    -0.00   0.00   0.00    -0.00   0.00   0.00     0.00  -0.00  -0.00
    34   6     0.00   0.00   0.00    -0.00   0.00   0.00     0.00   0.00  -0.00
    35   6    -0.00   0.00  -0.00    -0.06   0.04  -0.01     0.00  -0.00   0.00
    36   1    -0.00  -0.00   0.00    -0.00  -0.01  -0.00    -0.00  -0.00  -0.00
    37   1     0.00   0.00   0.00     0.00   0.00  -0.00    -0.00  -0.00   0.00
    38   1    -0.00   0.00  -0.00     0.01   0.00   0.01     0.00   0.00   0.00
    39   1    -0.00   0.00  -0.00    -0.02   0.05  -0.01     0.00  -0.00   0.00
    40   1    -0.00   0.00   0.00    -0.01   0.03   0.02     0.00  -0.00   0.00
    41   1     0.03  -0.02   0.00     0.78  -0.61   0.07    -0.02   0.01  -0.00
    42   6     0.00  -0.00  -0.00    -0.00   0.00   0.00    -0.00  -0.00  -0.00
    43   6     0.00  -0.00   0.00    -0.00   0.00  -0.00    -0.00  -0.00  -0.00
    44   6    -0.00   0.00   0.00    -0.00  -0.00  -0.00    -0.00  -0.00  -0.00
    45   1    -0.00   0.00   0.00     0.00  -0.00  -0.00    -0.00   0.00   0.00
    46   1    -0.00  -0.00  -0.00    -0.00  -0.00  -0.00     0.00   0.00   0.00
    47   1    -0.00   0.00  -0.00     0.00  -0.00   0.00    -0.00   0.00  -0.00
    48   1    -0.00  -0.00  -0.00     0.00   0.00   0.00     0.00   0.00   0.00
    49   1    -0.00  -0.00  -0.00     0.00   0.00   0.00     0.01   0.00   0.01
    50   1     0.00   0.00  -0.00    -0.00  -0.00   0.00     0.00   0.00  -0.00
    51   1     0.00  -0.00   0.00    -0.00   0.00  -0.00    -0.01   0.01  -0.00
    52   8    -0.00  -0.00  -0.00     0.00  -0.00   0.00    -0.00  -0.00   0.00
    53   6    -0.05   0.03   0.02     0.00  -0.00  -0.00    -0.01   0.00   0.00
    54   6    -0.00   0.00   0.00     0.00  -0.00  -0.00    -0.00  -0.00  -0.00
    55   6    -0.02   0.02   0.01     0.00  -0.00  -0.00    -0.02  -0.01  -0.01
    56   6    -0.01   0.02   0.02    -0.00  -0.00  -0.00    -0.06  -0.02  -0.02
    57   1    -0.02  -0.03   0.03     0.00  -0.00   0.00     0.00   0.10  -0.04
    58   1    -0.02   0.02  -0.06     0.00  -0.00   0.00    -0.01   0.00   0.10
    59   1     0.61  -0.40  -0.23    -0.02   0.01   0.01     0.18  -0.12  -0.07
    60   1    -0.01   0.01  -0.01     0.00  -0.00   0.00    -0.01  -0.00   0.02
    61   1     0.33  -0.22  -0.11    -0.01   0.01   0.00    -0.00  -0.01  -0.01
    62   1    -0.05  -0.01  -0.01     0.00  -0.00  -0.00     0.29   0.15   0.13
    63   1    -0.01   0.02   0.00    -0.00  -0.01   0.00    -0.03  -0.04   0.00
    64   1     0.34  -0.23  -0.14    -0.01   0.01   0.00    -0.00  -0.03  -0.02
    65   1    -0.16  -0.06  -0.05     0.02   0.01   0.01     0.75   0.37   0.30
                    181                    182                    183
                      A                      A                      A
 Frequencies --   3078.0553              3194.1120              3195.0714
 Red. masses --      1.0673                 1.0827                 1.0842
 Frc consts  --      5.9576                 6.5082                 6.5209
 IR Inten    --      0.0000                 0.0000                 0.0000
  Atom  AN      X      Y      Z        X      Y      Z        X      Y      Z
     1  26    -0.00  -0.00  -0.00     0.00  -0.00   0.00     0.00  -0.00  -0.00
     2   6     0.00   0.00  -0.00     0.00  -0.00   0.00    -0.00  -0.00   0.00
     3  46     0.00   0.00  -0.00     0.00  -0.00  -0.00    -0.00  -0.00   0.00
     4   6     0.00  -0.00  -0.00     0.00  -0.00  -0.00    -0.00   0.00  -0.00
     5   1     0.00  -0.00   0.00    -0.06   0.02  -0.08     0.01  -0.00   0.01
     6   1     0.00   0.00   0.00     0.36   0.33   0.02    -0.13  -0.12  -0.01
     7   1    -0.00   0.00  -0.00     0.10  -0.42   0.66    -0.03   0.13  -0.20
     8   6    -0.00  -0.00   0.00     0.00   0.00   0.00     0.00  -0.00   0.00
     9   8    -0.00   0.00   0.00    -0.00   0.00   0.00     0.00  -0.00  -0.00
    10   6     0.00  -0.00   0.00    -0.00   0.00  -0.00     0.00   0.00  -0.00
    11   8     0.00   0.00   0.00     0.00   0.00   0.00     0.00   0.00  -0.00
    12   6     0.00   0.00  -0.00    -0.02  -0.02   0.00    -0.05  -0.05   0.00
    13   6    -0.00   0.00  -0.00    -0.00   0.01  -0.00    -0.01   0.01  -0.01
    14   6    -0.00  -0.00  -0.00     0.01   0.00   0.00     0.01   0.00   0.00
    15   1    -0.00  -0.00   0.00     0.20   0.20  -0.01     0.65   0.64  -0.03
    16   1     0.00  -0.00   0.00     0.03  -0.07   0.04     0.08  -0.18   0.09
    17   1     0.00   0.00   0.00    -0.10  -0.01  -0.01    -0.14  -0.02  -0.02
    18   1     0.00   0.00   0.00    -0.00  -0.00   0.00    -0.00  -0.00  -0.00
    19   6    -0.00   0.00  -0.00    -0.00   0.00  -0.00    -0.00   0.00  -0.00
    20   6     0.00   0.00  -0.00     0.00   0.00   0.00     0.00   0.00   0.00
    21   8    -0.00  -0.00   0.00    -0.00   0.00  -0.00     0.00  -0.00   0.00
    22   6    -0.00  -0.00  -0.00     0.01   0.00   0.01    -0.00  -0.00  -0.00
    23   6    -0.00  -0.00   0.00    -0.00  -0.00   0.00     0.00   0.00  -0.00
    24   6    -0.00   0.00  -0.00     0.00  -0.00   0.01    -0.00   0.00  -0.00
    25   6    -0.00  -0.00   0.00    -0.03  -0.03  -0.00     0.01   0.01   0.00
    26   6     0.00   0.00   0.00    -0.01   0.03  -0.06     0.00  -0.01   0.02
    27   1     0.00   0.00   0.00    -0.11  -0.05  -0.08     0.04   0.02   0.03
    28   7    -0.00  -0.00   0.00    -0.00  -0.00  -0.00    -0.00   0.00  -0.00
    29   1    -0.00   0.00  -0.00    -0.00  -0.00  -0.00    -0.00  -0.00  -0.00
    30   1    -0.00   0.00   0.00    -0.00   0.00  -0.00     0.00  -0.00   0.00
    31   1    -0.00  -0.00  -0.00     0.00   0.00   0.00    -0.00   0.00   0.00
    32   1     0.00   0.00  -0.00     0.00   0.01  -0.01    -0.00  -0.01   0.01
    33   7    -0.00   0.00  -0.00     0.00   0.00  -0.00    -0.00   0.00  -0.00
    34   6    -0.00  -0.00  -0.00    -0.00  -0.00   0.00     0.00   0.00   0.00
    35   6    -0.00   0.00  -0.00     0.00   0.00   0.00    -0.00  -0.00  -0.00
    36   1    -0.00  -0.00   0.00     0.00   0.00   0.00     0.00   0.00  -0.00
    37   1     0.00   0.00  -0.00     0.00   0.00  -0.00    -0.00   0.00   0.00
    38   1     0.00   0.00   0.00     0.00  -0.00   0.00    -0.00  -0.00  -0.00
    39   1    -0.00  -0.00  -0.00     0.00   0.00  -0.00     0.00   0.00   0.00
    40   1     0.00   0.00   0.00    -0.00   0.00  -0.00     0.00  -0.00   0.00
    41   1    -0.00  -0.00   0.00    -0.00   0.01   0.00     0.00  -0.00  -0.00
    42   6     0.00  -0.00  -0.00     0.00  -0.00  -0.00    -0.00   0.00   0.00
    43   6     0.00  -0.01   0.00     0.00   0.00   0.00     0.00   0.00   0.00
    44   6     0.03  -0.06   0.01    -0.00  -0.00  -0.00    -0.00  -0.00  -0.00
    45   1    -0.00   0.01   0.01     0.00   0.00   0.00     0.00  -0.00  -0.00
    46   1     0.00  -0.00   0.00    -0.00  -0.00  -0.00    -0.00   0.00  -0.00
    47   1    -0.02   0.05  -0.01     0.00  -0.00   0.00     0.00  -0.00   0.00
    48   1    -0.01  -0.00  -0.01    -0.00  -0.00  -0.00    -0.00  -0.00  -0.00
    49   1     0.03  -0.03   0.02     0.00  -0.00   0.00     0.00  -0.00   0.00
    50   1    -0.02  -0.06   0.03    -0.00  -0.00   0.00     0.00  -0.00   0.00
    51   1    -0.40   0.89  -0.19    -0.00   0.00  -0.00    -0.00   0.00  -0.00
    52   8     0.00  -0.00   0.00    -0.00  -0.00  -0.00    -0.00  -0.00  -0.00
    53   6    -0.00  -0.00  -0.00     0.00  -0.00   0.00    -0.00  -0.00  -0.00
    54   6     0.00  -0.00   0.00     0.00  -0.00  -0.00    -0.00   0.00   0.00
    55   6     0.00   0.00  -0.00     0.00  -0.00   0.00    -0.00   0.00  -0.00
    56   6     0.00  -0.00   0.00     0.00  -0.00  -0.00    -0.00  -0.00   0.00
    57   1     0.00   0.02  -0.01     0.00  -0.00  -0.00    -0.00   0.00  -0.00
    58   1    -0.00  -0.00   0.01     0.00  -0.00  -0.00    -0.00  -0.00   0.00
    59   1     0.00  -0.00  -0.00    -0.00   0.00   0.00     0.00  -0.00  -0.00
    60   1     0.00   0.00   0.00     0.00  -0.00  -0.00    -0.00   0.00   0.00
    61   1    -0.00   0.00   0.00    -0.00   0.00   0.00    -0.00  -0.00  -0.00
    62   1    -0.00  -0.00  -0.00     0.00   0.00   0.00    -0.00  -0.00   0.00
    63   1     0.00   0.02  -0.01     0.00   0.00  -0.00     0.00   0.00  -0.00
    64   1     0.00  -0.00  -0.00    -0.00   0.00   0.00    -0.00   0.00   0.00
    65   1    -0.01  -0.01  -0.01     0.00   0.00   0.00     0.00  -0.00   0.00
                    184                    185                    186
                      A                      A                      A
 Frequencies --   3206.6139              3207.5966              3220.4703
 Red. masses --      1.0888                 1.0851                 1.0839
 Frc consts  --      6.5965                 6.5777                 6.6234
 IR Inten    --      0.0000                 0.0000                 0.0000
  Atom  AN      X      Y      Z        X      Y      Z        X      Y      Z
     1  26     0.00  -0.00  -0.00     0.00   0.00   0.00     0.00   0.00  -0.00
     2   6    -0.00   0.00  -0.00     0.00   0.00   0.00    -0.00  -0.00  -0.00
     3  46    -0.00  -0.00   0.00    -0.00  -0.00   0.00    -0.00   0.00   0.00
     4   6     0.00  -0.00   0.00    -0.00   0.00   0.00    -0.00   0.00   0.00
     5   1    -0.12   0.03  -0.16    -0.08   0.02  -0.11     0.17  -0.05   0.24
     6   1     0.55   0.51   0.03     0.20   0.19   0.01     0.17   0.15   0.01
     7   1    -0.06   0.26  -0.40    -0.01   0.06  -0.10    -0.02   0.10  -0.16
     8   6     0.00  -0.00  -0.00     0.00  -0.00   0.00     0.00  -0.00  -0.00
     9   8    -0.00  -0.00  -0.00    -0.00  -0.00  -0.00     0.00   0.00   0.00
    10   6     0.00   0.00  -0.00    -0.00  -0.00   0.00    -0.00  -0.00   0.00
    11   8    -0.00  -0.00  -0.00    -0.00   0.00  -0.00     0.00   0.00   0.00
    12   6     0.00   0.00  -0.00    -0.01  -0.01   0.00    -0.00  -0.00   0.00
    13   6    -0.00   0.01  -0.00     0.01  -0.01   0.01    -0.00   0.00  -0.00
    14   6     0.03   0.00   0.00    -0.07  -0.01  -0.01    -0.01  -0.00  -0.00
    15   1    -0.05  -0.05   0.00     0.15   0.15  -0.01     0.02   0.02  -0.00
    16   1     0.05  -0.10   0.05    -0.08   0.18  -0.09     0.02  -0.04   0.02
    17   1    -0.31  -0.04  -0.04     0.87   0.11   0.10     0.09   0.01   0.01
    18   1     0.00   0.00   0.00     0.00  -0.00  -0.00    -0.00  -0.00  -0.00
    19   6     0.00  -0.00   0.00    -0.00   0.00  -0.00     0.00   0.00  -0.00
    20   6    -0.00   0.00   0.00     0.00   0.00   0.00     0.00  -0.00  -0.00
    21   8     0.00   0.00   0.00    -0.00  -0.00  -0.00     0.00   0.00   0.00
    22   6    -0.01  -0.00  -0.01    -0.00  -0.00  -0.00     0.03   0.01   0.02
    23   6     0.00   0.01  -0.01     0.00   0.01  -0.01    -0.03  -0.05   0.04
    24   6     0.01  -0.00   0.01     0.01  -0.00   0.01    -0.01   0.00  -0.02
    25   6    -0.05  -0.04  -0.00    -0.02  -0.02  -0.00    -0.02  -0.01  -0.00
    26   6     0.01  -0.02   0.04     0.00  -0.01   0.01     0.00  -0.01   0.01
    27   1     0.11   0.05   0.08     0.04   0.01   0.03    -0.33  -0.14  -0.22
    28   7     0.00   0.00   0.00    -0.00   0.00  -0.00    -0.00   0.00  -0.00
    29   1     0.00   0.00   0.00    -0.00  -0.00  -0.00    -0.00   0.00   0.00
    30   1     0.00   0.00   0.00     0.01  -0.00  -0.00     0.00   0.00  -0.00
    31   1     0.00  -0.00  -0.00     0.00   0.00   0.00     0.00  -0.00  -0.00
    32   1    -0.06  -0.11   0.08    -0.05  -0.09   0.07     0.33   0.58  -0.43
    33   7    -0.00  -0.00   0.00     0.00   0.00  -0.00    -0.00   0.00   0.00
    34   6     0.00   0.00   0.00    -0.00  -0.00  -0.00    -0.00   0.00   0.00
    35   6     0.00  -0.00  -0.00    -0.00  -0.00  -0.00    -0.00  -0.00  -0.00
    36   1    -0.00  -0.00   0.00     0.00   0.00  -0.00    -0.00  -0.00   0.00
    37   1     0.00  -0.00   0.00     0.00  -0.00  -0.00     0.00  -0.00  -0.00
    38   1    -0.00  -0.00  -0.00     0.00  -0.00   0.00     0.00  -0.00   0.00
    39   1     0.00  -0.00   0.00     0.00   0.00  -0.00     0.00  -0.00   0.00
    40   1     0.00  -0.00   0.00     0.00  -0.00   0.00     0.00  -0.00   0.00
    41   1    -0.00   0.00  -0.00     0.00  -0.00  -0.00     0.00  -0.00  -0.00
    42   6    -0.00   0.00   0.00    -0.00   0.00   0.00     0.00  -0.00  -0.00
    43   6     0.00  -0.00  -0.00     0.00   0.00   0.00     0.00   0.00  -0.00
    44   6     0.00   0.00   0.00    -0.00  -0.00  -0.00    -0.00   0.00  -0.00
    45   1    -0.00  -0.00  -0.00    -0.00  -0.00  -0.00    -0.00   0.01   0.01
    46   1     0.00   0.00   0.00     0.00   0.00   0.00     0.01   0.00   0.00
    47   1    -0.00   0.00  -0.00     0.00  -0.00   0.00    -0.00   0.00  -0.00
    48   1    -0.00  -0.00  -0.00    -0.00  -0.00  -0.00    -0.00  -0.00   0.00
    49   1    -0.00  -0.00  -0.00     0.00  -0.00   0.00     0.00   0.00   0.00
    50   1     0.00   0.00  -0.00    -0.00  -0.00   0.00    -0.00  -0.00   0.00
    51   1     0.00  -0.00   0.00    -0.00   0.00  -0.00     0.00  -0.00   0.00
    52   8     0.00   0.00  -0.00    -0.00   0.00  -0.00     0.00   0.00   0.00
    53   6    -0.00  -0.00  -0.00     0.00  -0.00  -0.00     0.00  -0.00  -0.00
    54   6    -0.00   0.00   0.00     0.00  -0.00   0.00     0.00  -0.00   0.00
    55   6    -0.00   0.00  -0.00     0.00   0.00  -0.00    -0.00   0.00  -0.00
    56   6    -0.00  -0.00   0.00     0.00  -0.00   0.00     0.00  -0.00   0.00
    57   1     0.00   0.00  -0.00     0.00   0.00  -0.00     0.00   0.00  -0.00
    58   1    -0.00   0.00   0.00     0.00  -0.00  -0.00     0.00  -0.00   0.00
    59   1     0.00  -0.00  -0.00    -0.00   0.00   0.00    -0.00   0.00   0.00
    60   1    -0.00   0.00   0.00     0.00  -0.00   0.00    -0.00  -0.00   0.00
    61   1     0.00  -0.00  -0.00    -0.00   0.00   0.00     0.00  -0.00  -0.00
    62   1    -0.00  -0.00  -0.00    -0.00  -0.00  -0.00    -0.00  -0.00   0.00
    63   1     0.00   0.00  -0.00     0.00   0.00  -0.00     0.00   0.00  -0.00
    64   1     0.00  -0.00  -0.00    -0.00   0.00   0.00    -0.00   0.00   0.00
    65   1    -0.00  -0.00   0.00    -0.00  -0.00  -0.00    -0.00  -0.00  -0.00
                    187                    188                    189
                      A                      A                      A
 Frequencies --   3228.9758              3233.1344              3238.0070
 Red. masses --      1.0912                 1.0906                 1.0934
 Frc consts  --      6.7030                 6.7171                 6.7546
 IR Inten    --      0.0000                 0.0000                 0.0000
  Atom  AN      X      Y      Z        X      Y      Z        X      Y      Z
     1  26     0.00  -0.00  -0.00     0.00   0.00   0.00     0.00  -0.00  -0.00
     2   6    -0.00   0.00   0.00     0.00   0.00   0.00     0.00  -0.00  -0.00
     3  46     0.00  -0.00  -0.00     0.00  -0.00  -0.00     0.00   0.00   0.00
     4   6     0.00  -0.00  -0.00     0.00  -0.00  -0.00    -0.00  -0.00   0.00
     5   1     0.15  -0.04   0.21     0.19  -0.05   0.26     0.47  -0.13   0.65
     6   1     0.07   0.07   0.00     0.06   0.05   0.00     0.10   0.10   0.00
     7   1    -0.00  -0.00   0.00     0.02  -0.07   0.11    -0.00   0.01  -0.02
     8   6    -0.00  -0.00  -0.00     0.00   0.00   0.00     0.00  -0.00  -0.00
     9   8    -0.00  -0.00  -0.00    -0.00  -0.00  -0.00    -0.00   0.00   0.00
    10   6    -0.00   0.00  -0.00     0.00  -0.00   0.00     0.00  -0.00   0.00
    11   8     0.00   0.00   0.00    -0.00  -0.00  -0.00    -0.00   0.00   0.00
    12   6    -0.01  -0.01   0.00     0.00   0.00  -0.00     0.00   0.00  -0.00
    13   6     0.03  -0.06   0.03    -0.01   0.02  -0.01    -0.00   0.01  -0.01
    14   6     0.02   0.00   0.00    -0.01  -0.00  -0.00    -0.00  -0.00  -0.00
    15   1     0.12   0.12  -0.00    -0.03  -0.03   0.00    -0.01  -0.01  -0.00
    16   1    -0.32   0.73  -0.38     0.10  -0.23   0.12     0.06  -0.13   0.07
    17   1    -0.25  -0.03  -0.03     0.12   0.02   0.01     0.05   0.01   0.01
    18   1    -0.00   0.00   0.00     0.00   0.00   0.00     0.00  -0.00   0.00
    19   6    -0.00   0.00  -0.00    -0.00  -0.00   0.00     0.00  -0.00  -0.00
    20   6     0.00   0.00   0.00    -0.00   0.00   0.00     0.00  -0.00  -0.00
    21   8    -0.00   0.00  -0.00    -0.00  -0.00  -0.00    -0.00  -0.00   0.00
    22   6    -0.01  -0.01  -0.01    -0.06  -0.02  -0.04     0.02   0.01   0.01
    23   6    -0.00  -0.00   0.00    -0.01  -0.02   0.02     0.02   0.03  -0.02
    24   6    -0.01   0.00  -0.02    -0.02   0.01  -0.02    -0.04   0.01  -0.06
    25   6    -0.01  -0.01  -0.00    -0.00  -0.00   0.00    -0.01  -0.01   0.00
    26   6     0.00   0.00  -0.00    -0.00   0.01  -0.01     0.00  -0.00   0.00
    27   1     0.16   0.07   0.11     0.65   0.27   0.44    -0.17  -0.07  -0.12
    28   7    -0.00   0.00  -0.00    -0.00   0.00  -0.00     0.00   0.00   0.00
    29   1    -0.00   0.00  -0.00    -0.00  -0.00  -0.00     0.00  -0.00   0.00
    30   1    -0.00   0.00   0.00    -0.00   0.00  -0.00     0.00  -0.00  -0.00
    31   1     0.00   0.00   0.00     0.00   0.00   0.00    -0.00  -0.00  -0.00
    32   1     0.02   0.04  -0.03     0.12   0.21  -0.16    -0.20  -0.35   0.26
    33   7     0.00   0.00  -0.00     0.00   0.00  -0.00    -0.00  -0.00   0.00
    34   6     0.00   0.00   0.00     0.00  -0.00  -0.00    -0.00  -0.00   0.00
    35   6     0.00  -0.00   0.00     0.00  -0.00   0.00    -0.00  -0.00  -0.00
    36   1     0.00   0.00  -0.00     0.00   0.00  -0.00    -0.00  -0.00   0.00
    37   1    -0.00   0.00   0.00    -0.00  -0.00   0.00     0.00  -0.00  -0.00
    38   1    -0.00   0.00  -0.00    -0.00  -0.00  -0.00     0.00  -0.00   0.00
    39   1     0.00   0.00   0.00     0.00   0.00  -0.00    -0.00  -0.00   0.00
    40   1    -0.00  -0.00  -0.00     0.00   0.00   0.00     0.00  -0.00   0.00
    41   1    -0.00   0.00  -0.00    -0.00   0.00  -0.00    -0.00  -0.00   0.00
    42   6    -0.00   0.00   0.00    -0.00   0.00   0.00     0.00  -0.00  -0.00
    43   6     0.00  -0.00   0.00    -0.00  -0.00   0.00    -0.00   0.00  -0.00
    44   6    -0.00  -0.00  -0.00     0.00   0.00   0.00    -0.00   0.00  -0.00
    45   1    -0.00  -0.00  -0.00    -0.00  -0.01  -0.01     0.00   0.00   0.00
    46   1    -0.00  -0.00   0.00    -0.00   0.00   0.00     0.00   0.00  -0.00
    47   1    -0.00   0.00  -0.00     0.00   0.00  -0.00     0.00  -0.00   0.00
    48   1    -0.00  -0.00  -0.00    -0.00  -0.00  -0.00     0.00   0.00   0.00
    49   1     0.00  -0.00   0.00    -0.00  -0.00  -0.00     0.00   0.00   0.00
    50   1     0.00  -0.00   0.00     0.00  -0.00  -0.00    -0.00  -0.00   0.00
    51   1    -0.00   0.00  -0.00     0.00  -0.00   0.00     0.00  -0.00  -0.00
    52   8     0.00  -0.00  -0.00    -0.00  -0.00   0.00    -0.00   0.00   0.00
    53   6    -0.00   0.00   0.00     0.00   0.00   0.00     0.00  -0.00  -0.00
    54   6    -0.00   0.00   0.00     0.00  -0.00  -0.00     0.00  -0.00  -0.00
    55   6    -0.00   0.00  -0.00     0.00  -0.00   0.00     0.00   0.00  -0.00
    56   6    -0.00  -0.00   0.00     0.00   0.00  -0.00    -0.00  -0.00   0.00
    57   1    -0.00   0.00  -0.00     0.00  -0.00   0.00     0.00   0.00  -0.00
    58   1    -0.00   0.00   0.00     0.00   0.00  -0.00     0.00  -0.00   0.00
    59   1     0.00  -0.00  -0.00    -0.00   0.00   0.00    -0.00   0.00   0.00
    60   1    -0.00   0.00   0.00     0.00  -0.00  -0.00    -0.00  -0.00   0.00
    61   1     0.00  -0.00  -0.00    -0.00   0.00   0.00    -0.00   0.00   0.00
    62   1     0.00   0.00   0.00    -0.00  -0.00  -0.00    -0.00  -0.00  -0.00
    63   1     0.00   0.00  -0.00     0.00  -0.00   0.00     0.00   0.00  -0.00
    64   1     0.00  -0.00  -0.00    -0.00   0.00   0.00    -0.00  -0.00   0.00
    65   1     0.00   0.00   0.00    -0.00  -0.00  -0.00     0.00   0.00  -0.00

 -------------------
 - Thermochemistry -
 -------------------
 Temperature   298.150 Kelvin.  Pressure   1.00000 Atm.
 Atom     1 has atomic number 26 and mass  55.93494
 Atom     2 has atomic number  6 and mass  12.00000
 Atom     3 has atomic number 46 and mass 105.90320
 Atom     4 has atomic number  6 and mass  12.00000
 Atom     5 has atomic number  1 and mass   1.00783
 Atom     6 has atomic number  1 and mass   1.00783
 Atom     7 has atomic number  1 and mass   1.00783
 Atom     8 has atomic number  6 and mass  12.00000
 Atom     9 has atomic number  8 and mass  15.99491
 Atom    10 has atomic number  6 and mass  12.00000
 Atom    11 has atomic number  8 and mass  15.99491
 Atom    12 has atomic number  6 and mass  12.00000
 Atom    13 has atomic number  6 and mass  12.00000
 Atom    14 has atomic number  6 and mass  12.00000
 Atom    15 has atomic number  1 and mass   1.00783
 Atom    16 has atomic number  1 and mass   1.00783
 Atom    17 has atomic number  1 and mass   1.00783
 Atom    18 has atomic number  1 and mass   1.00783
 Atom    19 has atomic number  6 and mass  12.00000
 Atom    20 has atomic number  6 and mass  12.00000
 Atom    21 has atomic number  8 and mass  15.99491
 Atom    22 has atomic number  6 and mass  12.00000
 Atom    23 has atomic number  6 and mass  12.00000
 Atom    24 has atomic number  6 and mass  12.00000
 Atom    25 has atomic number  6 and mass  12.00000
 Atom    26 has atomic number  6 and mass  12.00000
 Atom    27 has atomic number  1 and mass   1.00783
 Atom    28 has atomic number  7 and mass  14.00307
 Atom    29 has atomic number  1 and mass   1.00783
 Atom    30 has atomic number  1 and mass   1.00783
 Atom    31 has atomic number  1 and mass   1.00783
 Atom    32 has atomic number  1 and mass   1.00783
 Atom    33 has atomic number  7 and mass  14.00307
 Atom    34 has atomic number  6 and mass  12.00000
 Atom    35 has atomic number  6 and mass  12.00000
 Atom    36 has atomic number  1 and mass   1.00783
 Atom    37 has atomic number  1 and mass   1.00783
 Atom    38 has atomic number  1 and mass   1.00783
 Atom    39 has atomic number  1 and mass   1.00783
 Atom    40 has atomic number  1 and mass   1.00783
 Atom    41 has atomic number  1 and mass   1.00783
 Atom    42 has atomic number  6 and mass  12.00000
 Atom    43 has atomic number  6 and mass  12.00000
 Atom    44 has atomic number  6 and mass  12.00000
 Atom    45 has atomic number  1 and mass   1.00783
 Atom    46 has atomic number  1 and mass   1.00783
 Atom    47 has atomic number  1 and mass   1.00783
 Atom    48 has atomic number  1 and mass   1.00783
 Atom    49 has atomic number  1 and mass   1.00783
 Atom    50 has atomic number  1 and mass   1.00783
 Atom    51 has atomic number  1 and mass   1.00783
 Atom    52 has atomic number  8 and mass  15.99491
 Atom    53 has atomic number  6 and mass  12.00000
 Atom    54 has atomic number  6 and mass  12.00000
 Atom    55 has atomic number  6 and mass  12.00000
 Atom    56 has atomic number  6 and mass  12.00000
 Atom    57 has atomic number  1 and mass   1.00783
 Atom    58 has atomic number  1 and mass   1.00783
 Atom    59 has atomic number  1 and mass   1.00783
 Atom    60 has atomic number  1 and mass   1.00783
 Atom    61 has atomic number  1 and mass   1.00783
 Atom    62 has atomic number  1 and mass   1.00783
 Atom    63 has atomic number  1 and mass   1.00783
 Atom    64 has atomic number  1 and mass   1.00783
 Atom    65 has atomic number  1 and mass   1.00783
 Molecular mass:   564.09000 amu.
 Principal axes and moments of inertia in atomic units:
                           1         2         3
     Eigenvalues --  8186.86044********************
           X            0.99981   0.00929  -0.01700
           Y           -0.01029   0.99819  -0.05928
           Z            0.01642   0.05944   0.99810
 This molecule is an asymmetric top.
 Rotational symmetry number  1.
 Warning -- assumption of classical behavior for rotation
           may cause significant error
 Rotational temperatures (Kelvin)      0.01058     0.00561     0.00520
 Rotational constants (GHZ):           0.22044     0.11690     0.10831
    1 imaginary frequencies ignored.
 Zero-point vibrational energy    1386176.0 (Joules/Mol)
                                  331.30402 (Kcal/Mol)
 Warning -- explicit consideration of  54 degrees of freedom as
           vibrations may cause significant error
 Vibrational temperatures:     32.13    36.23    59.29    64.33    67.47
          (Kelvin)             80.67    97.29   115.73   126.52   132.93
                              153.96   172.47   181.08   197.48   216.29
                              233.96   246.84   263.57   269.97   275.02
                              301.20   318.50   324.52   325.46   335.31
                              336.67   355.96   360.35   401.19   408.86
                              420.81   439.12   462.06   486.77   488.82
                              519.13   541.14   561.21   595.63   605.23
                              614.74   639.28   649.43   658.78   671.80
                              691.03   703.37   708.93   728.82   812.91
                              829.01   847.33   874.18   882.46   909.53
                              915.50   925.12   950.52   962.81   986.99
                             1010.19  1078.64  1084.77  1110.54  1121.27
                             1128.30  1142.35  1154.17  1157.75  1165.40
                             1173.39  1182.87  1229.40  1238.59  1248.39
                             1255.00  1273.48  1277.69  1327.07  1345.44
                             1357.66  1368.03  1369.12  1379.03  1384.87
                             1442.79  1449.71  1471.15  1478.41  1486.03
                             1489.76  1496.01  1512.46  1521.95  1540.00
                             1548.56  1561.00  1567.92  1570.35  1589.27
                             1601.31  1607.63  1623.87  1645.19  1675.43
                             1688.24  1715.89  1719.31  1729.68  1733.07
                             1772.90  1777.04  1778.69  1791.73  1801.61
                             1806.83  1828.78  1837.52  1846.81  1869.80
                             1917.68  1943.50  1944.48  1975.92  1994.83
                             1997.91  2002.82  2004.49  2011.18  2014.04
                             2016.73  2027.65  2031.66  2035.78  2036.37
                             2042.85  2062.14  2071.40  2095.05  2099.49
                             2113.23  2119.78  2132.94  2135.32  2136.83
                             2138.26  2138.74  2140.90  2150.49  2161.06
                             2162.88  2164.40  2171.38  2359.60  2468.40
                             4126.68  4140.37  4165.52  4176.52  4186.67
                             4202.21  4255.03  4272.67  4275.23  4296.14
                             4322.05  4332.68  4342.45  4355.33  4359.71
                             4362.60  4375.00  4380.05  4380.48  4385.51
                             4387.66  4392.33  4394.19  4396.57  4428.64
                             4595.61  4597.00  4613.60  4615.02  4633.54
                             4645.78  4651.76  4658.77
 
 Zero-point correction=                           0.527967 (Hartree/Particle)
 Thermal correction to Energy=                    0.560538
 Thermal correction to Enthalpy=                  0.561482
 Thermal correction to Gibbs Free Energy=         0.464996
 Sum of electronic and zero-point Energies=            -96.025324
 Sum of electronic and thermal Energies=               -95.992753
 Sum of electronic and thermal Enthalpies=             -95.991809
 Sum of electronic and thermal Free Energies=          -96.088294
 
                     E (Thermal)             CV                S
                      KCal/Mol        Cal/Mol-Kelvin    Cal/Mol-Kelvin
 Total                  351.743            127.263            203.071
 Electronic               0.000              0.000              0.000
 Translational            0.889              2.981             44.875
 Rotational               0.889              2.981             35.997
 Vibrational            349.965            121.301            122.199
 Vibration     1          0.593              1.985              6.415
 Vibration     2          0.593              1.985              6.177
 Vibration     3          0.594              1.981              5.200
 Vibration     4          0.595              1.980              5.039
 Vibration     5          0.595              1.979              4.944
 Vibration     6          0.596              1.975              4.591
 Vibration     7          0.598              1.970              4.222
 Vibration     8          0.600              1.962              3.880
 Vibration     9          0.601              1.958              3.706
 Vibration    10          0.602              1.955              3.609
 Vibration    11          0.606              1.944              3.322
 Vibration    12          0.609              1.933              3.102
 Vibration    13          0.611              1.927              3.008
 Vibration    14          0.614              1.916              2.842
 Vibration    15          0.618              1.902              2.668
 Vibration    16          0.623              1.888              2.519
 Vibration    17          0.626              1.877              2.418
 Vibration    18          0.631              1.863              2.296
 Vibration    19          0.632              1.857              2.251
 Vibration    20          0.634              1.852              2.217
 Vibration    21          0.642              1.826              2.049
 Vibration    22          0.648              1.809              1.948
 Vibration    23          0.650              1.802              1.914
 Vibration    24          0.650              1.801              1.909
 Vibration    25          0.654              1.790              1.855
 Vibration    26          0.654              1.789              1.848
 Vibration    27          0.661              1.767              1.749
 Vibration    28          0.663              1.762              1.727
 Vibration    29          0.679              1.713              1.541
 Vibration    30          0.683              1.703              1.508
 Vibration    31          0.688              1.688              1.460
 Vibration    32          0.696              1.664              1.388
 Vibration    33          0.707              1.633              1.304
 Vibration    34          0.719              1.599              1.220
 Vibration    35          0.720              1.596              1.213
 Vibration    36          0.735              1.553              1.119
 Vibration    37          0.747              1.521              1.055
 Vibration    38          0.758              1.491              1.000
 Vibration    39          0.778              1.440              0.913
 Vibration    40          0.783              1.425              0.890
 Vibration    41          0.789              1.411              0.868
 Vibration    42          0.804              1.373              0.813
 Vibration    43          0.810              1.358              0.792
 Vibration    44          0.816              1.343              0.772
 Vibration    45          0.824              1.323              0.746
 Vibration    46          0.837              1.294              0.709
 Vibration    47          0.845              1.275              0.687
 Vibration    48          0.848              1.266              0.677
 Vibration    49          0.862              1.235              0.642
 Vibration    50          0.921              1.107              0.514
 Vibration    51          0.933              1.083              0.492
 Vibration    52          0.946              1.055              0.469
 Vibration    53          0.966              1.016              0.437
 Vibration    54          0.973              1.004              0.427
                       Q            Log10(Q)             Ln(Q)
 Total Bot       0.130862-213       -213.883188       -492.484240
 Total V=0       0.921203D+29         28.964355         66.692893
 Vib (Bot)       0.151274-229       -229.820236       -529.180650
 Vib (Bot)    1  0.927386D+01          0.967261          2.227200
 Vib (Bot)    2  0.822528D+01          0.915151          2.107213
 Vib (Bot)    3  0.502065D+01          0.700760          1.613558
 Vib (Bot)    4  0.462579D+01          0.665186          1.531647
 Vib (Bot)    5  0.440960D+01          0.644399          1.483783
 Vib (Bot)    6  0.368471D+01          0.566403          1.304192
 Vib (Bot)    7  0.305110D+01          0.484456          1.115502
 Vib (Bot)    8  0.256021D+01          0.408276          0.940091
 Vib (Bot)    9  0.233901D+01          0.369031          0.849726
 Vib (Bot)   10  0.222448D+01          0.347228          0.799523
 Vib (Bot)   11  0.191516D+01          0.282205          0.649800
 Vib (Bot)   12  0.170481D+01          0.231677          0.533456
 Vib (Bot)   13  0.162148D+01          0.209910          0.483337
 Vib (Bot)   14  0.148252D+01          0.171000          0.393742
 Vib (Bot)   15  0.134870D+01          0.129917          0.299144
 Vib (Bot)   16  0.124223D+01          0.094203          0.216911
 Vib (Bot)   17  0.117405D+01          0.069685          0.160455
 Vib (Bot)   18  0.109520D+01          0.039492          0.090933
 Vib (Bot)   19  0.106755D+01          0.028387          0.065364
 Vib (Bot)   20  0.104662D+01          0.019788          0.045562
 Vib (Bot)   21  0.949009D+00         -0.022730         -0.052337
 Vib (Bot)   22  0.893023D+00         -0.049137         -0.113142
 Vib (Bot)   23  0.874920D+00         -0.058032         -0.133623
 Vib (Bot)   24  0.872146D+00         -0.059411         -0.136798
 Vib (Bot)   25  0.843981D+00         -0.073667         -0.169625
 Vib (Bot)   26  0.840228D+00         -0.075603         -0.174082
 Vib (Bot)   27  0.789833D+00         -0.102465         -0.235934
 Vib (Bot)   28  0.779105D+00         -0.108404         -0.249609
 Vib (Bot)   29  0.689922D+00         -0.161200         -0.371176
 Vib (Bot)   30  0.675071D+00         -0.170651         -0.392938
 Vib (Bot)   31  0.652951D+00         -0.185119         -0.426253
 Vib (Bot)   32  0.621280D+00         -0.206713         -0.475973
 Vib (Bot)   33  0.584950D+00         -0.232881         -0.536229
 Vib (Bot)   34  0.549425D+00         -0.260092         -0.598884
 Vib (Bot)   35  0.546631D+00         -0.262306         -0.603981
 Vib (Bot)   36  0.507715D+00         -0.294380         -0.677835
 Vib (Bot)   37  0.482024D+00         -0.316932         -0.729762
 Vib (Bot)   38  0.460240D+00         -0.337015         -0.776007
 Vib (Bot)   39  0.426083D+00         -0.370506         -0.853122
 Vib (Bot)   40  0.417209D+00         -0.379646         -0.874168
 Vib (Bot)   41  0.408671D+00         -0.388626         -0.894845
 Vib (Bot)   42  0.387721D+00         -0.411480         -0.947468
 Vib (Bot)   43  0.379495D+00         -0.420794         -0.968914
 Vib (Bot)   44  0.372124D+00         -0.429313         -0.988529
 Vib (Bot)   45  0.362180D+00         -0.441075         -1.015614
 Vib (Bot)   46  0.348135D+00         -0.458253         -1.055166
 Vib (Bot)   47  0.339501D+00         -0.469159         -1.080278
 Vib (Bot)   48  0.335702D+00         -0.474046         -1.091530
 Vib (Bot)   49  0.322560D+00         -0.491390         -1.131466
 Vib (Bot)   50  0.273743D+00         -0.562657         -1.295565
 Vib (Bot)   51  0.265471D+00         -0.575983         -1.326250
 Vib (Bot)   52  0.256428D+00         -0.591035         -1.360907
 Vib (Bot)   53  0.243838D+00         -0.612899         -1.411251
 Vib (Bot)   54  0.240107D+00         -0.619596         -1.426672
 Vib (V=0)       0.106490D+14         13.027307         29.996483
 Vib (V=0)    1  0.978733D+01          0.990664          2.281089
 Vib (V=0)    2  0.874047D+01          0.941535          2.167964
 Vib (V=0)    3  0.554548D+01          0.743939          1.712983
 Vib (V=0)    4  0.515273D+01          0.712038          1.639528
 Vib (V=0)    5  0.493785D+01          0.693538          1.596931
 Vib (V=0)    6  0.421848D+01          0.625156          1.439475
 Vib (V=0)    7  0.359180D+01          0.555312          1.278653
 Vib (V=0)    8  0.310858D+01          0.492562          1.134166
 Vib (V=0)    9  0.289185D+01          0.461176          1.061897
 Vib (V=0)   10  0.277998D+01          0.444042          1.022443
 Vib (V=0)   11  0.247935D+01          0.394338          0.907997
 Vib (V=0)   12  0.227662D+01          0.357291          0.822693
 Vib (V=0)   13  0.219682D+01          0.341794          0.787009
 Vib (V=0)   14  0.206456D+01          0.314828          0.724919
 Vib (V=0)   15  0.193840D+01          0.287444          0.661864
 Vib (V=0)   16  0.183908D+01          0.264602          0.609268
 Vib (V=0)   17  0.177608D+01          0.249463          0.574409
 Vib (V=0)   18  0.170393D+01          0.231452          0.532939
 Vib (V=0)   19  0.167884D+01          0.225009          0.518102
 Vib (V=0)   20  0.165992D+01          0.220086          0.506767
 Vib (V=0)   21  0.157267D+01          0.196637          0.452774
 Vib (V=0)   22  0.152347D+01          0.182834          0.420991
 Vib (V=0)   23  0.150771D+01          0.178319          0.410594
 Vib (V=0)   24  0.150531D+01          0.177625          0.408996
 Vib (V=0)   25  0.148097D+01          0.170547          0.392698
 Vib (V=0)   26  0.147774D+01          0.169599          0.390517
 Vib (V=0)   27  0.143479D+01          0.156789          0.361020
 Vib (V=0)   28  0.142575D+01          0.154042          0.354695
 Vib (V=0)   29  0.135205D+01          0.130993          0.301624
 Vib (V=0)   30  0.134007D+01          0.127128          0.292723
 Vib (V=0)   31  0.132240D+01          0.121364          0.279450
 Vib (V=0)   32  0.129749D+01          0.113104          0.260431
 Vib (V=0)   33  0.126952D+01          0.103641          0.238642
 Vib (V=0)   34  0.124288D+01          0.094428          0.217429
 Vib (V=0)   35  0.124081D+01          0.093707          0.215768
 Vib (V=0)   36  0.121258D+01          0.083711          0.192753
 Vib (V=0)   37  0.119451D+01          0.077191          0.177738
 Vib (V=0)   38  0.117957D+01          0.071725          0.165154
 Vib (V=0)   39  0.115692D+01          0.063304          0.145763
 Vib (V=0)   40  0.115120D+01          0.061151          0.140806
 Vib (V=0)   41  0.114576D+01          0.059095          0.136072
 Vib (V=0)   42  0.113271D+01          0.054121          0.124617
 Vib (V=0)   43  0.112771D+01          0.052196          0.120187
 Vib (V=0)   44  0.112328D+01          0.050487          0.116252
 Vib (V=0)   45  0.111739D+01          0.048206          0.110998
 Vib (V=0)   46  0.110926D+01          0.045033          0.103693
 Vib (V=0)   47  0.110437D+01          0.043114          0.099274
 Vib (V=0)   48  0.110224D+01          0.042277          0.097347
 Vib (V=0)   49  0.109502D+01          0.039421          0.090770
 Vib (V=0)   50  0.107003D+01          0.029396          0.067688
 Vib (V=0)   51  0.106610D+01          0.027800          0.064012
 Vib (V=0)   52  0.106192D+01          0.026092          0.060080
 Vib (V=0)   53  0.105629D+01          0.023783          0.054761
 Vib (V=0)   54  0.105466D+01          0.023114          0.053221
 Electronic      0.100000D+01          0.000000          0.000000
 Translational   0.526595D+09          8.721476         20.081942
 Rotational      0.164275D+08          7.215572         16.614468
 ***** Axes restored to original set *****
 -------------------------------------------------------------------
 Center     Atomic                   Forces (Hartrees/Bohr)
 Number     Number              X              Y              Z
 -------------------------------------------------------------------
      1       26          -0.000004312    0.000019221   -0.000018498
      2        6           0.000000432    0.000019670   -0.000003592
      3       46          -0.005119047   -0.003315244   -0.033275796
      4        6          -0.000002058    0.000005689    0.000010235
      5        1           0.000002968    0.000005626    0.000003665
      6        1           0.000001392    0.000001648   -0.000005347
      7        1           0.000000595    0.000000634    0.000003094
      8        6          -0.000015927    0.000009356   -0.000001478
      9        8          -0.000002615   -0.000002609    0.000002155
     10        6           0.000003293   -0.000008657   -0.000021709
     11        8          -0.024816602    0.003985896    0.006764463
     12        6           0.000002764   -0.000002784   -0.000002989
     13        6          -0.000018859    0.000000644    0.000015955
     14        6           0.000004307    0.000003422    0.000006436
     15        1          -0.000000226   -0.000007580    0.000001733
     16        1           0.000008867   -0.000001165   -0.000005414
     17        1          -0.000000236   -0.000001739   -0.000000522
     18        1           0.047029362   -0.012154410   -0.010343773
     19        6          -0.024515890    0.007366899    0.018347049
     20        6           0.000030037   -0.000018052    0.000020581
     21        8          -0.004415948   -0.004097977    0.016318398
     22        6          -0.000001314   -0.000004146   -0.000004452
     23        6           0.000005061    0.000001537    0.000013222
     24        6          -0.000002946   -0.000002079   -0.000003983
     25        6           0.000001351   -0.000008391    0.000000171
     26        6          -0.000003848   -0.000006043    0.000001745
     27        1           0.000004142    0.000000962    0.000005148
     28        7           0.009721499    0.005871454    0.002049251
     29        1          -0.000000026   -0.000000334    0.000000347
     30        1           0.000001083   -0.000005361   -0.000000601
     31        1           0.000002077    0.000002935   -0.000000052
     32        1          -0.000003487    0.000000599   -0.000006589
     33        7           0.002132878    0.002316786    0.000142325
     34        6          -0.000014964    0.000012417   -0.000004351
     35        6          -0.000002742   -0.000001839    0.000007970
     36        1           0.000000304   -0.000000505    0.000000583
     37        1           0.000004931    0.000000821    0.000004392
     38        1          -0.000000031   -0.000001848   -0.000001219
     39        1           0.000002302    0.000002969   -0.000001999
     40        1           0.000000120    0.000000841   -0.000001033
     41        1          -0.000000678    0.000000925   -0.000000115
     42        6          -0.000007508    0.000002699   -0.000010727
     43        6           0.000009947    0.000007394   -0.000011206
     44        6          -0.000006099   -0.000002766    0.000000862
     45        1          -0.000001501    0.000004284    0.000001776
     46        1          -0.000006582   -0.000001107    0.000003731
     47        1          -0.000002868   -0.000003504    0.000002722
     48        1          -0.000002685    0.000000915    0.000004060
     49        1          -0.000000056    0.000001825    0.000001198
     50        1           0.000003137    0.000001163   -0.000000338
     51        1           0.000001770   -0.000005381   -0.000001802
     52        8          -0.000004390    0.000006768   -0.000003537
     53        6          -0.000002963    0.000004797    0.000002836
     54        6           0.000002657   -0.000004841   -0.000006049
     55        6           0.000007599    0.000002248    0.000008558
     56        6          -0.000002331    0.000007458   -0.000002182
     57        1          -0.000001267   -0.000003034   -0.000001848
     58        1           0.000000567   -0.000000291    0.000000706
     59        1           0.000001490   -0.000000461   -0.000000308
     60        1          -0.000002084   -0.000001357   -0.000001619
     61        1          -0.000003300    0.000002224   -0.000004647
     62        1           0.000000086   -0.000003145   -0.000000347
     63        1           0.000000639   -0.000002656   -0.000000097
     64        1          -0.000001494   -0.000001735    0.000001445
     65        1          -0.000000772   -0.000001688    0.000001406
 -------------------------------------------------------------------
 Cartesian Forces:  Max     0.047029362 RMS     0.005418908
 Z-matrix is all fixed cartesians, so copy forces.
 Leave Link  716 at Mon Oct 14 19:19:49 2024, MaxMem=   104857600 cpu:               0.1 elap:               0.6
 (Enter /home/echo/g16/l103.exe)

 GradGradGradGradGradGradGradGradGradGradGradGradGradGradGradGradGradGrad
 Berny optimization.
 Search for a local minimum.
 Step number   1 out of a maximum of    2
 All quantities printed in internal units (Hartrees-Bohrs-Radians)
 Second derivative matrix not updated -- analytic derivatives used.
 ITU=  0
     Eigenvalues ---   -0.04505   0.00009   0.00010   0.00020   0.00022
     Eigenvalues ---    0.00039   0.00060   0.00071   0.00095   0.00111
     Eigenvalues ---    0.00148   0.00168   0.00191   0.00192   0.00212
     Eigenvalues ---    0.00276   0.00306   0.00312   0.00331   0.00451
     Eigenvalues ---    0.00485   0.00548   0.00624   0.00688   0.00774
     Eigenvalues ---    0.00826   0.00911   0.01028   0.01063   0.01095
     Eigenvalues ---    0.01190   0.01201   0.01434   0.01481   0.01553
     Eigenvalues ---    0.01707   0.01788   0.01876   0.01901   0.02186
     Eigenvalues ---    0.02227   0.02263   0.02326   0.02521   0.02943
     Eigenvalues ---    0.03331   0.03515   0.03747   0.03806   0.04260
     Eigenvalues ---    0.04297   0.04378   0.04501   0.04604   0.04721
     Eigenvalues ---    0.04781   0.04924   0.05109   0.05253   0.05273
     Eigenvalues ---    0.05404   0.05466   0.05545   0.05584   0.05956
     Eigenvalues ---    0.06013   0.06205   0.06294   0.06373   0.06450
     Eigenvalues ---    0.06547   0.06790   0.06858   0.07007   0.07165
     Eigenvalues ---    0.07503   0.07995   0.08145   0.08462   0.09217
     Eigenvalues ---    0.09509   0.09940   0.10576   0.10755   0.11063
     Eigenvalues ---    0.11078   0.11170   0.11254   0.11305   0.11423
     Eigenvalues ---    0.11852   0.11909   0.11984   0.12226   0.12595
     Eigenvalues ---    0.12738   0.13039   0.13388   0.14039   0.14450
     Eigenvalues ---    0.14498   0.14644   0.14937   0.15262   0.15561
     Eigenvalues ---    0.16765   0.17423   0.17659   0.18059   0.18625
     Eigenvalues ---    0.18676   0.18736   0.18920   0.19383   0.19486
     Eigenvalues ---    0.20660   0.20947   0.21601   0.22138   0.22380
     Eigenvalues ---    0.22984   0.23223   0.24504   0.25286   0.26414
     Eigenvalues ---    0.29469   0.30663   0.31714   0.33877   0.35687
     Eigenvalues ---    0.37371   0.37881   0.39146   0.40500   0.41309
     Eigenvalues ---    0.41575   0.42139   0.43454   0.43933   0.47342
     Eigenvalues ---    0.48965   0.49878   0.52328   0.54930   0.57410
     Eigenvalues ---    0.60733   0.61286   0.62725   0.65145   0.65982
     Eigenvalues ---    0.67433   0.68289   0.69088   0.69631   0.69921
     Eigenvalues ---    0.70204   0.70604   0.70769   0.71093   0.71735
     Eigenvalues ---    0.72283   0.73662   0.73841   0.74766   0.75121
     Eigenvalues ---    0.76037   0.76099   0.77064   0.77894   0.78281
     Eigenvalues ---    0.79021   0.79216   0.79611   0.79890   0.80885
     Eigenvalues ---    0.83889   0.86534   0.92876   0.95004   1.00525
     Eigenvalues ---    1.01727   1.02090   1.09907   1.13450   1.16831
     Eigenvalues ---    1.17376   1.21719   1.24045   1.49042
 Eigenvalue     1 is  -4.51D-02 should be greater than     0.000000 Eigenvector:
                          X18       Z18       Z11       Z19       Y18
   1                    0.87933  -0.29120   0.19300  -0.14321  -0.13598
                          X19       Y8        X10       Y11       X1
   1                   -0.10509   0.09049  -0.07320   0.06977  -0.06238
 Quadratic step=9.708D+00 exceeds max=3.000D-01 adjusted using Lamda=-1.445D-01.
 Angle between NR and scaled steps=  79.58 degrees.
 Angle between quadratic step and forces=  25.00 degrees.
 Linear search not attempted -- first point.
 B after Tr=    -0.003477    0.000141   -0.001272
         Rot=    1.000000   -0.000015   -0.000105   -0.000084 Ang=  -0.02 deg.
 Variable       Old X    -DE/DX   Delta X   Delta X   Delta X     New X
                                 (Linear)    (Quad)   (Total)
    X1        4.14523  -0.00000   0.00000   0.00189  -0.00172   4.14351
    Y1       -0.90828   0.00002   0.00000  -0.00082   0.00006  -0.90822
    Z1       -1.36304  -0.00002   0.00000   0.01159   0.00943  -1.35362
    X2       -1.50084   0.00000   0.00000  -0.00309  -0.00527  -1.50611
    Y2       -1.85140   0.00002   0.00000  -0.00559  -0.00584  -1.85724
    Z2        4.72333  -0.00000   0.00000   0.00783   0.00682   4.73015
    X3        0.67346  -0.00512   0.00000  -0.01423  -0.01769   0.65577
    Y3        1.12110  -0.00332   0.00000  -0.00955  -0.00933   1.11177
    Z3        1.05929  -0.03328   0.00000  -0.06771  -0.06908   0.99020
    X4        4.81952  -0.00000   0.00000   0.00634   0.00192   4.82144
    Y4        4.22800   0.00001   0.00000   0.00085   0.00183   4.22983
    Z4       -1.12972   0.00001   0.00000   0.00258   0.00043  -1.12929
    X5        8.19111   0.00000   0.00000   0.00458   0.00107   8.19218
    Y5       -3.43233   0.00001   0.00000  -0.00269  -0.00110  -3.43342
    Z5       -2.87465   0.00000   0.00000   0.00238  -0.00071  -2.87536
    X6        8.80257   0.00000   0.00000   0.00404   0.00060   8.80317
    Y6        0.25281   0.00000   0.00000  -0.00133   0.00027   0.25307
    Z6        0.39599  -0.00001   0.00000   0.00238  -0.00073   0.39526
    X7        5.04923   0.00000   0.00000   0.00019  -0.00244   5.04680
    Y7       -0.17629   0.00000   0.00000  -0.00010   0.00076  -0.17553
    Z7        3.90434   0.00000   0.00000  -0.00059  -0.00292   3.90142
    X8       -4.14984  -0.00002   0.00000  -0.00688  -0.01060  -4.16044
    Y8        0.75617   0.00001   0.00000   0.01555   0.01501   0.77119
    Z8       -0.53619  -0.00000   0.00000  -0.00553  -0.00591  -0.54210
    X9       -1.61645  -0.00000   0.00000  -0.00046  -0.00202  -1.61847
    Y9       -3.20067  -0.00000   0.00000  -0.00927  -0.00959  -3.21026
    Z9        6.58634   0.00000   0.00000   0.00457   0.00354   6.58988
   X10        3.79706   0.00000   0.00000  -0.01635  -0.02084   3.77623
   Y10        2.37051  -0.00001   0.00000  -0.00189  -0.00102   2.36949
   Z10       -2.96490  -0.00002   0.00000   0.01328   0.01129  -2.95362
   X11       -3.46049  -0.02482   0.00000  -0.09182  -0.09614  -3.55662
   Y11        2.60652   0.00399   0.00000   0.00944   0.00905   2.61557
   Z11       -1.92586   0.00676   0.00000   0.02568   0.02524  -1.90062
   X12        1.59049   0.00000   0.00000  -0.00346  -0.00758   1.58290
   Y12       -1.11424  -0.00000   0.00000   0.00657   0.00709  -1.10715
   Z12       -4.00070  -0.00000   0.00000   0.01642   0.01478  -3.98592
   X13        4.03821  -0.00002   0.00000  -0.00573  -0.01002   4.02819
   Y13       -1.40452   0.00000   0.00000   0.00588   0.00684  -1.39768
   Z13       -4.98725   0.00002   0.00000   0.00654   0.00438  -4.98287
   X14        5.43215   0.00000   0.00000  -0.00743  -0.01194   5.42021
   Y14        0.75557   0.00000   0.00000   0.00453   0.00571   0.76128
   Z14       -4.32052   0.00001   0.00000   0.00689   0.00450  -4.31601
   X15        0.16065  -0.00000   0.00000   0.00353  -0.00038   0.16027
   Y15       -2.53975  -0.00001   0.00000  -0.00035  -0.00006  -2.53981
   Z15       -4.07011   0.00000   0.00000   0.00425   0.00287  -4.06724
   X16        4.76990   0.00001   0.00000  -0.00445  -0.00865   4.76125
   Y16       -3.06606  -0.00000   0.00000   0.00557   0.00668  -3.05938
   Z16       -5.85947  -0.00001   0.00000   0.00196  -0.00040  -5.85987
   X17        7.42114  -0.00000   0.00000  -0.00401  -0.00861   7.41253
   Y17        0.99800  -0.00000   0.00000   0.00143   0.00295   1.00095
   Z17       -4.54863  -0.00000   0.00000   0.00031  -0.00249  -4.55112
   X18       -1.07935   0.04703   0.00000   0.24779   0.24340  -0.83596
   Y18        2.22425  -0.01215   0.00000  -0.05510  -0.05502   2.16922
   Z18       -2.57538  -0.01034   0.00000  -0.05017  -0.05120  -2.62657
   X19        1.30412  -0.02452   0.00000  -0.05428  -0.05860   1.24552
   Y19        1.34583   0.00737   0.00000   0.01236   0.01280   1.35863
   Z19       -2.95878   0.01835   0.00000   0.03324   0.03174  -2.92704
   X20       -2.96897   0.00003   0.00000   0.01049   0.00794  -2.96102
   Y20       -2.68829  -0.00002   0.00000   0.00832   0.00790  -2.68039
   Z20        2.27349   0.00002   0.00000   0.00060  -0.00014   2.27336
   X21       -0.28747  -0.00442   0.00000  -0.00391  -0.00645  -0.29392
   Y21        0.23111  -0.00410   0.00000  -0.00248  -0.00253   0.22858
   Z21        4.61656   0.01632   0.00000   0.03224   0.03103   4.64759
   X22        3.74413  -0.00000   0.00000   0.00510   0.00248   3.74662
   Y22       -3.28160  -0.00000   0.00000  -0.00269  -0.00197  -3.28357
   Z22        1.49629  -0.00000   0.00000   0.00063  -0.00152   1.49476
   X23        4.80102   0.00001   0.00000   0.00595   0.00308   4.80410
   Y23       -4.43613   0.00000   0.00000  -0.00462  -0.00366  -4.43979
   Z23       -0.63958   0.00001   0.00000   0.00464   0.00222  -0.63735
   X24        7.02566  -0.00000   0.00000   0.00478   0.00156   7.02722
   Y24       -3.10724  -0.00000   0.00000  -0.00169  -0.00034  -3.10758
   Z24       -1.26546  -0.00000   0.00000   0.00197  -0.00087  -1.26633
   X25        7.32365   0.00000   0.00000   0.00755   0.00436   7.32801
   Y25       -1.11666  -0.00001   0.00000  -0.00392  -0.00257  -1.11923
   Z25        0.47786   0.00000   0.00000   0.00587   0.00302   0.48088
   X26        5.31204  -0.00000   0.00000   0.00637   0.00356   5.31560
   Y26       -1.22779  -0.00001   0.00000  -0.00096   0.00000  -1.22779
   Z26        2.20072   0.00000   0.00000   0.00140  -0.00103   2.19969
   X27        2.18148   0.00000   0.00000   0.00165  -0.00062   2.18086
   Y27       -3.93405   0.00000   0.00000   0.00182   0.00225  -3.93180
   Z27        2.59042   0.00001   0.00000  -0.00053  -0.00238   2.58804
   X28       -2.49219   0.00972   0.00000   0.02377   0.02051  -2.47168
   Y28       -0.79830   0.00587   0.00000   0.01649   0.01621  -0.78209
   Z28        0.39348   0.00205   0.00000   0.00186   0.00109   0.39457
   X29       -4.97782  -0.00000   0.00000   0.00706   0.00463  -4.97319
   Y29       -2.79400  -0.00000   0.00000   0.00570   0.00493  -2.78907
   Z29        2.77818   0.00000   0.00000  -0.00385  -0.00416   2.77402
   X30        6.73992   0.00000   0.00000   0.00615   0.00191   6.74183
   Y30        3.57245  -0.00001   0.00000  -0.00031   0.00098   3.57343
   Z30       -0.77192  -0.00000   0.00000   0.00218  -0.00040  -0.77232
   X31        4.89386   0.00000   0.00000   0.00613   0.00124   4.89510
   Y31        6.18454   0.00000   0.00000  -0.00039   0.00062   6.18517
   Z31       -1.82047  -0.00000   0.00000  -0.00063  -0.00274  -1.82321
   X32        3.96175  -0.00000   0.00000   0.00298   0.00012   3.96187
   Y32       -5.89789   0.00000   0.00000  -0.00065   0.00021  -5.89769
   Z32       -1.74469  -0.00001   0.00000   0.00165  -0.00064  -1.74532
   X33        3.38943   0.00213   0.00000   0.00972   0.00583   3.39526
   Y33        4.10445   0.00232   0.00000   0.00294   0.00361   4.10806
   Z33        1.26307   0.00014   0.00000  -0.00146  -0.00332   1.25975
   X34        1.39038  -0.00001   0.00000   0.00595   0.00174   1.39212
   Y34        6.03633   0.00001   0.00000  -0.00081  -0.00048   6.03586
   Z34        1.29497  -0.00000   0.00000  -0.00024  -0.00162   1.29335
   X35        5.06509  -0.00000   0.00000   0.00393   0.00040   5.06549
   Y35        4.56460  -0.00000   0.00000  -0.00176  -0.00088   4.56372
   Z35        3.39903   0.00001   0.00000   0.00236   0.00016   3.39919
   X36        2.21378   0.00000   0.00000   0.00368  -0.00084   2.21294
   Y36        7.94666  -0.00000   0.00000  -0.00000   0.00047   7.94713
   Z36        1.34605   0.00000   0.00000   0.00210   0.00060   1.34665
   X37        0.21286   0.00000   0.00000   0.00351  -0.00104   0.21182
   Y37        5.88540   0.00000   0.00000   0.00233   0.00251   5.88792
   Z37       -0.39699   0.00000   0.00000   0.00015  -0.00099  -0.39798
   X38        0.21178  -0.00000   0.00000   0.00362  -0.00020   0.21158
   Y38        5.78434  -0.00000   0.00000  -0.00178  -0.00169   5.78265
   Z38        2.98324  -0.00000   0.00000  -0.00110  -0.00224   2.98099
   X39        5.72682   0.00000   0.00000   0.00190  -0.00195   5.72487
   Y39        6.53169   0.00000   0.00000  -0.00152  -0.00052   6.53116
   Z39        3.42583  -0.00000   0.00000   0.00208  -0.00019   3.42563
   X40        4.05601   0.00000   0.00000   0.00036  -0.00273   4.05328
   Y40        4.18474   0.00000   0.00000  -0.00180  -0.00114   4.18361
   Z40        5.15432  -0.00000   0.00000   0.00023  -0.00177   5.15255
   X41        6.70462  -0.00000   0.00000   0.00249  -0.00086   6.70376
   Y41        3.33380   0.00000   0.00000  -0.00214  -0.00097   3.33282
   Z41        3.28170  -0.00000   0.00000   0.00236  -0.00022   3.28148
   X42       -2.04533  -0.00001   0.00000   0.00297   0.00064  -2.04469
   Y42       -5.25618   0.00000   0.00000   0.00273   0.00249  -5.25369
   Z42        1.27613  -0.00001   0.00000   0.00050  -0.00050   1.27564
   X43       -4.08606   0.00001   0.00000   0.00271   0.00035  -4.08571
   Y43       -6.79185   0.00001   0.00000   0.00202   0.00148  -6.79037
   Z43       -0.07497  -0.00001   0.00000   0.00062  -0.00000  -0.07497
   X44       -4.93733  -0.00001   0.00000   0.00260  -0.00048  -4.93780
   Y44       -5.59132  -0.00000   0.00000   0.00087   0.00026  -5.59106
   Z44       -2.54932   0.00000   0.00000   0.00013  -0.00027  -2.54959
   X45       -1.34970  -0.00000   0.00000   0.00096  -0.00085  -1.35055
   Y45       -6.36156   0.00000   0.00000   0.00163   0.00146  -6.36010
   Z45        2.87486   0.00000   0.00000   0.00067  -0.00051   2.87435
   X46       -0.49169  -0.00001   0.00000   0.00277   0.00010  -0.49159
   Y46       -4.87194  -0.00000   0.00000  -0.00048  -0.00041  -4.87236
   Z46       -0.04928   0.00000   0.00000  -0.00062  -0.00194  -0.05122
   X47       -3.33172  -0.00000   0.00000   0.00165  -0.00048  -3.33219
   Y47       -8.67575  -0.00000   0.00000   0.00108   0.00068  -8.67507
   Z47       -0.46351   0.00000   0.00000   0.00085   0.00002  -0.46349
   X48       -5.71172  -0.00000   0.00000   0.00191  -0.00015  -5.71187
   Y48       -7.01842   0.00000   0.00000   0.00156   0.00072  -7.01771
   Z48        1.17467   0.00000   0.00000  -0.00001  -0.00030   1.17437
   X49       -3.33786  -0.00000   0.00000   0.00218  -0.00120  -3.33906
   Y49       -5.34399   0.00000   0.00000   0.00066   0.00036  -5.34363
   Z49       -3.81953   0.00000   0.00000  -0.00028  -0.00101  -3.82054
   X50       -6.32883   0.00000   0.00000   0.00234  -0.00074  -6.32956
   Y50       -6.78119   0.00000   0.00000   0.00033  -0.00048  -6.78167
   Z50       -3.48588  -0.00000   0.00000   0.00014  -0.00001  -3.48589
   X51       -5.78368   0.00000   0.00000   0.00151  -0.00180  -5.78548
   Y51       -3.75591  -0.00001   0.00000   0.00053  -0.00023  -3.75614
   Z51       -2.20308  -0.00000   0.00000  -0.00035  -0.00052  -2.20360
   X52       -6.59409  -0.00000   0.00000  -0.00696  -0.01050  -6.60459
   Y52        0.22888   0.00001   0.00000  -0.01435  -0.01531   0.21358
   Z52       -0.13307  -0.00000   0.00000   0.00983   0.00995  -0.12313
   X53      -10.99454  -0.00000   0.00000   0.00302  -0.00058 -10.99512
   Y53        0.59332   0.00000   0.00000   0.00292   0.00122   0.59454
   Z53       -0.07848   0.00000   0.00000  -0.00196  -0.00091  -0.07939
   X54       -8.58162   0.00000   0.00000   0.00658   0.00258  -8.57905
   Y54        1.83349  -0.00000   0.00000  -0.00143  -0.00269   1.83080
   Z54       -1.07695  -0.00001   0.00000   0.00066   0.00124  -1.07572
   X55       -8.30563   0.00001   0.00000   0.00391  -0.00032  -8.30595
   Y55        4.50431   0.00000   0.00000   0.00180   0.00055   4.50487
   Z55       -0.01020   0.00001   0.00000  -0.00086  -0.00025  -0.01046
   X56       -8.58272  -0.00000   0.00000   0.00382  -0.00079  -8.58351
   Y56        1.85278   0.00001   0.00000   0.00102  -0.00015   1.85263
   Z56       -3.96699  -0.00000   0.00000  -0.00134  -0.00075  -3.96774
   X57      -11.13907  -0.00000   0.00000   0.00278  -0.00064 -11.13971
   Y57       -1.33014  -0.00000   0.00000   0.00206   0.00036  -1.32978
   Z57       -0.78465  -0.00000   0.00000  -0.00082   0.00020  -0.78445
   X58      -10.95395   0.00000   0.00000   0.00261  -0.00054 -10.95449
   Y58        0.52975  -0.00000   0.00000   0.00175   0.00000   0.52975
   Z58        1.97399   0.00000   0.00000  -0.00139  -0.00034   1.97364
   X59      -12.63866   0.00000   0.00000   0.00198  -0.00192 -12.64058
   Y59        1.65975  -0.00000   0.00000   0.00183  -0.00012   1.65963
   Z59       -0.68744  -0.00000   0.00000  -0.00102   0.00041  -0.68703
   X60       -8.18168  -0.00000   0.00000   0.00264  -0.00114  -8.18283
   Y60        4.42774  -0.00000   0.00000   0.00118  -0.00010   4.42764
   Z60        2.04117  -0.00000   0.00000  -0.00057   0.00001   2.04118
   X61       -9.93533  -0.00000   0.00000   0.00259  -0.00194  -9.93727
   Y61        5.63535   0.00000   0.00000   0.00117  -0.00033   5.63502
   Z61       -0.53931  -0.00000   0.00000  -0.00070   0.00028  -0.53903
   X62       -6.60743   0.00000   0.00000   0.00298  -0.00156  -6.60899
   Y62        5.39243  -0.00000   0.00000   0.00191   0.00097   5.39340
   Z62       -0.74911  -0.00000   0.00000  -0.00039  -0.00012  -0.74922
   X63       -8.71676   0.00000   0.00000   0.00249  -0.00195  -8.71871
   Y63       -0.06956  -0.00000   0.00000   0.00072  -0.00045  -0.07001
   Z63       -4.68457  -0.00000   0.00000  -0.00039   0.00017  -4.68441
   X64      -10.19063  -0.00000   0.00000   0.00206  -0.00288 -10.19351
   Y64        2.93257  -0.00000   0.00000   0.00067  -0.00075   2.93182
   Z64       -4.64797   0.00000   0.00000   0.00001   0.00097  -4.64700
   X65       -6.85411  -0.00000   0.00000   0.00252  -0.00239  -6.85650
   Y65        2.70546  -0.00000   0.00000   0.00130   0.00043   2.70590
   Z65       -4.67488   0.00000   0.00000  -0.00153  -0.00128  -4.67616
         Item               Value     Threshold  Converged?
 Maximum Force            0.047029     0.000450     NO 
 RMS     Force            0.005419     0.000300     NO 
 Maximum Displacement     0.243400     0.001800     NO 
 RMS     Displacement     0.021415     0.001200     NO 
 Predicted change in Energy=-1.976064D-02
 GradGradGradGradGradGradGradGradGradGradGradGradGradGradGradGradGradGrad

 Leave Link  103 at Mon Oct 14 19:19:49 2024, MaxMem=   104857600 cpu:               0.0 elap:               0.1
 (Enter /home/echo/g16/l9999.exe)
 Unable to Open any file for archive entry.
 1\1\GINC-ECHO\Freq\External='./xtb.sh'\ZDO\C23H34Fe1N2O4Pd1\ECHO\14-Oc
 t-2024\0\\#p freq external='./xtb.sh'\\Generate automatically by rxnb\
 \0,1\Fe,2.19356,-0.48064,-0.72129\C,-0.79421,-0.97972,2.49948\Pd,0.356
 38,0.59326,0.56055\C,2.55038,2.23736,-0.59782\H,4.33455,-1.81631,-1.52
 12\H,4.65812,0.13378,0.20955\H,2.67194,-0.09329,2.06609\C,-2.196,0.400
 15,-0.28374\O,-0.85539,-1.69372,3.48534\C,2.00932,1.25442,-1.56896\O,-
 1.83121,1.37931,-1.01912\C,0.84165,-0.58963,-2.11708\C,2.13693,-0.7432
 4,-2.63914\C,2.87457,0.39983,-2.28632\H,0.08501,-1.34398,-2.15381\H,2.
 52412,-1.62249,-3.1007\H,3.9271,0.52812,-2.40703\H,-0.57117,1.17702,-1
 .36283\C,0.69011,0.71218,-1.56572\C,-1.57111,-1.42258,1.20308\O,-0.152
 12,0.1223,2.44298\C,1.98131,-1.73655,0.7918\C,2.54059,-2.3475,-0.33845
 \C,3.71782,-1.64428,-0.66965\C,3.87551,-0.59091,0.25287\C,2.81101,-0.6
 4972,1.16457\H,1.15439,-2.08181,1.37079\N,-1.31881,-0.42244,0.20822\H,
 -2.63415,-1.47852,1.47015\H,3.56661,1.89046,-0.40848\H,2.58972,3.27272
 ,-0.96335\H,2.09647,-3.12103,-0.92325\N,1.79361,2.17198,0.66839\C,0.73
 576,3.19429,0.68527\C,2.68033,2.41548,1.79869\H,1.17148,4.20519,0.7123
 \H,0.11264,3.11442,-0.21008\H,0.11207,3.06094,1.57866\H,3.0305,3.45642
 ,1.81287\H,2.14635,2.21447,2.72755\H,3.54793,1.76417,1.7366\C,-1.08234
 ,-2.78145,0.6753\C,-2.16225,-3.59409,-0.03967\C,-2.61272,-2.9588,-1.34
 904\H,-0.71423,-3.36639,1.52131\H,-0.26019,-2.57812,-0.02608\H,-1.7630
 7,-4.59101,-0.24528\H,-3.02251,-3.71399,0.62161\H,-1.76632,-2.82792,-2
 .02121\H,-3.34907,-3.58845,-1.84465\H,-3.06059,-1.98754,-1.16582\O,-3.
 48944,0.12112,-0.07042\C,-5.81806,0.31397,-0.04153\C,-4.5412,0.97024,-
 0.5699\C,-4.39515,2.38358,-0.0054\C,-4.54178,0.98045,-2.09924\H,-5.894
 54,-0.70388,-0.41522\H,-5.79658,0.28033,1.04459\H,-6.68809,0.8783,-0.3
 6378\H,-4.32956,2.34306,1.08014\H,-5.25755,2.9821,-0.28539\H,-3.4965,2
 .85355,-0.39641\H,-4.61271,-0.03681,-2.47897\H,-5.39265,1.55185,-2.459
 6\H,-3.62704,1.43167,-2.47384\\Version=ES64L-G16RevC.01\HF=-96.5532904
 \RMSD=0.000e+00\RMSF=5.419e-03\ZeroPoint=0.5279666\Thermal=0.5605376\E
 Tot=-95.9927528\HTot=-95.9918087\GTot=-96.0882943\Dipole=0.,0.,0.\PG=C
 01 [X(C23H34Fe1N2O4Pd1)]\NImag=1\\0.45594310,-0.09636508,0.46933492,0.
 07750908,-0.11883006,0.52366932,0.00090238,-0.00077541,-0.00016373,0.2
 9895795,0.00187753,-0.00279419,0.00004345,0.16497846,0.63690233,-0.001
 13513,0.00030609,-0.00008808,-0.00167352,-0.26529102,0.61802928,-0.049
 86102,0.02499626,0.02484791,-0.00515118,-0.00875120,0.00705430,0.19468
 640,0.02263418,-0.01654560,-0.01962077,-0.00292749,-0.00380428,0.00546
 156,0.02515705,0.11960346,0.03982140,-0.02645494,-0.01649106,0.0110998
 7,0.01308760,0.01166206,-0.03066737,0.01152458,0.23255683,-0.00362949,
 0.00030971,-0.00201276,-0.00052626,-0.00086227,0.00006245,-0.00208741,
 -0.00163193,0.00319767,0.50265303,-0.00423799,-0.00273479,-0.00577113,
 -0.00034087,-0.00041555,0.00000338,-0.00174967,0.00053421,0.00448793,-
 0.02495878,0.50901404,0.00259908,0.00788783,-0.00145607,0.00043486,0.0
 0079379,-0.00034850,0.00159339,0.00220245,-0.00140777,0.03085552,0.008
 67634,0.42839491,-0.00230418,0.00018462,0.00256315,0.00005989,-0.00004
 372,-0.00004934,0.00053549,-0.00057948,-0.00015978,0.00000011,-0.00062
 076,-0.00014803,0.14643434,0.00072588,-0.00251016,-0.00249112,0.000015
 15,-0.00003463,-0.00001834,-0.00047180,0.00031052,0.00003835,0.0001701
 6,0.00055690,0.00004359,-0.02317955,0.04514268,-0.00188842,0.00081630,
 -0.00042860,-0.00020302,-0.00023683,0.00001982,-0.00004622,0.00011731,
 0.00003447,0.00003323,0.00008890,-0.00006665,-0.15625839,0.04893319,0.
 24747970,-0.00185524,-0.00321741,0.00262953,0.00003027,-0.00005110,-0.
 00011321,-0.00070657,-0.00062401,-0.00034926,-0.00074646,-0.00052466,-
 0.00029334,-0.00034845,0.00039266,-0.00066231,0.20864325,0.00295187,0.
 00189959,0.00008772,0.00000899,0.00000869,-0.00009205,-0.00012062,-0.0
 0012886,-0.00011829,0.00103401,-0.00083605,0.00053112,0.00058713,-0.00
 041169,0.00008926,0.16536441,0.18632166,-0.00107713,-0.00211949,-0.000
 26050,-0.00001536,0.00012252,0.00002724,0.00078357,-0.00010742,-0.0002
 1343,-0.00051036,-0.00025885,-0.00020395,-0.00047152,0.00008871,-0.000
 20485,-0.01726259,-0.00063044,0.03579121,0.00115060,-0.00358080,-0.000
 79618,-0.00136876,-0.00109955,-0.00008693,-0.00188654,0.00098063,-0.00
 261274,0.00010501,-0.00007458,-0.00019141,0.00029346,0.00064761,0.0009
 8026,-0.00033336,0.00031901,-0.00060514,0.04140278,-0.00108227,0.00359
 356,0.00207784,-0.00052986,0.00022255,-0.00021969,0.00074314,0.0014523
 8,-0.00018705,-0.00011417,-0.00015837,0.00025334,-0.00030518,0.0002496
 8,-0.00034574,0.00026072,-0.00014496,0.00042406,-0.01294289,0.12856539
 ,0.00178786,-0.00363085,0.00187720,-0.00051357,-0.00044553,0.00056656,
 -0.00493194,0.00040343,-0.00312866,0.00012488,-0.00021973,-0.00053683,
 -0.00036390,-0.00039683,0.00000446,-0.00021525,0.00041645,-0.00035260,
 -0.03993390,0.14869546,0.25971932,0.00047055,-0.00073120,-0.00089077,0
 .00035868,0.00002941,-0.00423836,-0.01526681,0.00047030,-0.00125608,-0
 .00057482,-0.00026674,0.00073897,0.00011959,0.00003736,-0.00025401,0.0
 0030683,0.00027193,-0.00000689,-0.00008785,0.00007086,-0.00000252,0.60
 258791,0.00284990,-0.00081774,-0.00455905,0.00665230,0.00785177,0.0043
 5968,-0.00172911,0.01007306,-0.00913754,0.00016444,-0.00059789,-0.0007
 1233,-0.00012664,0.00001037,0.00010124,-0.00011725,-0.00016907,0.00002
 145,0.00037322,-0.00020889,0.00004385,-0.05791304,0.55915108,-0.001854
 47,-0.00001168,0.00292855,-0.00431539,-0.00027205,-0.00657468,-0.00000
 467,-0.00597463,0.00454242,-0.00028099,0.00030301,0.00076277,0.0000973
 2,-0.00001306,-0.00010272,0.00007762,0.00008321,-0.00003438,-0.0003956
 5,0.00014860,-0.00011385,0.01308955,-0.28513831,0.36473973,0.00010857,
 0.00002498,-0.00004903,-0.06727529,-0.01630059,0.01742630,-0.00057217,
 -0.00188352,-0.00177768,0.00008490,0.00005195,-0.00005729,-0.00002931,
 -0.00000382,0.00007520,-0.00001579,-0.00001892,0.00001686,0.00039767,0
 .00023898,0.00005459,-0.00007923,-0.00221082,0.00111572,0.04782592,-0.
 00106348,0.00133592,0.00058627,-0.01364190,-0.25093348,0.26689722,0.00
 055916,-0.00256008,-0.00347835,0.00030901,0.00012422,-0.00038045,0.000
 08011,0.00000461,0.00008359,0.00008246,-0.00000348,-0.00004099,0.00036
 119,-0.00025859,0.00019616,-0.00261027,-0.00046564,0.00015613,0.046413
 13,0.30500558,0.00123715,-0.00085540,-0.00025907,0.01578583,0.26365977
 ,-0.44844516,-0.00199441,0.00168900,-0.00317697,-0.00019809,-0.0001316
 9,0.00031569,-0.00003614,0.00001456,-0.00006267,0.00000327,0.00007375,
 0.00000199,-0.00014445,0.00027101,-0.00027138,0.00614913,-0.00414765,0
 .00078209,-0.01458918,-0.33278599,0.52445885,-0.00984310,-0.00079150,-
 0.00900791,-0.00180614,-0.00387999,0.00027530,-0.00684977,-0.00133323,
 0.00987069,-0.09086420,-0.04250953,-0.04230084,-0.00011561,0.00019058,
 -0.00018773,0.00016725,-0.00056725,0.00045748,-0.00053849,0.00062283,-
 0.00030587,-0.00197204,0.00087518,-0.00066567,0.00022389,0.00162255,-0
 .00099588,0.52452571,-0.00134803,-0.10515285,0.04023673,0.00032023,0.0
 0076877,0.00012687,0.00428230,-0.00035167,-0.00044409,-0.05017678,-0.1
 2934051,-0.08333145,-0.00054892,0.00021471,-0.00006583,-0.00068436,-0.
 00018359,-0.00012015,0.00028561,0.00001761,-0.00035287,0.00021123,-0.0
 0119363,0.00089200,-0.00001718,-0.00026678,0.00005372,0.06459254,0.543
 98432,-0.00582828,0.03187015,-0.03483970,-0.00002333,-0.00022903,0.000
 01236,0.00386987,0.00445381,-0.00354499,-0.04240969,-0.07805767,-0.118
 84682,0.00031556,-0.00040414,0.00022584,0.00002736,-0.00004886,0.00010
 106,0.00038524,-0.00025211,0.00032282,0.00018907,-0.00053767,0.0002564
 7,-0.00002688,0.00001135,0.00010286,-0.02797412,0.21256241,0.33781772,
 -0.00424491,0.00163386,0.00683344,-0.00796476,-0.00775773,-0.00368188,
 -0.00904292,-0.00181693,-0.00263172,-0.00040064,0.00095721,0.00110650,
 0.00020244,-0.00025049,0.00012222,0.00005707,-0.00011679,0.00008958,-0
 .00024574,0.00019295,0.00005133,-0.09613727,-0.02531031,0.02809318,0.0
 0257090,0.00122146,0.00195563,-0.00547040,0.00465274,0.00288767,0.1830
 6668,-0.00164581,0.00059868,0.00156555,-0.00781755,-0.00954866,-0.0053
 7012,0.00287581,-0.00588088,0.00578424,0.00008002,-0.00003538,0.000132
 05,-0.00002995,-0.00002678,-0.00004770,0.00003309,0.00000417,-0.000061
 13,-0.00025862,-0.00004631,-0.00014513,-0.05550526,-0.26527778,0.15338
 973,0.00237276,0.00053062,0.00524464,0.00136451,-0.00046259,-0.0005104
 8,0.03234354,0.35427909,0.00381275,-0.00049069,-0.00484758,0.00614431,
 0.00502468,0.00540704,-0.00120109,0.00321871,-0.00952270,0.00026409,-0
 .00047700,-0.00092967,-0.00018044,0.00011398,-0.00008282,0.00000041,-0
 .00000039,-0.00010775,0.00034521,-0.00003605,0.00036261,0.05071116,0.1
 4659343,-0.16790144,-0.00167676,-0.00037242,-0.00285787,0.00213219,-0.
 00228610,-0.00128919,-0.05333283,-0.22170741,0.19189231,-0.06573682,-0
 .01852969,-0.06297865,-0.00044846,-0.00123483,0.00029315,-0.00313006,0
 .00531443,0.00610034,-0.00439287,-0.00007881,0.00051698,-0.00001131,-0
 .00027630,-0.00023790,0.00049620,0.00019956,0.00050370,0.00024654,-0.0
 0028820,0.00056517,-0.00086435,-0.00018491,0.00027247,-0.00001214,0.00
 050900,-0.00035673,0.00201073,-0.02141955,-0.00790367,-0.00173512,0.00
 045467,-0.00028821,0.65574076,-0.01778908,-0.02187794,0.00304243,0.001
 05249,0.00242120,-0.00035900,0.00308651,-0.00180092,-0.00626010,-0.003
 71705,0.00131644,-0.00116533,0.00015243,-0.00021225,0.00012576,0.00053
 437,-0.00062465,0.00046580,-0.00022409,0.00019165,-0.00027243,0.001041
 44,0.00190816,-0.00069760,-0.00014052,-0.00110925,0.00066598,-0.036475
 17,-0.02720027,-0.01403822,-0.00117347,-0.00081202,0.00125465,0.157695
 62,0.55738502,-0.04643313,-0.00165829,-0.06897136,0.00024539,0.0002578
 1,0.00016049,-0.00172034,-0.00372423,-0.00142205,0.00066071,0.00045281
 ,0.00123665,0.00055562,-0.00046389,0.00022826,-0.00009961,0.00022845,-
 0.00011854,0.00015507,-0.00008383,0.00051339,-0.00056521,0.00164473,-0
 .00111520,-0.00004664,-0.00006148,-0.00001751,-0.00702826,-0.00355799,
 -0.00492552,-0.00004508,-0.00075604,0.00070867,-0.06155812,0.14284302,
 0.22891349,0.00345494,0.00449950,0.00249871,0.00093014,0.00151159,0.00
 051451,0.00066907,0.00054841,-0.00125707,-0.00214666,0.00192009,0.0008
 5573,-0.00127179,0.00072380,-0.00113742,0.00006142,-0.00012828,-0.0001
 8090,-0.00050463,0.00024823,-0.00011739,0.00005522,0.00036431,0.000220
 45,-0.00018779,-0.00069910,0.00013133,0.01522748,0.00204862,-0.0102600
 5,-0.00158764,-0.00016810,0.00009390,-0.28377965,0.00531208,0.07141969
 ,0.52988287,0.00513595,-0.01606867,-0.02188393,0.00009449,0.00016503,-
 0.00003753,0.00065795,-0.00134745,0.00044878,0.00266740,0.00046226,-0.
 00304002,0.00129080,-0.00022266,0.00126710,0.00004992,-0.00014487,-0.0
 0018671,0.00044812,-0.00052673,0.00057612,0.00023968,0.00003217,-0.000
 30892,0.00004298,-0.00012278,0.00014050,0.01211249,-0.03873448,-0.0347
 0941,0.00106734,-0.00022272,0.00016568,0.02925461,-0.06835525,-0.02774
 206,-0.01452336,0.61377553,-0.00933957,-0.00814195,-0.11618267,-0.0002
 5189,-0.00061039,0.00001926,-0.00109529,-0.00077028,-0.00111464,0.0015
 6920,-0.00084204,-0.00056126,0.00061556,-0.00031101,-0.00038085,0.0008
 7051,-0.00025644,0.00075095,-0.00056673,0.00059524,-0.00014732,-0.0002
 2974,0.00003564,-0.00024780,0.00001708,0.00022690,-0.00011158,-0.00287
 387,-0.01484213,-0.00506827,0.00062934,0.00002610,-0.00003822,0.117353
 65,-0.02446622,-0.07327923,-0.13298220,0.25371935,0.34558158,-0.034711
 21,-0.02812466,0.04261125,0.00010962,0.00028009,-0.00010601,-0.0024050
 8,-0.00150084,0.00008796,0.00437165,-0.00192459,-0.00496137,-0.0003677
 8,0.00166860,-0.00064734,-0.00031377,-0.00003875,-0.00095622,-0.000128
 26,-0.00003491,-0.00010818,0.00025562,0.00037484,-0.00025809,0.0000309
 2,-0.00001875,0.00001313,-0.15753973,0.10207513,0.08051893,-0.00312426
 ,0.00056676,0.00103533,-0.04213670,-0.02150801,0.00923204,-0.14042268,
 -0.12286555,-0.03563103,0.72956077,-0.02215013,-0.02808804,0.05295599,
 -0.00064306,-0.00102553,-0.00018041,-0.00054188,0.00095746,0.00056096,
 0.01116597,-0.01654658,-0.01763340,0.00019237,-0.00036929,0.00041145,-
 0.00016075,-0.00032549,0.00006718,-0.00024921,0.00028860,-0.00040559,-
 0.00014544,0.00004870,-0.00000262,0.00003852,0.00048928,-0.00021977,0.
 06643341,-0.14294082,-0.07764888,0.00007114,-0.00030745,0.00012087,-0.
 02555289,-0.00082727,0.01796057,-0.10285511,-0.23293347,-0.08488722,0.
 10277265,0.47265986,0.02194910,0.04620558,-0.08891100,-0.00049151,-0.0
 0094328,-0.00002672,-0.00046924,0.00064295,-0.00009245,0.00668258,-0.0
 0936272,-0.01088265,0.00054782,-0.00020027,-0.00041182,0.00079934,0.00
 023996,0.00034208,-0.00001728,-0.00007878,0.00043461,-0.00024608,-0.00
 001995,-0.00010714,0.00003937,0.00035571,-0.00017227,0.07784380,-0.101
 67366,-0.09972254,0.00035741,-0.00001814,-0.00015286,-0.01071134,0.004
 75889,0.01551947,-0.00924345,-0.05381772,-0.05412534,-0.13886123,0.125
 88796,0.27942486,-0.00123778,-0.00259019,0.00220821,-0.00006487,-0.000
 12390,-0.00009444,-0.00010410,-0.00055032,-0.00102210,0.00051557,0.000
 47484,0.00021649,0.00031329,-0.00032231,-0.00005822,0.00025349,0.00017
 617,0.00030235,0.00006812,0.00015809,0.00016979,0.00002736,0.00029859,
 0.00013889,0.00000916,0.00006366,-0.00002081,-0.00064929,0.00115136,0.
 00097141,-0.00042194,-0.00002335,-0.00002894,-0.18363937,-0.14559117,-
 0.00299335,-0.01696933,-0.01606115,-0.00231907,-0.00466463,-0.00016773
 ,0.00096235,0.20149291,0.00185525,-0.00065984,0.00010195,-0.00008627,-
 0.00011671,-0.00022015,-0.00093882,-0.00098395,-0.00229280,-0.00164641
 ,-0.00004754,-0.00011741,0.00000323,0.00000591,0.00005597,0.00005498,-
 0.00014614,0.00004444,0.00001396,-0.00008220,0.00000837,0.00093731,-0.
 00063380,-0.00046571,0.00006706,-0.00001936,0.00015472,-0.00172005,-0.
 00482286,-0.00369997,0.00102649,0.00024660,0.00011411,-0.14436050,-0.1
 8064622,-0.01160145,0.00192881,0.00238226,0.00094740,-0.00032255,-0.00
 041614,-0.00118889,0.16127963,0.19908127,-0.00363923,-0.00715259,0.001
 27938,-0.00040038,-0.00052127,-0.00027712,-0.00097099,-0.00144096,-0.0
 0091549,0.00003683,0.00029933,0.00056527,0.00031334,-0.00002156,-0.000
 00867,0.00010716,0.00005861,-0.00000337,0.00008375,0.00007921,0.000268
 60,0.00074890,-0.00060486,-0.00001442,0.00012215,0.00015492,0.00013339
 ,0.00012453,-0.00130620,0.00091123,0.00004792,0.00038762,-0.00009573,-
 0.00733644,-0.01390089,-0.02605278,0.00904381,0.01051664,-0.00012894,0
 .00400573,-0.00049659,0.00095153,0.00106426,0.01502346,0.02671381,-0.0
 0175923,-0.00107213,-0.00044042,0.00021972,0.00035729,-0.00000995,-0.0
 0006728,0.00075793,0.00004523,0.00044376,-0.00039520,-0.00027769,-0.00
 120270,0.00019985,-0.00114077,0.00006112,-0.00009003,-0.00009077,-0.00
 006340,-0.00008158,0.00010104,0.00030820,0.00006217,0.00000903,-0.0000
 5055,-0.00015856,0.00007595,-0.00213956,-0.00215719,-0.00016403,-0.000
 62792,-0.00002497,0.00005586,-0.00747790,0.02162049,0.01033547,-0.0756
 8395,0.08661348,0.05141316,0.00635706,-0.01143984,-0.00737478,-0.00025
 056,0.00020904,-0.00045493,0.08584999,-0.00039165,-0.00100265,0.001692
 84,-0.00013788,-0.00031591,0.00003039,-0.00019076,-0.00034700,0.000166
 26,0.00082008,0.00007075,-0.00076824,-0.00020754,0.00050116,0.00004440
 ,0.00015997,-0.00008359,0.00007636,-0.00012491,0.00001396,0.00001343,-
 0.00022567,-0.00004185,-0.00003664,0.00004367,0.00013002,-0.00008823,-
 0.00167391,-0.00377697,-0.00409955,0.00016958,-0.00002903,0.00005905,0
 .00169150,-0.00191301,-0.00065189,0.08564467,-0.23873952,-0.11105883,0
 .00914838,-0.01676562,-0.00827664,0.00021526,0.00035892,0.00032684,-0.
 09538669,0.26219925,0.00186476,-0.00440497,-0.00005914,0.00001553,0.00
 006750,0.00005137,-0.00019845,0.00060771,0.00027763,0.00007694,0.00042
 666,0.00042999,-0.00142512,-0.00014775,-0.00055773,0.00041686,0.000099
 40,0.00028884,-0.00000337,0.00015020,0.00035826,-0.00004998,-0.0001872
 1,0.00008168,0.00000272,-0.00004790,0.00002296,0.00059415,-0.00056047,
 0.00185198,0.00015852,0.00018318,-0.00020784,0.00247266,-0.00401913,-0
 .00434299,0.05139842,-0.11193873,-0.08230664,-0.00038435,-0.00182764,-
 0.00320667,-0.00021105,0.00033425,-0.00104081,-0.05537305,0.12263056,0
 .08775396,-0.00126305,0.00161887,-0.00163416,0.00012216,0.00036906,-0.
 00019032,-0.00065600,-0.00039840,-0.00026460,0.00026804,-0.00029075,-0
 .00068736,0.00030139,-0.00001369,-0.00007119,0.00008344,0.00008528,-0.
 00014242,0.00005188,0.00000416,-0.00015459,0.00048635,0.00004782,-0.00
 010486,-0.00002664,-0.00012241,0.00013983,-0.01524752,-0.00183971,0.00
 123906,-0.00059962,0.00010376,0.00017648,-0.00300840,-0.00191176,0.001
 44529,-0.01173367,-0.00064655,0.00140433,-0.32178666,-0.03691029,0.035
 30040,-0.00011803,0.00009761,0.00086359,0.00012337,-0.00028999,-0.0002
 3219,0.35522293,-0.00203588,-0.00074498,-0.00047221,-0.00011395,-0.000
 19828,-0.00000655,0.00083777,0.00001723,-0.00037692,0.00073147,-0.0005
 3719,0.00076398,0.00036902,-0.00152948,0.00033154,-0.00010777,0.000294
 68,0.00011089,0.00013822,-0.00007198,-0.00017937,-0.00004602,-0.000171
 32,0.00002875,0.00001975,0.00008997,-0.00002624,0.01770309,0.00281893,
 -0.00060128,0.00059936,-0.00014337,-0.00014697,-0.00218617,-0.00309663
 ,-0.00156295,-0.02005173,-0.00223065,0.00474078,-0.03616798,-0.0382256
 4,-0.00344658,-0.00071971,0.00010393,0.00051942,-0.00016109,-0.0002519
 2,0.00028990,0.03979449,0.04452078,0.00574430,-0.00020292,-0.00186625,
 0.00006863,0.00009967,0.00001826,-0.00031500,0.00001967,-0.00007958,0.
 00092503,0.00148912,-0.00004842,0.00014672,0.00051302,0.00021532,-0.00
 035435,-0.00002418,-0.00094278,0.00002127,0.00004314,0.00034635,0.0000
 4792,-0.00025754,0.00014124,-0.00001279,-0.00007058,0.00003091,0.00794
 064,0.00238923,-0.00260889,0.00025572,0.00010221,-0.00030859,-0.002235
 30,-0.00298586,0.00225121,-0.01049147,0.00183152,0.00018094,0.03725770
 ,-0.00549257,-0.03028252,-0.00064660,-0.00022122,0.00065975,-0.0000855
 5,0.00043737,-0.00105407,-0.03928774,0.00468237,0.03182851,0.00718791,
 -0.00341561,-0.00990255,0.00988171,0.00992794,0.00411301,0.00743187,0.
 00556213,-0.01124604,0.00040865,-0.00144909,-0.00147145,-0.00022762,0.
 00031028,-0.00020386,0.00011176,0.00028492,-0.00007730,0.00026546,-0.0
 0002905,0.00063380,-0.00725013,-0.07260286,0.05244124,-0.00309465,-0.0
 0148293,-0.00242846,0.00279408,-0.00279161,-0.00246777,0.01432018,0.03
 940590,-0.04296396,0.00122623,0.00205078,-0.00028925,0.00179620,-0.000
 91939,-0.00125937,0.00240907,0.00016094,-0.00082040,0.00082483,-0.0016
 5153,-0.00001815,0.00078472,-0.00022081,-0.00035836,0.00056910,-0.0004
 7435,-0.00022946,-0.01648389,0.00007872,0.00098598,-0.00065130,-0.0018
 0704,-0.00197068,-0.00037009,-0.00261649,0.00184118,0.00530243,-0.0000
 3725,0.00018836,0.00045431,-0.00001060,0.00011044,-0.00000882,-0.00005
 098,0.00007609,0.00005146,-0.00000390,0.00000953,-0.00015699,-0.013247
 86,0.01505346,-0.00380600,0.00059123,0.00039279,-0.00003330,-0.0065025
 8,0.00474628,0.00231629,0.00918495,-0.01982459,0.00713511,0.00849110,-
 0.00364716,-0.00159833,0.00067209,-0.00132599,-0.00072432,-0.00205421,
 -0.00063661,0.00001615,0.00003931,-0.00033195,-0.00025487,0.00031459,0
 .00020104,-0.00022711,-0.00055477,0.00044583,0.00027921,0.01060439,0.0
 5206108,-0.00609465,0.00142439,0.01006599,-0.00188503,-0.00067591,-0.0
 0157524,-0.00045461,-0.00007952,-0.00295976,-0.00005226,0.00060180,0.0
 0067517,0.00022805,-0.00022002,0.00028628,0.00006455,-0.00006243,0.000
 21022,-0.00039917,0.00028387,-0.00021815,0.01100604,0.01391757,-0.0105
 3667,0.00054962,-0.00025364,0.00114635,0.00201382,0.00128113,-0.001273
 15,-0.00464747,-0.00457774,0.00376471,0.00710903,-0.00564795,-0.002519
 55,-0.00018175,-0.00148671,-0.00000397,-0.00008077,0.00013229,0.000736
 49,-0.00018282,0.00057038,-0.00020914,0.00034917,-0.00023081,0.0001446
 7,0.00021876,-0.00009849,0.00047260,0.01321632,-0.00540734,0.03175709,
 -0.06214063,0.03460770,0.01406754,-0.00255780,-0.00144635,-0.00066955,
 0.00408534,-0.00827012,-0.00203828,-0.00431513,-0.00309286,-0.00120501
 ,0.00134907,-0.00139036,0.00026993,0.00078179,-0.00012897,0.00065600,-
 0.00001439,0.00000791,-0.00002011,0.00162881,0.02828069,-0.01937847,0.
 00103050,-0.00042150,0.00094666,-0.24802931,-0.08984243,0.01523360,-0.
 05155828,-0.00399255,0.03137454,-0.06633746,0.03069800,0.02801273,-0.0
 1242698,0.01889751,0.01041813,-0.04275128,0.01926687,0.01093207,0.0042
 3852,-0.01624011,-0.00583901,-0.00429047,0.00002109,0.00062901,-0.0030
 0783,0.00311512,0.00067286,0.00055715,-0.00461513,-0.02470902,0.468939
 84,0.04372640,-0.02605912,-0.00979587,0.00207386,0.00256822,0.00004201
 ,-0.01141173,-0.00538192,0.01278409,-0.01811509,-0.00657733,-0.0003543
 2,-0.00111574,0.00056151,-0.00015096,-0.00077305,0.00048310,-0.0009140
 3,0.00055270,-0.00095414,0.00058280,0.00063567,-0.00887873,0.00685569,
 -0.00046602,-0.00005201,-0.00031690,-0.06444280,-0.08242007,-0.0139648
 4,0.00983268,0.00850162,-0.00825786,0.00637201,-0.25117081,-0.10431390
 ,0.03530599,-0.01717773,-0.00758995,-0.00413310,0.01222439,0.00178606,
 0.00294372,-0.01385538,-0.00416948,0.00145528,-0.00037990,-0.00064592,
 -0.00059719,-0.00115736,-0.00175501,-0.00234748,-0.03577039,0.00623814
 ,0.01188367,0.41832854,-0.02479256,0.01622437,-0.00884905,-0.00416031,
 -0.00668907,-0.00173968,0.01271365,0.00750973,-0.04829373,-0.01298375,
 -0.00079746,-0.00441577,-0.00005594,-0.00000084,-0.00010693,0.00054134
 ,-0.00015710,0.00013847,0.00022807,-0.00015118,0.00050667,-0.00193280,
 0.00267276,-0.00221064,0.00126509,0.00240623,-0.00042236,0.00179110,-0
 .01615461,-0.03622654,0.00035287,-0.00249203,0.01007884,0.01186704,-0.
 07896045,-0.07256322,0.03672924,-0.01902527,-0.00502217,0.01852503,-0.
 01111939,-0.00468208,-0.00139578,0.00104741,-0.00291425,0.00443642,-0.
 00219225,0.00160069,0.00258022,-0.00306134,0.00048712,0.01481636,-0.00
 490496,-0.02561572,-0.06158262,0.11849017,0.19817470,0.00059668,-0.000
 10938,-0.00072039,-0.07551137,-0.00220844,-0.01175136,-0.00110271,-0.0
 0355666,0.00602843,0.00019820,0.00008611,-0.00034772,0.00002988,0.0000
 1036,-0.00000071,0.00009780,0.00000325,-0.00002679,0.00014994,-0.00016
 989,-0.00004204,0.00777541,0.01078336,-0.01251554,0.01103261,-0.000793
 70,-0.01042607,0.00002378,0.00001382,-0.00000490,0.00167422,0.00841587
 ,-0.00547662,-0.00025983,0.00012717,-0.00019287,-0.00015620,0.00014544
 ,0.00001296,-0.00003756,0.00011578,-0.00001295,0.00002333,0.00022476,0
 .00023077,-0.00003805,0.00004381,-0.00004252,0.00004417,0.00001998,-0.
 00002305,-0.00282096,0.00017298,0.00064951,0.00094237,-0.00094882,0.00
 083939,0.48188790,0.00002962,-0.00057004,-0.00047015,0.00453368,-0.053
 26608,-0.00797790,-0.00224273,-0.00231669,0.00218238,-0.00002060,0.000
 06822,0.00002637,0.00001019,0.00001669,-0.00000914,0.00004801,0.000000
 93,0.00000615,0.00019383,-0.00001936,-0.00001246,0.00479873,-0.0234398
 9,0.01373464,0.00297993,0.00601095,0.02060295,-0.00021136,-0.00000074,
 -0.00007520,0.00371928,0.00049751,0.00619405,0.00000818,0.00003103,-0.
 00019183,0.00009555,0.00008514,-0.00004741,-0.00002569,0.00006692,-0.0
 0008227,-0.00003537,0.00021663,-0.00001695,0.00001129,-0.00002016,-0.0
 0002796,0.00007263,-0.00000047,-0.00001309,-0.00251178,0.00007159,0.00
 108651,0.00082245,-0.00014853,0.00034868,0.01084104,0.44464013,-0.0003
 2671,0.00007461,0.00026407,-0.00997092,-0.01355856,-0.06552023,0.00555
 353,0.00498068,-0.00586925,0.00023217,0.00014367,-0.00020822,-0.000024
 64,-0.00000114,0.00004684,-0.00004666,-0.00000203,-0.00000656,0.000120
 10,0.00000557,0.00003544,0.00061939,0.00355910,-0.01027375,-0.01947684
 ,0.01061445,-0.05454797,0.00081008,-0.00009764,-0.00001133,0.00397113,
 0.01045371,0.00015633,0.00019371,-0.00016250,0.00025285,-0.00023440,-0
 .00011125,0.00006408,-0.00007514,0.00010670,0.00014610,0.00011689,-0.0
 0033357,-0.00023404,-0.00006567,0.00003433,0.00000068,-0.00009250,0.00
 001198,-0.00003079,-0.00437938,0.00107536,0.00056956,0.00091273,-0.000
 75024,0.00165044,-0.04477492,-0.03956094,0.40356767,-0.00397383,0.0026
 6346,0.00135942,-0.14200277,-0.14267068,0.00098578,-0.00890786,-0.0070
 7147,0.01437027,0.00024888,0.00040543,-0.00007528,-0.00001365,-0.00001
 794,0.00017133,0.00008222,-0.00001125,-0.00000816,0.00053655,0.0004795
 3,0.00059317,-0.00057695,-0.00152160,0.00231551,0.00734126,-0.03033583
 ,0.01473132,0.00312123,-0.00104260,-0.00019200,0.00377186,0.00228828,-
 0.00200100,0.00157234,-0.00188166,-0.00049359,-0.00095708,-0.00057790,
 0.00068484,-0.00006589,0.00105366,0.00075824,-0.00007071,0.00012130,0.
 00023580,-0.00017521,0.00010990,-0.00016610,-0.00010369,0.00012174,-0.
 00018932,-0.00550781,0.00153370,-0.00047292,0.00102365,0.00012601,-0.0
 0016320,-0.00960685,-0.03325690,-0.01888457,0.15728627,0.00068598,0.00
 043530,-0.00152677,-0.14791354,-0.30645835,0.00477317,-0.00459334,-0.0
 0646243,0.01099759,0.00048052,0.00017849,-0.00042156,-0.00002601,-0.00
 000218,0.00007628,0.00001676,0.00000805,-0.00009310,0.00012367,-0.0002
 6909,-0.00001645,-0.00069511,-0.00456910,0.00214846,-0.03253267,-0.061
 23963,0.04216631,0.00217183,-0.00006399,0.00001761,0.00519923,0.005542
 57,-0.00354856,0.00006839,-0.00163580,0.00060246,-0.00061775,0.0002509
 2,0.00042969,-0.00018677,0.00019858,0.00054462,-0.00001068,-0.00014739
 ,0.00027645,-0.00032468,0.00017621,0.00001807,-0.00030055,0.00002690,-
 0.00002671,-0.00664121,0.00117442,0.00091182,0.00198709,0.00113035,0.0
 0209836,-0.02763079,-0.02484289,-0.01487430,0.21485129,0.39771729,0.00
 422221,-0.00079359,-0.00129951,-0.00215314,0.00450575,-0.08172949,-0.0
 0452113,-0.00520650,-0.09199744,-0.00019853,-0.00055480,0.00012071,-0.
 00014540,0.00014430,-0.00005269,-0.00009582,0.00002106,-0.00002323,0.0
 0082433,0.00015278,-0.00013879,-0.00177241,0.00099255,-0.00152500,0.02
 356369,0.05727653,-0.00518708,-0.00381282,0.00022948,-0.00074980,-0.00
 241412,-0.00090292,0.00154797,-0.00175714,0.00252041,0.00045067,0.0012
 6792,0.00038207,-0.00053774,0.00065683,-0.00104703,-0.00066949,0.00001
 307,0.00003605,-0.00003741,0.00019518,-0.00008751,0.00023984,0.0001745
 7,-0.00032607,0.00021103,0.00447931,-0.00132028,-0.00066911,0.00445182
 ,0.00194397,0.00195717,-0.01940507,-0.02221182,-0.00179857,-0.00808990
 ,-0.04031948,0.18499705,-0.02811709,-0.01354170,0.01332816,-0.00038355
 ,0.00126767,-0.00011727,-0.00316695,0.00317696,-0.00001878,-0.00061217
 ,-0.00030068,0.00001711,-0.00280645,-0.00460465,0.00278130,-0.00204342
 ,-0.00244223,0.00548227,0.00255509,0.00385771,-0.00052070,0.00030963,-
 0.00081882,0.00057887,0.00016018,-0.00033751,0.00023284,-0.00017430,0.
 00155251,-0.00115988,0.00041285,0.00030417,-0.00051936,0.00386471,-0.0
 0021216,-0.00103284,-0.00004856,0.00059334,-0.00111099,0.00244203,-0.0
 0029246,0.00027023,0.00024647,0.00006351,0.00010745,-0.00010496,-0.000
 09133,0.00007296,0.00001437,0.00049461,-0.00085981,-0.00036155,0.00008
 240,0.00060455,0.00428021,0.00146833,0.00048967,0.00044453,-0.00038182
 ,0.00005228,-0.00111294,-0.00008157,0.00133679,0.53148607,-0.01003002,
 -0.04617472,0.04788560,-0.00010870,-0.00015691,0.00056284,0.00874202,-
 0.00392913,0.00100203,-0.00023339,0.00095092,-0.00020085,-0.00209318,0
 .00004712,-0.00182379,-0.00099272,-0.00052326,0.00021877,-0.00659503,-
 0.01231056,-0.00141768,-0.00012319,0.00104443,-0.00059636,-0.00010557,
 -0.00027672,-0.00012453,-0.00726317,0.00180328,0.00432612,-0.00114364,
 -0.00025873,0.00077057,0.00706382,0.00070302,-0.00095402,-0.00023464,-
 0.00016175,-0.00477295,0.00172009,-0.00759359,-0.00093726,-0.00019650,
 -0.00020901,0.00000201,-0.00023619,0.00032870,-0.00106699,0.00011624,0
 .00016793,-0.00063962,0.00151190,0.00005673,-0.00118494,-0.00160051,0.
 00763839,0.00058178,-0.00024810,-0.00020585,-0.00000322,0.00021388,-0.
 00007478,-0.00051279,0.20517291,0.42194171,0.01588222,0.04786464,-0.05
 470746,0.00076797,0.00058276,-0.00130444,0.00222561,0.00022791,-0.0010
 1255,-0.00045766,-0.00136473,0.00018296,0.00170765,0.00116691,-0.00123
 867,0.00207829,-0.00131862,-0.00144564,-0.01163993,-0.01735546,-0.0029
 6954,0.00121940,0.00071910,-0.00028180,0.00004491,-0.00060745,0.000764
 43,0.00049099,-0.00626460,0.00379591,-0.00159628,-0.00027416,0.0008614
 3,0.00096645,0.00374910,0.00498471,0.00494740,0.00471192,-0.00279001,-
 0.00092277,-0.00493811,-0.00423172,0.00080700,-0.00020166,0.00103202,0
 .00002849,0.00020219,0.00055540,-0.00031417,-0.00054086,0.00021719,0.0
 0280381,-0.00025365,-0.00183244,-0.01083807,0.00249768,-0.00252161,0.0
 0034184,0.00033225,-0.00043311,-0.00010750,-0.00056289,0.00038880,-0.2
 5502080,0.07576177,0.52017319,-0.01079022,0.01579197,-0.01563442,0.000
 15339,0.00025527,-0.00002276,-0.00032309,0.00238344,-0.00049566,-0.000
 37842,0.00054319,-0.00051221,-0.01127371,-0.00685244,0.00224044,0.0004
 6076,-0.00391999,0.00062580,-0.00104332,-0.00312088,0.00032866,0.00006
 115,0.00042262,-0.00015884,-0.00005005,-0.00005890,0.00002929,-0.00684
 111,0.00340524,0.00238911,-0.00071303,-0.00018403,0.00036463,0.0045567
 4,0.00130987,0.00156853,0.00280918,-0.00331431,-0.00015647,0.00003180,
 -0.00457321,0.00220448,0.00012555,0.00014744,0.00057608,-0.00000357,0.
 00065131,-0.00011760,0.00001867,-0.00048693,0.00011807,0.00111741,-0.0
 0016680,-0.00040053,0.00180883,0.00670085,0.00010534,-0.00006056,0.000
 04104,0.00017764,-0.00004926,-0.00045415,-0.00003807,-0.09738370,0.016
 33081,0.10272242,0.44550595,0.02242152,-0.12149968,0.02568877,0.000475
 28,-0.00028106,0.00022144,0.00135014,-0.00205373,-0.00067442,-0.000424
 85,-0.00013669,0.00003598,0.00469118,0.00345493,-0.00020661,-0.0000674
 6,-0.00291285,-0.00235757,-0.00233542,-0.00293545,-0.00039722,-0.00010
 690,0.00035157,-0.00016158,-0.00013927,0.00018008,-0.00012265,0.000204
 30,0.00044054,0.00259518,-0.00097424,0.00007924,0.00046807,-0.00145620
 ,0.00342440,0.00070907,0.00321277,0.00098301,-0.00176659,0.00183576,-0
 .00335423,-0.00294058,-0.00078973,0.00013544,-0.00024439,0.00042223,0.
 00007672,-0.00094293,0.00015414,0.00036877,-0.00100947,0.00125678,0.00
 009636,-0.00095232,-0.00615570,0.00055179,-0.00175518,-0.00004674,-0.0
 0014663,-0.00003703,-0.00072218,0.00026583,0.00085096,0.04008852,-0.10
 573236,-0.12546694,0.19282313,0.57690786,-0.01569280,0.01192010,-0.014
 92811,0.00006046,-0.00062983,-0.00031064,-0.00025063,-0.00228975,0.001
 57380,0.00045274,0.00072854,-0.00017323,0.01445021,0.01380205,-0.00531
 569,0.00079657,-0.00345972,-0.00191504,-0.00043637,-0.00375955,-0.0001
 9047,0.00025984,-0.00085427,0.00065924,-0.00007383,0.00037752,-0.00009
 558,0.00673569,0.00071346,-0.00229900,0.00097205,0.00025617,-0.0009593
 3,-0.00466445,0.00056784,0.00170066,0.00051988,0.00293358,0.00109755,-
 0.00122248,0.00793140,-0.00039892,-0.00026388,0.00052526,-0.00040463,0
 .00008358,0.00059288,-0.00078121,-0.00007705,-0.00006972,0.00035043,-0
 .00148670,0.00012848,0.00111040,0.00216803,-0.00385011,-0.00072788,0.0
 0024144,-0.00013594,-0.00001010,0.00013935,0.00059009,-0.00046568,0.09
 636934,-0.08151687,-0.23356570,-0.08029760,0.23299247,0.46906341,-0.08
 812537,0.06812454,-0.00882983,0.00015733,0.00037955,0.00012062,-0.0003
 5907,-0.00031954,-0.00107452,0.00048756,-0.00071496,0.00036909,-0.1341
 7731,0.02219645,0.14305307,-0.00057562,-0.01535681,-0.01356273,-0.0023
 8978,-0.00077365,0.00164214,0.00003826,0.00027514,-0.00008943,-0.00006
 876,-0.00009100,-0.00009534,0.00064676,-0.00377208,0.00239033,-0.00007
 445,-0.00029538,0.00021121,-0.00412137,0.00521203,0.00234054,0.0014328
 4,0.00454101,0.00095496,0.00208924,-0.00093231,-0.00000860,0.00043139,
 -0.00015359,0.00065784,0.00010603,0.00047405,0.00028494,-0.00037365,-0
 .00083263,0.00049048,0.00029512,-0.00000139,-0.00024876,-0.00249352,-0
 .00423227,-0.00149926,0.00012280,0.00012792,-0.00013701,-0.00003785,-0
 .00035216,0.00006287,-0.03135293,0.01219255,0.02521147,-0.22809140,-0.
 13780837,0.06009770,0.54981458,0.05869218,-0.05368412,0.00955122,-0.00
 008267,-0.00015261,-0.00001904,-0.00046731,-0.00027296,0.00185014,0.00
 083503,0.00161837,0.00056181,0.02204731,-0.04109272,-0.04504822,0.0001
 2018,-0.01486510,-0.01058886,-0.00073018,0.00015857,-0.00064571,-0.000
 17914,-0.00042193,0.00022781,0.00000609,0.00006533,-0.00007883,0.00861
 773,-0.00276003,-0.00052006,0.00059993,0.00008294,-0.00049155,-0.00458
 075,0.00164779,-0.00110662,0.00194535,0.00398521,-0.00008039,0.0035595
 1,0.00131727,-0.00067758,-0.00068000,0.00027213,-0.00065001,0.00015883
 ,-0.00027289,-0.00056809,0.00040186,-0.00029690,0.00028002,-0.00096242
 ,0.00017172,0.00073663,-0.00203038,-0.00733951,-0.00123529,0.00004950,
 0.00003391,0.00004717,-0.00006167,0.00021674,-0.00047485,-0.01250660,0
 .02370838,0.01278752,-0.09328648,-0.11846759,0.00262830,0.06777049,0.4
 1492929,0.00657779,0.00006858,-0.00760362,-0.00010690,0.00003881,0.000
 05669,0.00278884,-0.00129032,-0.00277325,0.00021289,-0.00002964,-0.000
 14727,0.14395751,-0.04531668,-0.22284771,-0.00154685,0.00219086,0.0001
 3883,0.00476986,-0.00186981,-0.00161550,0.00018926,0.00074329,-0.00055
 979,0.00004664,-0.00014956,0.00011570,-0.00040711,-0.00112415,0.000208
 52,-0.00153410,-0.00024023,0.00091342,-0.00179542,0.00246645,0.0008570
 8,-0.00310556,-0.00169100,-0.00196072,0.00154434,0.00506446,0.00174002
 ,0.00019447,-0.00009730,0.00015774,-0.00159153,0.00057055,-0.00194239,
 -0.00037514,0.00122620,-0.00064433,0.00237136,-0.00016077,-0.00153264,
 -0.00684039,0.00200623,-0.00162458,0.00000489,0.00008041,-0.00000521,-
 0.00017933,-0.00004666,0.00053260,0.02693908,-0.00294999,-0.02458035,0
 .06118233,0.01853044,-0.07042484,-0.23759187,0.18186749,0.53010002,-0.
 09880564,0.00282846,-0.05313542,-0.00050134,-0.00029789,-0.00020845,-0
 .00304717,0.00015050,-0.00094401,-0.00007104,-0.00071416,-0.00058874,0
 .00372264,0.01187567,0.00990190,-0.19213414,-0.14821589,0.01379829,-0.
 00226741,0.00171590,0.00012272,0.00013721,-0.00015404,-0.00000626,0.00
 018604,0.00013697,0.00004568,0.00559745,-0.00142893,-0.00009043,0.0004
 5722,-0.00015200,0.00002698,-0.00192092,0.00383580,0.00121837,0.000453
 95,0.00057795,0.00268053,0.00164942,0.00212071,0.00305929,0.00039212,-
 0.00000825,0.00009846,0.00005234,-0.00010961,0.00094226,-0.00037427,-0
 .00025586,0.00105933,-0.00025311,-0.00001938,0.00041943,0.00039685,-0.
 00698878,-0.00034860,0.00005647,0.00007750,0.00002146,0.00100036,-0.00
 008678,-0.00036137,-0.03535876,-0.01697646,0.00041685,-0.00463246,-0.0
 1825848,-0.01045311,-0.06571641,-0.05452167,-0.02082052,0.60045209,-0.
 00696091,-0.02093309,0.00548611,-0.00038649,-0.00041890,-0.00008755,0.
 00066037,-0.00008254,-0.00000666,-0.00112981,-0.00122119,-0.00012917,0
 .00103351,-0.00349643,-0.00101898,-0.15184798,-0.16429744,0.00068395,0
 .01344790,-0.00052975,-0.00643754,-0.00012155,-0.00001697,-0.00004115,
 0.00006814,0.00021168,-0.00009282,0.00237592,0.00453552,-0.00128573,0.
 00017538,-0.00001837,-0.00003566,0.00451712,-0.00058919,-0.00187265,-0
 .00220413,-0.00101801,-0.00084118,-0.00202573,0.00307876,0.00060119,0.
 00039306,-0.00030523,0.00081864,-0.00030619,-0.00002145,-0.00032837,0.
 00058115,0.00010265,0.00086562,-0.00040890,0.00010458,0.00002968,0.002
 77406,0.00160605,0.00206548,0.00004343,-0.00007341,0.00008300,0.000192
 49,0.00015256,0.00018651,-0.02262952,-0.01442887,0.00473278,-0.0420239
 7,-0.02550629,-0.00597414,-0.01851028,-0.19220562,-0.13288811,0.252749
 51,0.47160068,-0.04451212,0.01044295,-0.02976308,0.00014899,0.00027050
 ,-0.00010625,0.00157596,0.00104825,0.00146276,0.00041338,0.00061895,0.
 00007265,-0.00513638,-0.01346978,-0.01402861,0.01413225,0.00143507,-0.
 03347291,0.01688878,0.00016966,-0.00971643,0.00018270,-0.00055117,0.00
 046106,-0.00003330,-0.00008015,-0.00001953,0.00096402,0.00342904,0.000
 17641,0.00113349,0.00013878,-0.00093556,0.00347732,-0.00530307,-0.0049
 4746,-0.00923586,-0.00241962,-0.00210025,-0.00401828,0.00178506,0.0029
 3779,0.00025616,0.00021277,-0.00079527,-0.00020792,-0.00003083,0.00036
 245,-0.00026496,0.00014532,-0.00014456,-0.00170379,-0.00007504,0.00139
 583,0.00650191,-0.00192394,0.00229779,-0.00005208,0.00001787,-0.000063
 62,0.00008400,-0.00014904,-0.00058406,0.02489710,0.01457494,0.01640713
 ,-0.01764901,-0.00721789,-0.00002035,0.01091021,-0.14050366,-0.1627807
 7,-0.11146861,0.14592946,0.40998149,-0.01192458,0.00641946,-0.02335993
 ,0.00043287,0.00085855,0.00004842,-0.00758509,0.00596343,-0.00131835,0
 .00064349,0.00131333,0.00027025,0.00093317,-0.00127813,0.00302644,-0.0
 1300740,-0.00001859,0.01177036,-0.03714261,0.01225086,0.03970810,-0.00
 071363,-0.00067246,0.00037842,0.00002853,-0.00026220,0.00006192,0.0008
 0625,0.00411237,-0.00057392,0.00120237,0.00020818,-0.00107851,0.002126
 85,-0.00336761,-0.00672659,-0.00848569,-0.00417708,0.00044783,-0.00082
 958,0.00187082,0.00528629,0.00006906,-0.00000036,0.00016708,-0.0001367
 3,-0.00008787,0.00001426,0.00012514,-0.00034991,0.00077583,-0.00217597
 ,-0.00019458,0.00175210,0.00844474,-0.00318789,0.00237005,-0.00009177,
 -0.00001600,0.00001393,-0.00111317,-0.00071958,0.00018457,-0.13609591,
 -0.13220825,-0.01058384,0.00127157,-0.00205988,-0.01155623,0.01090026,
 0.02342507,0.03562929,-0.20609081,-0.02487973,0.11224864,0.41276870,0.
 00389177,-0.01889238,-0.00893798,-0.00045642,-0.00082348,0.00038558,0.
 00209532,0.00029856,0.00206370,0.00073832,0.00087409,-0.00039534,-0.00
 205206,-0.00196432,-0.00348899,-0.01051543,-0.00185804,0.01525802,0.01
 192218,-0.10542460,-0.13597558,-0.00059730,0.00011135,-0.00017622,0.00
 001184,0.00016208,-0.00025753,0.00039528,0.00443908,-0.00032929,0.0007
 0074,-0.00018774,-0.00005266,-0.00193558,-0.00057964,-0.00177187,-0.00
 369923,-0.00051074,0.00112822,0.00020119,0.00192717,0.00360863,-0.0001
 2875,0.00004479,-0.00027992,0.00007114,-0.00027207,0.00068024,0.000133
 53,0.00002886,-0.00011397,-0.00107849,0.00015975,0.00051999,0.00328597
 ,-0.00077837,0.00104666,-0.00005233,-0.00010906,0.00024082,0.00094541,
 0.00059573,-0.00146268,-0.11448674,-0.19180633,-0.03817404,0.00246888,
 -0.02252064,-0.04606280,0.00668606,-0.00963743,-0.01766193,-0.02268481
 ,-0.05031753,-0.00737382,0.12903627,0.40922946,-0.02168806,-0.00860750
 ,-0.08609492,0.00037030,0.00143694,-0.00028601,0.00039602,0.00120092,-
 0.00048232,-0.00025001,-0.00138650,-0.00005712,-0.00069599,-0.00265601
 ,-0.00281137,-0.00124605,0.00092416,0.00062337,0.03345366,-0.12899551,
 -0.24680050,0.00047898,0.00092359,-0.00050654,0.00007407,-0.00075108,0
 .00049565,-0.00623123,0.00139748,0.00359944,-0.00120403,-0.00050821,0.
 00076518,0.00851669,-0.00213613,0.00259336,-0.00098668,0.00301731,-0.0
 0296780,-0.00115359,-0.00527005,-0.00112994,0.00086778,-0.00028901,0.0
 0111010,0.00004120,0.00026198,0.00087972,-0.00020403,-0.00056400,0.000
 87642,0.00219407,0.00007664,-0.00156486,-0.00311744,0.01100591,0.00072
 617,0.00003678,0.00020135,-0.00019244,-0.00027229,-0.00075378,0.000123
 71,-0.03681383,-0.08092927,-0.08067333,-0.01064259,-0.01951469,-0.0122
 8517,0.01197516,-0.01248901,-0.03476315,0.16517300,-0.00735653,-0.1743
 8363,-0.14955479,0.24526596,0.63198371,0.00335544,0.00076504,-0.001245
 26,0.00001649,0.00231873,0.00088284,0.00147095,0.00008703,0.00033554,-
 0.00007908,0.00015524,0.00001284,-0.00009328,-0.00065243,0.00032573,-0
 .00011695,-0.00028521,0.00083040,-0.00010981,0.00050417,-0.00065104,-0
 .00011959,0.00069352,-0.00048410,-0.00054189,-0.00098751,0.00055236,0.
 00016956,-0.00026202,0.00009053,-0.00069559,-0.00060294,0.00055411,-0.
 00041423,0.00019936,0.00029930,0.00021900,0.00018711,-0.00005265,-0.00
 043500,0.00036271,-0.00066221,-0.00009082,0.00002118,-0.00029957,-0.00
 007140,-0.00003305,-0.00018977,0.00009779,0.00012636,-0.00018078,0.000
 76007,0.00010352,-0.00045040,-0.00085388,-0.00013747,-0.00008532,-0.00
 125799,0.00050253,-0.00036022,-0.00092556,0.00041729,0.00032554,-0.205
 89939,-0.07870405,0.12869122,-0.00890982,-0.00205940,0.00548524,-0.001
 04398,-0.00108592,0.00324620,-0.00187622,-0.00347855,0.00120849,-0.012
 41506,-0.00421098,0.00744317,0.23745424,-0.00479724,-0.00016389,-0.001
 56979,0.00268316,0.00107535,-0.00084539,0.00071699,-0.00505568,0.00253
 004,-0.00006224,0.00022267,0.00010459,0.00065852,0.00050307,-0.0005368
 8,-0.00057821,0.00023754,0.00046703,0.00017443,-0.00035201,0.00021208,
 0.00041108,-0.00046035,0.00045745,-0.00032687,-0.00022212,-0.00004557,
 -0.00013788,0.00033522,-0.00035671,-0.00000681,0.00024317,-0.00034214,
 0.00041584,-0.00014181,-0.00068792,-0.00010978,-0.00019441,-0.00012017
 ,0.00049608,-0.00026512,0.00054065,-0.00011060,0.00007185,-0.00004245,
 0.00009548,0.00004120,-0.00010324,-0.00003010,0.00001162,-0.00019432,-
 0.00019202,0.00000838,0.00030055,0.00041918,0.00049991,-0.00011682,0.0
 0031704,0.00021764,-0.00002462,-0.00076552,-0.00090351,-0.00066718,-0.
 08445902,-0.06433883,0.05138849,0.01268362,0.00470504,-0.00679284,0.00
 089453,-0.00008876,-0.00376109,-0.00218932,-0.00195082,-0.00078917,-0.
 01251165,-0.00483712,0.00960713,0.08990010,0.07058855,0.00420096,-0.00
 050380,0.00162080,0.00139450,-0.00107061,0.00208003,-0.00028169,0.0037
 3127,-0.00056809,0.00002782,-0.00025598,0.00006682,0.00049483,0.000458
 14,0.00019942,-0.00063291,-0.00039125,0.00048850,-0.00044407,0.0006358
 1,-0.00009859,-0.00044261,0.00058209,-0.00030355,-0.00039404,0.0008566
 1,-0.00127932,0.00016260,-0.00059981,0.00027372,-0.00011879,-0.0002538
 0,0.00030335,0.00006024,0.00017374,0.00089191,0.00023769,0.00009251,0.
 00046337,-0.00053423,-0.00016653,-0.00047298,0.00010005,0.00002142,-0.
 00017268,-0.00001837,0.00007885,0.00035055,-0.00005225,-0.00025743,0.0
 0014578,0.00042405,-0.00010145,-0.00020285,-0.00062163,-0.00053175,0.0
 0006318,-0.00035717,0.00011815,0.00011525,0.00009192,-0.00052460,-0.00
 051566,0.13608052,0.04776638,-0.12477699,0.01327172,0.00691085,-0.0080
 4514,0.00178571,-0.00141939,-0.00241846,-0.00136651,-0.00258924,0.0001
 2207,-0.00878310,-0.00180566,0.00556682,-0.14117087,-0.04806799,0.1287
 2752,0.00431709,0.00036173,-0.00236569,0.00575060,0.01256499,-0.008083
 24,-0.05738949,-0.03820570,-0.01801191,0.00033704,-0.00014269,-0.00032
 238,0.00003908,-0.00002333,0.00008874,0.00012181,-0.00014925,-0.000016
 64,0.00005802,-0.00009549,0.00030766,-0.23904532,0.14804963,-0.0849991
 4,-0.00127443,0.00094354,-0.00708600,0.00045332,0.00003280,-0.00010541
 ,0.02247639,0.00299205,-0.00673911,-0.00181902,0.00085523,0.00190688,0
 .00044391,0.00013264,-0.00046736,0.00036119,-0.00025227,-0.00031524,-0
 .00040267,-0.00015163,0.00006631,-0.00000998,0.00007392,-0.00026379,-0
 .00003401,-0.00002438,-0.00020500,-0.01844962,0.00272810,0.00515585,0.
 00640397,-0.00461907,0.00357106,-0.07855266,-0.02366627,0.01973134,0.0
 0104264,-0.00121584,0.00132873,-0.00154394,0.00105995,0.00038307,0.000
 43209,-0.00020154,-0.00044921,0.00030215,-0.00018342,0.00033644,0.0002
 8370,-0.00006583,-0.00057750,-0.00075552,0.00034939,0.00062292,-0.0000
 5277,-0.00003638,0.00029568,0.44892514,0.00060283,0.00072173,0.0025232
 2,0.00100791,-0.00140363,0.00809572,-0.02003348,-0.03451991,-0.0046338
 1,-0.00007123,-0.00037777,-0.00009043,0.00004951,0.00000773,-0.0000641
 8,0.00020514,0.00013787,0.00000420,-0.00009087,0.00014427,0.00035743,0
 .15722945,-0.19916438,0.10109634,0.00119039,0.00035098,0.00224259,-0.0
 0009227,-0.00027492,0.00045539,0.00785388,-0.05488221,0.04400710,-0.00
 037469,-0.00013721,-0.00084542,-0.00027886,-0.00006164,0.00021556,0.00
 020005,-0.00002574,0.00000553,0.00005056,0.00084412,0.00024871,0.00003
 626,0.00008545,0.00000441,0.00010217,0.00006590,0.00006796,0.01759166,
 -0.00641069,-0.00292014,-0.00838960,0.00185509,0.00091002,-0.03385161,
 -0.12942867,0.08781518,-0.00344685,-0.00085307,0.00006822,0.00099490,-
 0.00072362,-0.00052347,-0.00034976,-0.00003217,0.00062165,-0.00014127,
 0.00010634,-0.00018110,0.00022309,0.00010038,-0.00008158,-0.00001985,-
 0.00002902,-0.00058549,-0.00013355,0.00002444,-0.00043720,-0.12111146,
 0.46344142,-0.00109962,0.00192704,-0.00078757,0.00001775,0.02061363,-0
 .02834219,-0.00552818,-0.00383709,-0.02682687,-0.00049153,-0.00118764,
 0.00013385,-0.00001651,-0.00001074,0.00003344,0.00007342,-0.00001485,0
 .00005888,0.00009616,-0.00009578,-0.00007637,-0.10004395,0.10850963,-0
 .11072194,-0.00542726,-0.00031716,-0.01123701,0.00034027,-0.00052968,-
 0.00005378,-0.01249632,0.04239906,-0.02128348,0.00074434,-0.00060478,-
 0.00083496,-0.00062041,0.00028684,0.00039663,0.00025997,0.00008978,0.0
 0013032,0.00045791,0.00059101,0.00007884,-0.00008526,0.00010879,0.0000
 5120,0.00015743,0.00003632,0.00000983,-0.00939249,0.00199324,-0.000796
 87,0.00546506,0.00015160,-0.00008847,0.03240394,0.07577972,-0.13295036
 ,-0.00011654,0.00302253,-0.00099039,-0.00036316,0.00034006,0.00024426,
 -0.00019261,0.00025776,-0.00031286,0.00001376,-0.00026141,0.00017251,0
 .00012754,0.00019605,-0.00017767,-0.00076492,-0.00013466,-0.00016419,-
 0.00021461,0.00007379,-0.00045106,0.09376662,-0.27489433,0.32258926,0.
 00024155,-0.00001329,-0.00006885,-0.01883392,-0.00219476,0.00158244,-0
 .00101746,-0.00103665,0.00137264,0.00003370,0.00006254,-0.00007126,0.0
 0001267,-0.00000452,0.00000385,0.00001444,-0.00000891,0.00000220,0.000
 06276,0.00002602,0.00007622,-0.00131271,-0.00015544,0.00012363,0.00261
 752,0.00018787,-0.00012406,0.00003447,0.00002390,-0.00007095,0.0002234
 1,0.00018827,-0.00028407,-0.00008786,0.00005003,0.00005653,0.00009840,
 0.00002416,-0.00005288,0.00001037,0.00001791,-0.00003679,-0.00009374,-
 0.00006872,-0.00003698,0.00000659,-0.00001255,-0.00002510,0.00001025,-
 0.00000550,-0.00001195,-0.00004767,0.00013372,-0.00005636,0.00007459,-
 0.00004466,-0.00009281,-0.24851733,-0.00556431,0.04852604,0.00017694,-
 0.00179379,-0.00228304,-0.00010734,-0.00001742,0.00004559,0.00001616,-
 0.00006954,-0.00004448,0.00009489,-0.00000394,-0.00003193,0.00008730,0
 .00001736,-0.00003995,0.00001124,0.00007089,0.00004560,-0.00001599,-0.
 00013451,0.00010589,-0.00941698,-0.00907324,0.00945471,0.28679061,0.00
 005623,0.00017562,0.00003082,-0.00867438,0.00108592,-0.00095939,-0.000
 92419,-0.00135756,0.00246198,0.00005423,0.00001553,-0.00006724,-0.0000
 0944,0.00000051,0.00000735,0.00000653,0.00000622,-0.00000054,0.0000342
 3,-0.00001908,0.00002653,-0.00218450,0.00081035,-0.00012393,0.00065441
 ,-0.00060001,0.00043825,0.00010502,0.00001585,-0.00003439,0.00072927,0
 .00082602,-0.00097956,-0.00004619,0.00001911,-0.00004019,-0.00001269,-
 0.00001215,-0.00001234,0.00002068,-0.00004878,-0.00002602,0.00002854,-
 0.00007790,0.00003309,-0.00001483,0.00000291,0.00001619,-0.00000292,0.
 00000115,0.00000257,-0.00040354,0.00005302,0.00003952,0.00013098,-0.00
 006104,-0.00003015,-0.00886722,-0.03817277,0.00421127,0.00080428,-0.00
 045779,-0.00109661,0.00010162,-0.00002441,-0.00001826,0.00007610,0.000
 03292,-0.00001446,-0.00004518,-0.00000591,0.00004349,0.00000721,-0.000
 00695,-0.00007498,-0.00000724,0.00003741,-0.00002783,-0.00001810,-0.00
 009855,-0.00009619,-0.02323828,-0.00691581,0.01088589,0.01346327,0.052
 89501,-0.00022769,0.00000037,0.00011935,-0.01932800,0.00112053,0.00486
 469,-0.00057870,-0.00023591,-0.00221431,-0.00007659,-0.00001374,0.0000
 9678,-0.00001415,-0.00000134,-0.00000400,0.00000065,0.00000720,0.00000
 002,0.00003600,0.00004525,-0.00000803,0.00282446,-0.00080274,0.0012332
 8,0.00115795,-0.00132445,-0.00024034,-0.00004787,-0.00005279,-0.000017
 46,-0.00069703,-0.00069810,0.00044547,0.00009147,-0.00001667,-0.000086
 40,0.00001166,-0.00001713,0.00001605,-0.00004282,0.00004374,0.00003170
 ,0.00003249,0.00002841,-0.00001539,0.00000514,-0.00001466,0.00001354,0
 .00000977,-0.00000733,0.00000631,0.00028882,-0.00003219,0.00003505,-0.
 00007101,0.00017756,-0.00010054,0.04171936,0.00337235,-0.04828305,-0.0
 0135192,-0.00418749,-0.00304027,0.00003751,0.00007301,0.00007207,-0.00
 000301,-0.00005941,-0.00003397,0.00001066,-0.00000823,-0.00000287,0.00
 003659,0.00000202,0.00005158,0.00001180,-0.00003332,0.00002374,0.00009
 354,-0.00012177,-0.00006033,0.02444242,0.01163484,-0.01126425,-0.06031
 342,-0.00477027,0.06172488,-0.00039871,0.00231474,0.00012944,-0.000057
 32,0.00017315,-0.00011033,-0.00208610,-0.00040449,0.00082097,-0.239456
 33,0.07279022,-0.03799369,0.00001042,0.00011452,0.00004449,-0.00024177
 ,0.00118256,-0.00051376,-0.00002643,-0.00011237,0.00025411,0.00024149,
 0.00013250,-0.00003373,0.00002582,-0.00003206,0.00002403,-0.01917961,-
 0.00274176,-0.00961686,0.00025284,-0.00021056,-0.00009218,-0.00061577,
 -0.00061030,0.00031482,-0.00041238,-0.00025678,0.00015536,0.00166540,0
 .00137485,0.00130889,0.00025191,-0.00009929,0.00016918,0.00002190,0.00
 011506,0.00004101,0.00053354,-0.00006874,-0.00003123,-0.00048482,0.000
 00428,0.00023529,-0.00018048,-0.00126781,-0.00207316,0.00007963,0.0000
 7362,-0.00001938,0.00005741,-0.00017769,-0.00027465,0.00001430,-0.0001
 7303,0.00016089,0.00005287,0.00018811,-0.00009216,-0.00027910,-0.00036
 483,-0.00000623,0.00066000,0.00207124,-0.00084327,-0.00075954,-0.00028
 057,-0.00012728,-0.00002467,0.00005359,-0.00005941,0.00000965,-0.00011
 065,-0.00008376,0.00003268,0.00000746,0.00000825,0.28415574,0.00240982
 ,0.00357098,-0.00019895,0.00002131,0.00009232,-0.00004653,-0.00021732,
 0.00012632,-0.00015978,0.07446285,-0.06438981,0.01759249,-0.00037993,0
 .00016103,-0.00010131,0.00223588,-0.00138679,0.00085614,-0.00008881,-0
 .00002251,-0.00014470,0.00015785,-0.00018408,0.00014073,0.00002346,-0.
 00000195,0.00001479,-0.02012954,-0.00081472,-0.00804891,0.00016676,0.0
 0006346,-0.00014377,0.00000499,-0.00082548,0.00056131,-0.00004513,0.00
 010914,0.00061893,-0.00221176,-0.00087705,-0.00012546,0.00042807,-0.00
 021766,0.00029327,0.00006110,0.00012947,0.00049057,0.00015004,-0.00030
 990,-0.00062448,-0.00009322,-0.00004409,0.00023255,0.00069074,-0.00126
 261,-0.00198696,0.00000044,0.00003393,-0.00004925,0.00019458,-0.000126
 86,-0.00010797,-0.00003210,0.00037109,-0.00100865,-0.00035360,0.000571
 17,0.00018599,-0.00052219,0.00059978,-0.00053740,-0.00104459,-0.002875
 56,0.00011502,-0.00048246,-0.00002407,-0.00020975,0.00021497,0.0002077
 7,-0.00022762,-0.00003106,-0.00003085,-0.00004249,0.00000385,-0.000004
 06,0.00001056,-0.08388003,0.07801219,0.00103887,0.00216492,-0.00212297
 ,0.00011572,0.00013526,-0.00000413,0.00073018,-0.00008384,-0.00035861,
 -0.04249551,0.01812826,-0.04801105,-0.00001994,-0.00015950,-0.00008492
 ,-0.00080821,0.00080548,0.00070119,0.00016685,0.00011551,-0.00036830,0
 .00004648,0.00001882,-0.00011870,-0.00002930,-0.00002798,0.00001806,-0
 .02344791,-0.00048661,-0.00675674,-0.00018817,0.00001653,0.00005629,-0
 .00071539,-0.00086956,0.00032842,-0.00023465,-0.00032397,-0.00005271,-
 0.00170320,-0.00036662,-0.00037769,0.00028675,-0.00029285,0.00004251,-
 0.00005065,-0.00002500,0.00013780,0.00089282,-0.00075063,-0.00094365,0
 .00016133,-0.00011942,0.00013309,0.00011013,-0.00139134,-0.00214023,-0
 .00001549,-0.00000173,-0.00003240,-0.00015275,-0.00013258,0.00011588,0
 .00018386,0.00015297,0.00015770,0.00004502,-0.00013319,-0.00017664,-0.
 00031511,-0.00018680,0.00015610,-0.00018600,0.00097651,0.00005858,0.00
 009388,0.00036889,-0.00018798,0.00004521,-0.00004705,0.00005240,-0.000
 01044,0.00012165,0.00021292,-0.00000462,-0.00000841,0.00000420,0.04544
 821,-0.01277048,0.06913427,-0.00000860,-0.00060641,0.00035295,0.000023
 90,0.00004799,-0.00006036,-0.00003929,-0.00037958,0.00130635,-0.042682
 22,-0.00117200,-0.00316789,0.00003048,-0.00000837,-0.00003220,0.000268
 13,-0.00001294,0.00001538,-0.00002389,0.00001319,0.00006240,0.00014837
 ,-0.00030424,0.00018026,-0.00000133,-0.00001096,-0.00000160,0.00206361
 ,-0.01137432,0.00251744,0.00000572,0.00028508,-0.00010180,-0.00017481,
 0.00004777,-0.00014744,0.00004987,-0.00024231,-0.00014624,0.00004412,-
 0.00035247,0.00038503,0.00005628,-0.00006047,0.00004846,-0.00008880,-0
 .00003766,-0.00001390,0.00004216,0.00008789,-0.00002375,-0.00000171,-0
 .00025228,0.00001726,-0.00061890,-0.00051269,-0.00032921,0.00002332,0.
 00002478,-0.00003381,-0.00001335,0.00002619,-0.00011891,0.00002417,0.0
 0000605,0.00007480,0.00007509,0.00004624,-0.00010505,0.00000141,-0.000
 23711,-0.00009012,-0.00004177,0.00067112,-0.00024777,-0.00027984,0.000
 00408,0.00010768,-0.00000552,0.00004072,-0.00003714,-0.00029894,-0.000
 02190,-0.00027380,0.00000503,0.00000311,-0.00000196,-0.00207601,0.0269
 9708,-0.00984678,0.04900805,-0.00135970,-0.00153668,-0.00141024,0.0002
 6278,0.00033959,-0.00022544,0.00000666,-0.00077573,0.00097279,0.001785
 77,-0.22713086,0.06455305,-0.00011078,0.00011530,0.00002627,-0.0001003
 0,-0.00011750,0.00001027,0.00004310,-0.00012642,-0.00011847,0.00052457
 ,-0.00043552,0.00021614,-0.00008144,-0.00007177,0.00009800,-0.00249552
 ,-0.02226861,-0.00090985,-0.00013619,0.00026208,-0.00011736,0.00026682
 ,-0.00048874,-0.00034884,-0.00014891,-0.00049569,-0.00018346,-0.000538
 19,-0.00076659,-0.00007378,0.00015477,0.00010128,-0.00001156,-0.000084
 04,0.00011174,0.00009260,0.00015283,-0.00030983,0.00017264,0.00018061,
 -0.00016585,0.00001315,0.00011802,-0.00003387,0.00058472,0.00007850,0.
 00006814,-0.00012838,-0.00022263,-0.00017204,-0.00010028,0.00013987,-0
 .00006054,-0.00047648,0.00027482,-0.00010793,0.00055144,-0.00033231,0.
 00019035,-0.00001357,-0.00033456,-0.00017575,0.00010900,0.00008461,0.0
 0065424,-0.00029506,0.00007981,0.00013610,-0.00009225,-0.00031896,0.00
 020097,-0.00001863,-0.00001666,-0.00000704,0.00001185,0.00322846,-0.01
 251460,0.00509125,0.00389737,0.26839870,-0.00103432,-0.00259243,-0.001
 27911,0.00000975,-0.00004753,0.00011621,-0.00000824,-0.00030555,-0.001
 45693,-0.00087503,0.06375809,-0.06056767,-0.00001026,-0.00000300,0.000
 00425,0.00004985,0.00003215,0.00000876,0.00001168,-0.00000157,0.000041
 49,-0.00018815,0.00026318,-0.00019933,0.00000145,0.00005229,-0.0000348
 2,-0.00061813,-0.01720321,0.00579382,-0.00031318,-0.00006988,0.0001644
 6,-0.00002730,-0.00023733,-0.00017636,-0.00006165,-0.00028550,-0.00018
 851,-0.00040109,-0.00030309,-0.00042962,0.00004157,-0.00007022,-0.0000
 6184,-0.00005136,-0.00003936,-0.00000295,0.00010623,-0.00003816,0.0001
 0709,0.00045127,-0.00003333,-0.00014573,-0.00029905,-0.00061641,0.0002
 4187,-0.00000230,-0.00005011,0.00002883,-0.00012234,-0.00009233,0.0002
 2225,-0.00011949,-0.00001196,-0.00005040,0.00023576,-0.00030039,0.0000
 9543,-0.00010623,-0.00008226,-0.00007940,0.00003350,0.00036748,0.00030
 262,0.00024685,0.00029499,0.00000462,0.00000428,-0.00004930,0.00002953
 ,0.00029710,0.00009782,0.00039432,0.00000354,0.00001224,-0.00001235,-0
 .00169668,0.00780564,-0.00100991,-0.00557773,-0.07777206,0.07947858,0.
 00020710,0.00213297,0.00213708,0.00014810,0.00004882,0.00010400,0.0000
 9917,0.00015687,-0.00002817,-0.00018473,-0.00015890,0.00007137,-0.0005
 3556,0.00045138,-0.00020153,0.00028769,-0.00138300,-0.00042646,0.00048
 523,0.00022279,0.00022893,-0.00006009,0.00015821,-0.00002843,-0.000040
 52,0.00001365,-0.00009566,-0.00047929,-0.00007454,-0.00031040,-0.00003
 389,-0.00015602,0.00004851,0.00055179,0.00021320,-0.00020699,-0.000008
 08,-0.00013661,-0.00014847,-0.00021389,-0.00031395,0.00016699,-0.00031
 900,0.00031502,-0.00034264,0.00015737,-0.00009614,0.00051464,-0.000055
 82,-0.00010222,-0.00010674,0.00006536,0.00012108,0.00004408,0.00032064
 ,-0.00004124,0.00040463,0.00006944,0.00005928,-0.00007361,-0.00002963,
 -0.00008015,-0.00005127,0.00438981,0.00897533,0.00432406,-0.08591585,-
 0.09424343,-0.06236275,-0.00824195,-0.01592854,-0.01395338,-0.00285841
 ,-0.00516095,0.00080800,-0.00097529,-0.00078510,0.00215006,-0.00000358
 ,0.00041163,-0.00026665,0.00007212,-0.00004174,-0.00002961,0.00001671,
 -0.00005198,-0.00001600,-0.00004416,0.00007065,0.00000262,-0.00002383,
 -0.00000345,-0.00000425,0.09432333,-0.00268918,-0.00290283,-0.00419401
 ,-0.00019364,-0.00035005,-0.00015235,-0.00062685,-0.00032350,0.0002721
 0,0.00005888,0.00072367,0.00003213,0.00027359,-0.00060662,0.00053918,0
 .00040841,0.00002900,-0.00023469,-0.00039967,-0.00012486,0.00030128,-0
 .00000707,-0.00021855,0.00002654,0.00005159,0.00010615,0.00005149,0.00
 028942,0.00077268,0.00042294,-0.00000143,0.00016933,-0.00004708,-0.000
 60960,-0.00009881,-0.00048664,0.00009474,-0.00069832,-0.00072645,0.000
 22494,0.00046780,-0.00080570,0.00041308,-0.00020863,0.00009282,-0.0003
 7823,-0.00024151,0.00062013,0.00028828,0.00035084,-0.00039967,-0.00009
 906,0.00016984,-0.00007411,-0.00118090,0.00068816,-0.00067459,0.000036
 61,-0.00007055,0.00004304,0.00005441,0.00019701,0.00018734,-0.00152684
 ,-0.00753797,-0.00406646,-0.09537883,-0.18774342,-0.12377203,-0.003585
 78,-0.00885006,-0.00402223,-0.00159716,-0.00008080,0.00004985,-0.00032
 095,0.00052787,-0.00141714,0.00046321,-0.00049114,0.00026237,-0.000299
 89,0.00012682,0.00022763,-0.00006214,0.00003873,-0.00000249,0.00004921
 ,0.00052839,0.00005132,0.00003459,0.00010801,0.00002845,0.10555567,0.2
 0468350,0.00102606,0.00184170,0.00022174,-0.00029520,-0.00042196,-0.00
 019415,0.00021902,-0.00077433,-0.00020426,-0.00005348,-0.00021735,-0.0
 0007231,-0.00027459,0.00044048,0.00007044,0.00028155,-0.00003140,0.000
 35693,-0.00035563,-0.00121504,0.00016458,-0.00002930,-0.00015854,0.000
 07314,0.00007094,0.00019738,-0.00000527,-0.00016885,-0.00028902,-0.000
 42593,0.00021835,0.00013167,-0.00020013,0.00008955,0.00008922,-0.00027
 905,-0.00039837,0.00085665,-0.00004705,-0.00003009,0.00003769,0.000479
 13,-0.00018296,0.00013396,0.00010606,0.00033241,0.00047438,-0.00066179
 ,-0.00010002,0.00000306,0.00007754,-0.00030114,-0.00000212,0.00020904,
 0.00069248,-0.00012885,0.00022093,0.00004027,-0.00006168,0.00012818,0.
 00020608,0.00024253,0.00001083,-0.01124385,-0.01500252,-0.01054246,-0.
 06228635,-0.12397261,-0.12187387,0.00171164,0.00619762,0.00297931,0.00
 183679,-0.00140889,-0.00095549,0.00147548,-0.00535341,-0.00298804,-0.0
 0041063,0.00049559,-0.00041528,-0.00002646,0.00013940,0.00006518,-0.00
 004333,0.00007441,-0.00000401,0.00000468,-0.00005973,-0.00013854,-0.00
 000321,-0.00006639,-0.00003141,0.06708644,0.13774570,0.13390134,0.0005
 9819,-0.00021001,0.00026101,-0.00044216,0.00011922,-0.00164165,-0.0260
 3879,0.00032457,-0.01266619,-0.10171140,-0.01222786,0.04049255,0.00007
 464,-0.00014492,-0.00002319,0.00001586,-0.00001547,-0.00001168,-0.0001
 7975,-0.00022825,-0.00038861,0.00310093,-0.00442058,0.00281291,0.00013
 405,-0.00027819,0.00038024,0.00882123,0.00248891,-0.00542550,0.0020254
 8,0.00216179,-0.00273396,0.00027952,0.00021872,-0.00022269,-0.00013276
 ,-0.00059084,-0.00002066,0.00015617,-0.00106423,-0.00063928,0.00000315
 ,0.00026072,0.00022369,-0.00004794,-0.00001982,-0.00010413,0.00020055,
 -0.00015268,-0.00015943,-0.00364226,0.00045847,0.00075609,0.00038388,0
 .00033646,-0.00141331,-0.00202559,-0.00028622,-0.00049062,0.00007618,0
 .00139029,0.00463068,0.00049756,-0.00060367,-0.00038355,-0.00017205,-0
 .00016479,0.00048274,0.00015402,-0.00007741,-0.00021424,-0.00017059,0.
 00024129,0.00004808,0.00088703,0.00039594,-0.00006771,0.00000977,0.000
 17973,-0.00015817,0.00194331,-0.00787484,0.00079841,-0.00010794,-0.000
 57257,0.00059803,-0.02172829,0.00026772,0.02372785,-0.00529845,-0.0061
 6830,0.01058395,-0.00000473,0.00009049,0.00009578,0.44706017,0.0006228
 2,0.00317970,0.00350886,-0.00003083,0.00043903,-0.00171407,-0.02165670
 ,-0.01821202,-0.01355599,0.00227100,-0.06466866,0.00257287,-0.00026788
 ,0.00028268,-0.00006706,-0.00010431,0.00005309,-0.00023220,0.00042906,
 -0.00111360,-0.00000965,0.00282088,-0.00521850,0.00276711,-0.00006520,
 -0.00046971,0.00056785,0.00873891,-0.00167850,-0.01832361,0.00134265,0
 .00220506,-0.00158213,0.00114556,0.00011215,0.00073364,-0.00022594,-0.
 00096401,0.00016073,-0.00151286,-0.00152928,-0.00104585,0.00029875,0.0
 0022548,0.00044782,-0.00005777,-0.00012091,0.00039888,-0.00007715,-0.0
 0012962,0.00030914,-0.00154304,0.00005548,0.00018909,-0.00023637,0.001
 27065,-0.00117557,-0.00172400,-0.00003527,-0.00026962,0.00005992,0.000
 50361,0.00442675,0.00098455,-0.00017554,-0.00056653,-0.00063061,0.0007
 3774,0.00024954,-0.00016554,0.00061376,-0.00040180,-0.00052427,-0.0001
 9938,0.00034556,0.00319804,-0.00399640,-0.00056997,-0.00005471,0.00032
 328,-0.00040077,0.00398590,0.00259851,0.00141142,-0.00005848,-0.000469
 30,0.00052843,0.00794504,-0.00018171,-0.00827221,-0.01481413,-0.006354
 03,0.02652763,-0.00015844,0.00042970,-0.00003423,-0.05505929,0.3403336
 9,-0.00143620,0.00345876,-0.00032303,0.00085471,0.00151348,-0.00020302
 ,-0.00303527,-0.00259859,-0.02650314,0.05312539,0.02664745,-0.14488161
 ,-0.00017362,0.00021337,-0.00006668,-0.00005613,0.00006227,-0.00015701
 ,-0.00048871,0.00038775,-0.00040022,0.00016629,0.00054227,0.00015818,-
 0.00008634,-0.00029454,-0.00004838,0.01094937,-0.01166755,-0.03132176,
 -0.00007820,0.00013312,0.00027380,0.00085398,-0.00094485,-0.00007137,0
 .00004909,-0.00159634,0.00011268,-0.00261540,-0.00015751,-0.00191839,0
 .00013412,0.00005538,0.00022121,-0.00016321,-0.00030328,0.00039272,-0.
 00013028,-0.00005486,0.00020796,-0.00069204,0.00015271,-0.00015472,-0.
 00017129,-0.00022596,0.00109075,-0.00155223,-0.00026390,-0.00074990,0.
 00014783,0.00011268,0.00423758,0.00029056,0.00003568,-0.00010045,0.000
 09975,0.00010712,-0.00000303,-0.00032343,0.00007022,-0.00008851,-0.000
 42263,0.00011156,-0.00024302,0.00001125,-0.00016042,0.00000118,0.00000
 441,0.00016404,-0.00013180,-0.00063655,-0.00324206,0.00727191,0.000032
 18,-0.00018811,0.00040003,0.00350944,-0.00150696,-0.00098007,0.0134869
 0,0.01117123,-0.02175602,-0.00005664,0.00018926,-0.00010599,0.02855114
 ,0.02984572,0.48827892,0.00000618,-0.00017106,-0.00015397,0.00014029,0
 .00002901,-0.00041376,0.00041068,-0.00593548,0.00099253,-0.01982955,0.
 01180157,0.00698818,-0.00002974,-0.00001309,-0.00003614,-0.00003885,0.
 00005166,-0.00001179,-0.00001438,0.00008913,-0.00011994,0.00063775,-0.
 00091684,0.00021094,-0.00002711,0.00002270,0.00015371,0.00011873,-0.00
 021088,-0.00057315,0.00009660,0.00037779,-0.00020405,-0.00014650,-0.00
 010249,0.00017864,-0.00003979,-0.00013673,0.00005411,0.00018181,0.0005
 2928,0.00046330,0.00004825,-0.00001632,-0.00002546,-0.00001374,-0.0000
 0552,0.00002824,-0.00000821,-0.00001658,-0.00002472,0.00008145,-0.0005
 2453,-0.00016483,-0.00017220,0.00066202,0.00010701,0.00002043,0.000147
 45,-0.00003343,-0.00021533,0.00014211,-0.00047064,0.00004505,0.0001847
 7,0.00008212,-0.00016682,0.00000727,-0.00003663,0.00001519,0.00008031,
 0.00000324,-0.00024451,0.00008688,0.00025156,0.00027660,-0.00028192,-0
 .00007344,0.00002859,-0.00001878,-0.00004187,-0.00102447,0.00012443,-0
 .00062351,-0.00000369,-0.00006058,0.00004973,-0.00250695,0.00100677,0.
 00303564,0.00014524,0.00216547,-0.00114237,-0.00002977,0.00005317,-0.0
 0003707,-0.12184806,0.05486302,-0.00023597,0.47945475,0.00031362,0.000
 00752,-0.00001881,-0.00029845,-0.00059685,0.00094730,0.00053312,-0.010
 67869,-0.00186105,0.00084944,-0.00256347,-0.00077931,-0.00000517,-0.00
 001460,0.00007401,-0.00009130,-0.00006453,-0.00002479,0.00017670,-0.00
 017249,0.00028495,-0.00134207,0.00162267,-0.00094664,0.00001756,0.0001
 1774,-0.00024057,-0.00027856,-0.00015532,0.00055189,-0.00012763,-0.000
 93339,0.00058129,0.00056927,-0.00038267,-0.00000286,0.00003388,-0.0001
 6878,0.00012413,0.00008222,0.00006469,0.00030177,0.00006269,0.00006018
 ,0.00010274,-0.00003757,0.00005991,0.00002398,-0.00006744,0.00000115,0
 .00004496,0.00019621,-0.00056635,-0.00092745,-0.00094394,-0.00034570,-
 0.00142792,0.00007245,-0.00019567,0.00028800,-0.00031854,-0.00121065,0
 .00194272,-0.00009500,-0.00025401,-0.00031371,-0.00007510,0.00002980,-
 0.00002623,-0.00010874,0.00013583,-0.00013431,-0.00007713,0.00037111,-
 0.00004348,-0.00006297,0.00049385,-0.00051356,0.00012721,-0.00008623,-
 0.00004709,0.00095319,-0.00011981,0.00011678,0.00008932,0.00005059,-0.
 00013122,-0.00117767,0.00021363,0.00041800,-0.00192109,0.00280909,0.00
 174080,-0.00000780,0.00012877,0.00008682,0.08293663,-0.12971435,-0.001
 07579,0.03027404,0.43065809,-0.00019201,-0.00018127,-0.00010821,0.0000
 1300,0.00025149,-0.00001148,-0.00030410,0.00034119,0.00226396,0.022365
 93,-0.01645297,-0.00393450,-0.00000635,0.00003038,-0.00000312,0.000005
 93,-0.00000959,-0.00008835,-0.00015416,-0.00004651,0.00003172,-0.00026
 156,-0.00034776,0.00035758,-0.00000531,-0.00012539,-0.00005157,0.00041
 146,-0.00016181,-0.00066175,-0.00003476,0.00058658,0.00014517,-0.00002
 136,0.00000876,-0.00006595,0.00011666,-0.00025281,-0.00007182,-0.00033
 007,-0.00008126,-0.00038244,0.00001028,-0.00006741,-0.00001618,0.00000
 949,-0.00006463,0.00005367,-0.00001318,-0.00000397,0.00004504,0.000674
 67,-0.00041947,-0.00018131,-0.00020589,0.00020915,0.00019661,-0.000059
 28,-0.00001254,-0.00005534,0.00017441,-0.00070627,0.00021798,-0.000065
 05,-0.00000616,-0.00006313,0.00007145,0.00001663,-0.00001589,0.0000042
 4,0.00000107,-0.00000569,0.00005722,-0.00006496,0.00004424,0.00007589,
 0.00014572,-0.00002692,-0.00000074,0.00002102,0.00003177,0.00007359,0.
 00007577,0.00003001,0.00002150,0.00001779,-0.00000017,0.00366212,-0.00
 097113,-0.00366946,0.00052732,-0.00144457,0.00080071,-0.00000236,0.000
 00384,-0.00000136,0.00067939,-0.00036689,-0.07501291,0.00861872,-0.001
 43287,0.52781571,-0.00092497,0.00006646,-0.00005514,-0.00031204,-0.000
 55567,0.00027684,-0.00092216,-0.00019215,-0.00285826,0.00616997,0.0019
 7825,0.01020421,0.00004117,0.00002518,0.00005091,-0.00031805,0.0000782
 8,0.00030049,0.00080760,-0.00019238,-0.00049374,-0.00045474,-0.0001255
 4,0.00008838,0.00008938,0.00023998,-0.00018118,-0.00020751,0.00016106,
 0.00260352,0.00061993,0.00001989,-0.00016490,0.00010880,-0.00007943,-0
 .00016084,-0.00009053,0.00023273,-0.00007115,0.00041243,0.00000375,0.0
 0027142,-0.00003251,0.00004792,0.00003632,-0.00000903,0.00009287,-0.00
 007559,-0.00002502,0.00002844,0.00004903,-0.00104110,0.00027318,-0.000
 05207,-0.00006703,-0.00013475,0.00016475,-0.00008203,-0.00006405,0.000
 05614,0.00009966,0.00034544,0.00043085,0.00006176,-0.00010766,-0.00044
 022,0.00003983,0.00003664,-0.00004275,-0.00007055,0.00007479,0.0001868
 6,-0.00006272,-0.00044147,-0.00011059,-0.00033565,-0.00137521,-0.00015
 385,-0.00003558,-0.00001767,0.00003174,-0.00021501,-0.00070988,0.00034
 082,0.00001247,-0.00001056,0.00000522,0.00125041,0.00006629,0.00328911
 ,-0.00007831,-0.00025401,0.00141944,-0.00003697,-0.00003939,-0.0000055
 6,-0.12475494,-0.00801559,-0.06898048,-0.02530266,0.00027249,-0.022960
 84,0.50787729,0.00023875,0.00136983,0.00160034,-0.00002081,0.00014844,
 -0.00011503,-0.00101340,0.00111693,-0.00581008,0.00182662,-0.00078893,
 0.00186844,-0.00005480,0.00001458,-0.00002141,0.00016261,-0.00012598,-
 0.00030758,-0.00038544,-0.00340947,-0.00058669,0.00016572,-0.00065563,
 0.00034846,0.00006455,-0.00001833,0.00002889,0.00093706,-0.00066249,-0
 .00097111,0.00035161,0.00039311,-0.00022236,0.00008403,0.00008879,0.00
 000182,-0.00004419,0.00001290,0.00003528,-0.00005769,-0.00006660,0.000
 12774,0.00000937,0.00005303,0.00008404,0.00000599,0.00001180,-0.000012
 95,-0.00003897,-0.00003653,0.00003671,-0.00045962,0.00010392,0.0000029
 1,-0.00024533,-0.00024115,0.00005866,-0.00028698,-0.00000457,-0.000135
 56,-0.00000486,0.00014762,0.00104220,0.00042718,-0.00030133,-0.0003924
 5,-0.00021776,-0.00008168,-0.00020029,0.00005065,0.00007580,-0.0000885
 8,-0.00027927,0.00003246,-0.00001763,-0.00068727,-0.00161181,0.0009542
 6,-0.00004084,-0.00001664,-0.00010801,-0.00105211,-0.00124991,0.000540
 43,0.00000612,-0.00007014,0.00010536,0.00002495,0.00067921,-0.00134503
 ,-0.00041694,-0.00026329,0.00141770,0.00001311,0.00005733,-0.00004361,
 -0.02316201,-0.06721646,-0.03315748,0.01659796,-0.00249105,0.01681677,
 -0.03431382,0.49485398,-0.00032936,0.00121913,0.00043738,0.00010973,-0
 .00027572,0.00081754,-0.00002052,-0.00091296,0.00056626,-0.01272717,-0
 .00614017,-0.03403183,-0.00004350,0.00005443,0.00003287,-0.00014449,-0
 .00013022,0.00001190,-0.00026967,0.00044080,0.00043104,-0.00086190,0.0
 0026049,-0.00016233,-0.00007784,0.00007237,-0.00034164,0.00204484,0.00
 016000,-0.00436207,0.00013370,0.00001977,0.00016203,0.00002580,-0.0003
 3654,0.00015727,0.00024387,-0.00041479,0.00004736,-0.00049140,-0.00028
 331,-0.00040300,0.00001987,0.00002232,-0.00001962,-0.00003132,-0.00003
 800,0.00005183,-0.00007214,-0.00008347,0.00004204,-0.00014899,0.000020
 82,-0.00024130,0.00046034,0.00007931,0.00006804,-0.00001608,-0.0002050
 5,0.00006311,-0.00028486,-0.00001846,-0.00051313,-0.00003879,0.0003860
 1,-0.00005224,0.00002501,0.00003115,-0.00009909,-0.00007479,0.00013428
 ,0.00015825,-0.00010762,0.00002951,-0.00032602,-0.00009190,-0.00009354
 ,-0.00059201,-0.00002989,-0.00003757,0.00003211,0.00036184,0.00017450,
 0.00012265,0.00001453,0.00004192,-0.00007333,-0.00240214,0.00009037,-0
 .00072628,0.00030322,0.00006064,-0.00035021,-0.00000597,-0.00002608,0.
 00002619,-0.06030392,-0.01459876,-0.15229642,-0.00699222,0.00001178,-0
 .00431523,-0.04350776,-0.01531385,0.48851441,0.00033262,0.00011407,0.0
 0028743,0.00025954,0.00049730,-0.00001195,-0.00079217,-0.00037976,-0.0
 0062561,0.00105126,0.00177803,-0.00141862,0.00001689,-0.00001253,-0.00
 000487,0.00005151,0.00001025,-0.00001827,-0.00005380,-0.00000132,0.000
 01549,0.00048931,0.00028460,-0.00001255,-0.00008924,-0.00025623,0.0001
 8662,-0.00022424,-0.00031780,0.00007418,-0.00018914,-0.00000107,-0.000
 09066,0.00011164,0.00008238,-0.00002040,0.00000342,-0.00001880,0.00003
 860,-0.00006056,-0.00001568,0.00004720,0.00002838,0.00001538,0.0000269
 6,0.00002436,-0.00001664,0.00000612,0.00004562,-0.00001156,-0.00000592
 ,0.00021409,-0.00028455,0.00002549,-0.00034434,-0.00007891,-0.00035512
 ,-0.00005358,-0.00001317,-0.00008102,-0.00016625,-0.00047601,0.0005291
 9,0.00003284,-0.00009794,-0.00002876,-0.00005753,0.00002138,0.00004373
 ,-0.00003056,0.00003355,-0.00006047,-0.00005666,-0.00000180,-0.0000422
 0,-0.00011531,0.00020035,-0.00006900,0.00002492,0.00003333,-0.00003424
 ,0.00017329,-0.00026716,0.00007182,-0.00000646,-0.00001812,0.00000650,
 0.00018716,0.00002321,-0.00021802,0.00033705,-0.00056749,-0.00003941,0
 .00000466,0.00002082,0.00000162,0.00475505,0.02190364,-0.00033951,-0.0
 8437685,-0.07866206,-0.00206268,0.00186781,0.00348551,0.00132757,0.094
 18214,0.00021547,0.00040138,0.00047800,0.00042216,0.00057156,-0.000224
 51,0.00135376,-0.00217095,-0.00066370,-0.00108919,0.00058408,0.0014013
 1,-0.00000799,0.00001354,-0.00001722,-0.00000026,-0.00002965,-0.000007
 36,-0.00002664,-0.00006587,-0.00011565,0.00072357,-0.00036963,0.000178
 76,-0.00011305,-0.00023381,0.00020405,-0.00006968,-0.00003050,-0.00008
 652,-0.00022335,0.00030028,-0.00001228,0.00008748,0.00011757,0.0000046
 0,-0.00008404,0.00001714,0.00006676,0.00005991,0.00000549,0.00008445,0
 .00004734,0.00005106,0.00003910,0.00001633,0.00001588,0.00002558,0.000
 02717,-0.00002989,0.00001948,0.00033762,-0.00021141,0.00003473,-0.0005
 2357,0.00022037,-0.00022752,-0.00000904,0.00008910,-0.00019524,-0.0001
 7021,-0.00031735,0.00050347,0.00017487,-0.00008468,0.00000684,-0.00009
 482,0.00006649,0.00010693,-0.00001939,0.00007866,-0.00003605,-0.000056
 85,-0.00000630,0.00003427,0.00006684,-0.00019288,-0.00003103,0.0000507
 3,0.00009459,-0.00008263,-0.00052327,0.00040334,0.00001258,-0.00000494
 ,-0.00002294,0.00003052,-0.00047660,0.00024124,0.00015647,0.00057763,0
 .00061853,-0.00109721,-0.00000305,0.00002783,-0.00000047,0.00750314,-0
 .04235069,-0.00067040,-0.08288270,-0.20360487,-0.00491066,-0.00145245,
 0.00121945,-0.00122610,0.08785080,0.25603496,0.00002944,0.00006248,-0.
 00005268,-0.00009424,-0.00023530,0.00000100,0.00003012,0.00032667,0.00
 109635,-0.00088500,-0.00192555,0.00128208,-0.00000451,-0.00000417,-0.0
 0000261,0.00000155,-0.00001050,0.00001183,0.00002167,0.00003356,0.0000
 0143,0.00010468,0.00003960,-0.00009423,0.00003841,0.00013313,-0.000062
 90,-0.00019277,0.00010260,-0.00002188,-0.00008521,-0.00003464,-0.00005
 887,0.00007546,0.00002800,-0.00000636,-0.00001299,-0.00002282,0.000023
 70,0.00005071,-0.00004576,0.00001838,0.00001032,0.00002461,0.00000360,
 0.00001313,0.00001367,-0.00000183,0.00001008,-0.00000281,-0.00000017,0
 .00039131,-0.00016321,-0.00015050,-0.00036231,-0.00028783,-0.00023400,
 0.00003816,-0.00000157,0.00002867,0.00001261,0.00001476,-0.00027115,-0
 .00002267,0.00003796,0.00001415,-0.00001638,0.00000881,-0.00003599,0.0
 0002755,0.00000502,0.00001320,0.00000691,0.00000524,0.00000953,0.00001
 848,-0.00003236,0.00000708,0.00001248,-0.00001963,-0.00000277,-0.00000
 829,0.00003088,0.00002996,-0.00000606,-0.00000618,-0.00000526,-0.00005
 404,0.00012506,-0.00001628,0.00054162,0.00036857,-0.00038886,-0.000002
 21,-0.00000443,-0.00000556,-0.00098375,-0.00101477,-0.00038568,-0.0018
 4963,-0.00530556,-0.04614944,0.00062400,0.00242290,0.00096406,0.003262
 47,0.00582159,0.04706438,-0.00009146,-0.00052474,-0.00005925,0.0002109
 0,0.00018446,0.00006913,0.00067451,0.00098588,-0.00157060,0.00036777,-
 0.00028265,-0.00066199,0.00003486,-0.00003453,-0.00000542,0.00004586,0
 .00002083,-0.00001907,-0.00001750,-0.00005872,0.00004824,0.00020545,-0
 .00127738,0.00055257,-0.00010357,-0.00008232,0.00006915,-0.00015871,0.
 00030754,0.00008414,-0.00055141,0.00073442,-0.00015669,-0.00000485,0.0
 0015398,0.00002509,0.00000563,-0.00008469,-0.00004292,-0.00024295,0.00
 019366,-0.00000739,-0.00002805,-0.00006072,-0.00006283,-0.00000140,-0.
 00006585,-0.00005162,0.00001115,0.00000434,-0.00002533,0.00127688,-0.0
 0124157,-0.00079949,-0.00016339,0.00005441,-0.00019473,-0.00009281,-0.
 00006254,-0.00009629,-0.00021419,0.00011220,0.00022052,-0.00003265,-0.
 00007177,0.00009762,0.00003417,-0.00014478,0.00000393,0.00007789,-0.00
 010338,-0.00001595,0.00008149,0.00005762,0.00017544,0.00017496,0.00003
 743,0.00016371,-0.00006321,-0.00005252,0.00006560,-0.00029912,0.000673
 53,-0.00023013,-0.00005180,-0.00000760,0.00000621,0.00036734,-0.000267
 73,-0.00019894,-0.00094227,-0.00038988,0.00011660,0.00000415,-0.000044
 91,0.00000005,-0.01563145,0.00150869,-0.01837200,-0.11317457,-0.011051
 05,-0.10108122,-0.00445460,0.00396830,-0.00064274,-0.00856152,-0.00563
 113,-0.01361789,0.13193722,-0.00095246,0.00071781,0.00060517,0.0000850
 4,-0.00017814,0.00028287,0.00124958,-0.00416196,0.00154425,-0.00023074
 ,0.00071448,0.00020096,-0.00001682,0.00004418,0.00000260,-0.00012873,0
 .00000401,-0.00001157,-0.00000315,0.00003545,-0.00011139,-0.00099607,-
 0.00117992,0.00052101,-0.00002453,0.00015900,-0.00025261,0.00060206,0.
 00022804,0.00020343,0.00009656,0.00065280,0.00002167,0.00010068,-0.000
 45994,-0.00011918,-0.00003048,0.00000554,0.00014469,0.00004822,-0.0001
 1927,0.00000812,0.00003937,-0.00002040,0.00003531,-0.00007553,0.000062
 18,0.00007345,-0.00008951,-0.00000198,0.00007661,0.00003029,-0.0019757
 1,-0.00188975,-0.00045709,-0.00036598,-0.00095701,-0.00000335,-0.00007
 765,-0.00006020,-0.00016160,0.00010019,-0.00009025,0.00002992,-0.00005
 067,-0.00022697,-0.00005679,-0.00000069,0.00009444,-0.00001682,0.00012
 037,0.00000782,-0.00007413,-0.00002918,0.00000816,0.00013189,0.0000349
 6,-0.00024920,0.00001551,0.00005342,-0.00004506,-0.00020912,0.00015938
 ,0.00005158,0.00003947,0.00005345,-0.00004828,-0.00015459,-0.00009464,
 0.00015637,-0.00023656,-0.00002206,-0.00001458,-0.00004822,0.00005767,
 -0.00000522,0.01263182,0.00000858,0.01762670,-0.01237368,-0.04190391,-
 0.01817112,0.00366768,-0.00216382,-0.00002716,-0.01668434,-0.00551637,
 -0.02289636,0.01050522,0.05318941,-0.00011405,-0.00019086,0.00014065,0
 .00012693,0.00037863,-0.00018374,-0.00056931,0.00309024,-0.00110756,0.
 00094683,-0.00015623,0.00072324,0.00002847,-0.00000871,-0.00001361,0.0
 0002056,0.00003524,-0.00001728,0.00001490,-0.00004321,-0.00002207,0.00
 077655,0.00052353,0.00016746,-0.00004692,-0.00016785,0.00026932,-0.000
 02811,-0.00000391,0.00014471,-0.00000939,-0.00100398,-0.00075675,0.000
 11055,-0.00018660,-0.00004391,0.00003798,-0.00013516,-0.00007644,0.000
 19303,-0.00004413,-0.00008558,-0.00001969,0.00000278,-0.00003014,0.000
 01341,-0.00000544,-0.00001638,0.00002501,0.00001170,-0.00001892,-0.000
 78885,-0.00117054,0.00006400,-0.00062327,-0.00045892,-0.00092372,-0.00
 000532,0.00008225,0.00001904,-0.00014437,-0.00016312,0.00017743,0.0000
 0745,-0.00002067,0.00004036,0.00000467,-0.00010719,0.00005432,0.000074
 53,-0.00001692,-0.00003919,0.00001305,0.00001834,0.00016777,0.00015966
 ,-0.00006441,-0.00002297,-0.00012752,-0.00004674,0.00006903,0.00006341
 ,0.00042813,-0.00020983,-0.00003413,0.00000601,0.00002224,0.00013072,-
 0.00009134,-0.00008252,0.00055216,-0.00002463,0.00013717,-0.00002999,-
 0.00004827,-0.00003129,-0.00154933,0.00134379,-0.00117725,-0.10792048,
 -0.01671903,-0.20120293,-0.00079697,0.00115227,0.00038816,-0.00202683,
 -0.00200921,-0.00172854,0.12402464,0.01859410,0.22826962,0.00018894,-0
 .00028118,-0.00009406,0.00038800,0.00035346,-0.00006148,-0.00008795,0.
 00194107,0.00122211,-0.00399278,0.00303752,0.00023785,0.00000977,-0.00
 002213,-0.00003701,0.00002578,0.00000244,0.00003780,-0.00005264,0.0000
 9004,-0.00007676,0.00035495,-0.00045487,0.00006235,-0.00013154,-0.0001
 8635,0.00006990,-0.00034243,0.00023335,0.00026383,-0.00021626,0.000319
 15,0.00011416,0.00001186,0.00002830,0.00000472,-0.00000656,-0.00003312
 ,-0.00004176,0.00008571,-0.00001912,0.00003809,-0.00002753,-0.00005268
 ,-0.00001397,0.00001459,-0.00001896,-0.00000456,0.00005185,-0.00001554
 ,-0.00002842,0.00058031,-0.00009162,-0.00009552,-0.00031406,0.00020209
 ,-0.00001560,-0.00006760,-0.00009278,-0.00005112,-0.00026154,-0.000712
 90,0.00010295,0.00007666,0.00001275,-0.00000071,0.00001043,-0.00004374
 ,-0.00005963,-0.00001176,-0.00008215,-0.00005518,-0.00004616,0.0000044
 0,0.00007847,0.00011861,-0.00010162,0.00016720,-0.00000865,-0.00001124
 ,0.00000690,-0.00019029,0.00027957,0.00002138,-0.00005089,-0.00001152,
 0.00000295,-0.00074767,0.00012291,0.00111205,0.00010991,0.00032532,-0.
 00055537,-0.00001923,-0.00001788,-0.00003773,-0.01518432,0.00166775,0.
 01910113,-0.10996454,-0.01713239,0.09618883,0.00021242,-0.00020687,0.0
 0086475,-0.00861854,-0.00632606,0.01325293,0.01021828,0.00218630,-0.01
 280752,0.12849912,-0.00064905,0.00017044,0.00034634,-0.00027031,-0.001
 06061,0.00029250,0.00105159,-0.00275057,-0.00255492,0.00386123,-0.0015
 6290,0.00020274,-0.00001281,0.00002648,0.00002573,-0.00007357,-0.00001
 206,-0.00002409,0.00007818,-0.00000563,-0.00000311,-0.00022847,-0.0002
 0302,-0.00027547,0.00007691,0.00042728,-0.00035029,0.00012610,-0.00005
 367,-0.00006839,0.00003488,0.00014984,0.00034119,0.00007505,-0.0001140
 7,0.00003751,-0.00003909,-0.00001089,0.00012762,-0.00016633,0.00011874
 ,0.00000668,0.00003779,-0.00001427,0.00004437,-0.00003606,0.00001499,0
 .00003467,-0.00006267,0.00001054,0.00007114,0.00028932,-0.00008502,-0.
 00017155,0.00009930,-0.00009749,0.00014488,0.00014753,0.00007155,0.000
 04329,-0.00023134,0.00032323,0.00093693,0.00003818,0.00000819,-0.00017
 153,-0.00005526,0.00006335,0.00000185,-0.00005176,0.00009271,0.0000659
 4,-0.00002688,-0.00004712,-0.00002228,0.00003061,-0.00001870,-0.000197
 11,0.00002280,-0.00001715,-0.00005261,-0.00018939,0.00004973,0.0002377
 1,0.00002576,0.00003135,0.00000602,0.00093283,-0.00001562,-0.00110686,
 -0.00001757,0.00001873,0.00004095,-0.00003375,0.00004766,0.00000508,0.
 01417427,0.00027504,-0.01778962,-0.01841778,-0.04429262,0.02620396,-0.
 00023058,0.00030817,-0.00076563,-0.01694832,-0.00678993,0.02271091,0.0
 0152216,0.00125761,-0.00294217,0.01488926,0.05386664,-0.00042235,0.000
 73638,-0.00002968,-0.00010876,-0.00044739,0.00035841,0.00126333,-0.004
 46589,-0.00122395,0.00123385,-0.00082236,0.00068570,-0.00001216,0.0000
 2549,-0.00000069,-0.00004694,0.00000768,-0.00004060,-0.00000466,-0.000
 00518,0.00007467,-0.00067712,-0.00066644,-0.00005323,0.00003699,0.0002
 3881,-0.00027042,0.00046886,0.00011409,0.00006596,0.00018715,0.0005501
 4,0.00017596,0.00010811,-0.00016066,-0.00006329,-0.00008163,0.00007606
 ,0.00012377,-0.00009507,-0.00004236,0.00008199,0.00004548,0.00007502,-
 0.00000341,-0.00005054,0.00005421,0.00000444,-0.00010340,0.00001769,0.
 00003830,-0.00018987,0.00018028,-0.00034079,0.00022308,-0.00032552,0.0
 0030170,-0.00000570,-0.00010556,-0.00005683,-0.00006911,0.00077666,-0.
 00035008,0.00006805,-0.00002460,-0.00004593,-0.00003653,0.00007453,0.0
 0012531,-0.00002265,0.00007217,0.00007819,-0.00004690,0.00000239,-0.00
 007315,-0.00009993,0.00005900,-0.00017187,0.00004209,0.00006516,-0.000
 03911,-0.00004688,-0.00031685,0.00008788,0.00000961,-0.00001031,-0.000
 02979,0.00007864,-0.00015033,-0.00015672,-0.00022373,-0.00051172,0.000
 32640,0.00001522,0.00002336,0.00001569,0.00229028,-0.00216959,-0.00256
 241,0.10203119,0.02621354,-0.19287670,-0.00084269,0.00030194,0.0011042
 5,0.00118225,0.00174964,-0.00068744,0.01297485,0.00434941,-0.02367812,
 -0.11831505,-0.02593590,0.21921633,0.00020716,0.00026363,0.00004816,0.
 00010697,0.00025432,-0.00020787,-0.00002647,0.00068420,-0.00200951,0.0
 0031196,0.00020939,0.00065772,-0.00000328,0.00001113,-0.00000984,0.000
 15917,0.00003817,-0.00010233,-0.00026257,0.00002220,0.00028388,0.00047
 049,-0.00030867,0.00021585,-0.00001628,-0.00011449,0.00012172,0.000101
 34,-0.00005349,-0.00017509,0.00005949,0.00022095,-0.00011187,0.0000184
 8,0.00005423,0.00003874,-0.00005986,0.00000093,0.00004273,-0.00002529,
 0.00002466,0.00003094,0.00002986,0.00001513,0.00003095,-0.00000247,-0.
 00000339,0.00002050,0.00001045,-0.00000571,-0.00001384,-0.00010427,-0.
 00012641,0.00002479,-0.00001749,-0.00001423,0.00005220,-0.00012600,0.0
 0001510,-0.00008729,0.00006856,0.00012128,0.00035187,-0.00005408,0.000
 02471,0.00014304,-0.00000448,0.00003208,0.00007749,0.00002984,-0.00000
 184,-0.00006185,0.00001901,0.00002204,-0.00002144,0.00022851,0.0003812
 7,-0.00008569,-0.00001607,0.00003792,-0.00002227,-0.00045485,-0.000442
 96,0.00014089,-0.00001599,-0.00003897,0.00005270,-0.00000848,0.0002395
 5,-0.00000787,-0.00001869,0.00005574,-0.00016644,-0.00000749,0.0000366
 2,0.00001701,-0.01576409,-0.02128911,-0.01129296,0.00058562,-0.0031874
 8,-0.00009564,-0.06176818,-0.05864906,0.00477440,-0.00015321,0.0013315
 1,-0.00051491,0.00035042,0.00000305,0.00032397,-0.00020796,-0.00005383
 ,-0.00005683,0.07556515,0.00026465,0.00057295,0.00031698,0.00041058,0.
 00061174,-0.00033326,0.00064871,0.00050818,-0.00111115,0.00018690,0.00
 079829,0.00084225,-0.00001696,0.00001057,-0.00002732,-0.00001854,-0.00
 012349,0.00000252,-0.00003077,-0.00030125,-0.00041937,0.00075506,-0.00
 044520,0.00027629,-0.00011049,-0.00024640,0.00026436,0.00017359,-0.000
 07356,0.00010525,-0.00004514,0.00016265,-0.00019519,0.00000819,0.00008
 197,0.00002785,-0.00000739,-0.00002206,0.00004732,0.00004808,-0.000010
 70,0.00007580,0.00003565,0.00004944,0.00000493,0.00001662,0.00001456,0
 .00001536,0.00002745,-0.00005407,-0.00000971,0.00006228,0.00002128,0.0
 0013619,-0.00024991,0.00006803,-0.00001705,-0.00010237,0.00002511,-0.0
 0014493,-0.00017140,-0.00010615,0.00032675,0.00026351,0.00003893,-0.00
 016498,-0.00010212,0.00010352,0.00007765,-0.00006098,0.00007462,0.0000
 1992,-0.00022740,-0.00008746,0.00002396,-0.00043157,-0.00041406,0.0001
 6778,0.00005057,0.00010609,-0.00006226,-0.00052453,-0.00009911,-0.0000
 0032,-0.00004028,-0.00005101,0.00005011,0.00011624,-0.00052948,-0.0002
 1089,-0.00002584,0.00032345,-0.00056570,0.00000774,0.00001764,-0.00003
 502,-0.01413569,-0.01263027,-0.01334203,0.00210095,0.00293192,0.001040
 41,-0.05566332,-0.23429272,0.00786906,-0.00071725,0.00069243,-0.000294
 09,0.00035925,0.00003146,0.00037996,-0.00015196,-0.00034229,-0.0000716
 2,0.07458928,0.27680174,0.00020758,0.00020716,0.00001425,-0.00014252,-
 0.00003266,-0.00023215,-0.00004486,0.00093850,-0.00164556,-0.00061096,
 -0.00106377,0.00135189,-0.00000699,0.00001842,0.00001590,0.00004653,-0
 .00002734,-0.00000076,0.00008501,-0.00018406,0.00005100,0.00032822,-0.
 00024849,0.00016245,0.00007790,0.00006357,0.00002554,0.00012637,0.0000
 4313,-0.00014200,0.00016196,0.00005105,-0.00019717,-0.00001740,0.00015
 148,0.00001738,-0.00001872,0.00002749,0.00002142,0.00002809,-0.0000167
 2,0.00000052,0.00000132,0.00003133,0.00001539,0.00001438,0.00001850,-0
 .00000109,0.00000871,-0.00002011,-0.00000646,-0.00021729,0.00007433,0.
 00019653,-0.00010844,-0.00020317,-0.00001593,-0.00009889,0.00006426,-0
 .00005419,0.00019659,0.00003390,0.00036162,0.00000639,-0.00002283,0.00
 007273,0.00002066,-0.00001022,0.00005458,0.00001733,-0.00002980,0.0000
 1846,0.00007763,0.00005668,-0.00001686,-0.00002387,0.00000918,-0.00000
 474,-0.00002394,-0.00000038,-0.00001264,-0.00043530,-0.00042335,0.0002
 0279,-0.00000175,-0.00002620,0.00005942,0.00016463,-0.00019497,-0.0001
 0969,-0.00028299,0.00029804,0.00017485,0.00000895,-0.00000410,0.000028
 45,-0.01713841,-0.02628664,-0.00743673,0.00072334,-0.00157343,0.000468
 10,0.00312830,0.00443331,-0.04454420,0.00011065,0.00075879,0.00001166,
 0.00040549,-0.00013811,0.00017489,0.00012795,0.00029245,-0.00022748,0.
 00442721,0.00054345,0.05163756,-0.00017550,-0.00000837,0.00010500,-0.0
 0018231,-0.00056409,0.00009289,0.00086147,0.00020357,-0.00029031,-0.00
 126584,0.00031515,-0.00253859,0.00000741,-0.00003040,-0.00001830,0.000
 09305,-0.00008313,-0.00008208,0.00026005,0.00064427,0.00018906,-0.0000
 2066,0.00006519,-0.00013280,0.00001745,0.00023513,-0.00018524,0.000405
 24,-0.00010710,-0.00070586,-0.00008665,0.00007518,0.00011843,-0.000010
 21,0.00007841,-0.00002545,-0.00007551,-0.00008867,-0.00002718,-0.00013
 162,0.00006714,-0.00008449,-0.00000287,-0.00000622,0.00002872,0.000000
 38,-0.00002292,-0.00001069,0.00002292,-0.00000558,-0.00001568,0.000055
 09,-0.00011326,-0.00011472,0.00018168,-0.00002710,0.00016061,0.0001213
 2,0.00007176,0.00006712,0.00001311,0.00042360,0.00021605,0.00006089,-0
 .00008363,-0.00012923,-0.00006623,-0.00003626,-0.00001342,0.00008706,0
 .00002924,-0.00002473,-0.00016427,-0.00004487,0.00006894,-0.00022016,-
 0.00006903,0.00019689,0.00004738,0.00000664,-0.00003270,-0.00005978,-0
 .00001741,0.00012898,-0.00000400,0.00000593,0.00000044,0.00014903,-0.0
 0022314,0.00026480,0.00035761,0.00021676,-0.00046367,0.00000977,0.0000
 0315,-0.00001737,0.00781383,0.00307411,-0.01673779,0.00077672,-0.00038
 577,-0.00126884,-0.10565939,-0.02238264,0.10442796,-0.00026519,-0.0000
 0631,0.00012198,0.00004224,-0.00006677,0.00007611,-0.00055086,0.000268
 21,-0.00047144,-0.00512976,-0.00372932,0.00876327,0.11808506,-0.000187
 70,0.00005794,0.00041811,-0.00053672,-0.00048196,-0.00004414,-0.000101
 37,0.00031846,-0.00081081,-0.00044328,0.00093923,-0.00150598,-0.000014
 33,0.00003415,0.00006193,-0.00009772,0.00001033,0.00005796,0.00058326,
 -0.00134092,-0.00051490,-0.00004873,0.00018331,-0.00010755,0.00017697,
 0.00015843,-0.00006882,0.00010318,0.00007923,-0.00018358,0.00006108,-0
 .00018553,0.00002971,-0.00004368,0.00003940,0.00003123,0.00003502,0.00
 001334,0.00000263,-0.00006072,0.00008028,0.00000524,-0.00000958,-0.000
 00205,0.00002373,0.00000680,-0.00001132,-0.00001245,-0.00002669,-0.000
 00115,0.00006150,-0.00007483,0.00005060,0.00011026,0.00010087,-0.00011
 425,0.00002625,0.00008538,0.00009931,0.00010056,0.00054571,0.00018361,
 0.00036589,-0.00007872,-0.00004379,0.00001584,0.00002241,0.00004007,-0
 .00000366,-0.00008949,0.00002474,0.00007839,0.00020884,-0.00000534,-0.
 00013097,0.00003030,0.00000850,-0.00020982,-0.00003725,-0.00006836,-0.
 00000914,0.00006841,0.00001538,0.00008824,0.00002207,0.00001064,0.0000
 2218,-0.00009235,-0.00002662,-0.00003848,0.00001305,0.00010590,-0.0005
 4714,-0.00001179,0.00002089,0.00004989,0.00277700,0.00137825,-0.005256
 47,0.00011003,0.00023378,0.00029990,-0.02251133,-0.05293673,0.03972715
 ,-0.00035265,-0.00026113,0.00010111,0.00001675,-0.00004444,-0.00011493
 ,0.00050252,0.00009449,0.00029571,-0.01797557,-0.00994196,0.02593515,0
 .02575365,0.05791405,-0.00024278,0.00046393,0.00045702,-0.00044591,-0.
 00063323,0.00015588,-0.00119476,-0.00092420,-0.00116057,-0.00329752,-0
 .00032315,-0.00498462,-0.00004748,0.00007171,0.00004742,-0.00003493,0.
 00000279,-0.00004719,0.00029460,-0.00084543,0.00040503,-0.00000125,0.0
 0011881,-0.00020545,0.00012777,0.00033331,-0.00024300,0.00067879,-0.00
 013176,-0.00121709,-0.00004402,-0.00019994,0.00019530,0.00003870,-0.00
 008806,0.00008604,0.00005577,-0.00003937,0.00013126,-0.00030554,0.0000
 8220,-0.00006848,0.00004494,0.00000486,0.00002311,-0.00002041,-0.00001
 582,0.00005881,-0.00008012,-0.00001287,0.00006190,0.00023301,-0.000030
 90,-0.00000499,0.00023753,-0.00016077,0.00009931,0.00012320,0.00010304
 ,0.00003523,0.00045326,0.00042024,0.00015862,-0.00014911,-0.00005198,-
 0.00002005,0.00002269,0.00006751,0.00001368,-0.00005146,0.00009503,0.0
 0010233,0.00011487,0.00004319,-0.00015578,-0.00003743,0.00020356,-0.00
 044360,-0.00001840,-0.00003885,-0.00000862,0.00002251,0.00014094,-0.00
 001717,0.00004668,0.00002145,0.00000672,-0.00075671,0.00010675,0.00022
 569,0.00025096,-0.00002734,-0.00024337,-0.00001382,0.00006212,0.000035
 07,0.00866272,0.00202479,-0.03043291,0.00066399,-0.00007584,0.00049392
 ,0.10004180,0.03843382,-0.20715640,0.00006131,0.00002616,-0.00019784,0
 .00017985,-0.00013913,0.00030563,-0.00075542,0.00026786,0.00013869,0.0
 0364230,0.00296700,-0.00189541,-0.11337881,-0.04237971,0.24849432,-0.0
 0000667,0.00057849,0.00049891,-0.00027977,0.00000037,-0.00003587,-0.00
 183618,-0.00005534,-0.00022986,0.00087428,0.00002162,0.00163774,-0.000
 02516,0.00005828,0.00006872,-0.00001625,0.00038726,0.00041229,-0.00033
 533,-0.00236161,0.00094639,0.00009260,0.00028861,-0.00006108,0.0001042
 0,0.00000995,-0.00001331,0.00001055,-0.00011755,0.00030614,0.00023043,
 -0.00037602,0.00000622,0.00003581,0.00010885,0.00005776,-0.00007819,0.
 00004357,0.00010198,0.00003571,-0.00000385,-0.00000125,0.00007875,0.00
 001265,0.00009243,0.00000016,0.00000179,0.00004490,0.00002807,-0.00002
 014,0.00003208,-0.00031952,0.00007244,0.00013437,0.00014963,-0.0003176
 2,-0.00001262,0.00001868,0.00005922,0.00001662,0.00036989,-0.00014908,
 -0.00011619,-0.00027075,-0.00024902,0.00015383,0.00002452,0.00008397,0
 .00005654,-0.00012259,-0.00012277,-0.00000751,0.00050831,0.00064895,-0
 .00037644,0.00032526,0.00037434,-0.00045968,-0.00006741,-0.00003754,0.
 00000002,0.00008170,-0.00011225,-0.00006365,0.00004095,0.00001274,0.00
 001214,0.00111307,-0.00008119,-0.00004290,-0.00009707,-0.00016093,0.00
 014594,-0.00004425,0.00010419,0.00006479,-0.02240999,0.01344893,-0.003
 74387,-0.00338508,-0.00060401,-0.00472392,-0.19274229,0.11564018,0.014
 07436,0.00016404,-0.00062609,0.00002146,-0.00093939,0.00111607,-0.0001
 3243,0.00043237,-0.00016898,-0.00013193,0.00614413,-0.00314698,0.00002
 226,-0.01541201,0.01142548,0.00473120,0.22732848,0.00079269,0.00078902
 ,0.00157621,-0.00007770,-0.00003980,0.00000209,-0.00001177,0.00016725,
 -0.00032283,-0.00012614,0.00015487,-0.00063559,-0.00008407,0.00011371,
 0.00005022,0.00069426,-0.00011674,-0.00066955,-0.00205634,-0.00394374,
 0.00080334,-0.00004791,-0.00002386,0.00003570,0.00003249,0.00000288,-0
 .00000442,-0.00014075,-0.00017983,0.00018783,0.00011347,-0.00000647,-0
 .00005521,-0.00013619,0.00013141,0.00015930,0.00030827,0.00014743,0.00
 006751,-0.00010236,-0.00011535,0.00014568,-0.00002012,0.00000103,0.000
 05800,0.00005793,0.00001356,0.00004828,-0.00010963,-0.00003781,0.00011
 523,-0.00010431,0.00008917,0.00010972,0.00030151,-0.00024533,0.0000311
 9,-0.00002412,-0.00000133,0.00000388,0.00015997,0.00006293,-0.00002545
 ,-0.00036183,-0.00030029,-0.00038235,-0.00010359,0.00017648,-0.0000776
 3,-0.00012565,0.00004547,-0.00024499,0.00024319,-0.00090427,-0.0006549
 7,-0.00087135,-0.00279265,-0.00012080,-0.00000236,0.00004360,-0.000063
 57,-0.00001495,-0.00008152,-0.00002895,0.00000986,-0.00000166,0.000005
 00,-0.00025309,0.00092656,0.00030504,0.00012572,-0.00022183,-0.0000305
 4,0.00004013,0.00009974,0.00006699,-0.00153271,0.00214323,0.00189378,0
 .00046688,0.00043647,0.00018564,0.11866265,-0.13209590,-0.01009949,-0.
 00001113,0.00047524,-0.00008988,-0.00000303,0.00034914,-0.00003872,-0.
 00014779,-0.00003460,0.00005849,0.02359064,-0.02424051,-0.00354121,-0.
 00346503,0.00337305,0.00003791,-0.13576880,0.15557276,0.00114452,0.001
 36036,0.00119216,0.00000854,-0.00004529,0.00002430,-0.00025071,-0.0000
 7543,0.00000937,-0.00260368,0.00100508,-0.00028787,-0.00010052,0.00007
 258,-0.00001762,0.00091301,-0.00056134,-0.00044481,0.00052404,0.000835
 14,0.00081871,0.00000560,0.00007502,-0.00001072,-0.00000378,0.00007779
 ,-0.00007770,-0.00040077,-0.00014780,0.00047845,0.00015981,-0.00009746
 ,-0.00016378,0.00003844,0.00022813,0.00013281,0.00018981,0.00018065,0.
 00014531,-0.00003467,-0.00026557,0.00015975,0.00001783,0.00007873,0.00
 002796,0.00006382,0.00009007,0.00007650,-0.00001783,-0.00009582,-0.000
 03897,-0.00025645,0.00009116,0.00023409,0.00021198,-0.00036512,0.00004
 882,0.00003708,0.00002305,0.00001249,-0.00001067,0.00001001,-0.0002004
 6,0.00010404,0.00003268,-0.00028318,-0.00006327,0.00026670,-0.00001345
 ,-0.00008784,0.00006313,-0.00021389,-0.00038111,-0.00068508,-0.0004177
 3,-0.00083182,-0.00052720,0.00030615,0.00008170,0.00010865,-0.00010309
 ,0.00000329,-0.00019267,0.00005045,0.00000726,0.00000345,-0.00000575,0
 .00025443,0.00025179,-0.00288124,0.00016299,-0.00006990,0.00003939,0.0
 0008210,0.00008232,0.00001733,-0.02043178,0.01400077,-0.00241618,-0.00
 366395,-0.00020108,-0.00389302,0.01841498,-0.01293858,-0.04343395,0.00
 021512,-0.00015585,-0.00007181,-0.00130875,0.00101968,0.00010264,0.000
 01723,-0.00010673,-0.00002380,-0.00052368,0.00135425,0.00134808,0.0217
 2242,-0.01597635,-0.00325891,-0.01347199,0.01115640,0.05300104,0.00078
 926,0.00105048,-0.00040048,0.00657757,-0.00822354,-0.00234233,0.000486
 28,-0.00072642,-0.00079184,0.00009989,0.00005286,-0.00000758,0.0000061
 6,-0.00008752,0.00000185,0.00004433,0.00001762,0.00008121,-0.00003050,
 -0.00004264,0.00010796,0.00011344,0.00017832,-0.00062600,-0.00050330,0
 .00044973,-0.00104169,0.00021231,0.00001217,0.00007603,-0.00065303,-0.
 00061539,0.00083219,-0.00014127,0.00022007,-0.00072634,-0.00026343,-0.
 00007596,-0.00003937,0.00017361,0.00009934,0.00008483,0.00012088,-0.00
 013610,0.00056058,-0.00003772,-0.00001389,-0.00001877,0.00005013,0.000
 04563,0.00001956,0.00033672,-0.00004229,-0.00011521,-0.00033313,-0.000
 13988,0.00001153,-0.07534037,0.03095261,0.01509508,-0.00384253,-0.0023
 3423,-0.00133335,-0.00034740,-0.00094912,-0.00097323,0.00025419,-0.000
 21022,0.00000485,-0.00005760,-0.00005527,0.00007038,-0.00000100,-0.000
 16400,0.00006438,-0.00060803,0.00026348,0.00020914,-0.00258655,-0.0009
 3837,-0.00054724,0.00294033,0.00225370,-0.00245509,-0.01249404,0.02406
 143,0.01117896,0.00002631,0.00000794,-0.00001264,-0.00000271,0.0000146
 1,0.00001652,-0.00031726,0.00012309,0.00017034,-0.00019735,-0.00015608
 ,-0.00001740,-0.00005262,0.00008593,-0.00000156,0.00002457,-0.00000520
 ,0.00004793,0.00001149,-0.00000216,0.00000181,0.00000952,0.00002598,-0
 .00000731,-0.00001683,0.00003323,0.00002254,-0.00000987,-0.00000672,-0
 .00001866,0.00001453,0.00001424,0.00003679,0.00001124,0.00002098,0.000
 01152,0.46874231,0.00045025,-0.00008920,-0.00017725,-0.00249119,-0.011
 67282,-0.01384273,-0.00071604,-0.00070641,0.00058842,-0.00000517,0.000
 02583,0.00007923,-0.00000145,0.00002799,-0.00001076,-0.00001794,0.0000
 2085,0.00000370,-0.00004001,0.00000153,0.00000378,-0.00304467,-0.00264
 079,-0.00133550,0.00009993,-0.00099159,0.00410754,-0.00006092,0.000117
 44,0.00000460,-0.00006638,-0.00107037,0.00259971,-0.00002977,0.0001335
 0,-0.00007567,0.00008523,-0.00007876,-0.00007630,0.00008260,-0.0000767
 5,-0.00003252,-0.00007508,-0.00017159,0.00007792,0.00001579,-0.0000144
 2,0.00000424,-0.00000276,-0.00001180,0.00005519,0.00101486,-0.00017901
 ,-0.00016300,-0.00045689,0.00023851,-0.00041651,0.03816563,-0.13730059
 ,-0.03243678,0.00045633,0.00140315,-0.00076129,-0.00055438,-0.00026311
 ,-0.00038744,0.00008217,-0.00021817,-0.00009614,-0.00000549,0.00002062
 ,0.00007231,0.00000482,-0.00004631,0.00002167,-0.00012019,0.00001974,0
 .00013613,-0.00069645,0.00033680,-0.00034741,0.00957113,-0.03727571,0.
 00621616,0.00327275,-0.00284061,-0.00315931,0.00000748,-0.00000340,-0.
 00000745,0.00000337,0.00002436,-0.00000896,-0.00009650,0.00003242,0.00
 014678,-0.00000654,0.00012711,0.00007021,0.00001878,-0.00010137,0.0000
 2448,-0.00001262,0.00002204,-0.00001547,-0.00000669,0.00002715,-0.0000
 0857,0.00002421,0.00002612,-0.00000636,0.00004270,-0.00000686,-0.00000
 697,0.00000719,0.00003061,0.00000542,0.00000235,-0.00001049,-0.0000284
 7,-0.00001160,0.00000142,0.00000142,0.00768482,0.46196001,-0.00034214,
 -0.00041580,-0.00038361,0.00604410,-0.01713308,-0.00799152,-0.00065886
 ,0.00087291,0.00054219,-0.00000774,0.00004704,-0.00000880,-0.00002013,
 -0.00001007,0.00002079,-0.00004944,-0.00006529,0.00006682,-0.00000639,
 -0.00001691,-0.00003139,0.00111070,0.00251762,0.00028574,-0.00134566,-
 0.00013987,-0.00018632,-0.00008714,0.00001475,-0.00001722,0.00009054,0
 .00082652,-0.00219059,-0.00015473,-0.00014302,0.00031038,0.00020254,0.
 00010566,-0.00000769,-0.00007268,-0.00005498,-0.00003928,0.00007226,0.
 00017448,-0.00030700,0.00002741,0.00001743,-0.00001536,-0.00003509,-0.
 00001339,-0.00002005,-0.00072906,0.00011272,0.00019153,0.00037777,0.00
 005016,-0.00001283,0.02035057,-0.03745821,-0.07572705,-0.00353070,-0.0
 0119273,-0.00238220,-0.00132803,-0.00012193,-0.00129873,-0.00013688,-0
 .00001525,-0.00025956,0.00009448,0.00001339,0.00006473,-0.00013008,-0.
 00021293,0.00008656,-0.00017596,-0.00004436,0.00019205,-0.00167787,-0.
 00080771,0.00084904,-0.00628087,0.02333882,0.00426385,0.00492257,-0.00
 819834,-0.00215708,-0.00001295,0.00002883,-0.00000094,-0.00000674,-0.0
 0002871,-0.00001576,0.00019776,-0.00011639,-0.00011093,0.00034452,0.00
 022896,-0.00003364,0.00003301,-0.00003208,-0.00002230,0.00003962,0.000
 02553,-0.00000589,-0.00002010,-0.00002920,0.00000668,-0.00000462,-0.00
 001505,0.00002668,-0.00001293,0.00000175,-0.00000528,0.00000120,-0.000
 01077,0.00001771,0.00000085,0.00001162,-0.00000050,-0.00000232,0.00000
 753,0.00001184,-0.00683793,-0.04774642,0.51093835,-0.00002302,0.000127
 77,-0.00010228,-0.00110710,0.00095686,-0.00033764,-0.00018436,-0.00002
 879,0.00014608,-0.00000412,-0.00002128,0.00003659,-0.00001919,0.000007
 42,-0.00001227,-0.00002584,0.00002210,0.00000275,-0.00000747,0.0000356
 4,0.00003534,0.00109742,-0.00041051,0.00064283,0.00000501,-0.00020779,
 0.00048604,0.00000819,0.00001283,0.00002074,0.00000118,0.00045366,-0.0
 0051295,-0.00004707,-0.00004948,-0.00007669,0.00006376,-0.00001843,-0.
 00001080,0.00004603,-0.00006238,0.00004031,0.00011699,0.00002570,0.000
 08847,0.00001381,-0.00000710,0.00000754,-0.00000873,-0.00001054,0.0000
 3790,-0.00001739,0.00009858,0.00001985,-0.00008943,-0.00000300,-0.0000
 6642,0.00654168,0.00086465,0.00300244,0.00093783,0.00062047,0.00024828
 ,-0.00002503,-0.00015957,-0.00055592,-0.00000204,-0.00001731,0.0000180
 1,-0.00000031,0.00000051,0.00001142,-0.00003670,-0.00005208,-0.0000248
 8,-0.00021403,-0.00000407,0.00011697,-0.00057000,-0.00017660,0.0001521
 5,-0.00040605,0.00041107,-0.00001548,0.00099271,0.00146763,0.00071528,
 0.00001241,-0.00002068,-0.00000301,0.00000260,0.00000763,-0.00000217,-
 0.00007775,-0.00008894,-0.00002671,0.00005253,0.00009861,0.00002329,0.
 00000030,-0.00008046,-0.00000235,-0.00000617,0.00001349,-0.00001561,0.
 00001296,0.00001139,-0.00000072,0.00001967,-0.00001859,0.00004302,0.00
 002356,-0.00001213,-0.00003763,0.00001152,0.00002073,0.00000765,-0.000
 00471,-0.00000406,-0.00000472,0.00000763,-0.00000507,-0.00000549,-0.13
 152839,-0.04657869,-0.03887705,0.50414721,0.00011270,0.00009391,-0.000
 08877,0.00225961,-0.00303094,0.00071039,-0.00030380,-0.00031298,-0.000
 23581,0.00002501,-0.00001876,0.00001542,0.00001017,0.00002692,-0.00001
 699,-0.00000021,0.00002147,-0.00002177,0.00003721,0.00000295,0.0000068
 5,0.00049142,-0.00114163,-0.00000771,-0.00037512,0.00080801,-0.0002307
 2,-0.00000650,-0.00002382,0.00003078,-0.00006261,0.00031283,0.00011818
 ,-0.00005082,0.00003628,-0.00010083,-0.00008775,0.00004521,0.00003154,
 0.00005100,-0.00003765,0.00003738,-0.00004324,0.00005391,0.00017808,0.
 00001379,0.00000414,-0.00000561,0.00001480,0.00000461,0.00003287,0.000
 08657,-0.00014918,0.00000004,-0.00004004,-0.00008666,0.00001452,-0.014
 23218,-0.02089575,-0.01627656,-0.00160462,-0.00103258,-0.00066262,0.00
 024923,0.00003508,-0.00011448,0.00002802,0.00005041,0.00014615,-0.0000
 1636,-0.00001398,-0.00003666,0.00004560,0.00005812,-0.00005624,-0.0001
 1816,-0.00003697,0.00001511,-0.00063284,-0.00025236,-0.00006091,-0.000
 11023,0.00012833,0.00008943,-0.00109266,0.00128692,0.00042200,0.000011
 99,-0.00001504,0.00000312,0.00000398,0.00001679,0.00000042,-0.00002892
 ,0.00005277,-0.00002164,0.00008185,0.00008217,0.00000586,0.00000539,-0
 .00003621,-0.00000211,-0.00000845,0.00001692,-0.00001510,0.00000555,0.
 00001827,0.00000287,0.00001475,-0.00000853,0.00001502,0.00001573,0.000
 02083,-0.00001736,0.00001205,0.00001776,0.00001090,0.00001234,0.000005
 74,0.00000449,0.00000028,-0.00000600,-0.00000480,-0.04953673,-0.097771
 67,-0.03000897,-0.02048955,0.49882067,0.00000032,0.00008630,-0.0001197
 9,0.00091231,-0.00215261,0.00048916,0.00005605,-0.00036696,0.00014587,
 0.00000144,0.00002686,0.00003211,0.00001134,-0.00000481,-0.00001836,0.
 00002753,0.00002552,-0.00001125,0.00000390,0.00001921,0.00001908,0.000
 45233,0.00008222,0.00053784,-0.00004018,0.00063061,-0.00012205,0.00005
 869,0.00003527,0.00002153,-0.00011362,0.00017567,-0.00019906,0.0000393
 7,0.00000109,-0.00004231,-0.00001968,-0.00006970,-0.00001638,0.0000604
 6,0.00001710,-0.00000886,0.00000774,-0.00002120,-0.00005876,0.00000722
 ,0.00000347,-0.00000083,-0.00000562,0.00000701,-0.00000043,0.00013869,
 -0.00002932,-0.00003433,-0.00017436,0.00013268,-0.00005489,-0.00451473
 ,-0.01018899,-0.00666724,-0.00067625,-0.00042804,-0.00053140,0.0005044
 1,0.00005303,0.00022632,-0.00003323,0.00004253,0.00014904,-0.00002718,
 -0.00000012,0.00002655,0.00000910,0.00003151,-0.00000151,-0.00007024,-
 0.00012307,-0.00004151,-0.00005638,0.00006655,-0.00027560,-0.00032836,
 0.00024922,-0.00028626,-0.00089745,-0.00023802,0.00032559,-0.00000780,
 0.00000619,-0.00000789,-0.00000469,0.00000987,0.00000030,-0.00002507,0
 .00001769,0.00005531,-0.00002096,-0.00000444,-0.00001881,0.00000388,-0
 .00001581,-0.00000025,-0.00000201,-0.00000361,-0.00000189,-0.00000304,
 -0.00000024,0.00000062,0.00000751,0.00000770,0.00000156,-0.00000016,0.
 00001065,0.00000683,0.00000027,0.00000952,0.00000029,-0.00000005,0.000
 00263,0.00001056,-0.00000062,-0.00000098,0.00000193,-0.03972252,-0.027
 21737,-0.08975739,-0.03658641,0.00152928,0.48401949,0.00025173,0.00035
 809,0.00017975,0.00012785,0.00012566,-0.00000539,0.00017868,0.00004901
 ,-0.00023234,0.00003360,0.00000955,0.00000178,-0.00001213,-0.00000446,
 0.00000325,-0.00000306,0.00000578,0.00000439,0.00002304,0.00000598,0.0
 0003020,0.00028613,0.00024362,-0.00026665,-0.00002271,-0.00014756,-0.0
 0002080,0.00003328,0.00000866,0.00000542,-0.00023793,-0.00010778,0.000
 10377,0.00026081,0.00027523,-0.00006206,-0.00015511,-0.00003748,-0.000
 00563,-0.00001222,-0.00002624,0.00000158,-0.00057501,-0.00053511,-0.00
 000958,-0.00004873,-0.00000152,0.00000471,0.00001667,0.00000425,0.0000
 1425,0.00033838,0.00004552,-0.00008591,-0.00011176,-0.00016723,0.00001
 557,0.00026813,0.00037130,0.00040831,-0.00009591,-0.00004788,0.0000755
 5,-0.00002341,-0.00011046,-0.00004470,-0.00001314,-0.00007672,0.000008
 35,-0.00001295,-0.00004515,-0.00002388,0.00006934,0.00004221,-0.000030
 97,-0.00004640,0.00007232,0.00008435,0.00011129,0.00006121,-0.00000747
 ,-0.00008867,-0.00032764,-0.00024782,0.00001192,-0.00011185,0.00012315
 ,0.00000376,-0.00000165,0.00000697,-0.00000387,-0.00000008,0.00000848,
 -0.00005457,0.00002753,-0.00003092,-0.00007884,-0.00002352,0.00002180,
 -0.00001736,-0.00000320,0.00000688,0.00000203,-0.00000154,0.00001437,-
 0.00000107,-0.00000771,0.00000083,0.00000608,0.00000296,-0.00000556,0.
 00001347,0.00000843,-0.00000927,-0.00000622,-0.00001359,-0.00000338,0.
 00000975,0.00000579,-0.00000707,-0.00000455,0.00000284,-0.00000526,-0.
 00973076,0.00621696,-0.02007933,-0.07713318,0.01838697,-0.03105785,0.5
 1758196,0.00031136,-0.00008552,0.00000887,0.00006847,0.00012965,0.0000
 3958,-0.00016025,0.00019739,-0.00010341,-0.00000577,0.00002150,-0.0000
 0102,0.00000703,-0.00000040,0.00000192,-0.00000298,-0.00000595,0.00000
 136,0.00001623,0.00000180,0.00001044,-0.00100786,-0.00013967,-0.000207
 53,0.00003595,-0.00010839,-0.00004654,-0.00005090,0.00000864,-0.000015
 01,0.00023648,-0.00003913,-0.00001357,0.00009254,0.00036060,0.00004037
 ,-0.00006305,-0.00010744,-0.00004285,-0.00004826,0.00002757,-0.0000235
 6,-0.00004417,-0.00027480,0.00001234,-0.00001620,-0.00002775,-0.000012
 06,0.00001232,-0.00001203,-0.00000632,-0.00018492,0.00002873,0.0000572
 7,0.00011010,-0.00008412,-0.00000625,0.00001724,0.00025753,0.00000870,
 -0.00009811,-0.00012520,0.00000363,-0.00007208,-0.00004325,0.00003569,
 -0.00003455,-0.00008719,-0.00002099,0.00003360,-0.00001620,-0.00002395
 ,0.00005034,0.00004914,-0.00000879,-0.00001566,0.00002493,0.00008430,0
 .00006347,0.00002788,0.00003149,0.00006086,-0.00021465,-0.00020542,-0.
 00007526,-0.00000550,-0.00028853,0.00000961,-0.00000143,0.00000058,-0.
 00000244,-0.00000359,-0.00000376,-0.00001869,-0.00002785,-0.00002333,0
 .00001727,-0.00000538,0.00000110,-0.00000091,0.00001372,0.00000336,-0.
 00000060,0.00000388,0.00000492,0.00000527,0.00000198,-0.00000066,-0.00
 002837,-0.00000507,-0.00001945,-0.00001686,-0.00000521,0.00001000,-0.0
 0000254,-0.00000642,0.00000142,0.00000552,0.00000447,-0.00000918,0.000
 00294,0.00000331,0.00000177,-0.00430410,0.00690385,-0.01145963,0.01779
 805,-0.09303698,0.05000783,0.00404610,0.51993461,-0.00012233,-0.000203
 10,-0.00018757,-0.00032557,-0.00009259,-0.00035621,-0.00017334,-0.0000
 9271,0.00019916,-0.00001625,-0.00001997,0.00002061,-0.00000210,0.00000
 965,-0.00000086,-0.00002796,0.00000389,-0.00001478,-0.00000601,0.00000
 952,-0.00001594,-0.00035264,-0.00003597,-0.00014363,0.00008103,-0.0001
 1156,0.00011538,-0.00000326,0.00000321,-0.00000348,0.00030675,0.000031
 68,0.00002771,-0.00011455,-0.00016335,0.00011813,0.00002772,-0.0000743
 2,-0.00000451,0.00001420,-0.00001245,0.00001638,0.00054534,0.00055009,
 -0.00010607,0.00003622,-0.00000066,-0.00001112,-0.00002522,-0.00001148
 ,0.00002000,-0.00044095,0.00003143,0.00004735,0.00007633,0.00006056,-0
 .00001707,0.00043600,0.00058792,0.00070565,0.00018006,0.00019433,-0.00
 004473,0.00006644,0.00004479,0.00002930,0.00000882,0.00006825,0.000016
 68,0.00001658,0.00005162,0.00003016,-0.00005627,-0.00002607,-0.0000047
 3,0.00001155,-0.00003226,-0.00002470,0.00004118,0.00003732,-0.00002955
 ,0.00013949,-0.00034370,-0.00018236,-0.00005799,-0.00013405,-0.0000859
 9,-0.00000175,-0.00001305,-0.00000653,0.00000097,-0.00001267,-0.000004
 53,0.00002436,-0.00005478,0.00001536,0.00003493,0.00003892,-0.00001972
 ,-0.00000583,-0.00003411,-0.00000411,-0.00000448,-0.00000208,-0.000009
 19,-0.00000392,-0.00000849,0.00000171,0.00000367,-0.00000426,0.0000202
 2,0.00000836,-0.00000539,-0.00002167,0.00000191,0.00000094,0.00000730,
 -0.00000161,0.00000328,-0.00000726,0.00000331,0.00000002,-0.00000077,-
 0.01021692,0.00351680,-0.01739710,-0.03131655,0.05156011,-0.16559740,-
 0.01602519,0.02431681,0.47303331,-0.00011632,-0.00012288,-0.00005354,0
 .00131744,0.00010407,-0.00107954,-0.00022375,-0.00009251,0.00011071,-0
 .00002467,-0.00004449,-0.00001514,0.00001735,0.00002512,-0.00000914,-0
 .00000226,0.00001241,-0.00003242,0.00001116,-0.00002431,-0.00003549,0.
 00013610,0.00032930,-0.00010885,-0.00074387,-0.00108292,0.00025538,0.0
 0000903,-0.00002928,-0.00002259,-0.00004043,0.00001305,-0.00013437,0.0
 0002219,-0.00001101,0.00013070,0.00004123,0.00002151,-0.00002624,-0.00
 005534,0.00003055,0.00003567,-0.00005952,0.00003346,-0.00018171,0.0000
 2382,-0.00001406,-0.00001889,-0.00001188,-0.00001049,0.00002514,-0.000
 03666,0.00010887,-0.00006602,0.00006215,0.00000893,0.00005868,-0.00252
 543,0.00810758,-0.00770730,-0.00038061,-0.00021589,-0.00000405,-0.0002
 8632,0.00002181,0.00019731,-0.00005208,0.00009448,0.00001669,-0.000009
 81,-0.00000361,0.00000884,0.00000958,0.00001126,0.00000650,0.00015400,
 -0.00000144,-0.00008461,-0.00124521,-0.00131680,0.00011149,-0.00070852
 ,0.00183092,-0.00000433,-0.00046282,0.00043350,0.00035732,0.00000732,-
 0.00001355,-0.00000314,0.00000522,0.00000195,-0.00000729,0.00007101,-0
 .00003315,0.00002767,0.00006635,0.00006262,0.00000187,0.00002256,-0.00
 004791,0.00000144,-0.00001850,0.00000397,-0.00002617,-0.00000432,0.000
 00635,0.00000213,-0.00000867,-0.00000338,0.00000031,0.00000698,0.00000
 297,-0.00001660,0.00000380,0.00000588,0.00000725,0.00000910,-0.0000011
 0,-0.00000845,-0.00000406,-0.00000342,0.00000189,-0.06716879,0.0403786
 7,-0.05661086,-0.01025370,0.00936621,-0.02082783,-0.00306958,-0.002715
 63,-0.00231494,0.07841976,0.00022656,0.00019475,-0.00003482,0.00040697
 ,-0.00282768,0.00322760,0.00037763,-0.00056925,0.00025322,0.00000970,0
 .00002977,-0.00002405,0.00005458,0.00000032,-0.00002677,0.00005261,0.0
 0001550,-0.00002320,-0.00002814,-0.00005103,-0.00002569,-0.00085515,-0
 .00073356,-0.00015218,-0.00019383,0.00216338,-0.00081559,0.00012156,0.
 00002730,-0.00003706,-0.00015557,-0.00047252,0.00090131,-0.00002390,-0
 .00004640,0.00002450,0.00003280,-0.00001802,-0.00004929,0.00001374,0.0
 0004165,-0.00003538,-0.00002431,-0.00007446,-0.00005982,0.00000112,-0.
 00001039,-0.00002874,-0.00000197,0.00000798,-0.00001775,0.00046634,-0.
 00003038,-0.00020082,-0.00031173,0.00019632,-0.00009047,0.00816620,-0.
 01875857,0.01572417,0.00031282,0.00039489,-0.00013830,-0.00015578,-0.0
 0003079,0.00021802,0.00006911,0.00014563,0.00009361,0.00005430,-0.0000
 0121,-0.00005458,0.00002799,0.00003000,0.00001011,0.00009135,-0.000033
 06,-0.00017419,-0.00175743,-0.00074176,0.00012055,0.00318365,-0.006674
 25,-0.00033305,0.00048175,-0.00080214,-0.00020794,-0.00000399,0.000008
 32,-0.00000619,0.00000705,0.00001616,0.00000289,-0.00000608,0.00000351
 ,0.00003049,-0.00007788,-0.00005476,0.00002994,0.00000194,0.00006491,0
 .00001355,-0.00000121,-0.00000875,0.00002026,-0.00001218,0.00000658,-0
 .00000656,0.00000139,0.00004898,-0.00004510,-0.00000163,0.00001959,0.0
 0004473,-0.00000399,0.00000131,-0.00001743,0.00000449,-0.00001625,0.00
 000796,-0.00001429,0.00000265,0.00001028,0.04103125,-0.10598190,0.0980
 7450,-0.00602478,0.00595826,-0.01114415,-0.00209203,-0.00058634,-0.001
 38443,-0.04405365,0.13098904,-0.00018571,-0.00018681,0.00002017,-0.000
 23755,-0.00185236,0.00056352,-0.00010957,0.00016566,-0.00012125,-0.000
 00620,-0.00001516,0.00001817,-0.00004526,-0.00001060,0.00001204,-0.000
 03942,-0.00002911,0.00002147,-0.00001365,-0.00001255,0.00001159,-0.000
 08072,-0.00028463,-0.00005359,-0.00009999,0.00031952,0.00070057,-0.000
 11824,-0.00004451,0.00002520,0.00017979,-0.00003658,0.00018183,-0.0000
 3611,0.00007157,-0.00010307,0.00000594,0.00008749,0.00005703,-0.000011
 81,-0.00008480,0.00001837,-0.00000626,0.00004284,0.00012193,-0.0000084
 4,0.00002502,0.00001771,0.00000301,-0.00000655,0.00001545,-0.00016558,
 -0.00008787,0.00014571,0.00022616,-0.00004807,-0.00006348,0.00180337,-
 0.00222935,0.00619407,0.00067324,0.00062011,-0.00011011,-0.00011433,-0
 .00023469,-0.00024085,0.00004858,-0.00008048,-0.00000040,-0.00000609,-
 0.00000236,-0.00001825,-0.00004872,-0.00008301,0.00001184,-0.00016257,
 0.00002523,0.00017989,0.00060816,0.00066980,0.00069845,-0.00009185,-0.
 00093246,0.00031139,0.00012708,-0.00019074,-0.00032400,0.00000534,0.00
 000387,0.00000524,-0.00000258,-0.00000806,-0.00000634,0.00002628,0.000
 03614,-0.00018233,0.00000185,0.00002565,-0.00003119,-0.00001141,-0.000
 04230,-0.00000498,-0.00000965,0.00000608,-0.00000752,0.00000404,0.0000
 0221,0.00000096,0.00001543,-0.00001685,0.00002691,0.00002099,-0.000006
 96,-0.00002821,0.00000539,0.00000251,0.00000595,-0.00000237,0.00000175
 ,-0.00000546,0.00000667,0.00000052,-0.00000269,-0.05614052,0.09696649,
 -0.18270408,-0.00860137,0.00582929,-0.01451384,-0.00303429,-0.00210809
 ,-0.00125694,0.07042465,-0.10870874,0.20893476,0.00180110,0.00239616,-
 0.00107615,-0.00065853,-0.00026859,0.00066619,0.00046508,0.00048714,0.
 00074232,0.00006849,0.00028748,-0.00007069,0.00027469,-0.00011013,-0.0
 0000917,0.00013353,0.00011910,0.00006130,0.00004065,0.00003965,0.00022
 162,-0.00118681,0.00087945,0.00005387,0.00013999,0.00003030,-0.0002912
 8,0.00044458,0.00037381,-0.00024029,-0.00004602,-0.00051064,0.00020386
 ,-0.00043258,-0.00036021,0.00021695,-0.00001952,-0.00016243,-0.0005317
 2,0.00002494,0.00045245,-0.00008837,0.00024809,-0.00024566,-0.00008459
 ,-0.00005086,-0.00007531,-0.00023302,0.00002323,0.00016400,-0.00008337
 ,-0.00001664,0.00029646,-0.00014164,-0.00058914,0.00035706,-0.00033089
 ,-0.01107993,0.00261366,0.01013308,0.00014102,0.00033737,-0.00006574,-
 0.00317481,-0.00151373,-0.00238300,-0.00179436,-0.00059880,0.00033913,
 0.00032878,-0.00030915,0.00025685,0.00045916,-0.00012882,0.00023582,-0
 .00020361,-0.00050165,0.00051577,-0.00315430,-0.00128980,-0.00316879,0
 .00094378,-0.00212166,-0.00080727,-0.00094321,0.00225683,0.00141284,0.
 00001861,0.00014273,-0.00004513,0.00002767,0.00000395,0.00000887,-0.00
 073888,0.00056001,0.00074126,-0.00011619,0.00031403,0.00009612,0.00004
 946,-0.00004175,0.00000314,0.00001487,0.00002495,0.00003863,-0.0000172
 6,-0.00000627,-0.00000172,0.00000636,0.00005407,0.00003953,0.00001774,
 0.00004125,-0.00003902,-0.00000290,-0.00000344,-0.00000324,0.00000864,
 0.00001723,-0.00000687,0.00000487,0.00006732,0.00002274,-0.15814106,-0
 .02881225,0.10348955,-0.02191615,-0.00767631,0.01212369,0.00069102,0.0
 0020307,0.00121915,0.00661813,0.00118855,-0.00492382,0.19332237,0.0020
 6662,0.00082314,-0.00096770,0.00141550,-0.00021788,0.00093330,-0.00015
 400,-0.00106621,-0.00053638,0.00011147,0.00027808,-0.00002158,0.000201
 69,-0.00004582,-0.00003514,0.00009054,0.00002181,-0.00001577,-0.000015
 97,-0.00001892,0.00013336,0.00090254,-0.00043355,-0.00024313,-0.000186
 76,0.00035369,-0.00015008,0.00015665,0.00020641,-0.00014621,-0.0000287
 5,0.00027441,-0.00011234,-0.00071670,-0.00024662,0.00013535,-0.0001623
 1,0.00010585,-0.00028252,0.00023574,0.00015586,-0.00012020,0.00000560,
 0.00018299,0.00103141,0.00004714,-0.00001489,-0.00024416,0.00009670,0.
 00007151,-0.00003084,-0.00011642,-0.00010193,0.00006366,-0.00046733,-0
 .00025779,-0.00001553,0.02015462,-0.00067037,-0.01755116,-0.00052984,-
 0.00021499,0.00004505,-0.00134798,-0.00049932,-0.00044262,-0.00059836,
 -0.00006549,0.00077912,0.00042898,-0.00003823,-0.00001196,0.00033015,-
 0.00012396,0.00003422,-0.00027160,-0.00022664,0.00035135,-0.00148960,0
 .00082989,-0.00115042,0.00144025,0.00134007,-0.00083480,0.00173818,-0.
 00403146,-0.00179648,0.00004853,0.00010650,-0.00000411,0.00001979,0.00
 004452,0.00001977,0.00028052,-0.00005322,-0.00029905,-0.00004831,0.000
 18306,0.00006395,-0.00000040,0.00009279,-0.00001511,0.00003664,0.00003
 082,0.00004072,0.00002040,0.00002383,0.00000971,-0.00001000,-0.0000025
 5,-0.00000475,-0.00000425,0.00002754,0.00000611,0.00001135,0.00001478,
 -0.00000036,0.00001191,0.00000770,0.00000105,-0.00000651,0.00005056,0.
 00002427,-0.02868315,-0.04970503,0.02770465,-0.01458062,-0.00378026,0.
 00797605,0.00068031,0.00040868,0.00029912,-0.01206115,-0.00306119,0.01
 238745,0.03361868,0.06052801,-0.00114123,-0.00104227,-0.00038113,0.001
 40449,0.00061872,-0.00063472,0.00015904,-0.00180848,-0.00008303,-0.000
 07154,-0.00016926,-0.00001225,-0.00007640,0.00009234,-0.00003507,0.000
 08580,-0.00004624,-0.00003182,-0.00004274,-0.00008751,-0.00022680,0.00
 062814,0.00006308,0.00004373,-0.00041038,-0.00035036,-0.00005272,-0.00
 016185,-0.00037584,0.00012055,-0.00044964,0.00006109,-0.00007917,0.000
 72137,0.00068271,-0.00027851,0.00009925,0.00000532,0.00026589,-0.00007
 146,-0.00021213,0.00014216,-0.00008877,0.00062805,-0.00104630,0.000114
 29,0.00002581,0.00007015,-0.00009394,-0.00010103,-0.00001147,0.0005905
 9,-0.00018857,-0.00003393,-0.00017958,0.00004540,0.00019783,0.01086289
 ,-0.00119061,-0.00835482,-0.00064710,-0.00051982,0.00004958,-0.0000195
 4,0.00048217,0.00070396,0.00051728,0.00074401,0.00029006,-0.00040751,0
 .00000109,-0.00007742,-0.00021914,0.00006278,-0.00010866,-0.00033214,-
 0.00039639,-0.00066829,-0.00303100,-0.00102058,-0.00284115,-0.00137297
 ,0.00186541,0.00126047,0.00035166,-0.00175308,-0.00056917,-0.00006608,
 -0.00002924,-0.00002848,-0.00002881,0.00003364,-0.00000899,0.00048478,
 -0.00010473,0.00022882,0.00003857,-0.00024167,-0.00006187,-0.00000207,
 0.00009980,0.00000956,-0.00001589,-0.00003300,-0.00000639,0.00001586,0
 .00003070,-0.00000455,-0.00000731,0.00000095,-0.00005247,-0.00002485,-
 0.00000803,0.00006153,-0.00000468,0.00002507,-0.00001335,0.00000085,-0
 .00002379,-0.00000182,-0.00004787,-0.00002233,0.00001621,0.10303840,0.
 02710247,-0.13410055,-0.00878634,-0.00201350,0.00710177,-0.00114334,-0
 .00063397,0.00118625,0.01839610,0.00665834,-0.01865716,-0.11550220,-0.
 02585696,0.15693221,-0.00000830,0.00001679,0.00005443,0.00061974,-0.00
 052394,0.00018969,-0.00007527,0.00000989,-0.00011781,-0.00000123,-0.00
 000847,-0.00000531,-0.00000341,0.00000516,0.00000263,-0.00000093,0.000
 01077,-0.00000008,0.00002032,0.00001035,0.00000907,-0.00044670,-0.0001
 7271,-0.00019723,-0.00004633,0.00011023,-0.00002662,-0.00000276,-0.000
 00249,-0.00000240,0.00005497,-0.00011657,0.00015383,-0.00001114,0.0000
 0882,0.00000569,-0.00002235,0.00000159,0.00000481,-0.00001281,0.000007
 63,0.00001250,0.00000429,0.00000084,-0.00001109,0.00000109,-0.00001153
 ,0.00000674,0.00000948,0.00000007,0.00000788,0.00001386,0.00012350,-0.
 00001088,0.00001564,-0.00009048,0.00002148,-0.00212127,-0.00234179,-0.
 00209102,-0.00034480,-0.00019803,-0.00005396,-0.00000607,0.00001772,-0
 .00003538,-0.00000737,-0.00002640,-0.00006902,-0.00001468,0.00000932,0
 .00002999,0.00001985,0.00001700,-0.00001642,0.00001530,0.00001954,0.00
 001129,0.00002222,-0.00004854,-0.00001428,0.00026818,-0.00005316,0.000
 05436,0.00002201,0.00000504,-0.00003833,0.00000815,-0.00000384,0.00000
 185,0.00000238,0.00000671,-0.00000132,-0.00003701,-0.00002838,0.000041
 45,0.00003003,0.00004337,-0.00000483,0.00000542,-0.00001654,-0.0000041
 2,-0.00000693,0.00000338,-0.00001002,-0.00000087,0.00000740,0.00000149
 ,0.00000088,0.00000120,-0.00000032,-0.00000072,0.00000835,0.00000034,0
 .00000409,0.00000401,0.00000592,0.00000264,0.00000506,0.00000485,0.000
 00378,-0.00000082,-0.00000177,0.00508952,-0.01957851,-0.00640746,-0.07
 615266,0.07641055,0.01957246,-0.00405940,0.01035911,-0.00097709,0.0007
 0933,-0.00042116,0.00020739,0.00043494,-0.00016848,-0.00005841,0.08830
 906,0.00001390,0.00036708,0.00019239,0.00110548,-0.00038729,0.00096875
 ,0.00047835,0.00007711,-0.00014742,0.00003394,0.00004310,-0.00003583,0
 .00000272,-0.00001187,0.00001644,0.00002921,0.00000750,0.00001372,0.00
 003006,0.00001370,0.00002614,0.00001914,0.00046716,-0.00046641,-0.0002
 3162,0.00032220,-0.00044073,0.00013796,0.00004994,-0.00000030,-0.00039
 552,-0.00037801,0.00042111,-0.00000767,-0.00013937,-0.00006191,-0.0000
 4706,-0.00003928,0.00000286,0.00001129,0.00001487,-0.00001639,0.000045
 09,-0.00016260,0.00003473,-0.00005917,0.00001409,0.00002482,-0.0000090
 8,0.00002288,-0.00002488,0.00046001,-0.00007627,-0.00018426,-0.0002203
 8,0.00007909,0.00009946,-0.00319057,-0.00179946,-0.00259315,-0.0007053
 4,-0.00051968,-0.00018208,0.00001256,-0.00000840,-0.00007761,-0.000019
 56,-0.00004965,-0.00006833,-0.00005200,-0.00004997,0.00003923,0.000054
 83,0.00003873,-0.00001818,0.00001544,0.00003432,-0.00005473,0.00001060
 ,-0.00014925,-0.00009372,0.00002971,-0.00021036,0.00003615,-0.00037988
 ,0.00025227,0.00027197,-0.00001977,0.00001939,-0.00000410,-0.00000010,
 -0.00000710,0.00001944,-0.00010444,0.00002208,0.00011320,-0.00013896,-
 0.00014998,-0.00001247,0.00000133,0.00007360,-0.00000388,0.00002471,-0
 .00000944,0.00002805,-0.00002779,-0.00002994,0.00000175,0.00000416,0.0
 0003088,-0.00002703,-0.00001077,0.00003006,0.00003564,-0.00001689,-0.0
 0003375,-0.00000956,0.00000889,0.00000766,0.00001913,-0.00000918,0.000
 01013,0.00000473,0.00350929,-0.02009226,-0.00742279,0.07686862,-0.2279
 4881,-0.03986081,0.00835348,-0.01669643,0.00140598,0.00039301,0.000741
 86,0.00003977,0.00023706,0.00002459,0.00032499,-0.08896196,0.26641315,
 -0.00000679,0.00003322,0.00003676,0.00054593,-0.00024486,0.00045905,0.
 00009472,-0.00009232,-0.00009153,0.00000404,0.00000765,-0.00001706,0.0
 0000335,0.00000110,0.00000599,0.00000196,-0.00000444,0.00000074,0.0000
 1609,0.00000073,0.00000529,-0.00046323,0.00017156,-0.00045392,-0.00013
 105,0.00010249,-0.00016127,0.00001908,-0.00000896,-0.00001512,-0.00002
 792,-0.00023328,0.00034251,0.00001549,-0.00003190,0.00000065,-0.000013
 35,0.00001415,0.00000768,-0.00000978,0.00001509,0.00000146,-0.00003844
 ,0.00003336,0.00000898,-0.00000089,0.00000562,0.00000252,-0.00000259,0
 .00000140,-0.00000566,0.00002920,-0.00008780,-0.00001162,0.00001638,0.
 00009059,0.00003922,-0.00218686,-0.00216645,-0.00122140,-0.00038987,-0
 .00019762,-0.00009934,-0.00003803,0.00002119,0.00000558,0.00000325,0.0
 0000072,-0.00002076,-0.00000040,-0.00000992,0.00000951,0.00001701,0.00
 000643,-0.00000640,0.00002522,0.00001226,-0.00001510,0.00002757,-0.000
 08045,-0.00001787,0.00013135,-0.00032112,-0.00005038,-0.00030899,0.000
 23331,0.00011437,-0.00000187,0.00000523,-0.00000145,-0.00000214,-0.000
 00826,0.00000279,0.00000792,0.00001152,0.00004761,-0.00005036,-0.00005
 554,-0.00002786,-0.00000084,0.00001665,-0.00000681,0.00000766,-0.00000
 230,0.00000622,-0.00001192,-0.00001338,0.00000099,-0.00000219,0.000008
 22,-0.00000888,-0.00000254,0.00001315,0.00000955,-0.00000649,-0.000014
 25,-0.00000202,0.00000564,0.00000684,0.00000512,-0.00000103,0.00000569
 ,0.00000282,0.00258169,-0.01419684,-0.00441795,0.01953033,-0.03993181,
 -0.05150397,-0.01168599,0.02553727,0.00109105,0.00021236,-0.00077850,-
 0.00013331,0.00018960,0.00035930,0.00023729,-0.01681034,0.04616182,0.0
 6357731,0.00002534,-0.00018733,-0.00004343,-0.00042309,-0.00033215,0.0
 0033116,-0.00007675,0.00019043,0.00004669,-0.00001731,0.00000544,-0.00
 002067,0.00000892,-0.00000153,0.00000204,-0.00001313,-0.00002477,0.000
 00311,-0.00000342,0.00000329,0.00000635,-0.00053033,0.00004394,-0.0000
 1668,0.00033139,0.00037270,-0.00021439,-0.00003179,-0.00001097,-0.0000
 2765,0.00016039,-0.00005920,-0.00003837,0.00002990,0.00002058,0.000099
 64,0.00009721,0.00003237,-0.00001361,-0.00002198,0.00002649,-0.0000036
 1,-0.00011736,-0.00002612,-0.00008437,0.00001859,-0.00000329,-0.000022
 56,-0.00001014,-0.00000976,-0.00000880,-0.00015196,0.00015198,0.000011
 59,0.00008220,0.00000194,0.00001208,0.00083694,0.00106277,0.00070652,0
 .00031803,0.00031048,0.00004285,-0.00027705,-0.00002615,-0.00008708,0.
 ,-0.00001335,-0.00003009,0.00007883,0.00002511,-0.00004291,-0.00000864
 ,-0.00002913,0.00003323,0.00003698,0.00002966,0.00004097,-0.00004247,-
 0.00000284,0.00021572,0.00016790,-0.00002436,-0.00013671,0.00069999,-0
 .00058309,-0.00023633,0.00000930,0.00000459,-0.00000486,0.00000593,-0.
 00002289,-0.00000597,0.00006477,-0.00006573,-0.00009172,0.00001910,-0.
 00001188,-0.00000982,-0.00000354,0.00003555,0.00000220,0.00000941,0.00
 000888,0.00001143,-0.00000925,-0.00001462,-0.00000171,-0.00001574,0.00
 000771,-0.00000877,-0.00001447,-0.00000420,0.00000673,-0.00000196,-0.0
 0001814,0.00000273,-0.00000437,0.00000383,0.00000292,0.00001275,0.0000
 0920,0.00000601,-0.02327532,-0.00652592,0.01131629,-0.18681906,-0.0160
 2360,0.11185587,0.00539086,0.00044605,-0.00336245,-0.00006679,0.000238
 63,0.00023613,-0.00359438,-0.00250269,-0.00241219,-0.01311562,0.002030
 79,0.01054387,0.21807541,-0.00000667,-0.00007745,0.00000856,-0.0003524
 9,-0.00018357,-0.00017516,-0.00010094,-0.00000229,0.00003121,-0.000006
 80,0.00000089,-0.00000391,0.00000274,0.00000066,-0.00000006,-0.0000053
 2,-0.00000285,0.00000344,0.00000070,0.00000849,0.00000157,-0.00043948,
 -0.00015098,0.00019886,0.00021001,0.00003930,0.00009375,-0.00000986,0.
 00000250,-0.00001558,0.00018861,0.00019422,-0.00018464,-0.00000895,-0.
 00001758,0.00003185,0.00004419,0.00000509,-0.00000909,-0.00000490,-0.0
 0000130,-0.00000534,0.00001747,-0.00001256,-0.00001901,0.00001174,-0.0
 0001073,-0.00000473,0.00000101,-0.00000381,-0.00000018,-0.00013908,-0.
 00003918,0.00005494,0.00003650,0.00009838,-0.00002664,-0.00117609,0.00
 086798,0.00125804,0.00018197,0.00019210,0.00005623,-0.00014434,-0.0000
 2833,-0.00008180,-0.00000282,-0.00001346,-0.00004619,0.00001652,0.0000
 1424,0.00000052,-0.00000371,-0.00001715,0.00000414,0.00000600,0.000010
 48,0.00002064,-0.00002330,-0.00000562,0.00006665,0.00026163,-0.0001321
 7,-0.00015577,0.00026661,-0.00085048,-0.00046558,0.00000815,0.00000020
 ,-0.00000190,0.00000474,-0.00000154,-0.00000281,-0.00000877,-0.0000484
 3,-0.00001580,0.00005003,0.00002554,0.00000624,-0.00000011,0.00000368,
 0.00000163,0.00000116,0.00000661,-0.00000341,-0.00000036,0.00000295,-0
 .00000101,-0.00000607,0.00000110,0.00000486,-0.00000759,-0.00000429,-0
 .00000110,0.00000408,0.00000190,0.00000484,-0.00000476,0.00000084,0.00
 000258,0.00000875,0.00000083,0.00000102,-0.01556398,-0.00332973,0.0081
 7187,-0.01581522,-0.04741791,0.01279038,-0.00998122,-0.00149584,0.0105
 8876,0.00040926,0.00023056,0.00013809,-0.00316979,-0.00132086,-0.00125
 446,0.02473038,-0.00018430,-0.01830131,0.02063764,0.05375725,-0.000097
 58,0.00003803,0.00005914,-0.00011425,0.00005793,0.00006481,-0.00005136
 ,-0.00009597,-0.00009660,0.00000528,-0.00002272,-0.00000706,-0.0000141
 2,0.00000600,-0.00000091,-0.00001061,0.00000618,0.00000075,0.00001031,
 0.00000433,0.00000630,0.00035576,0.00015310,-0.00019465,0.00002078,-0.
 00006918,0.00000935,0.00001371,-0.00001188,-0.00000133,-0.00010566,-0.
 00004140,0.00017246,-0.00000211,-0.00005175,0.00001411,-0.00001565,0.0
 0004675,0.00002201,-0.00002965,-0.00003023,0.00001983,-0.00007143,-0.0
 0003063,-0.00005167,-0.00002166,0.00000576,0.00001177,0.00000626,0.000
 00137,0.00001873,0.00006344,-0.00009348,-0.00006250,0.00008311,0.00006
 090,0.00003942,-0.00063138,0.00012583,0.00047412,0.00001910,0.00008020
 ,0.00004782,-0.00009920,-0.00003871,-0.00010562,-0.00000762,-0.0000363
 8,-0.00005139,-0.00001457,-0.00000808,0.00000448,0.00000572,-0.0000122
 1,-0.00001776,-0.00000439,0.00004672,0.00003800,0.00002822,0.00001081,
 0.00005504,0.00003676,0.00008660,-0.00013598,-0.00000290,-0.00003123,0
 .00023605,0.00000509,-0.00000540,0.00000418,0.00000018,0.00000583,0.00
 000207,-0.00000840,-0.00000174,-0.00002549,-0.00000692,0.00001077,-0.0
 0000355,-0.00000065,-0.00003251,-0.00000256,-0.00000832,-0.00000046,-0
 .00000843,0.00000235,0.00000568,0.00000035,0.00000980,-0.00000512,0.00
 000393,0.00000882,0.00000195,-0.00000381,0.00000282,0.00000382,0.00000
 122,0.00000242,0.00000116,-0.00000061,-0.00000183,-0.00000196,-0.00000
 506,-0.00927325,-0.00174228,0.00718141,0.11151424,0.01282661,-0.126948
 82,0.01976765,0.00535125,-0.02216299,-0.00016658,-0.00008506,0.0004387
 9,-0.00208703,-0.00160259,-0.00032264,0.00853901,-0.00137497,-0.004958
 73,-0.12656901,-0.01567577,0.15062322,0.00025926,0.00016095,0.00014393
 ,-0.00027369,-0.00030725,-0.00017761,-0.00007992,-0.00006017,0.0001983
 5,0.00000071,0.00002438,0.00001910,0.00002446,-0.00000879,0.00000029,-
 0.00003179,0.00002558,-0.00001215,0.00000539,0.00001565,-0.00000316,-0
 .00052074,0.00001822,0.00045531,0.00007189,0.00006848,0.00001374,0.000
 04772,0.00011210,-0.00002191,0.00018711,0.00005590,-0.00038610,-0.0005
 9671,-0.00045929,0.00009499,0.00003272,-0.00006490,0.00000142,-0.00001
 514,0.00005381,-0.00003653,0.00017082,-0.00042207,0.00004564,-0.000064
 62,0.00001368,0.00002010,0.00000792,0.00002072,0.00000231,-0.00004543,
 0.00019009,0.00011251,0.00001073,0.00006141,-0.00014132,-0.00011609,-0
 .00005412,0.00040471,0.00015659,0.00021987,-0.00007233,0.00004336,-0.0
 0006445,0.00001596,-0.00002880,-0.00008876,0.00001786,0.00004884,0.000
 02839,0.00003518,-0.00001602,0.00003135,0.00001773,0.00008943,0.000012
 68,0.00000811,-0.00002774,-0.00002029,0.00000246,0.00016175,-0.0001244
 7,-0.00021148,-0.00001385,-0.00003395,-0.00006998,0.00000590,-0.000013
 32,0.00000425,0.00000739,0.00001142,0.00000139,-0.00005396,0.00003799,
 -0.00001935,0.00005783,0.00008522,0.00001773,0.00001022,-0.00002345,0.
 00000568,-0.00000490,0.00000259,-0.00001178,0.00000153,0.00000640,-0.0
 0000343,-0.00000047,0.00000823,0.00000465,-0.00000220,-0.00000166,0.00
 000101,0.00000272,0.00000677,0.00000310,-0.00000067,0.00000108,-0.0000
 0444,0.00000334,-0.00000536,-0.00000988,0.00102198,0.00055870,-0.00082
 590,0.00570848,-0.00025961,-0.00224254,-0.19033784,-0.02071941,0.11219
 300,-0.00004017,0.00001405,-0.00012961,0.00024701,0.00013089,-0.000148
 04,0.00046978,-0.00027044,-0.00022629,0.00075770,0.00032875,-0.0015931
 4,0.21949622,0.00028741,0.00012416,-0.00001724,-0.00006695,-0.00008520
 ,-0.00003514,-0.00010495,0.00002178,-0.00015808,0.00002543,0.00000660,
 -0.00000297,0.00002846,-0.00000185,-0.00000131,-0.00000665,-0.00000048
 ,-0.00000456,0.00000652,-0.00000187,0.00001282,0.00058218,-0.00003177,
 -0.00011096,0.00001533,0.00000227,0.00005707,-0.00004145,0.00001148,-0
 .00001500,-0.00003677,0.00002792,0.00013619,-0.00043988,-0.00059187,0.
 00005454,-0.00001957,0.00018022,0.00004484,0.00007284,0.00000911,-0.00
 001851,-0.00071483,0.00015941,0.00008764,0.00002400,0.00002876,-0.0000
 1105,0.00003542,0.00003057,0.00000641,-0.00008297,-0.00013172,-0.00001
 467,0.00012543,-0.00009532,0.00004041,0.00007833,-0.00001048,-0.000227
 63,0.00000478,-0.00002587,0.00001044,-0.00004084,-0.00006051,0.0000517
 2,-0.00002847,-0.00000135,0.00006101,0.00005257,0.00001950,0.00000171,
 0.00001776,-0.00000769,0.00000656,0.00002129,-0.00000507,0.00002616,-0
 .00001125,0.00000588,0.00000999,-0.00002429,0.00015713,0.00006392,0.00
 000332,-0.00008802,0.00012422,0.00001316,0.00000601,0.00001505,0.00000
 419,0.00000864,0.00000687,0.00003393,0.00002225,-0.00000349,0.00001117
 ,0.00002543,0.00000129,0.00000092,0.00000690,-0.00001219,-0.00000156,0
 .00000237,-0.00000658,0.00000911,0.00001088,0.00000409,0.00000865,-0.0
 0001055,0.00000474,-0.00000228,0.00000090,0.00000546,0.00000665,0.0000
 0874,0.00000326,-0.00000121,-0.00000063,0.00000851,0.00000407,-0.00000
 295,-0.00000288,0.00017777,0.00041378,-0.00075862,-0.01033326,-0.00206
 915,0.01051439,-0.02036714,-0.04766573,0.01452288,-0.00013771,-0.00009
 314,-0.00013630,0.00004221,0.00029869,-0.00014175,-0.00065298,0.000159
 55,0.00020672,0.00067208,-0.00070641,0.00302270,0.02473727,0.05181411,
 0.00033236,0.00032016,0.00004022,0.00029274,0.00042268,-0.00009354,-0.
 00003025,-0.00031239,-0.00033671,0.00004695,0.00001961,-0.00002062,0.0
 0002328,-0.00000499,0.00000398,0.00003527,0.00001155,0.00001495,0.0000
 2641,0.00000108,0.00002662,0.00087585,-0.00040220,-0.00026866,-0.00011
 282,-0.00017714,0.00013905,-0.00000999,0.00001108,0.00002930,-0.000260
 33,0.00012568,0.00017935,-0.00005715,0.00003841,-0.00024555,-0.0001457
 6,0.00009296,-0.00000403,0.00009656,0.00000940,0.00000641,-0.00033170,
 -0.00018364,0.00062156,0.00000710,-0.00001530,0.00000322,0.00004690,0.
 00002854,-0.00000831,0.00022413,-0.00021321,-0.00003433,-0.00005164,-0
 .00007310,0.00004152,0.00002999,-0.00006784,-0.00044696,-0.00016638,-0
 .00018319,0.00016881,-0.00003612,-0.00008942,-0.00001205,-0.00006893,-
 0.00009124,-0.00000056,-0.00002967,-0.00005075,0.00001441,0.00009940,0
 .00006147,-0.00002218,-0.00007723,0.00000676,0.00004606,0.00002720,0.0
 0001356,-0.00011229,-0.00030199,0.00033491,0.00035529,-0.00013254,0.00
 016509,0.00010735,0.00000366,0.00001762,0.00001098,0.00000109,0.000020
 13,0.00001333,-0.00011196,0.00008065,0.00006103,-0.00000783,-0.0000052
 0,-0.00000220,0.00000234,0.00005823,-0.00000661,0.00000578,0.00000121,
 0.00000651,0.00001226,0.00001843,0.00000298,-0.00000360,-0.00000828,-0
 .00001063,-0.00001249,0.00000842,0.00001705,0.00000361,0.00000773,-0.0
 0000295,0.00000414,0.00000021,0.00000515,-0.00000693,0.00000382,-0.000
 00050,0.00131509,0.00019246,0.00069447,0.02066402,0.00559683,-0.022737
 27,0.11297836,0.01498802,-0.12875851,0.00013046,-0.00001752,0.00046991
 ,-0.00101271,-0.00027475,-0.00013432,0.00025453,-0.00043701,0.00085883
 ,-0.00166818,0.00323235,-0.00551401,-0.13122271,-0.02054277,0.15180271
 ,-0.00010034,-0.00010861,0.00003290,0.00022425,0.00019590,0.00038525,0
 .00025543,0.00027115,0.00003048,-0.00001379,-0.00000066,-0.00002913,-0
 .00000138,-0.00000666,0.00000912,-0.00001287,-0.00001139,0.00000272,0.
 00000299,0.00000328,0.00000575,-0.00065662,0.00037303,-0.00023826,-0.0
 0000650,-0.00001053,-0.00018983,0.00004703,-0.00000142,-0.00001724,-0.
 00003136,-0.00033514,0.00017946,0.00004162,-0.00001272,0.00006615,0.00
 001525,-0.00004484,-0.00002548,-0.00004194,0.00003026,-0.00000087,0.00
 014082,0.00009146,-0.00011068,0.00000370,-0.00000828,-0.00001983,-0.00
 001451,-0.00000508,-0.00000836,0.00010792,0.00013501,0.00000106,-0.000
 09824,0.00000098,0.00002419,-0.00009460,0.00003299,0.00003711,-0.00011
 392,-0.00016852,-0.00003229,-0.00004431,0.00001506,-0.00000457,0.00002
 378,-0.00001907,-0.00004422,0.00003316,0.00002630,0.00000302,-0.000011
 80,-0.00002022,0.00000689,0.00006205,0.00004843,-0.00000647,0.00005123
 ,0.00001199,0.00006237,0.00008295,-0.00025268,-0.00014316,0.00000614,-
 0.00000878,-0.00005031,0.00000050,-0.00000054,-0.00000452,0.00000119,-
 0.00002131,0.00000196,0.00003269,-0.00005375,-0.00002321,-0.00007986,-
 0.00009523,-0.00001461,-0.00000063,0.00002296,-0.00000321,0.00000988,-
 0.00000463,0.00001153,-0.00001894,-0.00002673,0.00000093,-0.00000837,0
 .00001285,-0.00000573,-0.00001099,0.00000765,0.00000826,-0.00001052,-0
 .00002634,-0.00000222,0.00000056,0.00000662,0.00000778,0.00000473,0.00
 000673,0.00000360,-0.00033037,0.00137325,-0.00246924,-0.00796505,-0.00
 523047,-0.00734510,-0.15305003,-0.09460447,-0.06958242,-0.00039725,-0.
 00027558,-0.00048651,0.00043008,0.00018905,0.00000254,-0.00017187,-0.0
 0009382,0.00017529,0.00055523,-0.00001526,0.00036722,-0.02284708,-0.01
 851248,-0.00974587,0.17550819,-0.00011548,-0.00002654,0.00006506,0.000
 08247,0.00004754,0.00032611,0.00018213,0.00021977,0.00006357,-0.000015
 78,0.00000713,-0.00000950,-0.00000753,-0.00000567,0.00000345,-0.000004
 77,-0.00000639,0.00000151,-0.00000325,-0.00000062,0.00000005,-0.000498
 91,0.00054489,-0.00020892,-0.00002885,0.00004903,-0.00020299,0.0000536
 4,0.00002318,-0.00001589,0.00002786,-0.00019131,0.00011706,0.00004732,
 0.00000331,0.00001480,0.00004672,-0.00002357,-0.00001958,-0.00003761,0
 .00002073,-0.00001869,0.00003472,-0.00008908,-0.00010224,-0.00001024,-
 0.00000158,-0.00000215,-0.00001544,-0.00000340,-0.00000785,0.00000821,
 0.00003289,-0.00008332,-0.00000120,0.00007499,0.00002190,-0.00010283,0
 .00006444,0.00014221,-0.00003714,-0.00003750,-0.00006495,0.00000648,0.
 00002283,0.00000162,0.00004450,-0.00000473,-0.00003299,0.00001550,0.00
 001537,0.00001397,-0.00000823,-0.00003013,0.00001086,0.00005865,0.0000
 1810,-0.00001618,0.00000387,-0.00003145,0.00002487,0.00035138,-0.00047
 232,-0.00020430,-0.00007573,-0.00006670,0.00012662,-0.00000404,0.00000
 423,-0.00000507,0.00000110,-0.00001480,0.00000124,0.00000141,-0.000017
 12,-0.00000175,-0.00004653,-0.00005140,0.00000445,0.00000429,-0.000001
 51,0.00000154,-0.00000262,-0.00000557,0.00000120,-0.00002302,-0.000021
 93,-0.00000056,0.00000183,0.00002150,-0.00000599,-0.00000166,0.0000108
 1,0.00000859,-0.00000764,-0.00001834,-0.00000061,0.00000133,0.00000297
 ,0.00000827,0.00000277,0.00000375,0.00000399,0.00078044,-0.00018827,0.
 00199981,0.00772609,0.00661324,0.00552456,-0.09524171,-0.12676450,-0.0
 6326213,0.00044461,0.00021812,0.00028625,0.00020520,-0.00005334,-0.000
 02824,0.00029219,0.00077716,0.00028557,0.00021609,0.00020867,-0.000274
 26,-0.00470182,-0.00310066,-0.00157775,0.11039121,0.14497147,0.0000273
 3,0.00008058,0.00005968,0.00024706,0.00028774,0.00028733,0.00004545,0.
 00003635,-0.00009214,0.00000384,0.00002340,-0.00001827,-0.00000754,-0.
 00001204,0.00001063,0.00000482,-0.00001428,0.00001469,0.00001004,0.000
 00674,0.00001804,-0.00050072,0.00026505,-0.00031317,-0.00001410,-0.000
 12191,-0.00011622,0.00001460,0.00000350,-0.00000863,0.00007005,-0.0001
 9925,0.00022414,0.00002149,-0.00002757,-0.00001589,0.00005264,0.000060
 27,0.00001885,-0.00001269,0.00000529,-0.00000621,-0.00021810,-0.000169
 80,0.00000055,-0.00002954,0.00001309,0.00000982,-0.00000390,0.00000762
 ,-0.00001565,-0.00003621,-0.00003866,-0.00005117,0.00012008,0.00008447
 ,0.00007434,-0.00010186,0.00011485,0.00004890,-0.00007728,-0.00008696,
 0.00002691,-0.00007718,-0.00002693,-0.00000984,-0.00000421,-0.00005811
 ,-0.00005401,0.00001410,-0.00000574,0.00000549,0.00002949,-0.00001625,
 0.00000517,0.00002346,0.00003133,0.00003555,0.00009970,0.00003918,0.00
 003102,0.00022377,-0.00010628,-0.00005581,-0.00002612,-0.00000073,0.00
 006010,-0.00000322,0.00001592,-0.00000324,-0.00000270,-0.00001513,0.00
 000405,-0.00001122,0.00000758,-0.00002732,-0.00004320,-0.00006388,-0.0
 0002831,-0.00000408,0.00003868,-0.00000744,0.00001348,0.00000065,0.000
 01158,-0.00001278,-0.00001909,0.00000071,-0.00000375,0.00000808,-0.000
 00985,-0.00001236,0.00000810,0.00001701,-0.00000743,-0.00002011,-0.000
 00141,-0.00000092,0.00000754,0.00000865,0.00000379,0.00000889,0.000003
 25,-0.00183860,0.00276027,-0.00483213,-0.02009037,-0.01412827,-0.01603
 570,-0.06995461,-0.06333536,-0.08905760,-0.00124832,-0.00063129,-0.000
 81197,0.00027559,0.00021364,-0.00002233,0.00011649,-0.00035508,0.00080
 201,-0.00007354,-0.00051284,0.00023495,0.01358319,0.01109330,0.0079178
 0,0.08408681,0.07172650,0.10473364,0.00030865,0.00000189,-0.00013100,-
 0.00008286,0.00003764,-0.00034657,-0.00031670,-0.00022901,-0.00022467,
 0.00000377,0.00000822,-0.00000176,0.00003223,-0.00000211,-0.00000731,0
 .00001418,-0.00000068,0.00000038,-0.00000130,-0.00000185,0.00001503,0.
 00100650,-0.00172134,-0.00031485,0.00005769,-0.00008655,0.00027627,-0.
 00007278,-0.00003667,-0.00002063,0.00012330,0.00031874,0.00003223,-0.0
 0005217,-0.00007064,-0.00002668,-0.00000855,0.00008364,-0.00000171,0.0
 0007674,0.00002897,-0.00000310,-0.00025227,0.00029848,0.00018345,0.000
 04445,-0.00000609,-0.00002828,0.00003723,0.00001159,-0.00001015,-0.000
 48817,-0.00008510,0.00020344,0.00011110,-0.00012554,0.00002834,0.00015
 065,0.00024621,-0.00057657,0.00004703,-0.00003357,0.00010826,-0.000040
 79,-0.00004973,0.00009047,-0.00003084,-0.00000441,0.00006065,0.0000495
 8,0.00000864,-0.00000291,0.00002359,0.00000600,-0.00000139,-0.00002546
 ,-0.00003063,0.00002954,-0.00001715,0.00004150,-0.00001186,-0.00090795
 ,0.00014085,0.00026637,0.00023074,-0.00006875,-0.00016268,0.00001440,0
 .00000801,0.00000673,0.00000469,0.00001297,-0.00000153,0.00001937,-0.0
 0000012,-0.00000048,0.00007890,0.00007040,-0.00000554,0.00000341,0.000
 04119,-0.00001313,0.00000417,0.00000967,-0.00000531,0.00002282,0.00002
 676,0.00000448,-0.00000937,-0.00002608,0.00000338,-0.00001398,-0.00000
 893,0.00000411,0.00001317,0.00001942,0.00000581,-0.00000508,-0.0000028
 9,0.00000486,0.00000493,0.00000116,0.00000207,0.00013186,0.00022637,0.
 00020219,-0.00448260,0.01030197,-0.00073985,-0.08635993,0.08954955,0.0
 1984290,0.00009094,-0.00009484,0.00021519,-0.00022490,0.00015666,0.000
 12099,0.00019144,0.00119821,-0.00209422,0.00047672,-0.00073410,0.00034
 897,-0.01418291,0.02474191,0.00847615,0.00805374,-0.02010817,-0.004975
 15,0.09657261,-0.00016045,-0.00008130,0.00002069,-0.00000346,0.0000515
 6,0.00009325,0.00013905,0.00009034,0.00013892,-0.00000516,-0.00001377,
 0.00000809,-0.00001038,0.00000969,0.00000243,-0.00002232,0.00000834,-0
 .00001214,-0.00000368,0.00000669,-0.00000225,-0.00182823,-0.00151713,-
 0.00086532,-0.00003909,-0.00003792,0.00002756,0.00005032,-0.00001878,-
 0.00001424,0.00023987,0.00006068,-0.00010967,0.00005314,-0.00001242,0.
 00003215,0.00001419,-0.00004372,-0.00001388,-0.00001322,-0.00001511,0.
 00000707,0.00020601,0.00006274,-0.00006284,0.00000264,-0.00000357,-0.0
 0000131,-0.00001421,-0.00001337,0.00001454,-0.00019751,-0.00000971,0.0
 0001038,-0.00000197,0.00005647,0.00003918,-0.00008376,0.00020794,-0.00
 005768,-0.00005043,-0.00007078,-0.00006787,0.00002208,0.00000921,-0.00
 004852,0.00002404,0.00002265,-0.00001514,-0.00001498,0.00002543,0.0000
 2470,-0.00003995,-0.00002089,-0.00003128,0.00003535,0.00001845,-0.0000
 2534,0.00000516,-0.00002602,0.00002089,-0.00045074,-0.00044241,-0.0005
 9741,-0.00015160,0.00024248,0.00013824,-0.00000343,-0.00001607,-0.0000
 0240,-0.00000181,-0.00000193,-0.00000144,0.00001123,-0.00003324,0.0000
 0824,0.00000288,0.00001159,-0.00000357,-0.00000793,-0.00003388,-0.0000
 0017,0.00000364,0.00000058,-0.00000515,0.00000323,-0.00000436,0.000000
 68,0.00000299,-0.00001018,0.00001673,0.00001500,-0.00000557,-0.0000266
 9,-0.00000087,0.00000154,0.00000008,-0.00000035,-0.00000032,-0.0000050
 9,-0.00000055,-0.00000466,-0.00000385,-0.00017516,0.00058723,-0.000449
 02,0.00791897,-0.01560898,0.00202659,0.09020873,-0.24090616,-0.0415187
 6,-0.00021040,-0.00003370,-0.00029849,0.00008129,-0.00009342,0.0000404
 3,0.00097413,-0.00090319,0.00325741,-0.00018856,0.00021329,-0.00045008
 ,0.00047393,0.00147164,-0.00097133,0.00663688,-0.02253548,-0.00698695,
 -0.10468493,0.28127104,0.00007348,-0.00006235,0.00000398,-0.00013073,0
 .00002989,-0.00043001,-0.00023162,-0.00017365,0.00006719,0.00000029,0.
 00000861,0.00000779,0.00000155,0.00000168,-0.00000393,0.00000098,0.000
 00126,-0.00000216,-0.00000414,-0.00000194,-0.00000788,-0.00131867,-0.0
 0153920,0.00069007,0.00009451,-0.00008813,0.00021327,-0.00001386,0.000
 00838,0.00000488,0.00025568,0.00042223,-0.00060601,-0.00003899,0.00011
 816,0.00001420,0.00001098,-0.00004014,-0.00001444,-0.00000827,0.000002
 47,-0.00000352,0.00011977,-0.00016048,-0.00000934,-0.00000983,-0.00001
 085,-0.00000137,0.00000380,-0.00000770,0.00000171,-0.00003970,0.000050
 45,0.00002997,0.00003518,0.00006305,-0.00004535,-0.00031539,0.00006888
 ,0.00005792,0.00017210,0.00013696,0.00012473,-0.00000489,-0.00000615,0
 .00001681,-0.00000799,-0.00002035,0.00000678,0.00000822,0.00001065,-0.
 00001666,0.00000310,0.00001381,-0.00000335,-0.00001099,-0.00000402,0.0
 0000999,-0.00000640,0.00003502,0.00000115,-0.00042475,-0.00043347,-0.0
 0014714,0.00019692,0.00001875,-0.00081556,0.00000489,-0.00000317,-0.00
 000329,0.00000310,0.00001081,-0.00000577,-0.00001124,0.00000298,-0.000
 02293,0.00008084,0.00006809,0.00000669,0.00000472,-0.00000039,0.000011
 40,-0.00000300,0.00000809,-0.00000692,0.00001068,0.00001548,-0.0000041
 3,-0.00000708,-0.00000665,0.00000519,-0.00000442,-0.00001125,-0.000007
 63,0.00000678,0.00001205,0.00000290,-0.00000356,-0.00000239,-0.0000072
 1,0.00000209,-0.00000098,-0.00000172,0.00019289,0.00003849,0.00066252,
 -0.01154102,0.02478695,0.00274376,0.02026435,-0.04211342,-0.05107380,0
 .00018247,-0.00007808,0.00010699,0.00004194,-0.00003623,-0.00006164,-0
 .00245749,0.00367360,-0.00458300,-0.00024951,0.00027358,0.00086829,0.0
 1009006,-0.01776480,-0.00490116,0.00502728,-0.01451729,-0.00309756,-0.
 02081550,0.04705161,0.06036441,-0.00067655,0.00109517,0.00101237,0.001
 14553,0.00038668,0.00487601,0.00179018,0.00152819,0.00035988,0.0003213
 4,0.00010799,-0.00049290,-0.00004713,-0.00003706,0.00017618,-0.0000988
 9,-0.00014364,-0.00000483,0.00013936,0.00005172,0.00030284,-0.21576441
 ,-0.04901740,0.03380969,0.00010124,0.00182723,-0.00434142,0.00091477,-
 0.00004977,0.00005592,-0.04028975,-0.03095426,0.02533122,0.00039063,-0
 .00081119,0.00022273,-0.00025904,-0.00018735,0.00012571,0.00003330,0.0
 0008936,0.00029907,-0.00008719,-0.00011611,-0.00034488,-0.00016114,0.0
 0019059,-0.00001369,-0.00026718,0.00004983,-0.00004091,0.01053690,-0.0
 0248941,-0.00380640,-0.00467155,0.00175830,-0.00002898,-0.00247044,-0.
 00222291,-0.00219174,0.00081235,0.00008093,-0.00054112,-0.00012637,-0.
 00006447,-0.00082896,-0.00013794,-0.00000965,-0.00000984,-0.00003460,0
 .00012092,-0.00021051,-0.00002087,0.00018726,-0.00018886,0.00016182,0.
 00050724,-0.00046427,0.00009338,-0.00032831,0.00023118,-0.07888782,0.0
 1883608,-0.00364939,0.00102251,0.00129780,-0.00192436,0.00000462,-0.00
 005770,-0.00006958,-0.00007569,-0.00032406,0.00013681,0.00007607,-0.00
 002302,0.00003762,-0.00221952,-0.00287800,0.00028500,-0.00067364,0.000
 69372,0.00011212,0.00039930,-0.00008316,0.00055261,-0.00025408,-0.0005
 7442,-0.00001309,-0.00012679,0.00051148,-0.00006513,-0.00023752,0.0001
 3632,0.00001125,-0.00028478,-0.00050994,-0.00015120,-0.00001357,0.0001
 1656,0.00012609,0.00013894,0.00002589,0.00003410,0.00080151,0.00027497
 ,-0.00008381,-0.00080327,0.00007943,-0.00023748,-0.00036466,0.00055711
 ,0.00015170,0.00012658,0.00001113,0.00003680,0.00060941,-0.00044137,-0
 .00043995,0.00023642,0.00004164,0.00032480,0.00040314,0.00021725,-0.00
 021171,0.00012933,-0.00015436,-0.00037366,0.00050656,0.00003174,0.0003
 2483,-0.00013169,0.00088879,0.00064382,0.48224039,-0.00020109,0.000120
 82,0.00079941,-0.00022522,-0.00075714,-0.00094345,-0.00131554,-0.00201
 802,0.00050669,0.00002292,0.00014417,0.00011402,0.00001577,-0.00000788
 ,-0.00000067,0.00002478,0.00001119,0.00000290,-0.00003491,0.00002690,0
 .00003068,-0.03483183,-0.08237967,0.02480119,0.00005106,0.00040832,-0.
 00034433,-0.00010788,0.00033653,0.00014391,-0.04697829,-0.01577292,0.0
 2499064,-0.00010946,-0.00023953,-0.00016027,-0.00010383,-0.00003283,-0
 .00001903,-0.00005442,-0.00001831,-0.00001754,-0.00010976,-0.00001128,
 -0.00003696,-0.00003580,0.00000390,0.00003272,-0.00001374,0.00003454,0
 .00002782,0.00907906,-0.00315569,-0.00085713,-0.00430157,0.00146277,-0
 .00073337,0.00145560,-0.00107161,-0.00122588,0.00026781,0.00078883,0.0
 0020979,0.00011677,-0.00017962,-0.00016547,-0.00006347,-0.00008866,0.0
 0014121,-0.00004289,0.00002033,-0.00013627,0.00008513,0.00002533,0.000
 06395,0.00008748,0.00002083,-0.00009632,-0.00010731,-0.00000139,-0.000
 03762,0.02930315,0.00812314,0.00712518,0.00151302,-0.00070220,0.000180
 01,-0.00000748,0.00003836,-0.00000531,0.00005666,0.00007466,-0.0000398
 0,-0.00002721,0.00000941,0.00003084,0.00050631,0.00076343,-0.00012537,
 0.00019240,-0.00015975,0.00004334,-0.00001449,0.00005664,-0.00002002,-
 0.00001917,0.00007915,-0.00001904,0.00015725,0.00013690,-0.00001008,0.
 00001568,-0.00002293,0.00005854,0.00003965,0.00005471,0.00002144,-0.00
 000713,-0.00002282,-0.00000252,-0.00002876,0.00001455,0.00000156,-0.00
 016266,0.00015149,-0.00007952,-0.00024599,0.00000500,-0.00029820,-0.00
 011557,0.00027456,-0.00018856,0.00002043,0.00015885,0.00010517,0.00005
 041,-0.00009422,-0.00007199,0.00027359,-0.00019833,0.00015878,0.000095
 58,0.00021143,-0.00013947,0.00027783,-0.00023795,-0.00022166,0.0000359
 2,-0.00005664,0.00006067,0.00031613,-0.00176268,-0.00000099,-0.0256613
 0,0.24079363,0.00008767,-0.00001136,-0.00071316,0.00081676,-0.00046907
 ,0.00038439,-0.00212220,0.00246507,0.00107513,0.00005748,0.00006060,-0
 .00009343,-0.00002155,0.00001946,-0.00001040,0.00000591,0.00001197,-0.
 00001020,0.00006568,0.00000133,0.00003032,0.02728196,0.02682255,-0.063
 16057,-0.00022265,0.00001683,0.00037655,-0.00008949,0.00007136,0.00007
 203,0.03642882,0.02173114,-0.00190704,-0.00013601,0.00002680,0.0001607
 8,-0.00002650,0.00006875,0.00004584,-0.00000125,-0.00003965,0.00006490
 ,-0.00002948,0.00009481,-0.00002225,-0.00001685,0.00002063,-0.00000247
 ,-0.00001076,0.00000841,-0.00001010,-0.00461388,0.00279579,0.00114152,
 0.00233371,-0.00138484,0.00030097,-0.00018001,-0.00021197,-0.00131709,
 -0.00050151,-0.00012028,0.00003375,0.00000641,0.00013835,0.00012638,-0
 .00002705,0.00001401,-0.00003754,-0.00001030,-0.00000620,0.00009143,-0
 .00006229,0.00004384,-0.00008409,-0.00014629,-0.00006428,0.00010607,0.
 00004884,-0.00005987,0.00000663,-0.01604226,0.00266580,0.00801328,-0.0
 0194305,0.00038919,-0.00065404,0.00001296,-0.00001891,-0.00000065,-0.0
 0001690,-0.00002014,-0.00000432,0.00000294,-0.00001191,-0.00002945,0.0
 0029417,-0.00010568,-0.00034374,0.00008898,0.00005937,-0.00012800,0.00
 001438,-0.00000649,-0.00003944,0.00000064,-0.00005103,0.00003856,-0.00
 002749,-0.00010012,-0.00002546,0.00007222,0.00006638,0.00003009,0.0000
 0102,-0.00000618,0.00001263,0.00002417,0.00001098,0.00002121,0.0000021
 4,0.00000293,0.00001027,-0.00046242,-0.00051395,0.00004575,-0.00001913
 ,0.00011857,-0.00032069,-0.00008966,0.00016918,-0.00008031,0.00012010,
 -0.00006693,0.00005796,-0.00017486,0.00016175,0.00014052,0.00009656,0.
 00002261,0.00017035,-0.00003662,-0.00012080,0.00004111,0.00000041,-0.0
 0024149,0.00004332,0.00013710,-0.00017303,0.00001480,0.00017903,-0.000
 36520,-0.00008162,0.00011665,-0.11156494,0.14108000,-0.00016174,0.0000
 4417,0.00006183,-0.00000282,-0.00016161,0.00031759,0.00014156,0.000259
 13,0.00012579,0.00000349,-0.00000710,-0.00002480,-0.00001177,-0.000000
 24,0.00001400,-0.00001484,-0.00001096,0.00000341,0.00000297,-0.0000055
 7,-0.00000383,-0.00208005,0.00346178,-0.00187156,-0.00000152,0.0001192
 5,-0.00023075,0.00005964,0.00000514,-0.00001454,-0.00022201,-0.0007206
 3,0.00063559,0.00005060,-0.00003678,-0.00001107,0.00000024,0.00001104,
 0.00000686,-0.00003789,-0.00000422,0.00000053,0.00000536,-0.00001901,-
 0.00001832,-0.00001368,0.00000786,0.00000679,-0.00001721,0.00000039,0.
 00000393,0.00027087,-0.00006052,-0.00017653,-0.00007572,0.00005117,-0.
 00002603,0.00006489,-0.00009551,-0.00000529,0.00006024,0.00011650,-0.0
 0006908,-0.00001334,-0.00000195,-0.00003921,0.00002041,-0.00000143,-0.
 00002426,-0.00000811,0.00000373,0.00000898,-0.00000016,-0.00002034,-0.
 00000955,0.00003662,0.00003108,-0.00000219,0.00000715,-0.00001416,0.00
 001096,-0.00230423,0.00001374,-0.00008835,-0.00003148,-0.00002036,0.00
 003648,-0.00000537,-0.00000119,-0.00000377,-0.00000388,-0.00002041,0.0
 0000645,0.00000353,0.00000578,0.00000561,-0.00009099,-0.00016099,0.000
 00524,-0.00001851,0.00002452,0.00000042,0.00001261,-0.00000926,0.00002
 314,-0.00001805,-0.00003118,-0.00000116,-0.00000424,0.00003002,-0.0000
 1948,-0.00001110,0.00001700,0.00002218,-0.00001679,-0.00003065,-0.0000
 0739,0.00000368,0.00000633,0.00000135,-0.00000160,0.00000331,0.0000028
 1,0.00004129,-0.00003355,0.00000443,-0.00000253,-0.00005067,0.00003042
 ,0.00004187,-0.00010730,-0.00001276,-0.00002130,0.00003232,-0.00000018
 ,0.00001488,0.00001008,-0.00001426,-0.00002055,0.00004452,-0.00000231,
 0.00000354,-0.00001859,0.00000948,-0.00002880,0.00003205,-0.00000917,0
 .00000724,0.00004994,0.00001307,-0.00003250,0.00004810,-0.00007203,-0.
 04322013,-0.00336675,0.00504733,0.48025195,0.00001404,-0.00007051,-0.0
 0000185,-0.00003693,-0.00001602,-0.00008683,-0.00007805,-0.00022557,-0
 .00007447,-0.00001076,-0.00000445,0.00000935,-0.00000149,0.00000222,-0
 .00000213,0.00000110,0.00000109,0.00000042,-0.00000970,-0.00000564,-0.
 00001332,0.00145816,-0.00174171,0.00116177,0.00001473,-0.00002375,0.00
 004826,-0.00003925,0.00001014,-0.00000221,0.00033147,0.00063168,-0.000
 25362,-0.00002817,0.00003540,-0.00000925,0.00002414,0.00002915,-0.0000
 0318,-0.00001310,-0.00000462,-0.00001531,-0.00000825,0.00000794,0.0000
 1609,0.00000043,-0.00000394,0.00000424,0.00000630,-0.00000087,0.000002
 40,-0.00020175,-0.00014669,0.00008940,0.00011166,0.00006231,-0.0000027
 2,-0.00003562,0.00002984,0.00001639,-0.00004243,0.00002337,0.00003389,
 -0.00000325,0.00000559,0.00003887,0.00001471,-0.00000332,-0.00000674,0
 .00000673,0.00000646,0.00000684,-0.00000091,-0.00000993,0.00000469,0.0
 0000486,-0.00000978,0.00001152,-0.00000413,0.00001433,-0.00000797,0.00
 115675,-0.00003410,-0.00002480,0.00000749,0.00005929,-0.00000234,-0.00
 000544,0.00000347,0.00000371,0.00001108,0.00001968,-0.00000618,-0.0000
 0305,0.00000309,0.00000292,0.00011448,0.00016630,-0.00000531,0.0000395
 2,-0.00001341,0.00001255,-0.00001753,0.00001450,-0.00000976,0.00001538
 ,0.00003811,-0.00000338,0.00004421,-0.00002922,-0.00001893,0.00001966,
 -0.00001753,0.00002269,0.00001389,0.00002098,0.00000437,-0.00000149,-0
 .00000970,0.00000095,-0.00001286,-0.00000019,-0.00000391,-0.00001477,-
 0.00000987,-0.00000617,-0.00002781,0.00000700,0.00000558,-0.00011609,0
 .00002828,0.00000513,-0.00000579,0.00001050,-0.00001269,-0.00000808,-0
 .00000104,0.00000898,0.00000251,0.00000758,-0.00001102,0.00000795,0.00
 000530,0.00002293,-0.00003086,0.00001335,0.00001729,-0.00000347,-0.000
 05027,-0.00003237,0.00019766,0.00003230,0.00001523,0.01805368,0.006412
 33,-0.00353745,-0.03451067,0.51504320,-0.00003365,0.00003381,-0.000031
 43,-0.00003963,-0.00003559,0.00013086,-0.00006404,0.00009459,0.0000686
 6,0.00000487,-0.00000238,-0.00001487,0.00000141,-0.00000216,-0.0000024
 3,0.00000531,0.00000143,-0.00000109,0.00000375,0.00000427,0.00001576,-
 0.00089927,0.00113651,-0.00033981,0.00003757,0.00004009,-0.00010243,0.
 00002465,-0.00002001,-0.00001065,-0.00014397,-0.00011200,0.00055189,0.
 00000967,-0.00002814,0.00001502,-0.00001080,-0.00000598,0.00000656,0.0
 0000785,0.00000773,0.00001548,0.00000542,0.00001807,-0.00001760,-0.000
 00166,0.00000621,-0.00000311,-0.00000329,0.00000083,-0.00000306,0.0000
 0287,-0.00001773,-0.00027954,0.00005178,0.00000341,0.00012017,-0.00000
 142,-0.00004852,-0.00004426,0.00009175,0.00001724,-0.00003056,-0.00000
 230,0.00000321,-0.00000896,-0.00000748,0.00000036,0.00000094,0.0000066
 0,0.00000246,0.00000413,-0.00000315,-0.00000091,0.00000337,0.00000353,
 0.00000054,-0.00000964,0.00000052,-0.00000769,0.00000953,-0.00060467,-
 0.00006694,-0.00006948,-0.00001793,0.00005540,0.00007453,0.00000065,0.
 00000094,0.00000055,-0.00000298,-0.00000924,0.00000222,0.00000102,-0.0
 0000374,-0.00000601,-0.00006884,-0.00008231,-0.00000182,-0.00003330,0.
 00002085,-0.00000074,0.00000215,-0.00000774,0.00000840,0.00000163,-0.0
 0000864,0.00000399,0.00000426,0.00000370,-0.00002577,0.00000664,0.0000
 0243,0.00001098,-0.00000251,-0.00000662,-0.00000260,0.00000153,0.00000
 114,0.00000730,0.00000470,-0.00000029,0.00000162,0.00001525,0.00000119
 ,-0.00000032,0.00002271,0.00000154,-0.00002822,-0.00002484,0.00002679,
 0.00001261,-0.00000187,-0.00000287,0.00000249,0.00000047,-0.00000485,-
 0.00000846,-0.00001122,-0.00000332,0.00001556,0.00000850,-0.00002588,0
 .00004617,-0.00003838,0.00001168,0.00001257,-0.00000360,-0.00001352,-0
 .00002818,0.00006260,0.00000807,-0.00005436,-0.00902853,-0.00219406,0.
 00484479,0.02647678,0.01065118,0.51915644,0.00059209,-0.00045916,-0.00
 044597,-0.00113225,-0.00030617,-0.00233425,-0.00179474,-0.00017529,0.0
 0030095,-0.00008088,-0.00007027,0.00014222,0.00001269,0.00001717,-0.00
 006124,0.00005000,0.00004656,-0.00001110,-0.00001820,-0.00001762,-0.00
 003699,-0.04432492,0.01300261,-0.00715661,0.00023561,-0.00063034,0.001
 72446,-0.00036858,-0.00000581,-0.00005943,0.00604193,0.00301697,-0.003
 24984,-0.00021488,0.00034024,-0.00001968,0.00008192,0.00001521,-0.0000
 7171,0.00012258,-0.00002316,-0.00006728,-0.00006796,0.00005618,0.00010
 730,0.00008035,-0.00007977,0.00000826,0.00012708,-0.00003615,0.0000148
 9,-0.00493026,0.00060875,0.00144880,0.00199318,-0.00059653,-0.00021185
 ,0.00140758,-0.00019707,0.00143875,0.00048992,0.00027105,0.00027203,0.
 00004878,0.00003483,0.00030642,0.00001323,-0.00002074,0.00000584,0.000
 03465,-0.00004387,0.00005166,0.00002738,-0.00001104,0.00001207,-0.0001
 1107,-0.00017450,0.00019460,-0.00007539,0.00002694,-0.00002790,-0.0023
 0534,-0.00255779,0.00073762,0.00003718,0.00037486,-0.00024615,0.000053
 09,0.00001272,0.00002292,0.00003509,0.00013907,-0.00004767,-0.00004050
 ,-0.00000655,-0.00001757,0.00083709,0.00087679,-0.00000544,0.00016243,
 -0.00019076,-0.00000168,-0.00013749,0.00000464,-0.00017832,0.00016373,
 0.00023099,0.00000418,-0.00003418,-0.00019850,0.00008423,-0.00000621,-
 0.00010311,-0.00009618,0.00010496,0.00018520,0.00004826,-0.00001779,-0
 .00003515,-0.00001412,-0.00000160,-0.00002424,-0.00000924,-0.00013341,
 -0.00010292,0.00009035,0.00020355,0.00000560,-0.00011327,-0.00013619,0
 .00006796,-0.00004355,0.00004956,-0.00013806,0.00005387,-0.00007187,-0
 .00001467,-0.00005463,0.00004746,-0.00022719,-0.00005919,-0.00003904,0
 .00004368,0.00007288,-0.00005151,0.00001107,0.00009443,-0.00013861,-0.
 00022696,-0.00014629,0.00033355,0.00059066,0.00045727,-0.08792462,0.03
 489285,-0.02105549,-0.14031468,-0.04790348,0.03737573,0.43639370,-0.00
 026615,0.00009371,0.00008208,0.00091250,0.00093497,0.00163222,0.000949
 82,0.00123513,0.00050795,0.00003741,0.00002617,-0.00012018,-0.00000562
 ,-0.00001547,0.00004302,-0.00004575,-0.00004342,0.00000538,0.00002482,
 0.00001810,0.00003867,0.01161457,0.01181664,-0.01016512,-0.00019832,0.
 00010337,-0.00092067,0.00017338,-0.00011198,0.00001238,-0.00144850,-0.
 00353672,0.00006775,0.00019967,-0.00012694,0.00010007,-0.00000768,-0.0
 0005574,0.00003723,-0.00006794,0.00010254,0.00009733,0.00009072,-0.000
 03444,-0.00007964,-0.00001665,0.00003651,-0.00002319,-0.00007455,0.000
 00242,-0.00002276,0.00201482,-0.00012290,-0.00069196,-0.00073379,0.000
 36414,0.00008924,-0.00064376,-0.00023770,-0.00042791,-0.00037443,-0.00
 080988,-0.00030395,-0.00008462,0.00002254,-0.00016205,-0.00001684,-0.0
 0000325,-0.00002194,0.00001956,0.00005495,-0.00004673,-0.00004193,0.00
 003280,-0.00000140,0.00007638,0.00013105,-0.00010192,0.00009151,-0.000
 01974,0.00004662,-0.00440731,0.00113205,0.00080990,0.00036533,-0.00031
 583,0.00042868,0.00001354,-0.00002686,-0.00002271,-0.00004811,-0.00013
 862,0.00002946,0.00004550,-0.00001302,-0.00000498,-0.00068400,-0.00098
 826,-0.00007821,-0.00022072,0.00017304,-0.00002549,0.00010056,-0.00004
 650,0.00010563,-0.00008997,-0.00023108,0.00001418,-0.00014194,0.000064
 45,0.00006972,-0.00009030,0.00002715,-0.00009126,-0.00009154,-0.000149
 10,-0.00003276,-0.00000972,0.00004901,0.00001172,0.00006847,0.00000347
 ,0.00001438,0.00029788,0.00011016,-0.00009283,-0.00001687,0.00007214,0
 .00010332,0.00006844,-0.00034267,-0.00004198,-0.00004156,0.00001967,-0
 .00007973,0.00003660,-0.00002094,0.00002589,-0.00013226,0.00021260,-0.
 00002152,-0.00002574,-0.00015082,0.00007814,-0.00013842,0.00011635,0.0
 0002440,0.00002848,0.00002746,-0.00003233,0.00021452,-0.00026166,-0.00
 031369,0.04103824,-0.11171889,0.03987241,-0.04574420,-0.08719579,0.018
 40630,0.03780331,0.46565180,0.00018379,-0.00040128,-0.00004154,-0.0008
 1068,0.00011255,-0.00042398,-0.00136120,-0.00051641,0.00077098,-0.0000
 5635,0.00000870,0.00014943,0.00001481,0.00000312,-0.00003366,0.0000112
 1,0.00001819,-0.00000574,-0.00004737,-0.00000194,-0.00005830,-0.007169
 76,-0.00966945,0.00292295,0.00031579,-0.00023859,0.00032142,-0.0001606
 6,0.00010814,0.00001807,0.00031419,-0.00094158,-0.00370983,-0.00005045
 ,0.00015042,-0.00005760,0.00014031,-0.00004260,-0.00007863,0.00000596,
 0.00000163,-0.00007593,0.00000865,-0.00012464,0.00004241,0.00004202,-0
 .00005563,0.00000931,0.00003390,-0.00002305,0.00001379,-0.00062667,0.0
 0035025,0.00056047,0.00012115,0.00005043,-0.00029643,-0.00028361,-0.00
 005897,0.00066941,0.00031120,-0.00022303,-0.00018792,0.00004919,0.0000
 3093,0.00011118,0.00002104,-0.00000288,0.00003752,0.00001580,0.0000138
 9,-0.00001519,-0.00002788,-0.00002787,0.00007895,0.00002243,-0.0000907
 5,0.00003712,-0.00003298,0.00004824,-0.00000037,0.00372480,0.00132314,
 0.00168434,0.00002487,0.00039428,-0.00015610,0.00002440,0.00000564,-0.
 00000623,0.00003273,0.00007939,-0.00004743,-0.00000984,-0.00002213,-0.
 00001012,0.00059010,0.00058497,-0.00008568,0.00011815,-0.00018016,0.00
 007455,-0.00008319,0.00000594,-0.00008624,0.00005214,0.00009879,-0.000
 02273,-0.00002894,-0.00004995,0.00010125,-0.00004923,-0.00008464,-0.00
 008874,0.00004807,0.00009133,0.00002829,-0.00002539,-0.00001419,-0.000
 03082,0.00001279,-0.00001198,-0.00000474,0.00011616,0.00011742,-0.0000
 3892,0.00002373,-0.00001901,0.00010621,0.00002875,-0.00013550,-0.00017
 957,-0.00003608,0.00000688,-0.00003579,0.00010334,-0.00002989,-0.00008
 593,-0.00001726,-0.00004351,-0.00012460,-0.00000056,0.00010739,-0.0000
 3990,0.00013777,0.00003992,-0.00006223,-0.00013885,-0.00003357,-0.0000
 4965,0.00000741,-0.00008292,0.00047717,-0.02320428,0.03933517,-0.07175
 025,0.03603311,0.01862845,-0.07934942,-0.02131887,0.00667236,0.4744679
 8,-0.00007862,-0.00004636,0.00000245,0.00009573,-0.00013770,0.00028775
 ,0.00058000,0.00008603,-0.00017751,-0.00000582,0.00000656,-0.00005232,
 -0.00000561,-0.00000364,0.00000997,-0.00000370,-0.00000946,0.00000331,
 0.00000569,-0.00000187,0.00000327,0.00238962,0.00061824,0.00072709,-0.
 00003947,0.00010671,-0.00020972,-0.00003452,0.00003544,0.00002395,-0.0
 0286923,0.00204912,0.00153904,-0.00003577,-0.00000108,0.00001753,-0.00
 001046,0.00001947,0.00000393,-0.00006366,0.00005072,0.00000957,-0.0000
 0328,-0.00003092,-0.00002415,-0.00001200,0.00000326,-0.00000164,-0.000
 00874,0.00000539,0.,0.00094989,-0.00011166,-0.00031328,-0.00023791,0.0
 0008490,0.00005681,-0.00013218,-0.00014587,-0.00006582,-0.00002380,0.0
 0010822,0.00006586,-0.00003168,0.00002343,0.00001639,0.00000353,-0.000
 03779,-0.00003416,0.00002152,0.00000522,-0.00000655,0.00001264,0.00000
 980,0.00001823,0.00001771,0.00002848,0.00001069,0.00001055,-0.00001954
 ,0.00001125,-0.00062412,0.00043601,-0.00037184,-0.00004097,-0.00008055
 ,0.00006097,0.00000497,-0.00000231,0.00000981,-0.00001486,-0.00001650,
 0.00000799,0.00000807,-0.00000494,0.00000575,-0.00008716,-0.00012656,0
 .00001962,0.00007066,0.00000914,-0.00002382,0.00001206,0.00000519,0.00
 001582,-0.00003791,-0.00002327,0.00000123,-0.00003478,0.00004851,-0.00
 001090,0.00001261,0.00003033,0.00002434,-0.00001639,-0.00001831,-0.000
 00824,0.00000070,0.00000404,0.00001241,0.00000237,-0.00000268,-0.00000
 196,-0.00000090,-0.00001975,-0.00000286,-0.00005411,-0.00001359,-0.000
 00505,0.00000556,0.00009283,0.00004934,0.00000063,0.00003691,0.0000027
 0,0.00002854,0.00000773,-0.00000582,0.00001126,0.00001628,0.00002015,-
 0.00000443,-0.00000216,-0.00001259,0.00002916,-0.00000036,-0.00003320,
 0.00000503,0.00007740,0.00004070,-0.00006553,-0.00019495,-0.00011658,-
 0.00793646,0.03181496,0.00297764,-0.00667559,-0.02425975,-0.00671507,-
 0.06418768,-0.01873432,-0.00451130,0.53403253,0.00025398,-0.00006503,-
 0.00013728,-0.00017041,-0.00002438,-0.00042383,-0.00045093,-0.00002036
 ,-0.00007321,-0.00000811,-0.00000867,-0.00000551,0.00001105,0.00000174
 ,-0.00001304,0.00001672,0.00001117,-0.00000436,0.00000108,0.00000049,0
 .00001300,-0.00229861,0.00055823,0.00022778,0.00006835,-0.00007505,0.0
 0029839,-0.00005953,-0.00004065,-0.00001061,0.00288790,-0.00087934,-0.
 00175843,-0.00005631,0.00005767,0.00001958,0.00000077,-0.00000050,-0.0
 0000642,0.00005339,0.00000098,0.00000223,-0.00000640,0.00001829,0.0000
 2684,0.00001604,-0.00000905,-0.00000923,0.00002440,-0.00000053,-0.0000
 0666,-0.00091280,-0.00008770,0.00030100,0.00042171,-0.00009096,0.00005
 211,0.00006634,0.00007993,0.00017071,0.00001300,0.00003379,0.00011737,
 -0.00000079,-0.00000283,0.00005164,-0.00001871,0.00000423,0.00001312,0
 .00001082,-0.00000798,-0.00000216,0.00000542,0.00002623,-0.00001754,-0
 .00005083,-0.00002855,0.00001750,-0.00001403,0.00000522,-0.00001035,0.
 00031201,-0.00011515,0.00017713,0.00005215,0.00003912,-0.00008637,0.00
 000269,0.00000034,0.00000903,0.00000527,0.00002384,-0.00000337,-0.0000
 0622,-0.00000445,-0.00000317,0.00009280,0.00015049,0.00000061,0.000035
 98,-0.00004590,-0.00002426,-0.00000518,0.00001591,-0.00001155,0.000053
 70,0.00005434,0.00001047,-0.00002519,-0.00007020,0.00003387,0.00003206
 ,-0.00003444,-0.00003073,0.00002154,0.00003446,0.00000682,-0.00000036,
 -0.00001141,0.00000228,-0.00000976,-0.00000126,-0.00000575,-0.00003242
 ,0.00005087,-0.00001218,0.00001777,0.00004440,-0.00000593,-0.00001932,
 0.00000761,-0.00004185,0.00002195,-0.00005066,0.00000567,-0.00001287,-
 0.00001376,-0.00000250,0.00001717,-0.00004145,-0.00000500,0.00000722,0
 .00001863,-0.00001998,0.00001631,-0.00003789,0.00001339,0.00000417,-0.
 00006643,-0.00001225,0.00001848,0.00011676,0.00015073,0.01437268,-0.03
 279613,-0.00184165,-0.00809947,-0.01892872,-0.00463438,-0.01688485,-0.
 15929889,-0.04286027,-0.00832187,0.45828799,-0.00004533,0.00008112,-0.
 00002865,-0.00006494,-0.00001207,0.00004660,0.00006873,-0.00010665,0.0
 0004533,0.00001709,0.00000510,-0.00001523,0.00000296,-0.00000090,-0.00
 000578,0.00001109,0.00000682,-0.00000168,-0.00000484,0.00000797,0.0000
 1793,0.00080552,0.00018465,0.00030231,0.00002886,0.00003654,-0.0000702
 4,0.00006837,-0.00000063,-0.00000764,0.00098624,-0.00044484,0.00056973
 ,-0.00000750,-0.00006993,0.00000183,-0.00001474,-0.00001130,0.00000104
 ,0.00003496,-0.00001219,0.00000631,-0.00000794,0.00001641,-0.00001915,
 -0.00000803,0.00001123,-0.00000195,-0.00000450,0.00000533,-0.00000298,
 -0.00005295,-0.00002652,-0.00025988,0.00004779,-0.00003500,0.00010411,
 -0.00001191,-0.00003256,-0.00004225,0.00008969,-0.00000462,-0.00004385
 ,0.00002034,0.00000656,-0.00001076,-0.00001411,0.00000569,0.00001829,0
 .00000009,-0.00000074,0.00000756,-0.00000889,-0.00000011,0.00000783,-0
 .00000967,-0.00001779,-0.00002117,-0.00001287,-0.00000414,0.00000696,-
 0.00026671,0.00002175,-0.00004024,0.00002032,0.00002573,0.00004147,-0.
 00001429,0.00000545,0.00000527,0.00000598,0.00001055,0.00000250,-0.000
 00242,-0.00000483,-0.00000647,-0.00002428,0.00001922,0.00001493,0.0000
 0410,0.00000569,0.00002736,-0.00000056,0.00000273,0.00002356,0.0000025
 7,0.00001825,0.00000300,0.00006577,0.00000113,-0.00008535,0.00002903,-
 0.00000336,0.00005039,0.00000096,0.00000254,-0.00000355,-0.00000082,-0
 .00000359,0.00000689,-0.00001266,-0.00000019,-0.00000495,-0.00000782,0
 .00001045,-0.00000463,-0.00000421,0.00000076,-0.00000988,-0.00000181,0
 .00004179,0.00006060,0.00000684,0.00000391,0.00001101,0.00000811,-0.00
 000386,-0.00000896,0.00000754,-0.00000959,0.00001626,0.00000798,-0.000
 01079,0.00000989,-0.00002051,-0.00000282,-0.00000684,0.00001393,0.0000
 3613,-0.00000295,-0.00000873,-0.00005964,-0.00010243,-0.00299397,0.009
 96476,0.00419557,0.00171876,0.00676638,0.00298239,-0.00464755,-0.04383
 211,-0.08169121,-0.00276417,-0.03162066,0.51457545,0.00002050,-0.00007
 787,0.00002846,0.00006869,-0.00001398,0.00043254,0.00027418,0.00017931
 ,-0.00002602,-0.00000804,0.00000174,-0.00004014,-0.00000689,-0.0000028
 8,0.00001126,-0.00000988,-0.00001693,0.00000501,0.00001261,-0.00001022
 ,-0.00000332,0.00228982,-0.00056499,-0.00075081,-0.00000311,0.00008134
 ,-0.00029201,-0.00008872,0.00002295,0.00001796,-0.00345021,-0.00049092
 ,-0.00219799,-0.00000550,0.00009381,0.00003901,-0.00000557,0.00001788,
 0.00000501,-0.00008227,0.00004353,0.00000485,0.00001597,-0.00004482,-0
 .00001760,-0.00001018,-0.00000286,-0.00000158,-0.00000818,-0.00000185,
 -0.00000071,0.00102422,-0.00005989,-0.00021754,-0.00015390,0.00002199,
 0.00004080,-0.00031253,-0.00013353,-0.00000455,-0.00000850,-0.00001580
 ,-0.00004127,-0.00005615,0.00001576,0.00001350,0.00000766,-0.00003915,
 -0.00004703,0.00002221,-0.00000542,-0.00001941,0.00002457,0.00001841,0
 .00000239,0.00001256,0.00004763,0.00004263,0.00001861,-0.00002055,0.00
 001802,-0.00057732,0.00080236,-0.00004616,0.00001545,-0.00010154,0.000
 08366,0.00000755,-0.00000389,-0.00000018,-0.00000841,-0.00002092,-0.00
 000033,0.00001097,-0.00000428,0.00000426,-0.00004156,-0.00008086,-0.00
 000220,-0.00001035,0.00001252,-0.00000186,0.00000641,0.00000059,0.0000
 1340,-0.00001738,-0.00002502,-0.00000544,-0.00001651,0.00002949,-0.000
 02393,-0.00001434,0.00000948,0.00002720,-0.00001186,-0.00002379,-0.000
 00365,0.00000414,0.00000617,0.00000105,0.00000593,0.00000240,0.0000022
 2,0.00004706,0.00002516,-0.00000200,-0.00004158,0.00000307,0.00005084,
 0.00003954,-0.00013026,-0.00005687,-0.00001452,0.00002914,-0.00001273,
 0.00004223,0.00000135,-0.00001705,-0.00001793,0.00005151,-0.00002817,-
 0.00000761,0.00000694,-0.00002061,0.00005099,0.00001349,-0.00003607,-0
 .00001809,0.00003932,0.00001817,-0.00008964,0.00001481,0.00004084,-0.0
 1019542,0.01015632,-0.03022814,-0.00415515,-0.00246484,0.02495925,-0.0
 6207969,-0.00311147,0.00737003,0.00109875,-0.00125479,-0.00332430,0.53
 542999,0.00006536,-0.00009986,-0.00009046,-0.00003638,-0.00007277,-0.0
 0020178,-0.00015773,0.00008401,-0.00014328,-0.00001461,-0.00001904,-0.
 00001944,0.00000153,-0.00000021,-0.00000260,0.00000559,-0.00000013,-0.
 00000017,-0.00000193,-0.00000615,-0.00000049,-0.00195254,0.00016516,0.
 00011314,0.00001429,-0.00002253,0.00014815,-0.00007944,-0.00003354,-0.
 00001030,0.00047821,0.00115205,0.00041165,-0.00006221,0.00005538,0.000
 01791,0.00000968,0.00003522,0.00000412,-0.00000763,0.00002866,0.000006
 91,0.00000375,0.00003782,0.00002289,0.00001144,-0.00000616,-0.00000114
 ,0.00001537,-0.00000162,-0.00000343,-0.00050379,-0.00010985,0.00002878
 ,0.00024533,-0.00004491,0.00008356,0.00015020,0.00004726,0.00003033,-0
 .00002578,0.00000746,0.00006403,-0.00001987,0.00001147,0.00006029,0.00
 000342,-0.00001122,-0.00001429,0.00002306,0.00000942,0.00000957,0.0000
 0203,0.00000177,0.00000047,-0.00000475,-0.00000757,0.00001846,-0.00000
 268,0.00000543,-0.00000780,0.00044070,-0.00048383,-0.00011514,-0.00003
 097,0.00008956,-0.00004297,0.00000400,0.00000174,0.00000849,0.00000314
 ,0.00000936,-0.00000182,-0.00000250,0.00000139,0.00000224,0.00004683,0
 .00006973,0.00000086,0.00002485,-0.00000207,-0.00001368,-0.00001274,0.
 00000787,-0.00001505,0.00002242,0.00003173,0.00000465,0.00001400,-0.00
 003165,-0.00000531,0.00002027,-0.00001241,0.00000872,0.00001325,0.0000
 1936,0.00000381,-0.00000062,-0.00000876,0.00000942,-0.00000461,-0.0000
 0242,-0.00000222,-0.00003595,-0.00002779,-0.00001606,-0.00000649,0.000
 01492,-0.00005018,-0.00015142,0.00024743,-0.00010651,0.00000191,-0.000
 01141,-0.00000759,-0.00001851,0.00000301,0.00001300,0.00000723,-0.0000
 2607,0.00001498,0.00000209,0.00001094,0.00000741,0.00001010,-0.0000015
 5,0.00002868,-0.00002486,-0.00010004,-0.00000649,0.00027328,-0.0001719
 8,0.00024243,0.01060829,-0.00514619,0.02284523,-0.00313919,-0.00045197
 ,0.01284274,-0.00262529,-0.06196326,-0.00478404,-0.00043764,-0.0046972
 5,-0.02682125,-0.00100811,0.52851240,-0.00023373,0.00003226,0.00006751
 ,0.00012929,0.00000900,0.00035243,0.00019455,0.00009590,0.00005909,0.0
 0000494,0.00000068,-0.00001729,-0.00001388,-0.00000002,0.00001215,-0.0
 0001260,-0.00000795,0.00000383,-0.00000067,-0.00000221,-0.00000788,0.0
 0177776,-0.00000809,0.00070388,-0.00007823,0.00006950,-0.00022250,0.00
 004819,0.00001090,0.00000572,-0.00306277,-0.00068189,-0.00093579,0.000
 03965,-0.00005213,-0.00001531,0.00000548,0.00001824,0.00001601,-0.0000
 5043,0.00000276,0.00000653,0.00000400,-0.00000419,-0.00002679,-0.00001
 512,0.00001149,0.00000931,-0.00001738,0.00000090,0.00000853,0.00056138
 ,-0.00006957,-0.00045520,-0.00017695,0.00007945,0.00008445,-0.00009684
 ,-0.00003179,-0.00008130,-0.00002636,-0.00003648,-0.00001208,-0.000008
 28,0.00001044,-0.00002724,0.00002420,-0.00000563,-0.00003251,-0.000003
 98,0.00001341,0.00001481,-0.00000584,-0.00002561,0.00000745,0.00004816
 ,0.00003005,-0.00001477,0.00001634,-0.00000686,0.00000586,-0.00018344,
 0.00034210,0.00004844,-0.00003091,-0.00008033,0.00005225,-0.00000737,0
 .00000035,0.00000101,-0.00000191,-0.00001931,0.00000377,0.00000431,0.0
 0000565,0.00000352,-0.00006974,-0.00008800,-0.00000762,0.00001796,0.00
 001216,-0.00000189,-0.00000590,-0.00001019,-0.00000209,-0.00002341,-0.
 00002268,-0.00000416,0.00001058,0.00003018,-0.00002140,0.00000246,0.00
 001328,0.00001391,-0.00001094,-0.00002131,-0.00000452,0.00000350,0.000
 00258,0.00000683,-0.00000300,0.00000075,0.00000179,0.00005427,-0.00004
 035,0.00000297,-0.00003670,-0.00000726,-0.00000705,0.00000985,-0.00006
 426,-0.00010408,-0.00001939,0.00004725,-0.00000628,-0.00000146,0.00002
 078,0.00000454,-0.00002089,0.00006157,-0.00000113,-0.00000816,-0.00001
 531,0.00001429,-0.00005061,0.00004231,0.00001329,0.00001190,0.00004184
 ,0.00001976,0.00004514,-0.00003709,0.00004607,-0.01274227,0.00996908,-
 0.02013362,0.00604889,0.00247837,-0.01817667,0.00623413,-0.00374028,-0
 .18034570,0.00006615,-0.00587894,-0.01803357,-0.00151991,-0.00192499,0
 .44345675,0.00003666,0.00003953,0.00001420,-0.00010603,-0.00015949,-0.
 00015999,-0.00006088,-0.00013324,-0.00000116,0.00000126,-0.00000161,-0
 .00000045,0.00000242,-0.00000006,-0.00000471,0.00000946,0.00000594,-0.
 00000040,-0.00000060,-0.00000114,0.00000404,-0.00062400,-0.00081089,0.
 00014638,0.00004937,0.00003763,0.00008325,-0.00000667,-0.00000403,-0.0
 0000632,0.00026509,0.00045744,-0.00024630,-0.00003011,-0.00000852,-0.0
 0001092,-0.00000513,0.00000915,0.00000212,0.00001465,-0.00000411,-0.00
 000128,-0.00001730,0.00000624,0.00001146,-0.00000094,-0.00000156,0.000
 00176,0.00001050,0.00000185,-0.00000124,-0.00001263,-0.00000134,0.0000
 1232,0.00000099,-0.00001840,-0.00000521,-0.00003756,0.00000413,0.00007
 587,0.00006247,0.00012073,0.00003144,0.00000459,-0.00001163,0.00001015
 ,-0.00000299,0.00000003,0.00000553,-0.00000213,-0.00000097,0.00000549,
 0.00000491,-0.00000051,-0.00000751,-0.00000889,-0.00000615,-0.00000577
 ,-0.00001417,-0.00000117,-0.00001355,0.00019537,0.00004036,0.00006774,
 -0.00000517,-0.00000307,-0.00013125,0.00000055,0.00000322,0.00000140,0
 .00000558,0.00001449,-0.00000161,-0.00000888,0.00000561,0.00000425,0.0
 0003564,0.00006287,0.00000423,0.00000258,0.00000509,0.00000224,-0.0000
 0515,0.00000502,-0.00000120,0.00001126,0.00002161,-0.00000018,0.000018
 50,-0.00000851,-0.00001358,0.00000969,-0.00000316,0.00001501,0.0000085
 8,0.00001263,0.00000170,0.00000112,-0.00000518,0.00000216,-0.00000488,
 0.00000017,-0.00000078,-0.00003928,0.00000516,-0.00001667,-0.00003698,
 0.00000888,-0.00003152,0.00004049,0.00016767,0.00002234,0.00002620,-0.
 00000659,0.00001579,0.00000473,-0.00000900,-0.00000780,0.00006145,-0.0
 0005556,0.00002682,0.00002455,0.00007390,-0.00007163,0.00009599,-0.000
 09995,-0.00003957,0.00004651,0.00004886,0.00005420,-0.00030218,-0.0000
 8794,0.00008708,0.00187157,0.00046711,0.00024542,-0.04363486,-0.012233
 52,-0.00521126,-0.00431709,-0.02549503,-0.00764144,-0.00426546,-0.0024
 9120,0.00170993,0.00059251,0.00000614,-0.00096552,0.04925817,0.0000557
 8,0.00007558,0.00002081,-0.00006664,-0.00011583,-0.00009373,0.00000462
 ,-0.00004612,-0.00001422,0.00000741,0.00000307,-0.00001244,0.00000341,
 -0.00000300,0.00000031,0.00000555,0.00000084,0.00000212,0.00000117,-0.
 00000122,0.00000973,0.00002664,-0.00049723,-0.00002166,0.00003209,0.00
 004489,0.00003392,0.00000945,-0.00000946,-0.00000868,0.00013380,0.0004
 9697,-0.00004003,-0.00000998,-0.00001886,-0.00001120,-0.00002259,0.000
 00680,-0.00000071,0.00001093,-0.00000911,-0.00000381,-0.00000757,0.000
 02027,0.00000586,-0.00000495,0.00000524,-0.00000292,0.00000147,0.00000
 593,-0.00000449,0.00012364,-0.00020898,-0.00004983,-0.00003773,0.00007
 352,0.00001551,-0.00002824,-0.00003326,0.00005677,-0.00000190,0.000100
 37,0.00004412,-0.00000649,-0.00002741,-0.00000794,-0.00000022,-0.00000
 353,0.00000617,-0.00000113,-0.00001223,-0.00000231,0.00001564,0.000001
 13,-0.00001241,-0.00001201,0.00000708,-0.00000020,-0.00000927,0.000003
 10,-0.00000794,0.00015937,0.00006090,-0.00000485,-0.00002666,0.0000569
 1,-0.00007592,-0.00000901,0.00000591,0.00000040,0.00000310,-0.00000005
 ,0.00000416,-0.00000340,0.00000461,0.00000480,-0.00001205,0.00001699,0
 .00000438,-0.00000172,0.00001709,-0.00000090,0.00000435,0.00000430,0.0
 0001078,0.00000434,0.00000487,0.00000170,0.00001941,-0.00000992,-0.000
 01117,0.00001501,-0.00000310,0.00001191,0.00000087,-0.00000314,-0.0000
 0142,0.00000295,-0.00000446,0.00000111,-0.00001082,0.00000508,-0.00000
 010,-0.00000637,0.00000135,-0.00001484,-0.00000524,0.00000327,-0.00001
 208,0.00000661,0.00001856,0.00003956,0.00000468,-0.00001055,0.00000400
 ,-0.00000939,-0.00001419,-0.00000914,0.00001768,-0.00003108,0.00001633
 ,0.00002657,0.00001441,0.00002168,-0.00000592,-0.00001885,-0.00002519,
 0.00003315,-0.00005291,-0.00003135,-0.00008218,0.00011279,0.00001516,0
 .00059803,0.00116278,0.00017068,-0.01218455,-0.25558653,-0.07920973,-0
 .00511515,-0.01747265,-0.00424889,-0.00348784,-0.00154762,0.00137648,0
 .00072704,0.00044552,-0.00050696,0.01706649,0.29520108,0.00002558,0.00
 000120,0.00000329,-0.00006572,-0.00014812,-0.00004700,-0.00012801,-0.0
 0005227,0.00001609,-0.00000073,-0.00000046,-0.00000354,0.00000318,-0.0
 0000071,-0.00000123,0.00000474,0.00000212,-0.00000079,0.00000007,-0.00
 000096,0.00000194,-0.00012350,-0.00012098,0.00004970,0.00004145,0.0000
 6000,0.00000017,-0.00001321,-0.00000162,0.00000032,0.00003086,0.000192
 91,-0.00003290,-0.00000793,0.00001333,-0.00000410,-0.00000595,-0.00000
 274,-0.00000093,0.00000322,0.00000455,0.00000305,0.00000197,-0.0000010
 1,0.00000757,0.00000026,-0.00000069,-0.00000084,0.00000074,0.00000022,
 -0.00000042,0.00005088,-0.00002367,-0.00018302,0.00004006,0.00001312,0
 .00007566,-0.00007791,-0.00004622,0.00011023,0.00011685,0.00011934,0.0
 0004870,-0.00000445,-0.00000450,0.00000659,-0.00000174,-0.00000110,0.0
 0000054,0.00000270,-0.00000319,-0.00000354,0.00000457,0.00000676,-0.00
 000135,-0.00000475,0.00000014,-0.00000321,-0.00001009,-0.00000118,-0.0
 0000408,0.00003230,0.00004618,-0.00007447,-0.00004050,-0.00001364,-0.0
 0008483,-0.00000082,0.00000073,0.00000038,0.00000086,0.00000256,0.0000
 0041,-0.00000126,0.00000034,0.00000502,0.00000857,0.00001674,-0.000005
 74,0.00000566,0.00000142,0.00000100,-0.00000190,0.00000145,-0.00000063
 ,0.00000231,0.00000482,0.00000043,-0.00000242,-0.00000209,0.00000176,0
 .00000467,-0.00000180,-0.00000367,0.00000235,0.00000231,0.00000009,0.0
 0000026,-0.00000273,0.00000013,-0.00000149,0.00000006,-0.00000045,-0.0
 0001030,0.00000782,-0.00003476,-0.00008728,0.00001522,0.00005262,-0.00
 000139,0.00001918,-0.00002096,-0.00000596,-0.00000036,-0.00001178,0.00
 002865,-0.00000392,-0.00001147,0.00003054,-0.00000482,-0.00003494,-0.0
 0000223,0.00007449,-0.00004929,0.00003719,-0.00000573,-0.00004192,0.00
 001161,-0.00006779,0.00001096,0.00002244,-0.00000633,0.00016041,-0.000
 64537,0.00009315,-0.00009443,-0.00501060,-0.07953153,-0.07383386,0.000
 47982,0.00838604,0.00322096,0.00137205,0.00082979,-0.00003725,0.000384
 26,0.00091607,0.00056261,0.00452565,0.09199180,0.08292443,0.00004846,-
 0.00003488,0.00000436,-0.00016924,-0.00003329,-0.00008849,-0.00016756,
 -0.00008517,0.00008253,-0.00000282,-0.00000639,0.00000438,0.00000454,-
 0.00000024,-0.00000480,0.00000384,0.00000481,-0.00000134,-0.00000698,-
 0.00000142,-0.00000277,-0.00060004,-0.00037909,0.00075711,0.00009856,-
 0.00000004,0.00001580,-0.00000617,-0.00000425,-0.00000122,0.00022957,0
 .00032449,-0.00034756,-0.00000816,0.00000711,-0.00000152,0.00001479,-0
 .00000422,-0.00000639,0.00000979,0.00000263,-0.00000263,0.00000045,-0.
 00000986,0.00000935,0.00000641,-0.00000663,-0.00000129,0.00000875,-0.0
 0000220,0.00000031,-0.00004289,0.00001161,0.00000352,-0.00000287,0.000
 03237,-0.00002045,-0.00009002,-0.00001298,0.00008700,0.00010697,0.0000
 2315,-0.00002274,-0.00000257,-0.00000311,0.00000559,-0.00000037,0.0000
 0540,0.00000627,0.00000168,0.00000924,-0.00000510,-0.00000768,-0.00000
 173,0.00000135,0.00000164,-0.00000193,-0.00001172,-0.00001026,0.000009
 66,-0.00000391,0.00021822,-0.00007118,-0.00007215,-0.00000435,0.000157
 01,-0.00001627,0.00000517,-0.00000258,-0.00000045,0.00000491,0.0000121
 1,-0.00000345,-0.00000310,0.00000007,0.00000152,0.00004172,0.00004773,
 0.00000554,0.00000134,-0.00001036,0.00001426,-0.00000747,0.00000083,-0
 .00000144,0.00001367,0.00001560,-0.00000290,0.00000038,-0.00000560,0.0
 0001362,-0.00000914,-0.00001068,-0.00001470,0.00000600,0.00001163,0.00
 000192,-0.00000397,-0.00000286,-0.00000439,0.00000271,-0.00000329,-0.0
 0000208,0.00001473,0.00002097,-0.00002019,-0.00000621,0.00001089,0.000
 00500,-0.00000399,0.00002747,-0.00000983,0.00000411,-0.00001132,-0.000
 00779,0.00002460,-0.00002885,-0.00001987,0.00000879,-0.00002624,-0.000
 01540,0.00001635,0.00003336,-0.00001010,0.00002919,-0.00001627,-0.0000
 1453,-0.00000731,-0.00002286,-0.00001377,-0.00000889,-0.00001550,0.000
 07732,0.00181607,-0.00017285,-0.00059380,-0.04319056,0.00071191,-0.008
 74944,-0.00169193,-0.00212293,0.02627299,0.00061877,0.00080854,0.00040
 648,-0.00413434,-0.00214176,0.00208596,0.00081518,0.00010528,-0.001704
 77,0.04858402,-0.00000843,-0.00001166,0.00000904,0.00008146,0.00017223
 ,0.00003692,-0.00000248,0.00002021,0.00002713,-0.00000010,0.00000032,-
 0.00000209,-0.00000131,-0.00000225,0.00000148,-0.00000444,-0.00000233,
 0.00000165,-0.00000055,0.00000159,0.00000029,0.00013480,0.00007813,0.0
 0001297,-0.00005020,-0.00006359,0.00000450,0.00001511,-0.00000177,-0.0
 0000274,0.00001209,-0.00006881,0.00000573,0.00001071,-0.00001117,0.000
 00013,0.00000981,0.00000333,-0.00000356,-0.00000737,0.00000124,-0.0000
 0468,-0.00000027,-0.00000243,-0.00000104,-0.00000124,-0.00000100,-0.00
 000033,-0.00000122,-0.00000039,-0.00000088,-0.00004459,-0.00015753,0.0
 0003918,0.00001579,0.00012406,-0.00001427,0.00006317,0.00003908,-0.000
 07590,-0.00006401,-0.00007771,-0.00002128,-0.00000640,-0.00000283,-0.0
 0000802,0.00000574,-0.00000432,-0.00000606,0.00000148,0.00000455,0.000
 00203,-0.00000026,-0.00000972,-0.00000006,0.00001245,0.00001011,0.0000
 0129,0.00000903,0.00000257,0.00000011,0.00004168,-0.00006388,0.0000008
 9,0.00005929,-0.00000593,0.00000863,0.00000152,-0.00000069,-0.00000258
 ,-0.00000033,-0.00000514,0.00000113,0.,0.00000066,-0.00000088,-0.00000
 912,-0.00003706,-0.00000985,-0.00000722,0.00000187,0.00000299,0.000004
 13,-0.00000168,0.00000487,-0.00000342,-0.00001027,-0.00000068,-0.00000
 392,0.00000380,0.00001005,-0.00001364,0.00000252,-0.00000473,-0.000004
 36,-0.00000678,-0.00000022,-0.00000151,0.00000390,-0.00000157,0.000004
 53,-0.00000047,-0.00000025,-0.00000229,-0.00000769,0.00001666,0.000046
 69,-0.00001253,-0.00002428,0.00002114,-0.00001299,-0.00000302,0.000004
 17,-0.00000069,0.00000483,-0.00002462,0.00000726,0.00001569,-0.0000216
 5,0.00000798,0.00002031,0.00000006,-0.00003722,-0.00000484,-0.00000985
 ,-0.00000599,0.00002445,-0.00000860,0.00003712,0.00000616,-0.00005462,
 0.00000646,-0.00005112,0.00069869,-0.00002613,-0.00041827,0.00053984,-
 0.04430267,0.00581286,-0.00093319,-0.00086851,0.01352374,0.00000404,0.
 00033750,0.00082495,-0.00230605,-0.00071785,0.00116212,-0.00152062,-0.
 00193867,-0.03208090,0.00151564,0.04863542,-0.00006324,-0.00000819,0.0
 0002610,0.00008535,0.00000335,0.00009369,-0.00009461,0.00004294,-0.000
 08578,0.00000010,-0.00000444,-0.00001118,-0.00000792,0.00000311,0.0000
 0429,-0.00000460,-0.00000206,0.00000119,0.00000656,-0.00000392,-0.0000
 0282,0.00005808,0.00024815,-0.00059899,-0.00006943,-0.00001730,-0.0000
 1866,-0.00000840,-0.00000610,-0.00000315,-0.00009691,-0.00030526,0.000
 53582,-0.00000081,0.00001933,0.00000232,-0.00001147,0.00001886,0.00001
 252,-0.00002357,-0.00000170,0.00000472,0.00000016,0.00000300,-0.000010
 67,-0.00000116,-0.00000036,0.00000473,0.00000207,-0.00000288,0.0000072
 2,-0.00019383,0.00002501,-0.00019290,0.00017260,-0.00006160,0.00013184
 ,0.00010228,0.00003945,-0.00011255,-0.00000318,-0.00002811,0.00003192,
 -0.00001354,0.00000518,-0.00000236,0.00000663,-0.00000577,-0.00002803,
 -0.00000057,-0.00000091,0.00000656,0.00000801,-0.00000196,-0.00001444,
 0.00000565,0.00001987,0.00001743,0.00001323,-0.00000849,0.00000613,-0.
 00014843,-0.00001896,0.00007981,0.00001336,-0.00009611,0.00010904,0.00
 000333,-0.00000220,0.00000532,-0.00000072,-0.00000177,0.00000061,0.000
 00389,0.00000352,-0.00000107,0.00000283,-0.00000591,-0.00000676,0.0000
 0819,-0.00000852,-0.00001498,-0.00000421,0.00000176,-0.00000986,-0.000
 00254,0.00000277,0.00000103,0.00000525,0.00000543,-0.00001703,0.000006
 89,0.00000823,0.00001861,0.00000183,-0.00000042,0.00000091,0.00000379,
 -0.00000113,0.00000525,-0.00000052,-0.00000254,-0.00000083,0.00001457,
 -0.00002376,0.00002729,0.00003302,-0.00000108,-0.00003689,0.00000173,-
 0.00000657,0.00002872,0.00000388,0.00000760,0.00001557,-0.00002313,0.0
 0001363,0.00000973,-0.00001559,0.00001392,0.00002030,-0.00001174,-0.00
 005557,0.00003965,-0.00005241,0.00002950,0.00002507,-0.00000145,0.0000
 4929,0.00000127,0.00002850,-0.00002987,-0.00014573,-0.00045135,-0.0002
 6719,0.00117179,-0.00879686,0.00610423,-0.28612054,0.00368200,0.002338
 40,-0.01584765,-0.00084790,-0.00054615,0.00065630,0.00313138,0.0015760
 1,-0.00103043,-0.00122745,-0.00310750,-0.01609506,0.00799070,-0.007530
 87,0.33055973,-0.00008298,0.00001446,0.00004868,0.00010875,0.00001557,
 0.00022368,0.00018891,0.00020607,0.00002770,0.00000139,0.00000294,-0.0
 0003580,-0.00000388,-0.00000455,0.00000990,-0.00000442,-0.00000848,0.0
 0000322,0.00000780,0.00000088,0.00001111,-0.00020736,0.00130308,-0.000
 74475,-0.00004195,0.00003347,-0.00013570,0.00003620,-0.00000750,-0.000
 00766,-0.00009958,-0.00032393,0.00028713,0.00002320,-0.00002994,0.0000
 0023,0.00001032,-0.00000239,0.00000215,-0.00002031,0.00002263,0.000010
 79,0.00000767,-0.00001484,-0.00002020,-0.00000655,0.00000736,-0.000001
 83,-0.00001162,0.00000119,-0.00000587,0.00025759,-0.00004646,-0.000127
 02,-0.00007996,0.00006198,0.00001648,-0.00001037,-0.00005126,-0.000042
 29,-0.00004651,-0.00000905,-0.00003927,-0.00002193,-0.00000063,-0.0000
 2173,0.00001460,-0.00000891,-0.00002404,0.00000974,0.00000910,0.000003
 54,0.00000305,-0.00000963,-0.00000547,0.00002835,0.00003156,-0.0000145
 0,0.00001608,-0.00001334,0.00000919,-0.00073258,-0.00009254,-0.0000263
 7,-0.00001902,-0.00006596,0.00007501,0.00000004,0.00000337,-0.00000404
 ,-0.00000238,-0.00002145,0.00000767,0.00000734,-0.00000166,0.00000212,
 -0.00009976,-0.00013400,-0.00000177,-0.00002588,0.00001899,-0.00000486
 ,0.00001538,-0.00000387,0.00001998,-0.00002278,-0.00003508,0.00000264,
 -0.00000433,0.00002908,-0.00000722,-0.00000403,0.00001946,0.00000918,-
 0.00001400,-0.00002993,-0.00000315,0.00000489,0.00000802,0.00000605,0.
 00000501,0.00000609,0.00000439,0.00000962,-0.00000306,0.00001250,0.000
 01087,-0.00001273,-0.00000150,0.00002786,-0.00002732,0.00001329,0.0000
 0374,0.00000490,-0.00000622,0.00001027,-0.00000400,0.00000227,-0.00000
 974,0.00002420,0.00001181,-0.00001278,-0.00002824,0.00001262,0.0000043
 4,-0.00000721,-0.00001058,0.00000467,0.00003119,0.00000485,-0.00005534
 ,-0.00001001,-0.00006281,-0.00783715,-0.00231652,0.00203869,-0.1964058
 9,0.10209143,-0.05851210,-0.02313381,0.01300167,-0.00723966,0.00055866
 ,0.00069845,-0.00011268,0.00060213,0.00033348,-0.00063045,0.00024383,0
 .00214867,0.00001418,-0.00227737,0.00244626,-0.00319526,0.22829072,-0.
 00001208,0.00000610,0.00000821,-0.00008104,-0.00007683,-0.00010483,-0.
 00009973,-0.00004636,0.00002179,-0.00000219,-0.00000378,0.00000918,0.0
 0000079,0.00000157,-0.00000596,0.00000257,0.00000555,-0.00000180,-0.00
 000231,-0.00000065,-0.00000394,-0.00112450,0.00012653,0.00010302,0.000
 04592,0.00000194,0.00006095,0.00000083,-0.00000066,-0.00000859,0.00035
 270,0.00029486,-0.00024427,-0.00000892,0.00000283,-0.00001120,0.000006
 67,0.00000828,-0.00000451,0.00000371,-0.00000900,-0.00001064,-0.000004
 83,-0.00000332,0.00000845,0.00000303,-0.00000559,0.00000190,0.00000857
 ,-0.00000145,0.00000176,-0.00025153,-0.00013289,0.00006466,0.00009325,
 0.00007543,-0.00001573,-0.00002179,0.00002575,0.00005105,0.00004456,0.
 00007444,-0.00000326,0.00000651,-0.00000527,0.00000805,0.00000729,0.00
 000360,0.00000411,-0.00000486,-0.00000074,0.00000761,-0.00000072,-0.00
 000860,-0.00000362,0.00000125,-0.00000728,0.00000209,-0.00000672,0.000
 00182,-0.00000621,0.00000519,-0.00012622,0.00004186,-0.00001648,-0.000
 00097,-0.00005697,0.00000466,-0.00000212,0.00000067,0.00000264,0.00001
 040,-0.00000338,-0.00000533,0.00000261,0.00000079,0.00005177,0.0000289
 8,0.00000875,0.00000261,-0.00000712,0.00000279,-0.00000597,0.00000093,
 -0.00000734,0.00000685,0.00001403,-0.00000139,0.00000014,-0.00000011,0
 .00000156,0.00000029,-0.00000209,-0.00000149,0.00000656,0.00001233,0.0
 0000200,-0.00000100,-0.00000306,-0.00000012,0.00000317,-0.00000486,-0.
 00000119,-0.00001337,0.00002097,-0.00000470,-0.00001453,0.00000480,0.0
 0000973,0.00004091,0.00006318,-0.00001594,0.00000183,-0.00000490,-0.00
 000162,0.00000743,-0.00000850,-0.00000932,0.00001953,-0.00001741,-0.00
 000806,-0.00000328,0.00004894,-0.00004194,0.00003649,-0.00003714,-0.00
 000894,0.00000348,0.00002184,0.00002669,-0.00009422,-0.00006552,0.0000
 6466,-0.00200257,0.00018271,0.00029333,0.10311638,-0.11036916,0.038602
 16,-0.00734350,0.00508991,-0.00298906,-0.00076266,0.00017862,0.0000528
 8,-0.00023134,0.00011720,-0.00020012,0.02540543,-0.02047844,0.00870555
 ,0.00182101,-0.00069373,0.00147724,-0.11827548,0.12617758,0.00000062,-
 0.00000991,-0.00000520,0.00008158,0.00003850,0.00009000,-0.00006654,0.
 00008862,-0.00001674,-0.00000179,0.00000117,-0.00000660,-0.00000132,-0
 .00000291,0.00000208,0.00000142,-0.00000264,0.00000048,0.00000169,0.00
 000198,0.00000561,0.00079718,-0.00004707,0.00013005,-0.00003791,0.0000
 0339,-0.00004669,-0.00000544,-0.00000276,0.00000564,-0.00020788,-0.000
 18697,0.00020461,-0.00000216,-0.00000008,0.00000662,0.00000227,-0.0000
 0313,0.00000407,-0.00000688,0.00001276,0.00000764,0.00000009,0.0000036
 7,-0.00000308,-0.00000490,0.00000287,0.00000035,-0.00000577,-0.0000004
 7,-0.00000209,0.00008246,-0.00001090,-0.00025559,0.00005029,-0.0000161
 1,0.00012733,0.00000324,-0.00000259,-0.00002989,0.00003776,-0.00005172
 ,0.00001597,-0.00000810,0.00000338,0.00000105,-0.00000427,-0.00000700,
 -0.00000946,0.00000723,0.00000330,-0.00000126,0.00000091,0.00000155,0.
 00000423,0.00000738,0.00000642,-0.00000141,0.00000348,-0.00000451,0.00
 000133,0.00005843,0.00005369,-0.00007982,0.00003632,-0.00005118,-0.000
 01402,-0.00000141,0.00000105,-0.00000113,-0.00000087,-0.00000623,0.000
 00235,0.00000063,-0.00000112,-0.00000079,-0.00002478,-0.00002788,-0.00
 001500,-0.00000033,0.00000653,0.00000007,0.00000183,-0.00000049,0.0000
 0310,-0.00000437,-0.00000806,0.00000152,-0.00000389,0.00000160,0.00000
 023,-0.00000342,0.00000393,0.00000009,-0.00000296,-0.00000749,-0.00000
 026,0.00000057,0.00000181,0.00000187,0.00000254,0.00000039,0.00000013,
 -0.00000765,-0.00000322,0.00000760,0.00001529,-0.00001393,0.00000388,0
 .00001765,-0.00002767,-0.00000531,-0.00000149,0.00000318,0.00000068,-0
 .00001313,0.00000991,0.00001230,-0.00000827,0.00001390,0.00000559,-0.0
 0000548,-0.00001523,-0.00000804,-0.00000744,-0.00000242,0.00001210,-0.
 00000011,0.00001482,0.00000911,-0.00002576,0.00002239,-0.00002448,0.00
 186269,0.00031898,0.00006380,-0.05923893,0.03869532,-0.06492667,0.0065
 1144,-0.00436494,0.00244931,-0.00012927,-0.00023554,0.00002707,0.00068
 686,-0.00003662,0.00005851,0.00849480,-0.00660619,0.00363314,-0.026920
 14,0.01830083,-0.01359557,0.06757907,-0.04591105,0.07263277,0.00007512
 ,-0.00006669,0.00001278,0.00000053,0.00027165,-0.00005792,-0.00020701,
 0.00003751,0.00008291,0.00000106,-0.00001696,0.00001129,0.00000317,-0.
 00000257,-0.00000240,-0.00000065,0.00000121,0.00000023,-0.00000640,-0.
 00000126,-0.00000547,-0.00024046,0.00032028,0.00048153,0.00000535,-0.0
 0009625,0.00005389,-0.00000147,-0.00001449,-0.00000291,-0.00010073,-0.
 00001226,-0.00010373,0.00000910,0.00001028,0.00001295,0.00001279,-0.00
 000752,-0.00000552,0.00000207,0.00000869,-0.00000152,-0.00000047,-0.00
 000825,0.00000553,0.00000693,-0.00000808,-0.00000229,0.00001096,-0.000
 00431,-0.00000068,-0.00015796,-0.00002615,0.00003817,0.00002451,0.0000
 7643,-0.00003390,-0.00000663,0.00005355,-0.00001878,0.00005677,-0.0001
 8331,-0.00005066,-0.00001424,-0.00000314,-0.00000920,-0.00000267,0.000
 00097,-0.00000191,-0.00000052,0.00001298,-0.00001454,-0.00000885,-0.00
 000258,0.00000481,0.00001207,0.00001513,-0.00000540,-0.00000006,0.0000
 0816,-0.00000125,-0.00000418,-0.00003665,-0.00014733,0.00003758,0.0000
 2921,0.00000797,0.00001387,-0.00000486,-0.00000762,0.00000761,0.000009
 12,-0.00000489,-0.00000154,0.00000115,-0.00000005,0.00003141,0.0000034
 3,-0.00000954,-0.00001727,-0.00001675,0.00004230,-0.00001518,-0.000010
 63,-0.00000426,0.00003081,0.00000805,-0.00001399,0.00001380,-0.0000164
 0,0.00006416,-0.00008125,-0.00002339,-0.00005841,0.00000340,0.00000639
 ,0.00000256,-0.00000950,0.00000367,-0.00001291,0.00001488,-0.00000550,
 -0.00000296,0.00000086,-0.00000271,0.00000056,0.00001528,-0.00000469,-
 0.00000661,-0.00000055,0.00000053,-0.00000080,0.00000303,-0.00001181,-
 0.00000379,0.00000436,-0.00000669,-0.00000259,-0.00000735,-0.00001092,
 -0.00000726,-0.00000088,-0.00000182,0.00000219,-0.00000249,-0.00000019
 ,0.00000491,-0.00000633,-0.00000947,-0.00001057,0.00000723,0.00000608,
 0.00000715,0.00032301,0.00011238,0.00047913,0.00015841,-0.00016165,-0.
 00066839,-0.00019866,0.00021460,-0.00308631,-0.04533625,0.00061704,-0.
 01363525,0.00033096,-0.00049052,-0.00016682,-0.00004058,0.00010740,0.0
 0014726,-0.00009999,-0.00061201,0.00016671,-0.00012695,0.00004344,-0.0
 0015508,0.04812729,-0.00006871,0.00002603,0.00003549,0.00014113,-0.000
 00976,0.00005741,0.00007616,0.00006714,-0.00003992,0.00000577,0.000000
 43,-0.00000331,-0.00000547,-0.00000103,0.00000388,-0.00000665,-0.00000
 371,0.00000207,0.00000506,0.00000253,-0.00000055,0.00057662,-0.0001688
 5,-0.00037236,-0.00008196,-0.00000067,-0.00001179,0.00001799,0.0000067
 2,0.00000232,-0.00045907,0.00012053,0.00026076,0.00001298,-0.00002127,
 -0.00000317,-0.00000210,0.00000911,0.00000480,-0.00001990,-0.00000289,
 -0.00000141,-0.00000507,0.00000420,-0.00000827,-0.00000794,0.00000292,
 0.00000235,-0.00000601,0.00000196,0.00000137,0.00015305,-0.00018021,-0
 .00003231,-0.00003705,0.00009892,0.00000588,0.00003159,-0.00001051,-0.
 00005131,-0.00008051,0.00005110,0.00001524,-0.00000346,-0.00000112,-0.
 00001606,0.00000850,-0.00000623,-0.00001432,-0.00000401,0.00000090,0.0
 0000551,0.00000409,-0.00000900,-0.00000429,0.00001640,0.00001456,0.000
 00291,0.00000905,-0.00000857,0.00000068,-0.00011429,0.00009874,0.00002
 393,-0.00002645,-0.00010553,-0.00001251,-0.00000035,0.00000031,-0.0000
 0522,-0.00000099,-0.00000925,0.00000510,0.00000027,0.00000258,-0.00000
 043,-0.00001465,-0.00006027,-0.00001800,-0.00000020,0.00000675,0.00000
 303,0.00000820,-0.00000195,0.00000471,-0.00001946,-0.00002627,-0.00000
 101,0.00001298,0.00001330,0.00001331,-0.00003561,0.00003435,0.00000490
 ,-0.00001055,-0.00001606,0.00000026,0.00000107,0.00000887,-0.00000235,
 0.00000378,0.,-0.00000065,-0.00001304,-0.00000877,0.00001816,0.0000023
 6,-0.00000851,-0.00000346,0.00000755,-0.00000664,0.00002327,-0.0000004
 4,0.00001242,0.00000706,-0.00001703,0.00001875,0.00001155,-0.00000145,
 0.00001365,0.00001497,-0.00000398,-0.00001507,-0.00000011,-0.00001996,
 0.00000710,0.00000661,0.00000816,0.00003095,0.00000942,-0.00001484,-0.
 00000684,-0.00006899,-0.00103929,0.00223830,0.00034001,0.00059921,0.00
 070762,-0.00064950,-0.00214048,-0.00210662,-0.02930177,0.00137725,-0.0
 4364777,0.01334588,-0.00051976,-0.00494955,-0.00242672,0.00016307,0.00
 018184,0.00008689,-0.00045373,-0.00042858,0.00017783,-0.00000179,-0.00
 007265,0.00009996,-0.00017471,0.05020170,-0.00012528,0.00001926,0.0000
 3386,0.00004345,-0.00022203,0.00011656,0.00014303,-0.00000181,-0.00012
 076,-0.00000173,0.00000382,-0.00002511,-0.00001316,0.00000506,0.000005
 76,-0.00000460,-0.00000460,0.00000059,0.00000841,-0.00000948,-0.000008
 04,0.00017733,-0.00026603,-0.00106439,-0.00004089,0.00006077,-0.000052
 72,-0.00002573,0.00000171,-0.00000577,0.00018602,-0.00014616,0.0006760
 1,-0.00002577,0.00003419,-0.00000871,-0.00001999,0.00002679,0.00001772
 ,-0.00003451,0.00000740,0.00000571,-0.00000298,-0.00000043,-0.00000729
 ,-0.00000462,0.00000159,0.00000878,-0.00000063,-0.00000328,0.00000670,
 -0.00020221,0.00006639,-0.00023667,0.00020057,-0.00013146,0.00013835,0
 .00005492,-0.00001050,-0.00003410,-0.00001617,0.00008835,0.00004504,-0
 .00001271,0.00000916,0.00001578,0.00000844,-0.00000906,-0.00003670,0.0
 0000306,-0.00000709,0.00001283,0.00001417,0.00000098,-0.00001718,-0.00
 000339,0.00001781,0.00002699,0.00001342,-0.00000882,0.00000106,0.00006
 929,-0.00011820,0.00023143,-0.00003241,-0.00007812,0.00002033,-0.00000
 464,0.00000346,0.00000873,-0.00000110,-0.00000429,0.00000088,0.0000042
 6,0.00000790,0.00000299,0.00000595,0.00002497,0.00000266,0.00002054,0.
 00001157,-0.00003386,-0.00001448,0.00000653,-0.00001593,-0.00002298,0.
 00000637,-0.00000159,0.00003182,0.00001954,-0.00008274,0.00005322,0.00
 002116,0.00009011,0.00000312,-0.00000180,-0.00000088,0.00000775,-0.000
 00568,0.00001244,-0.00001143,0.00000078,-0.00000225,0.00000611,-0.0000
 3047,0.00001111,-0.00000509,0.00000060,-0.00001862,0.00001133,0.000007
 10,0.00002565,0.00000488,0.00001905,0.00001302,-0.00001170,0.00001206,
 0.00000648,0.00000660,0.00000733,0.00001495,-0.00001019,-0.00001563,0.
 00001815,-0.00002141,0.00001324,0.00000256,0.00000403,0.00003744,0.000
 00920,-0.00000774,-0.00003539,-0.00008073,0.00020776,0.00107495,0.0012
 8441,0.00022836,0.00091969,0.00060447,-0.00111193,-0.00383872,-0.01710
 345,-0.01456059,0.01275848,-0.28181676,-0.00033499,-0.00344691,-0.0009
 9920,0.00016634,0.00035054,0.00010052,-0.00015034,-0.00024565,0.000586
 61,-0.00003186,-0.00001974,-0.00016610,0.01648280,-0.01234572,0.326307
 92,-0.00013295,0.00007206,0.00008029,0.00004014,-0.00012996,0.00017410
 ,0.00025358,-0.00002673,0.00001384,0.00001157,0.00001709,-0.00004290,-
 0.00000404,-0.00000362,0.00000804,-0.00000184,-0.00000591,0.00000350,0
 .00000580,0.00000046,0.00000921,0.00068068,-0.00052696,0.00003040,-0.0
 0002341,0.00008970,-0.00015489,0.00005436,0.00001437,-0.00000857,-0.00
 082651,0.00062883,0.00063280,0.00001654,-0.00005462,-0.00001495,0.0000
 0317,0.00000650,0.00000485,-0.00002266,0.00000858,0.00000355,-0.000000
 87,-0.00001241,-0.00001610,-0.00001389,0.00000964,0.00000139,-0.000014
 69,0.00000545,-0.00000404,0.00052970,-0.00014257,-0.00023951,-0.000198
 81,0.00011504,0.00001652,-0.00000879,-0.00002922,-0.00007319,-0.000046
 37,0.00010745,-0.00001748,-0.00001617,-0.00000920,-0.00002934,0.000012
 46,-0.00000952,-0.00001481,0.00000490,0.00000528,0.00000409,0.00000958
 ,-0.00001287,-0.00000794,0.00002392,0.00002637,-0.00001951,0.00000610,
 -0.00001229,0.00000366,-0.00017727,0.00016773,-0.00006842,-0.00003321,
 -0.00001959,0.00000135,-0.00000733,0.00000759,-0.00000310,0.00000041,-
 0.00001304,0.00000620,0.00000305,-0.00000003,0.00000370,-0.00006444,-0
 .00009274,0.00000655,-0.00002604,0.00002786,0.00000196,0.00002011,0.00
 000997,0.00002906,-0.00003944,-0.00002426,-0.00000348,0.00005233,0.000
 05598,-0.00007411,0.00002024,0.00003561,0.00008191,-0.00001262,-0.0000
 2689,-0.00000371,0.00000780,0.00000356,0.00001042,-0.00000530,0.000007
 55,0.00000316,0.00000165,0.00001229,0.00000113,-0.00000586,-0.00000917
 ,0.00000690,0.00001437,-0.00001549,0.00000582,-0.00000390,0.00001494,-
 0.00000311,0.00000474,-0.00000584,-0.00000046,-0.00000271,0.00002563,0
 .00000950,0.00000366,-0.00000424,-0.00000450,-0.00000121,-0.00000632,-
 0.00000808,0.00001421,0.00002865,0.00001405,-0.00003652,-0.00000804,-0
 .00002743,0.00010160,0.00008356,0.00060540,0.00030583,-0.00093158,-0.0
 0011923,-0.00071743,0.00184477,0.00011947,-0.19729023,0.10573367,-0.05
 112232,0.00013828,-0.00034830,-0.00002377,-0.00006731,-0.00016725,-0.0
 0002157,-0.00008211,0.00007805,-0.00000272,0.00016207,-0.00061975,0.00
 002084,-0.00329052,0.00232655,-0.00280864,0.22727723,0.00001628,-0.000
 01299,-0.00000194,-0.00007671,0.00001744,-0.00017446,-0.00013547,-0.00
 011721,0.00008755,-0.00000468,-0.00000166,0.00002306,-0.00000061,0.000
 00196,-0.00000617,0.00000216,0.00000292,-0.00000117,-0.00000587,-0.000
 00558,-0.00001410,-0.00148043,-0.00039016,-0.00001001,0.00003643,-0.00
 004235,0.00012814,-0.00003041,0.00000436,-0.00000917,-0.00012118,0.000
 28006,-0.00009829,-0.00002487,0.00002935,-0.00000965,0.00000187,0.0000
 1018,-0.00000554,0.00000406,-0.00000574,-0.00001470,-0.00000908,0.0000
 0865,0.00002058,0.00000522,-0.00000951,0.00000401,0.00001325,-0.000003
 89,0.00000308,-0.00033254,-0.00009968,0.00012645,0.00009257,0.00005778
 ,-0.00005068,0.00005786,0.00003301,0.00007241,0.00002483,-0.00001215,0
 .00000459,0.00000616,-0.00000125,0.00002630,-0.00000295,-0.00000136,0.
 00000799,-0.00000117,-0.00000146,0.00000261,0.00000231,-0.00000469,0.0
 0000606,-0.00000938,-0.00001817,0.00001610,-0.00000760,0.00001301,-0.0
 0001333,0.00042309,-0.00012225,0.00013403,0.00002713,0.00006702,-0.000
 07143,0.00000418,0.00000173,0.00000101,0.00000479,0.00001773,-0.000006
 43,-0.00000673,0.00000583,0.00000105,0.00008208,0.00006959,-0.00000592
 ,0.00000276,0.00000664,0.00000617,-0.00002019,-0.00000138,-0.00001968,
 0.00000711,0.00002722,-0.00000472,0.00001857,-0.00001905,-0.00000475,-
 0.00000243,-0.00001715,0.00000683,0.00001019,0.00002100,0.00000297,-0.
 00000318,-0.00000591,-0.00000220,0.00000049,-0.00000480,-0.00000049,0.
 00000445,-0.00000185,-0.00001274,0.00001625,0.00000541,0.00000147,-0.0
 0000072,-0.00002334,-0.00002568,-0.00000470,-0.00000522,0.00000165,-0.
 00001996,-0.00000160,0.00000036,0.00000500,-0.00001761,-0.00001222,0.0
 0000450,0.00001898,-0.00000563,-0.00000770,-0.00000076,0.00001535,-0.0
 0000538,-0.00002591,-0.00000970,0.00002209,0.00006986,0.00006526,0.002
 97468,-0.00892925,-0.00144934,0.00074079,0.00064266,0.00017148,0.02220
 917,-0.01718916,0.00651063,0.10485792,-0.11300764,0.03443069,0.0000705
 6,0.00048035,0.00054872,0.00013242,0.00043381,0.00002722,0.00001441,-0
 .00014192,0.00011863,-0.00090326,-0.00046293,-0.00023917,0.00330486,-0
 .00120535,0.00266613,-0.12254922,0.13212051,-0.00002365,0.00002462,-0.
 00000927,0.00002388,-0.00010363,0.00006580,-0.00002408,0.00013902,-0.0
 0004208,-0.00000081,0.00000326,-0.00000542,-0.00000022,-0.00000193,0.,
 0.00000394,-0.00000023,-0.00000007,0.00000251,0.00000263,0.00000772,0.
 00010114,-0.00026647,-0.00006396,-0.00001015,0.00004611,-0.00004844,0.
 00000207,0.00000028,0.00000849,-0.00005148,0.00005726,-0.00008585,-0.0
 0000025,-0.00001399,0.00000133,-0.00000247,-0.00000154,0.00000607,-0.0
 0000459,0.00000470,0.00000705,0.00000024,0.00001045,-0.00000260,-0.000
 00695,0.00000502,0.00000026,-0.00000746,0.00000233,-0.00000248,0.00019
 601,-0.00002803,-0.00025947,0.00000873,-0.00007116,0.00013719,-0.00000
 123,-0.00002857,0.00001364,0.00004735,-0.00000121,0.00001212,-0.000000
 77,-0.00000019,-0.00000184,-0.00000356,-0.00000231,-0.00000257,0.00000
 357,-0.00000035,0.00000453,0.00000068,0.00000040,0.00000022,0.00000422
 ,0.00000059,-0.00000309,-0.00000372,-0.00000841,0.00000128,-0.00002188
 ,0.00007158,0.00004549,-0.00001075,-0.00003062,-0.00002217,-0.00000543
 ,0.00000122,0.00000011,-0.00000190,-0.00000545,0.00000378,-0.00000098,
 -0.00000227,-0.00000192,-0.00001015,-0.00001809,-0.00000713,0.00000854
 ,0.00000633,-0.00000248,0.00000781,0.00000408,0.00000722,-0.00000813,-
 0.00000786,0.00000685,-0.00001299,0.00000690,-0.00001191,0.00001828,0.
 00001454,0.00000948,-0.00000255,-0.00000702,0.00000044,0.00000373,-0.0
 0000022,0.00000383,-0.00000139,0.00000057,0.00000077,-0.00000188,0.000
 00990,-0.00000015,0.00000011,-0.00000126,0.00000824,0.00000304,-0.0000
 1646,-0.00000322,-0.00000259,0.00000217,0.00000177,-0.00000590,0.00000
 556,0.00000246,0.00000046,0.00000906,0.00000182,0.00000092,0.00000127,
 -0.00000601,-0.00000463,0.00000054,0.00000367,0.00000510,0.00000461,0.
 00000673,-0.00000498,0.00001754,0.00000025,0.00067205,-0.00254936,0.00
 025302,0.00020211,0.00025450,0.00013383,0.00738202,-0.00479081,0.00236
 348,-0.05068975,0.03498027,-0.05957509,0.00021718,-0.00049225,0.000031
 40,0.00010398,-0.00004120,-0.00011124,-0.00015890,0.00013838,-0.000187
 86,0.00014015,-0.00001243,0.00034481,-0.02761991,0.01832542,-0.0120870
 9,0.05992418,-0.03959310,0.06613059,-0.00004894,0.00000598,-0.00004634
 ,-0.00004978,-0.00009378,-0.00007467,-0.00003384,-0.00007839,-0.000021
 65,-0.00001173,-0.00001245,0.00003830,-0.00000283,0.00000370,-0.000002
 18,-0.00000333,0.00000555,-0.00000039,-0.00000237,-0.00000297,-0.00001
 202,0.00119670,0.00174269,-0.00084558,0.00000755,-0.00003022,0.0000968
 4,0.00001577,-0.00002755,-0.00000808,-0.00250708,0.00079267,0.00079910
 ,0.00004706,0.00000213,-0.00001025,0.00001896,-0.00000760,-0.00000437,
 0.00000745,-0.00002541,-0.00000502,0.00001124,0.00000210,0.00000768,0.
 00000827,-0.00000376,0.00000182,0.00000431,-0.00000611,0.00000222,-0.0
 0063377,0.00015259,0.00028986,0.00005721,0.00004040,-0.00001953,0.0000
 6228,0.00005119,0.00006202,0.00002506,0.00005690,0.00003941,0.00000673
 ,0.00000557,-0.00000402,0.00001970,0.00002097,-0.00000176,-0.00001675,
 0.00000475,0.00002096,-0.00001668,-0.00002394,-0.00001333,0.00000796,-
 0.00000398,0.00000402,-0.00000251,0.00000309,0.00000121,0.00013361,-0.
 00049713,0.00025987,-0.00002786,-0.00003000,0.00001137,0.00000154,-0.0
 0000837,0.00000152,-0.00000626,-0.00000083,-0.00000059,-0.00000127,0.0
 0000207,0.00000023,0.00010126,0.00004158,0.00002843,0.00001042,-0.0000
 3541,-0.00004791,0.00000697,-0.00001261,-0.00001982,0.00003299,0.00000
 182,0.00002182,-0.00018209,-0.00002762,0.00005806,0.00002173,-0.000008
 67,-0.00007589,0.00000747,0.00001266,0.00000226,0.00000409,-0.00000478
 ,-0.00001091,0.00000232,-0.00000359,0.00000617,-0.00000815,-0.00001047
 ,0.00001753,0.00000074,0.00000695,0.00000689,0.00000532,0.00000722,-0.
 00000227,0.00000132,-0.00000537,0.00000152,0.00000861,0.00001557,-0.00
 000216,-0.00000033,-0.00001031,-0.00000888,-0.00001024,0.00000241,-0.0
 0000203,0.00001413,0.00000503,-0.00000292,-0.00001509,0.00000418,-0.00
 000136,-0.00000388,-0.00003151,0.00000828,-0.00045228,0.00008683,0.000
 36536,0.00030739,-0.00144418,-0.00048322,-0.00440138,-0.00618287,0.000
 67775,-0.21096990,-0.08573958,0.07342305,0.00012802,0.00058052,0.00007
 799,-0.00014576,-0.00014601,0.00015298,0.00005071,0.00012325,-0.000267
 92,0.00033219,0.00002264,0.00009084,0.00038375,-0.00003470,0.00159380,
 -0.02684843,-0.00910580,0.00968449,0.24306312,-0.00031457,0.00010690,0
 .00017670,-0.00002099,-0.00021894,0.00025720,0.00040843,-0.00016842,0.
 00011524,0.00001929,0.00003134,-0.00000678,-0.00000932,0.00000142,0.00
 000733,-0.00001404,-0.00000457,0.00000024,-0.00000100,0.00000276,-0.00
 001411,-0.00033562,-0.00360620,0.00172870,0.00001633,0.00014623,-0.000
 26104,0.00006418,0.00008296,0.00002792,0.00055568,0.00152921,-0.000786
 44,0.00002828,-0.00008894,-0.00003859,-0.00000050,0.00001312,0.0000108
 6,-0.00005801,-0.00001536,-0.00000448,-0.00000845,-0.00003096,-0.00001
 825,-0.00002488,0.00001187,0.00001105,-0.00003183,0.00000818,0.0000100
 0,0.00143734,-0.00028607,-0.00049752,-0.00054963,0.00020323,-0.0000402
 1,-0.00009355,-0.00005075,-0.00007362,0.00003782,0.00018800,-0.0001031
 6,0.00001455,0.00000389,-0.00005725,0.00001447,-0.00000030,-0.00000692
 ,-0.00001530,0.00000889,-0.00000070,-0.00000529,-0.00001478,0.00000991
 ,0.00003964,0.00002308,-0.00003711,0.00000063,-0.00000866,0.00000306,-
 0.00030789,0.00064121,-0.00024682,0.00000018,0.00001771,-0.00005193,-0
 .00001564,-0.00000281,-0.00000691,-0.00000819,-0.00001805,0.00000800,0
 .00000286,0.00000383,0.00000383,-0.00001096,-0.00010201,0.00002857,0.0
 0002135,0.00002357,0.00002161,0.00002552,0.00000501,0.00002289,-0.0000
 8832,-0.00006394,-0.00001856,0.00003789,0.00015865,-0.00005360,0.00001
 357,0.00005863,0.00006273,-0.00002190,-0.00003446,-0.00000705,0.000006
 02,0.00000500,-0.00000308,-0.00000576,0.00000217,0.00000174,0.00001150
 ,0.00003245,-0.00000765,-0.00003870,-0.00000619,0.00001050,0.00001937,
 0.00001633,-0.00000110,-0.00001144,0.00004093,-0.00000120,0.00002920,-
 0.00000916,-0.00001582,0.00000831,0.00002160,0.00000399,0.00000875,0.0
 0001842,-0.00002265,0.00003076,-0.00001398,-0.00002912,0.00001257,0.00
 005524,0.00003054,-0.00007622,-0.00007049,0.00000506,0.00045294,0.0019
 8688,-0.00005469,-0.00092752,-0.00578390,-0.00215774,-0.02540090,-0.01
 673576,0.00853249,-0.08520245,-0.08546795,0.03851784,0.00003252,0.0008
 5356,0.00115890,-0.00147753,-0.00088811,0.00041758,0.00022136,0.000091
 52,-0.00029465,0.00026168,-0.00001605,-0.00004335,-0.00316454,-0.00049
 895,0.00292202,0.01446813,0.00723830,-0.00566034,0.09966231,0.10044848
 ,0.00010203,-0.00008665,0.00003117,0.00008113,0.00024988,-0.00001129,-
 0.00019663,0.00032335,0.00002060,0.00000273,-0.00001470,0.00002541,0.0
 0000552,-0.00000615,-0.00000012,-0.00000288,-0.00000341,0.00000137,-0.
 00000346,0.00000259,-0.00000530,-0.00034815,0.00014547,0.00098215,-0.0
 0002713,-0.00007271,0.00001831,-0.00001358,0.00000197,0.00002344,0.000
 63826,-0.00054427,-0.00089934,0.00000446,0.00001019,0.00001968,0.00000
 884,-0.00001901,-0.00000845,-0.00000475,0.00002466,-0.00000059,-0.0000
 0209,-0.00001238,0.00000243,0.00000318,-0.00000751,-0.00000441,0.00000
 452,-0.00000220,-0.00000189,0.00026222,-0.00000927,-0.00005811,-0.0000
 6699,-0.00000719,0.00001800,-0.00004976,0.00002830,-0.00004022,0.00003
 500,-0.00023401,-0.00002316,-0.00001266,-0.00000177,-0.00001871,-0.000
 01301,-0.00000907,0.00000095,0.00000323,0.00001199,-0.00002497,-0.0000
 0427,0.00000984,0.00001677,0.00001725,0.00001901,-0.00000954,0.0000019
 2,0.00000128,-0.00000148,-0.00010508,0.00024192,-0.00029012,0.00001876
 ,-0.00000909,-0.00000431,0.00001493,-0.00000625,-0.00001471,0.00000551
 ,0.00000088,0.00000121,-0.00000008,-0.00000221,-0.00000048,0.00000842,
 -0.00005757,-0.00001370,-0.00001430,-0.00001855,0.00002374,-0.00000330
 ,-0.00002042,-0.00001191,0.00001933,-0.00002456,-0.00000591,-0.0000522
 7,-0.00001372,0.00018075,-0.00011632,-0.00000050,-0.00014701,-0.000006
 22,-0.00000618,0.00000427,-0.00000752,0.00001043,-0.00001694,0.0000264
 6,-0.00000641,0.00000197,-0.00000333,0.00000046,0.00000103,0.00000705,
 -0.00000698,-0.00000111,0.00000017,0.00000104,-0.00000657,0.00000070,-
 0.00000739,-0.00000533,0.00000317,-0.00000067,0.00000213,-0.00000660,-
 0.00000137,-0.00000456,0.00000100,0.00000101,-0.00000738,0.00000254,-0
 .00000541,0.00000452,-0.00000112,-0.00000321,-0.00000109,-0.00000551,0
 .00000473,0.00001473,0.00035332,0.00054738,-0.00031114,-0.00036563,-0.
 00190269,-0.00022874,-0.00840669,-0.00369744,0.00378536,0.07408480,0.0
 3888454,-0.07683614,-0.00060267,-0.00060201,0.00064007,-0.00044042,-0.
 00039407,0.00036516,-0.00002613,-0.00013933,0.00007693,-0.00000573,0.0
 0001766,-0.00008524,0.02796226,0.01387485,-0.01626009,-0.00702910,-0.0
 0298817,0.00345272,-0.08573651,-0.04301049,0.08628904,0.00003939,0.000
 06713,0.00000358,-0.00002995,-0.00004483,-0.00008571,0.00002082,-0.000
 09510,-0.00005211,0.00000798,-0.00000337,-0.00000372,0.00000060,-0.000
 00111,-0.00000338,0.00000938,0.00000435,0.00000268,0.00000079,-0.00000
 024,0.00000673,-0.00034724,-0.00041816,-0.00041310,0.00000885,-0.00000
 083,0.00007351,-0.00000077,-0.00000830,-0.00000936,-0.00009949,0.00021
 178,-0.00005636,-0.00004794,-0.00005043,0.00000122,-0.00001929,0.00002
 833,0.00000915,0.00002039,-0.00000747,-0.00000197,-0.00004024,0.000050
 65,-0.00000558,-0.00000200,0.00000305,0.00000400,0.00001541,0.00000585
 ,-0.00000058,-0.00013445,-0.00006816,0.00008328,0.00002559,-0.00001642
 ,-0.00001945,0.00003525,0.00002712,-0.00003981,-0.00002087,0.00003082,
 0.00001997,-0.00000115,-0.00001327,0.00000957,-0.00000656,-0.00000721,
 0.00000185,-0.00000050,-0.00000058,0.00001131,0.00000962,-0.00000636,-
 0.00000402,-0.00000820,-0.00000416,0.00000295,-0.00000419,-0.00000036,
 -0.00001149,-0.00004677,0.00017454,0.00010536,0.00000613,-0.00001011,-
 0.00001583,0.00000157,0.00000743,0.00000300,0.00000647,0.00001556,0.00
 000169,-0.00000939,0.00000944,0.00000048,0.00002181,0.00003989,0.00000
 408,0.00000589,0.00000663,-0.00000151,-0.00000595,0.00000131,-0.000001
 24,0.00000795,0.00001862,0.00000103,0.00002101,-0.00000667,-0.00000013
 ,-0.00000117,0.00000114,0.00001007,0.00000627,0.00001094,0.00000174,0.
 00000001,-0.00000266,0.00000441,-0.00000442,0.00000023,-0.00000063,-0.
 00001606,-0.00000390,-0.00000906,0.00002683,-0.00005616,-0.00004455,-0
 .00004172,0.00012994,0.00015165,0.00001559,-0.00000758,0.00002402,-0.0
 0003823,-0.00000153,-0.00000049,0.00003476,-0.00004575,0.00006049,0.00
 001043,-0.00002023,0.00004337,-0.00014000,0.00001598,0.00004333,0.0000
 6803,-0.00001630,0.00000145,0.00002690,0.00012809,-0.00036175,0.000285
 75,-0.00033554,0.00008756,0.00019949,0.00052711,0.00057522,-0.00007576
 ,-0.00038602,-0.00095653,0.00038721,-0.00004530,-0.00019857,-0.0453901
 4,-0.01520560,-0.00523862,-0.00000288,-0.00028847,0.00047574,-0.000093
 47,-0.00008541,-0.00008371,-0.00011562,0.00017064,0.00002214,0.0002282
 6,-0.00002981,-0.00003311,-0.00000926,-0.00005530,-0.00004005,0.000060
 40,0.00009992,0.00006381,0.04821703,0.00005674,0.00013453,-0.00000349,
 -0.00003139,-0.00007592,-0.00006918,0.00000356,0.00001455,-0.00004891,
 0.00001445,-0.00000071,-0.00001011,0.00000619,-0.00000480,-0.00000204,
 0.00001116,0.00000361,0.00000300,0.00000225,0.00000393,0.00002061,0.00
 001514,-0.00071985,-0.00040676,0.00001316,0.00003470,0.00002659,0.0000
 3266,-0.00001888,-0.00001497,-0.00026395,0.00055276,0.00004054,-0.0000
 0944,-0.00005829,-0.00000361,-0.00003955,0.00001354,0.00000657,0.00001
 867,-0.00002320,-0.00000154,-0.00000798,0.00006250,-0.00000329,-0.0000
 0737,0.00001012,-0.00000349,0.00000178,0.00000968,-0.00000597,0.000210
 37,-0.00023794,-0.00013666,-0.00007330,0.00000309,0.00007225,0.0000048
 8,-0.00001976,-0.00000148,-0.00000878,0.00002572,0.00003303,-0.0000035
 4,-0.00003417,-0.00001514,-0.00000629,-0.00000337,0.00001661,-0.000001
 56,-0.00001631,0.00000006,0.00001783,-0.00000163,-0.00001072,-0.000015
 16,0.00000312,0.00000297,-0.00001190,-0.00000072,-0.00000295,-0.000101
 25,0.00027460,0.00000019,-0.00000193,0.00000403,-0.00002925,-0.0000113
 9,0.00000701,0.00000109,0.00000419,0.00000116,0.00000587,-0.00000487,0
 .00000265,-0.00000085,-0.00002657,0.00000826,0.00000731,0.00000194,0.0
 0001818,0.00000350,0.00001009,0.00000407,0.00001836,0.00000670,0.00000
 464,0.00000456,0.00002661,-0.00001587,-0.00000573,0.00001177,0.0000000
 6,0.00000855,0.00000064,-0.00000324,-0.00000206,0.00000265,-0.00000240
 ,0.00000193,-0.00001236,0.00000587,-0.00000112,-0.00000479,0.00002166,
 -0.00002568,-0.00003955,0.00005179,-0.00001276,0.00002837,-0.00011547,
 0.00004647,0.00000070,-0.00001740,0.00000873,-0.00001360,0.00000049,-0
 .00000312,0.00000720,-0.00000800,-0.00000777,-0.00000459,-0.00000515,0
 .00001884,-0.00001151,0.00003316,-0.00003204,-0.00000558,-0.00015810,-
 0.00002650,0.00009535,0.00017964,0.00007653,-0.00060481,0.00098900,0.0
 0057253,0.00010993,0.00051214,0.00085152,-0.00044698,-0.00339253,-0.00
 423005,-0.00005403,0.00052753,-0.00125090,-0.01408272,-0.25565095,-0.0
 7547505,0.00001965,0.00051085,0.00009437,-0.00006000,-0.00003181,0.000
 28625,0.00004154,-0.00020350,-0.00008019,-0.00001513,-0.00013122,-0.00
 015698,-0.00023950,0.00025185,0.00012873,0.00031312,0.00022650,0.00010
 469,0.01751303,0.29433847,0.00007868,0.00004531,-0.00001556,-0.0000615
 6,-0.00015797,-0.00010806,-0.00014322,-0.00007589,-0.00004646,0.000002
 39,-0.00000121,-0.00000527,0.00000658,-0.00000191,-0.00000387,0.000011
 24,0.00000572,-0.00000016,0.00000345,-0.00000013,0.00001189,-0.0005375
 8,-0.00044104,-0.00044567,0.00002585,0.00004707,0.00006549,-0.00001019
 ,-0.00001172,-0.00000591,0.00044553,0.00036987,0.00021322,-0.00002447,
 0.00000694,-0.00000817,-0.00002162,0.00000311,0.00000091,0.00002290,-0
 .00000014,0.00000555,-0.00001629,0.00002171,0.00002160,0.00000090,-0.0
 0000131,-0.00000186,0.00000843,0.00000236,-0.00000374,-0.00009817,-0.0
 0003436,-0.00014562,0.00009218,-0.00004658,0.00010305,0.00001308,-0.00
 000419,0.00002646,0.00007422,0.00010962,0.00006283,-0.00000138,-0.0000
 1785,0.00000822,-0.00000776,-0.00000248,0.00000754,0.00000158,-0.00001
 002,0.00000416,0.00001081,0.00000766,-0.00001104,-0.00001653,-0.000002
 46,0.00000098,-0.00001451,-0.00000442,-0.00001088,0.00008444,0.0000571
 0,0.00003866,-0.00000286,-0.00001984,-0.00007101,-0.00000149,0.0000016
 9,0.00000263,0.00000218,0.00000810,0.00000060,-0.00000769,0.00000309,0
 .00000592,0.00001145,0.00004415,-0.00000317,0.00000069,0.00000628,-0.0
 0000306,0.00000089,0.00000445,0.00000071,0.00001125,0.00001560,0.00000
 370,0.00000913,-0.00000877,-0.00001697,0.00001940,-0.00000183,0.000012
 45,0.00000730,0.00000801,0.00000087,0.00000295,-0.00000510,0.00000297,
 -0.00000529,0.00000139,-0.00000007,-0.00003281,-0.00000980,-0.00001457
 ,-0.00000232,-0.00001659,-0.00006054,-0.00000599,0.00017809,0.00010322
 ,0.00002430,-0.00001167,0.00001845,-0.00001333,-0.00000021,0.00000512,
 0.00005277,-0.00005325,0.00004792,0.00001417,0.00002341,-0.00003873,0.
 00009302,-0.00009645,-0.00001519,0.00003195,-0.00000371,0.00005454,-0.
 00028395,0.00012614,-0.00016946,0.00094627,-0.00011861,0.00247428,-0.0
 0066900,-0.00078741,0.00085148,-0.00191974,-0.02993864,-0.01590864,-0.
 00009274,-0.00020699,-0.00652751,-0.00550102,-0.07496149,-0.06961625,0
 .00048094,0.00058283,-0.00043158,-0.00018906,0.00000528,0.00036677,0.0
 0004326,0.00002467,-0.00005562,-0.00016104,-0.00165817,-0.00085685,-0.
 00005104,0.00023382,0.00000476,0.00018143,0.00029882,-0.00007187,0.005
 95670,0.08909260,0.08229679,-0.00013020,0.00001272,0.00004925,0.000072
 59,0.00004018,0.00018675,0.00020904,0.00009315,0.00008033,0.00000123,0
 .00001295,-0.00002560,-0.00000163,-0.00000429,0.00000370,-0.00000378,-
 0.00000428,0.00000089,-0.00000095,0.00000446,0.00000570,0.00082221,-0.
 00016674,0.00049869,-0.00001853,0.00004041,-0.00015389,0.00007378,0.00
 002319,0.00000404,-0.00097284,-0.00031316,-0.00067715,0.00003730,-0.00
 005940,-0.00000896,0.00003855,-0.00001843,-0.00000622,-0.00002039,0.00
 002134,0.00000459,0.00001135,-0.00005053,-0.00001852,-0.00001051,0.000
 00480,-0.00000172,-0.00001834,0.00000222,-0.00000702,0.00053770,-0.000
 03636,-0.00006555,-0.00023683,0.00013332,-0.00005336,-0.00005908,-0.00
 002381,-0.00004127,-0.00006348,-0.00001713,-0.00005484,-0.00000602,0.0
 0000583,-0.00002740,0.00001308,-0.00000432,-0.00000498,0.00000674,0.00
 001843,0.00000119,-0.00001312,-0.00001595,0.00000984,0.00003626,0.0000
 1675,-0.00003368,0.00000597,-0.00000782,0.00000713,-0.00019164,0.00016
 216,-0.00008300,-0.00001463,-0.00000715,0.00001852,-0.00000468,0.00000
 207,-0.00000761,-0.00000266,-0.00001681,0.00000348,0.00000361,-0.00000
 616,-0.00000162,-0.00006654,-0.00010191,0.00000863,-0.00001027,0.00001
 228,0.00000718,0.00001513,-0.00000308,0.00002024,-0.00003007,-0.000034
 27,-0.00000241,-0.00000222,0.00004457,-0.00000851,-0.00000605,0.000016
 31,0.00001076,-0.00001393,-0.00002483,-0.00000338,0.00000200,0.0000071
 9,0.00000319,0.00000200,0.00000676,0.00000402,0.00000700,0.00002680,0.
 00000644,0.00000602,-0.00002142,0.00003276,0.00003506,-0.00005650,-0.0
 0001650,-0.00000850,0.00001493,-0.00001356,0.00002435,-0.00001034,-0.0
 0000342,-0.00001364,0.00003036,-0.00000531,0.00000146,-0.00000241,-0.0
 0001090,0.00003430,-0.00002033,-0.00002565,-0.00000075,0.00003357,0.00
 000222,-0.00009195,0.00000815,0.00001297,-0.00020590,-0.00019974,-0.00
 117072,0.00028742,-0.00025088,0.00090093,-0.00297267,0.00199827,-0.002
 69241,0.00016781,-0.00005593,0.00034885,-0.19287380,0.10123023,-0.0618
 1714,-0.00007819,0.00001478,-0.00005870,-0.00007337,-0.00005079,0.0001
 7132,0.00021927,-0.00023995,0.00051283,0.00001243,-0.00004104,0.000281
 26,0.00054063,-0.00030180,-0.00010805,-0.00033442,0.00006712,-0.000091
 44,0.00028723,0.00125561,0.00048811,0.22179122,0.00003464,-0.00001027,
 0.00001426,-0.00003432,-0.00001400,-0.00011168,-0.00010082,0.00004833,
 -0.00003742,0.00000017,-0.00000404,0.00000619,-0.00000206,0.00000183,-
 0.00000241,0.00000119,0.00000169,-0.00000007,-0.00000021,-0.00000483,-
 0.00000687,-0.00065892,0.00000735,-0.00009529,0.00001198,-0.00002659,0
 .00009344,-0.00002829,-0.00000329,-0.00000309,0.00004866,-0.00005813,-
 0.00007924,-0.00002740,0.00002296,-0.00000608,-0.00000793,0.00001175,-
 0.00000116,0.00000687,-0.00000127,-0.00000928,-0.00002307,0.00000975,0
 .00000953,0.00000448,-0.00000707,0.00000289,0.00001485,-0.00000254,0.0
 0000329,-0.00040308,-0.00006467,0.00005700,0.00015126,-0.00001710,0.00
 000181,0.00003433,0.00003851,0.00000683,-0.00000341,-0.00002259,0.0000
 1112,0.00000080,-0.00000515,0.00001444,-0.00000077,-0.00000268,-0.0000
 0500,-0.00000423,-0.00000371,0.00000259,0.00000787,0.00000086,-0.00000
 404,-0.00000615,-0.00000321,0.00001527,-0.00000145,0.00000346,-0.00000
 959,0.00018807,-0.00009967,0.00007298,0.00000931,0.00000801,-0.0000320
 5,0.00000602,-0.00000071,0.00000355,0.00000476,0.00001343,-0.00000221,
 -0.00000533,0.00000706,0.00000165,0.00005690,0.00004449,0.00000885,0.0
 0000815,-0.00000658,-0.00000064,-0.00001368,-0.00000041,-0.00001486,0.
 00000934,0.00002039,-0.00000128,0.00000308,-0.00000246,0.00000027,-0.0
 0000127,-0.00000359,-0.00000008,0.00000774,0.00001357,0.00000350,0.000
 00014,-0.00000452,0.00000055,0.00000245,-0.00000613,-0.00000096,-0.000
 00918,-0.00000607,-0.00000266,0.00003302,-0.00004151,0.00000464,0.0000
 2724,0.00002237,0.00007078,0.00000404,-0.00000583,0.00000721,-0.000024
 65,-0.00000088,0.00000192,0.00001421,-0.00002392,0.00001510,0.00000703
 ,0.00000819,-0.00000425,-0.00005233,-0.00000510,0.00002692,0.00002266,
 0.00003011,0.00000261,-0.00002850,0.00001973,-0.00014064,0.00053528,0.
 00040726,0.00119377,0.00006571,0.00004703,-0.00007538,0.00198557,-0.00
 138671,0.00194055,-0.00025494,0.00011792,-0.00070911,0.10053325,-0.110
 55337,0.04124142,0.00014302,-0.00026456,0.00006575,-0.00006316,-0.0000
 0860,-0.00024335,-0.00045222,0.00034868,0.00032338,-0.00000101,-0.0000
 9198,-0.00004857,-0.00009628,0.00002572,-0.00051411,-0.00005669,-0.000
 03749,0.00001039,0.02600853,-0.02079939,0.00880805,-0.11811091,0.12548
 893,-0.00001827,0.00001584,0.00000170,0.00006510,-0.00000211,0.0001975
 2,-0.00000309,0.00015020,-0.00001531,-0.00000060,0.00000457,-0.0000119
 1,-0.00000063,-0.00000362,0.00000205,0.00000330,-0.00000224,0.00000101
 ,0.00000547,0.00000541,0.00001441,0.00106974,0.00020334,-0.00059868,-0
 .00002024,0.00002993,-0.00011475,0.00000702,-0.00000559,-0.00000004,0.
 00026639,-0.00026629,0.00035683,-0.00000274,-0.00001841,0.00000705,0.0
 0000569,-0.00000125,0.00000507,-0.00000686,0.00001299,0.00000992,0.000
 00009,0.00000249,-0.00001869,-0.00000595,0.00000667,0.00000002,-0.0000
 0924,0.00000123,-0.00000498,0.00013728,0.00002632,-0.00026843,0.000038
 93,-0.00003799,0.00014123,-0.00011346,-0.00003500,-0.00004000,0.000037
 72,-0.00004449,-0.00002019,-0.00000780,-0.00000053,-0.00000486,0.00000
 281,-0.00000752,-0.00000998,0.00000908,0.00000080,0.00000432,0.0000024
 5,-0.00000247,0.00000100,0.00001252,0.00001073,-0.00000417,0.00000841,
 -0.00001318,0.00000819,-0.00030096,0.00021144,0.00006654,0.00000257,-0
 .00008463,0.00006094,-0.00000008,0.00000182,-0.00000192,-0.00000258,-0
 .00001267,0.00000369,0.00000274,-0.00000341,-0.00000329,-0.00004535,-0
 .00005618,-0.00001135,-0.00001480,0.00000543,-0.00000205,0.00000972,-0
 .00000041,0.00001002,-0.00001190,-0.00001970,0.00000350,-0.00000424,0.
 00001503,-0.00000529,0.00000163,0.00001200,0.00000453,-0.00000545,-0.0
 0001399,-0.00000030,0.00000153,0.00000444,0.00000545,0.00000612,0.0000
 0213,0.00000177,0.00000764,0.00002064,0.00001105,0.00000931,-0.0000333
 2,0.00002283,0.00002213,-0.00002705,0.00005330,0.00000341,0.00000216,-
 0.00000135,0.00000943,-0.00000141,-0.00000371,-0.00000218,0.00001264,0
 .00001683,-0.00000030,-0.00001642,-0.00000004,-0.00000880,0.00000547,-
 0.00001006,0.00001208,0.00003375,0.00000873,-0.00005948,0.00000736,-0.
 00012991,-0.00353601,0.00257825,-0.00866271,-0.00066887,-0.00000797,0.
 00066606,-0.02306435,0.01525283,-0.01126163,-0.00012588,0.00044191,0.0
 0050183,-0.06128448,0.04061357,-0.06687711,0.00005169,0.00004028,-0.00
 006141,-0.00012322,-0.00014781,0.00033332,0.00070909,0.00007243,-0.000
 52220,0.00010256,0.00011535,0.00032818,0.00021413,-0.00060141,-0.00048
 923,-0.00005995,-0.00002993,-0.00004126,0.00762703,-0.00527867,0.00391
 153,0.07171534,-0.04816127,0.07844782,-0.00002728,-0.00000027,-0.00010
 807,-0.00005433,-0.00003944,-0.00010761,-0.00003301,-0.00009569,0.0000
 4903,-0.00001271,-0.00001708,0.00003098,-0.00000261,0.00000576,-0.0000
 0737,0.00000057,0.00000905,-0.00000389,-0.00000650,-0.00000125,-0.0000
 0672,0.00137915,0.00150280,-0.00134699,0.00000702,-0.00003953,0.000099
 75,0.00000728,-0.00004055,-0.00002807,-0.00262157,-0.00051048,-0.00094
 299,0.00002134,0.00000145,-0.00000190,0.00000996,0.00000711,0.00000539
 ,0.00000937,-0.00002491,0.00000324,0.00002761,0.00003283,0.00001003,0.
 00001052,-0.00000228,0.00000414,0.00000630,-0.00000500,0.00000099,-0.0
 0098361,0.00010387,0.00011010,0.00012875,-0.00002536,0.00003046,0.0000
 6643,0.00000733,0.00003056,-0.00001460,0.00002913,0.00000464,0.0000235
 5,0.00001027,0.00002287,0.00001703,0.00002939,0.00000577,-0.00000930,0
 .00000971,0.00003795,-0.00003094,-0.00002834,-0.00001528,0.00000309,-0
 .00002787,-0.00000059,-0.00000375,0.00000453,0.00000319,0.00011104,-0.
 00046822,0.00035968,-0.00002569,-0.00001979,0.00002632,-0.00000024,-0.
 00000226,0.00000566,-0.00000232,0.00001029,-0.00000544,-0.00000282,-0.
 00000172,-0.00000442,0.00007357,0.00007826,-0.00000380,0.00000486,-0.0
 0003091,-0.00000657,-0.00001249,-0.00000006,-0.00001781,0.00001978,0.0
 0002435,0.00000297,-0.00000105,-0.00003842,-0.00001037,0.00001617,-0.0
 0000977,-0.00000432,0.00001056,0.00002123,0.00000293,0.00000007,-0.000
 00497,-0.00000298,-0.00000471,-0.00000359,-0.00000145,-0.00000312,-0.0
 0002122,0.00002062,-0.00000896,0.00002967,-0.00000362,-0.00000641,0.00
 002165,-0.00003428,0.00000025,-0.00001057,-0.00000176,0.00000652,0.000
 01163,-0.00000167,-0.00000578,-0.00000606,-0.00001760,-0.00001203,0.00
 000350,-0.00000421,0.00002850,0.00001069,-0.00000009,-0.00002805,-0.00
 000108,0.00000289,0.00002562,-0.00009632,0.00007626,-0.00057558,-0.000
 35620,-0.00006464,0.00050646,-0.00008147,0.00083047,-0.00153201,-0.001
 40353,0.00453775,0.00009691,0.00025913,-0.00053010,-0.21841726,-0.0861
 1763,0.06985442,0.00005223,0.00027341,-0.00002592,0.00000313,-0.000094
 57,-0.00000674,0.00031027,-0.00010011,-0.00008461,0.00001892,-0.000052
 30,-0.00033301,-0.00028857,0.00002882,0.00008568,0.00056263,0.00011049
 ,0.00002880,-0.00336544,-0.00363658,0.00063226,-0.02675120,-0.00952033
 ,0.00732754,0.25127850,-0.00014993,-0.00004126,0.00007486,-0.00000539,
 -0.00001258,0.00009888,0.00006732,0.00015492,0.00012392,-0.00000570,0.
 00001384,0.00000881,-0.00000409,0.00000295,0.00000323,-0.00001455,-0.0
 0000283,-0.00000326,-0.00000357,0.00000070,-0.00001640,0.00037296,-0.0
 0026097,0.00144499,0.00000136,0.00003141,-0.00010716,0.00003787,0.0000
 3911,0.00002356,-0.00049058,-0.00016177,-0.00100366,0.00006666,0.00000
 989,-0.00003164,0.00004200,-0.00003258,-0.00001397,-0.00003370,0.00000
 335,-0.00000513,0.00002050,-0.00010167,0.00000247,-0.00000419,-0.00000
 505,-0.00000007,-0.00002285,-0.00000526,0.00000407,0.00050992,0.000114
 16,-0.00002333,-0.00022602,0.00008041,-0.00006078,-0.00003865,-0.00003
 065,0.00002531,0.00002252,-0.00000938,-0.00007441,0.00001275,0.0000121
 9,-0.00003493,0.00001939,0.00001174,-0.00000183,-0.00001259,0.00000940
 ,-0.00000600,-0.00001755,-0.00000685,0.00000455,0.00003212,0.00001175,
 -0.00002317,0.00000029,-0.00000182,0.00000684,-0.00001796,-0.00010743,
 -0.00004001,0.00000299,0.00001457,-0.00001654,-0.00000238,-0.00001129,
 -0.00000495,-0.00000970,-0.00002009,-0.00000346,0.00000580,-0.00000683
 ,0.00000072,-0.00000560,-0.00006455,0.00001850,-0.00001270,-0.00000573
 ,0.00000383,0.00001078,-0.00000296,0.00000270,-0.00002132,-0.00002970,
 -0.00000697,-0.00003383,0.00003726,-0.00001598,0.00000282,0.00000421,-
 0.00000054,-0.00000991,-0.00001659,-0.00000223,0.00000159,0.00000277,-
 0.00000601,0.00000715,-0.00000159,0.00000270,0.00000210,0.00001002,0.0
 0001520,-0.00000839,0.00000030,0.00002273,0.00004548,-0.00000292,-0.00
 004403,-0.00000738,0.00001844,-0.00001633,0.00003894,-0.00000707,-0.00
 000605,-0.00001042,0.00002296,-0.00002385,0.00000189,0.00002408,-0.000
 04435,0.00009208,-0.00005717,-0.00003018,-0.00000851,0.00009537,0.0000
 1881,-0.00017081,-0.00010989,0.00009147,-0.00024832,-0.00012099,-0.000
 33071,0.00001573,0.00039660,0.00059516,-0.00140346,-0.00059199,0.00264
 523,0.00050779,0.00042228,-0.00074066,-0.08624053,-0.08711123,0.033927
 18,0.00010013,0.00020337,-0.00009018,-0.00013682,0.00019158,0.00006068
 ,0.00007848,-0.00007352,-0.00000854,-0.00004833,-0.00016260,-0.0000215
 3,0.00011453,-0.00005202,-0.00000898,-0.00006578,-0.00006385,-0.000573
 53,-0.02795932,-0.01709487,0.00856928,0.01491756,0.00683125,-0.0049825
 2,0.10029937,0.09761669,0.00027258,-0.00010855,-0.00014441,0.00002731,
 0.00010377,-0.00019080,-0.00029052,0.00020256,-0.00013987,-0.00001723,
 -0.00001722,0.00000490,0.00001001,-0.00000243,-0.00000559,0.00000842,0
 .00000299,0.00000113,0.00000458,-0.00000255,0.00000950,0.00037089,0.00
 275793,-0.00248079,-0.00001945,-0.00010688,0.00021102,-0.00006664,-0.0
 0005640,-0.00000931,-0.00040533,-0.00143691,0.00092643,-0.00002996,0.0
 0010746,0.00002541,0.00000544,-0.00002063,-0.00001617,0.00005343,0.000
 02357,0.00000249,-0.00000458,0.00002223,0.00003006,0.00002364,-0.00001
 991,-0.00001227,0.00002969,-0.00000840,-0.00000895,-0.00154033,0.00017
 842,0.00022805,0.00060945,-0.00022253,0.00010518,0.00009007,0.00002587
 ,0.00006111,-0.00001526,-0.00013395,0.00009182,-0.00001950,-0.00000506
 ,0.00004940,-0.00000883,-0.00000333,-0.00000218,0.00001474,-0.00001121
 ,0.00000678,0.00000872,0.00001537,-0.00001439,-0.00002913,-0.00001163,
 0.00004145,-0.00000168,0.00000390,-0.00000334,0.00031969,-0.00071960,0
 .00023328,-0.00000588,-0.00003467,0.00003099,0.00001500,-0.00000484,0.
 00000441,-0.00000174,0.00000880,0.00000071,-0.00000439,-0.00000447,-0.
 00000085,0.00004641,0.00004744,-0.00001372,-0.00001635,-0.00001741,-0.
 00003688,-0.00000702,-0.00000729,-0.00002347,0.00003581,0.00001935,0.0
 0001707,-0.00006402,-0.00005285,0.00003634,-0.00000262,-0.00001222,-0.
 00004474,0.00001073,0.00001984,0.00000657,-0.00000170,-0.00000127,-0.0
 0000254,0.00001120,-0.00000511,0.00000181,-0.00001599,-0.00003843,0.00
 001385,0.00004481,0.00000146,-0.00001227,-0.00001979,0.00000668,0.0000
 2560,0.00001469,-0.00003628,0.00000466,-0.00003134,0.00001144,0.000020
 20,0.00000039,-0.00002742,0.00000514,-0.00000840,-0.00001443,0.0000097
 1,-0.00001083,-0.00000677,0.00003423,-0.00001887,-0.00004553,-0.000026
 21,0.00004161,0.00009821,-0.00004902,-0.00040866,-0.00084118,0.0020040
 1,0.00039507,0.00031893,-0.00661951,0.02695238,0.01272616,-0.01510341,
 0.00033615,0.00095182,0.00097744,0.06906071,0.03378921,-0.06911791,-0.
 00022105,-0.00024789,-0.00003721,0.00151421,0.00078051,-0.00083430,-0.
 00028024,-0.00003887,0.00000119,-0.00007216,0.00014053,0.00034903,-0.0
 0003391,-0.00001043,-0.00005058,-0.00024355,-0.00074247,-0.00053074,-0
 .00780178,-0.00419581,0.00393808,-0.00810068,-0.00371985,0.00398858,-0
 .08050843,-0.03937179,0.08203380\\0.00000431,-0.00001922,0.00001850,-0
 .00000043,-0.00001967,0.00000359,0.00511905,0.00331524,0.03327580,0.00
 000206,-0.00000569,-0.00001024,-0.00000297,-0.00000563,-0.00000366,-0.
 00000139,-0.00000165,0.00000535,-0.00000060,-0.00000063,-0.00000309,0.
 00001593,-0.00000936,0.00000148,0.00000262,0.00000261,-0.00000215,-0.0
 0000329,0.00000866,0.00002171,0.02481660,-0.00398590,-0.00676446,-0.00
 000276,0.00000278,0.00000299,0.00001886,-0.00000064,-0.00001596,-0.000
 00431,-0.00000342,-0.00000644,0.00000023,0.00000758,-0.00000173,-0.000
 00887,0.00000117,0.00000541,0.00000024,0.00000174,0.00000052,-0.047029
 36,0.01215441,0.01034377,0.02451589,-0.00736690,-0.01834705,-0.0000300
 4,0.00001805,-0.00002058,0.00441595,0.00409798,-0.01631840,0.00000131,
 0.00000415,0.00000445,-0.00000506,-0.00000154,-0.00001322,0.00000295,0
 .00000208,0.00000398,-0.00000135,0.00000839,-0.00000017,0.00000385,0.0
 0000604,-0.00000175,-0.00000414,-0.00000096,-0.00000515,-0.00972150,-0
 .00587145,-0.00204925,0.00000003,0.00000033,-0.00000035,-0.00000108,0.
 00000536,0.00000060,-0.00000208,-0.00000294,0.00000005,0.00000349,-0.0
 0000060,0.00000659,-0.00213288,-0.00231679,-0.00014233,0.00001496,-0.0
 0001242,0.00000435,0.00000274,0.00000184,-0.00000797,-0.00000030,0.000
 00051,-0.00000058,-0.00000493,-0.00000082,-0.00000439,0.00000003,0.000
 00185,0.00000122,-0.00000230,-0.00000297,0.00000200,-0.00000012,-0.000
 00084,0.00000103,0.00000068,-0.00000093,0.00000012,0.00000751,-0.00000
 270,0.00001073,-0.00000995,-0.00000739,0.00001121,0.00000610,0.0000027
 7,-0.00000086,0.00000150,-0.00000428,-0.00000178,0.00000658,0.00000111
 ,-0.00000373,0.00000287,0.00000350,-0.00000272,0.00000269,-0.00000092,
 -0.00000406,0.00000006,-0.00000182,-0.00000120,-0.00000314,-0.00000116
 ,0.00000034,-0.00000177,0.00000538,0.00000180,0.00000439,-0.00000677,0
 .00000354,0.00000296,-0.00000480,-0.00000284,-0.00000266,0.00000484,0.
 00000605,-0.00000760,-0.00000225,-0.00000856,0.00000233,-0.00000746,0.
 00000218,0.00000127,0.00000303,0.00000185,-0.00000057,0.00000029,-0.00
 000071,-0.00000149,0.00000046,0.00000031,0.00000208,0.00000136,0.00000
 162,0.00000330,-0.00000222,0.00000465,-0.00000009,0.00000314,0.0000003
 5,-0.00000064,0.00000266,0.00000010,0.00000149,0.00000174,-0.00000144,
 0.00000077,0.00000169,-0.00000141\\\@
 The archive entry for this job was punched.


 MOST BUREAUCRACIES FUNCTION LIKE A SEPTIC TANK.
 THE LARGE CHUNKS RISE TO THE TOP.
 Job cpu time:       0 days  0 hours  0 minutes  0.4 seconds.
 Elapsed time:       0 days  0 hours  0 minutes  8.1 seconds.
 File lengths (MBytes):  RWF=      6 Int=      0 D2E=      0 Chk=      2 Scr=      1
 Normal termination of Gaussian 16 at Mon Oct 14 19:19:50 2024.
