%chk=2-modfreq.chk
#p freq external='./xtb.sh'

Generate automatically by rxnb

0 1
Fe           2.193560       -0.480640       -0.721290
C           -0.794210       -0.979720        2.499480
Pd           0.356380        0.593260        0.560550
C            2.550380        2.237360       -0.597820
H            4.334550       -1.816310       -1.521200
H            4.658120        0.133780        0.209550
H            2.671940       -0.093290        2.066090
C           -2.196000        0.400150       -0.283740
O           -0.855390       -1.693720        3.485340
C            2.009320        1.254420       -1.568960
O           -1.831210        1.379310       -1.019120
C            0.841650       -0.589630       -2.117080
C            2.136930       -0.743240       -2.639140
C            2.874570        0.399830       -2.286320
H            0.085010       -1.343980       -2.153810
H            2.524120       -1.622490       -3.100700
H            3.927100        0.528120       -2.407030
H           -0.571170        1.177020       -1.362830
C            0.690110        0.712180       -1.565720
C           -1.571110       -1.422580        1.203080
O           -0.152120        0.122300        2.442980
C            1.981310       -1.736550        0.791800
C            2.540590       -2.347500       -0.338450
C            3.717820       -1.644280       -0.669650
C            3.875510       -0.590910        0.252870
C            2.811010       -0.649720        1.164570
H            1.154390       -2.081810        1.370790
N           -1.318810       -0.422440        0.208220
H           -2.634150       -1.478520        1.470150
H            3.566610        1.890460       -0.408480
H            2.589720        3.272720       -0.963350
H            2.096470       -3.121030       -0.923250
N            1.793610        2.171980        0.668390
C            0.735760        3.194290        0.685270
C            2.680330        2.415480        1.798690
H            1.171480        4.205190        0.712300
H            0.112640        3.114420       -0.210080
H            0.112070        3.060940        1.578660
H            3.030500        3.456420        1.812870
H            2.146350        2.214470        2.727550
H            3.547930        1.764170        1.736600
C           -1.082340       -2.781450        0.675300
C           -2.162250       -3.594090       -0.039670
C           -2.612720       -2.958800       -1.349040
H           -0.714230       -3.366390        1.521310
H           -0.260190       -2.578120       -0.026080
H           -1.763070       -4.591010       -0.245280
H           -3.022510       -3.713990        0.621610
H           -1.766320       -2.827920       -2.021210
H           -3.349070       -3.588450       -1.844650
H           -3.060590       -1.987540       -1.165820
O           -3.489440        0.121120       -0.070420
C           -5.818060        0.313970       -0.041530
C           -4.541200        0.970240       -0.569900
C           -4.395150        2.383580       -0.005400
C           -4.541780        0.980450       -2.099240
H           -5.894540       -0.703880       -0.415220
H           -5.796580        0.280330        1.044590
H           -6.688090        0.878300       -0.363780
H           -4.329560        2.343060        1.080140
H           -5.257550        2.982100       -0.285390
H           -3.496500        2.853550       -0.396410
H           -4.612710       -0.036810       -2.478970
H           -5.392650        1.551850       -2.459600
H           -3.627040        1.431670       -2.473840


