%chk=4-tsfreq.chk
#p freq external='./xtb.sh'

Generate automatically by rxnb

0 1
Fe          -2.241360        0.527260       -0.743740
C            0.810450        0.889930        2.608770
Pd          -0.353850       -0.637980        0.533550
C           -2.701730       -2.165680       -0.551180
H           -4.161430        2.107870       -1.600590
H           -4.802740        0.085990       -0.047000
H           -2.957590       -0.025620        1.944300
C            2.284520       -0.370770       -0.256930
O            0.959580        1.593560        3.591980
C           -2.096640       -1.231080       -1.533110
O            1.946400       -1.319900       -1.121440
C           -0.804130        0.548350       -2.047230
C           -2.057520        0.739480       -2.656150
C           -2.871060       -0.360800       -2.327970
H           -0.023980        1.280470       -2.054730
H           -2.377130        1.623330       -3.159480
H           -3.917170       -0.441590       -2.521080
H            0.900720       -1.227930       -1.251810
C           -0.770650       -0.718800       -1.398430
C            1.560890        1.342710        1.281680
O            0.122510       -0.168990        2.543910
C           -2.026330        1.644790        0.881280
C           -2.436140        2.384040       -0.245580
C           -3.645750        1.832120       -0.709850
C           -3.969560        0.734810        0.111040
C           -2.975900        0.622170        1.098040
H           -1.235380        1.876800        1.560330
N            1.362320        0.317940        0.301060
H            2.620230        1.467140        1.536910
H           -3.640630       -1.690800       -0.267020
H           -2.908580       -3.174610       -0.936340
H           -1.888810        3.156860       -0.737150
N           -1.827840       -2.234060        0.632040
C           -0.826980       -3.298390        0.463050
C           -2.586990       -2.520860        1.842910
H           -1.300600       -4.290630        0.529680
H           -0.348930       -3.216870       -0.515330
H           -0.070010       -3.221960        1.254390
H           -2.898090       -3.573780        1.879110
H           -1.969040       -2.304480        2.714980
H           -3.484290       -1.908970        1.879490
C            0.978450        2.657200        0.737800
C            1.994960        3.548100        0.022020
C            2.500840        2.959550       -1.288990
H            0.570800        3.223200        1.578090
H            0.167820        2.390070        0.043850
H            1.518160        4.510210       -0.182870
H            2.841090        3.735830        0.685850
H            1.670270        2.751960       -1.961520
H            3.172750        3.657940       -1.784030
H            3.042330        2.036090       -1.110180
O            3.563960       -0.089660       -0.048470
C            5.894000       -0.219600       -0.026960
C            4.641520       -0.868120       -0.617920
C            4.534430       -2.325980       -0.173070
C            4.646530       -0.744990       -2.141540
H            5.940630        0.827740       -0.313370
H            5.865870       -0.277750        1.057770
H            6.783170       -0.727150       -0.388160
H            4.442930       -2.376000        0.910020
H            5.427730       -2.865330       -0.474860
H            3.668420       -2.803340       -0.623830
H            4.670160        0.303400       -2.431370
H            5.528130       -1.238490       -2.540530
H            3.761470       -1.207750       -2.569190


