65
charge 0 multiplicity 1
Fe           2.19356  -0.48064  -0.72129
C           -0.79421  -0.97972   2.49948
Pd           0.35638   0.59326   0.56055
C            2.55038   2.23736  -0.59782
H            4.33455  -1.81631  -1.52120
H            4.65812   0.13378   0.20955
H            2.67194  -0.09329   2.06609
C           -2.19600   0.40015  -0.28374
O           -0.85539  -1.69372   3.48534
C            2.00932   1.25442  -1.56896
O           -1.83121   1.37931  -1.01912
C            0.84165  -0.58963  -2.11708
C            2.13693  -0.74324  -2.63914
C            2.87457   0.39983  -2.28632
H            0.08501  -1.34398  -2.15381
H            2.52412  -1.62249  -3.10070
H            3.92710   0.52812  -2.40703
H           -0.57117   1.17702  -1.36283
C            0.69011   0.71218  -1.56572
C           -1.57111  -1.42258   1.20308
O           -0.15212   0.12230   2.44298
C            1.98131  -1.73655   0.79180
C            2.54059  -2.34750  -0.33845
C            3.71782  -1.64428  -0.66965
C            3.87551  -0.59091   0.25287
C            2.81101  -0.64972   1.16457
H            1.15439  -2.08181   1.37079
N           -1.31881  -0.42244   0.20822
H           -2.63415  -1.47852   1.47015
H            3.56661   1.89046  -0.40848
H            2.58972   3.27272  -0.96335
H            2.09647  -3.12103  -0.92325
N            1.79361   2.17198   0.66839
C            0.73576   3.19429   0.68527
C            2.68033   2.41548   1.79869
H            1.17148   4.20519   0.71230
H            0.11264   3.11442  -0.21008
H            0.11207   3.06094   1.57866
H            3.03050   3.45642   1.81287
H            2.14635   2.21447   2.72755
H            3.54793   1.76417   1.73660
C           -1.08234  -2.78145   0.67530
C           -2.16225  -3.59409  -0.03967
C           -2.61272  -2.95880  -1.34904
H           -0.71423  -3.36639   1.52131
H           -0.26019  -2.57812  -0.02608
H           -1.76307  -4.59101  -0.24528
H           -3.02251  -3.71399   0.62161
H           -1.76632  -2.82792  -2.02121
H           -3.34907  -3.58845  -1.84465
H           -3.06059  -1.98754  -1.16582
O           -3.48944   0.12112  -0.07042
C           -5.81806   0.31397  -0.04153
C           -4.54120   0.97024  -0.56990
C           -4.39515   2.38358  -0.00540
C           -4.54178   0.98045  -2.09924
H           -5.89454  -0.70388  -0.41522
H           -5.79658   0.28033   1.04459
H           -6.68809   0.87830  -0.36378
H           -4.32956   2.34306   1.08014
H           -5.25755   2.98210  -0.28539
H           -3.49650   2.85355  -0.39641
H           -4.61271  -0.03681  -2.47897
H           -5.39265   1.55185  -2.45960
H           -3.62704   1.43167  -2.47384