      -----------------------------------------------------------      
     |                   =====================                   |     
     |                           x T B                           |     
     |                   =====================                   |     
     |                         S. Grimme                         |     
     |          Mulliken Center for Theoretical Chemistry        |     
     |                    University of Bonn                     |     
      -----------------------------------------------------------      

   * xtb version 6.6.1 (8d0f1dd) compiled by 'stahn@M-Bot' on 2023-08-01

   xtb is free software: you can redistribute it and/or modify it under
   the terms of the GNU Lesser General Public License as published by
   the Free Software Foundation, either version 3 of the License, or
   (at your option) any later version.
   
   xtb is distributed in the hope that it will be useful,
   but WITHOUT ANY WARRANTY; without even the implied warranty of
   MERCHANTABILITY or FITNESS FOR A PARTICULAR PURPOSE.  See the
   GNU Lesser General Public License for more details.
   
   Cite this work as:
   * C. Bannwarth, E. Caldeweyher, S. Ehlert, A. Hansen, P. Pracht,
     J. Seibert, S. Spicher, S. Grimme, WIREs Comput. Mol. Sci., 2020, 11,
     e01493. DOI: 10.1002/wcms.1493
   
   for GFN2-xTB:
   * C. Bannwarth, S. Ehlert and S. Grimme., J. Chem. Theory Comput., 2019,
     15, 1652-1671. DOI: 10.1021/acs.jctc.8b01176
   for GFN1-xTB:
   * S. Grimme, C. Bannwarth, P. Shushkov, J. Chem. Theory Comput., 2017,
     13, 1989-2009. DOI: 10.1021/acs.jctc.7b00118
   for GFN0-xTB:
   * P. Pracht, E. Caldeweyher, S. Ehlert, S. Grimme, ChemRxiv, 2019, preprint.
     DOI: 10.26434/chemrxiv.8326202.v1
   for GFN-FF:
   * S. Spicher and S. Grimme, Angew. Chem. Int. Ed., 2020, 59, 15665-15673.
     DOI: 10.1002/anie.202004239
   
   for ALPB and GBSA implicit solvation:
   * S. Ehlert, M. Stahn, S. Spicher, S. Grimme, J. Chem. Theory Comput.,
     2021, 17, 4250-4261. DOI: 10.1021/acs.jctc.1c00471
   
   for DFT-D4:
   * E. Caldeweyher, C. Bannwarth and S. Grimme, J. Chem. Phys., 2017,
     147, 034112. DOI: 10.1063/1.4993215
   * E. Caldeweyher, S. Ehlert, A. Hansen, H. Neugebauer, S. Spicher,
     C. Bannwarth and S. Grimme, J. Chem. Phys., 2019, 150, 154122.
     DOI: 10.1063/1.5090222
   * E. Caldeweyher, J.-M. Mewes, S. Ehlert and S. Grimme, Phys. Chem. Chem. Phys.
     2020, 22, 8499-8512. DOI: 10.1039/D0CP00502A
   
   for sTDA-xTB:
   * S. Grimme and C. Bannwarth, J. Chem. Phys., 2016, 145, 054103.
     DOI: 10.1063/1.4959605
   
   in the mass-spec context:
   * V. Asgeirsson, C. Bauer and S. Grimme, Chem. Sci., 2017, 8, 4879.
     DOI: 10.1039/c7sc00601b
   * J. Koopman and S. Grimme, ACS Omega 2019, 4, 12, 15120-15133.
     DOI: 10.1021/acsomega.9b02011
   
   for metadynamics refer to:
   * S. Grimme, J. Chem. Theory Comput., 2019, 155, 2847-2862
     DOI: 10.1021/acs.jctc.9b00143
   
   for SPH calculations refer to:
   * S. Spicher and S. Grimme, J. Chem. Theory Comput., 2021, 17, 1701-1714
     DOI: 10.1021/acs.jctc.0c01306
   
   with help from (in alphabetical order)
   P. Atkinson, C. Bannwarth, F. Bohle, G. Brandenburg, E. Caldeweyher
   M. Checinski, S. Dohm, S. Ehlert, S. Ehrlich, I. Gerasimov, C. Hölzer
   A. Katbashev, J. Koopman, C. Lavigne, S. Lehtola, F. März, M. Müller,
   F. Musil, H. Neugebauer, J. Pisarek, C. Plett, P. Pracht, F. Pultar,
   J. Seibert, P. Shushkov, S. Spicher, M. Stahn, M. Steiner, T. Strunk,
   J. Stückrath, T. Rose, and J. Unsleber
   
 * started run on 2024/10/14 at 08:38:43.409     

           -------------------------------------------------
          |                Calculation Setup                |
           -------------------------------------------------

          program call               : xtb tsopted.xyz --gfn 2 --charge 0 --vfukui
          coordinate file            : tsopted.xyz
          omp threads                :                    12

   ID    Z sym.   atoms
    1   26 Fe     1
    2    6 C      2, 4, 8, 10, 12-14, 19, 20, 22-26, 34, 35, 42-48, 57-60
    3   46 Pd     3
    4    1 H      5-7, 15-18, 27, 29-32, 36-41, 49-55, 61-69
    5    8 O      9, 11, 21, 56
    6    7 N      28, 33

molecular fragmentation (1/2 indicates fragments):
111111111111111111111111111111111111121111111111111111211111111111111
# atoms in fragment 1/2:    67     2
 fragment masses (1/2) :      610.82        2.02
CMA distance (Bohr)    :   2.882
constraining FC (au)   :  0.0500

           -------------------------------------------------
          |                 G F N 2 - x T B                 |
           -------------------------------------------------

        Reference                      10.1021/acs.jctc.8b01176
      * Hamiltonian:
        H0-scaling (s, p, d)           1.850000    2.230000    2.230000
        zeta-weighting                 0.500000
      * Dispersion:
        s8                             2.700000
        a1                             0.520000
        a2                             5.000000
        s9                             5.000000
      * Repulsion:
        kExp                           1.500000    1.000000
        rExp                           1.000000
      * Coulomb:
        alpha                          2.000000
        third order                    shell-resolved
        anisotropic                    true
        a3                             3.000000
        a5                             4.000000
        cn-shift                       1.200000
        cn-exp                         4.000000
        max-rad                        5.000000


          ...................................................
          :                      SETUP                      :
          :.................................................:
          :  # basis functions                 186          :
          :  # atomic orbitals                 184          :
          :  # shells                          106          :
          :  # electrons                       194          :
          :  max. iterations                   250          :
          :  Hamiltonian                  GFN2-xTB          :
          :  restarted?                      false          :
          :  GBSA solvation                  false          :
          :  PC potential                    false          :
          :  electronic temp.          300.0000000     K    :
          :  accuracy                    1.0000000          :
          :  -> integral cutoff          0.2500000E+02      :
          :  -> integral neglect         0.1000000E-07      :
          :  -> SCF convergence          0.1000000E-05 Eh   :
          :  -> wf. convergence          0.1000000E-03 e    :
          :  Broyden damping             0.4000000          :
          ...................................................

 iter      E             dE          RMSdq      gap      omega  full diag
   1   -106.1755238 -0.106176E+03  0.718E+00    1.03       0.0  T
   2   -106.4920837 -0.316560E+00  0.444E+00    1.42       1.0  T
   3   -106.5334284 -0.413447E-01  0.326E+00    1.67       1.0  T
   4   -106.5533211 -0.198928E-01  0.210E+00    1.63       1.0  T
   5   -106.5596616 -0.634043E-02  0.128E+00    1.67       1.0  T
   6   -106.5624796 -0.281804E-02  0.761E-01    1.63       1.0  T
   7   -106.5645974 -0.211780E-02  0.374E-01    1.63       1.0  T
   8   -106.5688868 -0.428935E-02  0.121E-01    1.64       1.0  T
   9   -106.5689471 -0.603651E-04  0.900E-02    1.63       1.0  T
  10   -106.5690053 -0.581748E-04  0.446E-02    1.63       1.0  T
  11   -106.5690120 -0.674273E-05  0.239E-02    1.63       1.0  T
  12   -106.5690178 -0.574978E-05  0.123E-02    1.63       1.0  T
  13   -106.5690199 -0.207126E-05  0.502E-03    1.63       2.4  T
  14   -106.5690200 -0.119177E-06  0.239E-03    1.63       5.0  T
  15   -106.5690201 -0.860574E-07  0.877E-04    1.63      13.7  T
  16   -106.5690201 -0.324268E-08  0.451E-04    1.63      26.7  T

   *** convergence criteria satisfied after 16 iterations ***

         #    Occupation            Energy/Eh            Energy/eV
      -------------------------------------------------------------
         1        2.0000           -0.8813441             -23.9826
       ...           ...                  ...                  ...
        91        2.0000           -0.3548776              -9.6567
        92        2.0000           -0.3471504              -9.4464
        93        2.0000           -0.3467462              -9.4354
        94        2.0000           -0.3415785              -9.2948
        95        2.0000           -0.3321906              -9.0394
        96        2.0000           -0.3292663              -8.9598
        97        2.0000           -0.3136365              -8.5345 (HOMO)
        98                         -0.2536499              -6.9022 (LUMO)
        99                         -0.2488475              -6.7715
       100                         -0.2339904              -6.3672
       101                         -0.2088543              -5.6832
       102                         -0.2042568              -5.5581
       ...                                ...                  ...
       184                          5.9814591             162.7638
      -------------------------------------------------------------
                  HL-Gap            0.0599866 Eh            1.6323 eV
             Fermi-level           -0.2836432 Eh           -7.7183 eV

 SCC (total)                   0 d,  0 h,  0 min,  0.113 sec
 SCC setup                      ...        0 min,  0.004 sec (  3.923%)
 Dispersion                     ...        0 min,  0.001 sec (  1.144%)
 classical contributions        ...        0 min,  0.000 sec (  0.063%)
 integral evaluation            ...        0 min,  0.008 sec (  6.993%)
 iterations                     ...        0 min,  0.084 sec ( 74.058%)
 molecular gradient             ...        0 min,  0.010 sec (  9.239%)
 printout                       ...        0 min,  0.005 sec (  4.534%)

         :::::::::::::::::::::::::::::::::::::::::::::::::::::
         ::                     SUMMARY                     ::
         :::::::::::::::::::::::::::::::::::::::::::::::::::::
         :: total energy            -105.118410889464 Eh    ::
         :: gradient norm              0.000132376695 Eh/a0 ::
         :: HOMO-LUMO gap              1.632319177464 eV    ::
         ::.................................................::
         :: SCC energy              -106.569020073009 Eh    ::
         :: -> isotropic ES           -0.114947745978 Eh    ::
         :: -> anisotropic ES         -0.022165983643 Eh    ::
         :: -> anisotropic XC          0.025572721653 Eh    ::
         :: -> dispersion             -0.114428115143 Eh    ::
         :: repulsion energy           1.445414523008 Eh    ::
         :: add. restraining           0.000000000000 Eh    ::
         :: total charge              -0.000000000000 e     ::
         :::::::::::::::::::::::::::::::::::::::::::::::::::::


Fukui index Calculation

 iter      E             dE          RMSdq      gap      omega  full diag
   1   -106.6833863 -0.106683E+03  0.796E-01    0.13       0.0  T
   2   -106.6412812  0.421052E-01  0.153E+00    0.40       1.0  T
   3   -106.7237078 -0.824266E-01  0.774E-01    0.20       1.0  T
   4   -106.7345833 -0.108755E-01  0.572E-01    0.12       1.0  T
   5   -106.7438614 -0.927806E-02  0.224E-01    0.05       1.0  T
   6   -106.7440525 -0.191138E-03  0.182E-01    0.02       1.0  T
   7   -106.7409416  0.311086E-02  0.274E-01    0.09       1.0  T
   8   -106.7437670 -0.282541E-02  0.144E-01    0.02       1.0  T
   9   -106.7445400 -0.772944E-03  0.445E-02    0.04       1.0  T
  10   -106.7443838  0.156136E-03  0.606E-02    0.03       1.0  T
  11   -106.7445379 -0.154054E-03  0.169E-02    0.04       1.0  T
  12   -106.7445494 -0.114798E-04  0.115E-02    0.04       1.0  T
  13   -106.7445550 -0.566602E-05  0.326E-03    0.04       3.7  T
  14   -106.7445541  0.988745E-06  0.534E-03    0.04       2.3  T
  15   -106.7445549 -0.797638E-06  0.314E-03    0.04       3.8  T
  16   -106.7445553 -0.407955E-06  0.569E-04    0.04      21.1  T
  17   -106.7445552  0.171856E-07  0.650E-04    0.04      18.5  T
     SCC iter.                  ...        0 min,  0.112 sec
     gradient                   ...        0 min,  0.012 sec

 iter      E             dE          RMSdq      gap      omega  full diag
   1   -106.1270272 -0.106127E+03  0.939E-01    1.63       0.0  T
   2   -105.9689252  0.158102E+00  0.184E+00    0.91       1.0  T
   3   -106.1698826 -0.200957E+00  0.673E-01    1.60       1.0  T
   4   -106.1728978 -0.301520E-02  0.614E-01    1.60       1.0  T
   5   -106.1716742  0.122359E-02  0.608E-01    1.57       1.0  T
   6   -106.1770245 -0.535027E-02  0.306E-01    1.59       1.0  T
   7   -106.1754011  0.162333E-02  0.205E-01    1.59       1.0  T
   8   -106.1769736 -0.157246E-02  0.153E-01    1.60       1.0  T
   9   -106.1717758  0.519778E-02  0.261E-01    1.56       1.0  T
  10   -106.1782190 -0.644319E-02  0.636E-02    1.58       1.0  T
  11   -106.1772678  0.951184E-03  0.111E-01    1.58       1.0  T
  12   -106.1783985 -0.113067E-02  0.204E-02    1.59       1.0  T
  13   -106.1784105 -0.120049E-04  0.106E-02    1.58       1.1  T
  14   -106.1784113 -0.798002E-06  0.823E-03    1.58       1.5  T
  15   -106.1784122 -0.957995E-06  0.399E-03    1.58       3.0  T
  16   -106.1784131 -0.899709E-06  0.160E-03    1.58       7.5  T
  17   -106.1784131  0.211650E-07  0.138E-03    1.58       8.7  T
  18   -106.1784133 -0.136421E-06  0.393E-04    1.58      30.7  T
  19   -106.1784133  0.294321E-09  0.299E-04    1.58      40.2  T
     SCC iter.                  ...        0 min,  0.120 sec
     gradient                   ...        0 min,  0.011 sec

     #        f(+)     f(-)     f(0)
     1Fe     -0.106   -0.106   -0.106
     2C       0.003    0.001    0.002
     3Pd     -0.212   -0.185   -0.198
     4C       0.016    0.017    0.017
     5H      -0.036   -0.037   -0.037
     6H      -0.035   -0.036   -0.036
     7H      -0.026   -0.026   -0.026
     8C      -0.006   -0.004   -0.005
     9O      -0.044   -0.062   -0.053
    10C      -0.006   -0.004   -0.005
    11O      -0.020   -0.023   -0.022
    12C      -0.011   -0.006   -0.009
    13C      -0.004   -0.005   -0.004
    14C      -0.007   -0.005   -0.006
    15H      -0.035   -0.034   -0.035
    16H      -0.040   -0.039   -0.039
    17H      -0.037   -0.037   -0.037
    18H      -0.007   -0.003   -0.005
    19C      -0.001   -0.007   -0.004
    20C       0.009    0.000    0.004
    21O       0.000   -0.011   -0.005
    22C      -0.005   -0.012   -0.008
    23C      -0.011   -0.007   -0.009
    24C      -0.006   -0.006   -0.006
    25C      -0.009   -0.007   -0.008
    26C       0.006    0.007    0.006
    27H      -0.028   -0.026   -0.027
    28N       0.011    0.019    0.015
    29H      -0.029   -0.031   -0.030
    30H      -0.016   -0.017   -0.017
    31H      -0.038   -0.039   -0.038
    32H      -0.038   -0.036   -0.037
    33N       0.009    0.006    0.007
    34C       0.018    0.015    0.016
    35C       0.016    0.017    0.016
    36H      -0.031   -0.031   -0.031
    37H      -0.005   -0.005   -0.005
    38H      -0.014   -0.010   -0.012
    39H      -0.029   -0.029   -0.029
    40H      -0.013   -0.012   -0.013
    41H      -0.010   -0.011   -0.011
    42C       0.011    0.010    0.011
    43C      -0.009   -0.005   -0.007
    44C      -0.008   -0.008   -0.008
    45C      -0.011   -0.011   -0.011
    46C      -0.011   -0.008   -0.010
    47C       0.006    0.007    0.006
    48C       0.014    0.004    0.009
    49H      -0.017   -0.015   -0.016
    50H      -0.024   -0.026   -0.025
    51H      -0.027   -0.028   -0.027
    52H      -0.031   -0.032   -0.032
    53H      -0.027   -0.027   -0.027
    54H       0.006    0.005    0.005
    55H       0.021    0.019    0.020
    56O      -0.022   -0.018   -0.020
    57C       0.007    0.006    0.007
    58C       0.001    0.002    0.002
    59C       0.006    0.006    0.006
    60C       0.005    0.005    0.005
    61H      -0.002   -0.002   -0.002
    62H      -0.009   -0.008   -0.009
    63H      -0.016   -0.015   -0.016
    64H      -0.009   -0.009   -0.009
    65H      -0.016   -0.015   -0.016
    66H       0.001    0.001    0.001
    67H       0.005    0.004    0.005
    68H      -0.018   -0.017   -0.017
    69H       0.004    0.003    0.003
           -------------------------------------------------
          |                Property Printout                |
           -------------------------------------------------

    * Orbital Energies and Occupations

         #    Occupation            Energy/Eh            Energy/eV
      -------------------------------------------------------------
         1        2.0000           -0.8813441             -23.9826
       ...           ...                  ...                  ...
        85        2.0000           -0.3859815             -10.5031
        86        2.0000           -0.3825615             -10.4100
        87        2.0000           -0.3775900             -10.2747
        88        2.0000           -0.3748094             -10.1991
        89        2.0000           -0.3666467              -9.9770
        90        2.0000           -0.3655593              -9.9474
        91        2.0000           -0.3548776              -9.6567
        92        2.0000           -0.3471504              -9.4464
        93        2.0000           -0.3467462              -9.4354
        94        2.0000           -0.3415785              -9.2948
        95        2.0000           -0.3321906              -9.0394
        96        2.0000           -0.3292663              -8.9598
        97        2.0000           -0.3136365              -8.5345 (HOMO)
        98                         -0.2536499              -6.9022 (LUMO)
        99                         -0.2488475              -6.7715
       100                         -0.2339904              -6.3672
       101                         -0.2088543              -5.6832
       102                         -0.2042568              -5.5581
       103                         -0.1954749              -5.3191
       104                         -0.1613603              -4.3908
       105                         -0.1546017              -4.2069
       106                         -0.1504018              -4.0926
       107                         -0.1426777              -3.8825
       108                         -0.1297581              -3.5309
       ...                                ...                  ...
       184                          5.9814591             162.7638
      -------------------------------------------------------------
                  HL-Gap            0.0599866 Eh            1.6323 eV
             Fermi-level           -0.2836432 Eh           -7.7183 eV

     #   Z          covCN         q      C6AA      α(0)
     1  26 Fe      10.049     1.640   107.041    18.245
     2   6 C        2.763     0.365    20.805     7.470
     3  46 Pd       4.465    -0.302   381.741    35.683
     4   6 C        3.796    -0.031    21.125     6.545
     5   1 H        0.927     0.041     2.438     2.441
     6   1 H        0.927     0.040     2.444     2.445
     7   1 H        0.927     0.089     1.888     2.149
     8   6 C        2.687     0.381    20.548     7.418
     9   8 O        0.856    -0.502    23.830     6.545
    10   6 C        4.176    -0.098    22.272     6.703
    11   8 O        1.602    -0.440    21.679     6.284
    12   6 C        3.915    -0.154    23.400     6.875
    13   6 C        3.889    -0.159    23.517     6.894
    14   6 C        3.875    -0.162    23.592     6.906
    15   1 H        0.927     0.059     2.209     2.324
    16   1 H        0.927     0.047     2.359     2.402
    17   1 H        0.927     0.043     2.405     2.425
    18   1 H        0.831     0.344     0.598     1.213
    19   6 C        3.853    -0.226    24.966     7.107
    20   6 C        3.828     0.030    20.054     6.372
    21   8 O        1.516    -0.433    21.609     6.270
    22   6 C        3.874    -0.123    22.795     6.789
    23   6 C        3.881    -0.147    23.270     6.858
    24   6 C        3.909    -0.163    23.588     6.903
    25   6 C        3.916    -0.158    23.479     6.887
    26   6 C        3.937    -0.149    23.306     6.860
    27   1 H        0.927     0.093     1.851     2.127
    28   7 N        2.669    -0.211    25.604     7.515
    29   1 H        0.923     0.021     2.713     2.576
    30   1 H        0.925     0.055     2.261     2.352
    31   1 H        0.923     0.041     2.439     2.442
    32   1 H        0.927     0.070     2.081     2.256
    33   7 N        3.511    -0.044    22.092     6.981
    34   6 C        3.863    -0.041    21.269     6.558
    35   6 C        3.716    -0.050    21.596     6.639
    36   1 H        0.923     0.028     2.621     2.532
    37   1 H        0.924     0.082     1.961     2.190
    38   1 H        0.923     0.105     1.742     2.064
    39   1 H        0.923     0.029     2.600     2.521
    40   1 H        0.924     0.089     1.891     2.150
    41   1 H        0.925     0.052     2.295     2.369
    42   6 C        3.808    -0.076    21.945     6.668
    43   6 C        2.967     0.020    27.548     8.609
    44   6 C        2.928    -0.046    29.144     8.853
    45   6 C        2.919    -0.039    28.957     8.824
    46   6 C        2.918    -0.040    29.000     8.831
    47   6 C        2.943    -0.088    30.206     9.014
    48   6 C        3.060    -0.127    31.180     9.157
    49   1 H        0.924     0.073     2.052     2.240
    50   1 H        0.924     0.038     2.472     2.459
    51   1 H        0.925     0.023     2.692     2.566
    52   1 H        0.926     0.023     2.688     2.564
    53   1 H        0.926     0.023     2.688     2.564
    54   1 H        0.930     0.027     2.630     2.536
    55   1 H        1.606     0.052     2.284     2.359
    56   8 O        1.705    -0.280    18.640     5.829
    57   6 C        3.758    -0.120    22.852     6.815
    58   6 C        3.782     0.157    18.084     6.058
    59   6 C        3.755    -0.122    22.900     6.823
    60   6 C        3.755    -0.125    22.962     6.832
    61   1 H        0.925     0.057     2.240     2.340
    62   1 H        0.925     0.056     2.250     2.345
    63   1 H        0.925     0.049     2.338     2.391
    64   1 H        0.925     0.048     2.343     2.394
    65   1 H        0.925     0.044     2.392     2.419
    66   1 H        0.925     0.065     2.143     2.289
    67   1 H        0.925     0.051     2.304     2.374
    68   1 H        0.925     0.046     2.370     2.407
    69   1 H        0.925     0.060     2.195     2.317

 Mol. C6AA /au·bohr⁶  :      57565.449649
 Mol. C8AA /au·bohr⁸  :    1680798.601932
 Mol. α(0) /au        :        369.164160


Wiberg/Mayer (AO) data.
largest (>0.10) Wiberg bond orders for each atom

 ---------------------------------------------------------------------------
     #   Z sym  total        # sym  WBO       # sym  WBO       # sym  WBO
 ---------------------------------------------------------------------------
     1  26 Fe  -0.254 --    10 C    0.182    24 C    0.181    12 C    0.171
                            13 C    0.166    14 C    0.166    25 C    0.161
                            23 C    0.120    26 C    0.116
     2   6 C    3.940 --     9 O    1.619    21 O    1.361    20 C    0.880
     3  46 Pd   3.507 --    19 C    0.761    28 N    0.578    21 O    0.469
                            33 N    0.420    26 C    0.192    55 H    0.184
                            22 C    0.148    10 C    0.145    12 C    0.103
     4   6 C    3.974 --    10 C    1.012    33 N    0.973    30 H    0.961
                            31 H    0.955
     5   1 H    0.996 --    24 C    1.000
     6   1 H    0.997 --    25 C    0.981
     7   1 H    0.989 --    26 C    0.934
     8   6 C    3.934 --    28 N    1.522    11 O    1.167    56 O    1.112
     9   8 O    1.948 --     2 C    1.619    21 O    0.198
    10   6 C    3.969 --    14 C    1.261    19 C    1.215     4 C    1.012
                             1 Fe   0.182     3 Pd   0.145
    11   8 O    2.118 --     8 C    1.167    18 H    0.590    28 N    0.133
    12   6 C    3.977 --    13 C    1.310    19 C    1.256    15 H    0.970
                             1 Fe   0.171     3 Pd   0.103
    13   6 C    3.973 --    14 C    1.318    12 C    1.310    16 H    0.982
                             1 Fe   0.166
    14   6 C    3.973 --    13 C    1.318    10 C    1.261    17 H    0.991
                             1 Fe   0.166
    15   1 H    0.995 --    12 C    0.970
    16   1 H    0.995 --    13 C    0.982
    17   1 H    0.995 --    14 C    0.991
    18   1 H    0.880 --    11 O    0.590    19 C    0.182
    19   6 C    3.799 --    12 C    1.256    10 C    1.215     3 Pd   0.761
                            18 H    0.182
    20   6 C    3.958 --    28 N    0.980    42 C    0.967    29 H    0.947
                             2 C    0.880
    21   8 O    2.164 --     2 C    1.361     3 Pd   0.469     9 O    0.198
    22   6 C    3.980 --    23 C    1.336    26 C    1.281    27 H    0.951
                             3 Pd   0.148
    23   6 C    3.976 --    22 C    1.336    24 C    1.334    32 H    0.975
                             1 Fe   0.120
    24   6 C    3.974 --    23 C    1.334    25 C    1.284     5 H    1.000
                             1 Fe   0.181
    25   6 C    3.974 --    26 C    1.305    24 C    1.284     6 H    0.981
                             1 Fe   0.161
    26   6 C    3.979 --    25 C    1.305    22 C    1.281     7 H    0.934
                             3 Pd   0.192     1 Fe   0.116
    27   1 H    0.989 --    22 C    0.951
    28   7 N    3.407 --     8 C    1.522    20 C    0.980     3 Pd   0.578
                            11 O    0.133
    29   1 H    0.999 --    20 C    0.947
    30   1 H    0.996 --     4 C    0.961
    31   1 H    0.995 --     4 C    0.955
    32   1 H    0.993 --    23 C    0.975
    33   7 N    3.462 --    35 C    0.996    34 C    0.986     4 C    0.973
                             3 Pd   0.420
    34   6 C    3.973 --    33 N    0.986    36 H    0.970    37 H    0.955
                            38 H    0.929
    35   6 C    3.973 --    33 N    0.996    39 H    0.972    41 H    0.971
                            40 H    0.964
    36   1 H    0.998 --    34 C    0.970
    37   1 H    0.992 --    34 C    0.955
    38   1 H    0.987 --    34 C    0.929
    39   1 H    0.997 --    35 C    0.972
    40   1 H    0.991 --    35 C    0.964
    41   1 H    0.996 --    35 C    0.971
    42   6 C    3.992 --    43 C    1.018    50 H    0.973    20 C    0.967
                            49 H    0.942
    43   6 C    3.986 --    48 C    1.440    44 C    1.374    42 C    1.018
                            46 C    0.100
    44   6 C    3.988 --    45 C    1.474    43 C    1.374    51 H    0.969
                            47 C    0.110
    45   6 C    3.991 --    44 C    1.474    46 C    1.403    52 H    0.971
                            48 C    0.110
    46   6 C    3.988 --    47 C    1.470    45 C    1.403    53 H    0.971
                            43 C    0.100
    47   6 C    3.984 --    46 C    1.470    48 C    1.397    54 H    0.963
                            44 C    0.110
    48   6 C    3.974 --    43 C    1.440    47 C    1.397    55 H    0.852
                            45 C    0.110
    49   1 H    0.994 --    42 C    0.942
    50   1 H    0.998 --    42 C    0.973
    51   1 H    0.999 --    44 C    0.969
    52   1 H    0.999 --    45 C    0.971
    53   1 H    0.998 --    46 C    0.971
    54   1 H    0.998 --    47 C    0.963
    55   1 H    0.997 --    48 C    0.852     3 Pd   0.184
    56   8 O    2.269 --     8 C    1.112    58 C    0.897
    57   6 C    3.991 --    58 C    0.994    63 H    0.984    62 H    0.984
                            61 H    0.984
    58   6 C    3.917 --    59 C    0.995    60 C    0.995    57 C    0.994
                            56 O    0.897
    59   6 C    3.992 --    58 C    0.995    64 H    0.985    65 H    0.984
                            66 H    0.979
    60   6 C    3.992 --    58 C    0.995    68 H    0.984    67 H    0.982
                            69 H    0.980
    61   1 H    0.997 --    57 C    0.984
    62   1 H    0.997 --    57 C    0.984
    63   1 H    0.997 --    57 C    0.984
    64   1 H    0.998 --    59 C    0.985
    65   1 H    0.998 --    59 C    0.984
    66   1 H    0.996 --    59 C    0.979
    67   1 H    0.997 --    60 C    0.982
    68   1 H    0.998 --    60 C    0.984
    69   1 H    0.997 --    60 C    0.980
 ---------------------------------------------------------------------------

Topologies differ in total number of bonds
Writing topology from bond orders to xtbtopo.mol

molecular dipole:
                 x           y           z       tot (Debye)
 q only:       -1.240       1.239      -3.694
   full:       -0.987      -0.261      -3.353       8.909
molecular quadrupole (traceless):
                xx          xy          yy          xz          yz          zz
 q only:       30.727       0.056       4.809       4.154      10.895     -35.536
  q+dip:       35.195       5.451      11.485       9.842       4.941     -46.680
   full:       35.865       5.665       5.560       8.237       7.759     -41.425


           -------------------------------------------------
          | TOTAL ENERGY             -105.118410889464 Eh   |
          | GRADIENT NORM               0.000132376695 Eh/α |
          | HOMO-LUMO GAP               1.632319177464 eV   |
           -------------------------------------------------

------------------------------------------------------------------------
 * finished run on 2024/10/14 at 08:38:43.985     
------------------------------------------------------------------------
 total:
 * wall-time:     0 d,  0 h,  0 min,  0.575 sec
 *  cpu-time:     0 d,  0 h,  0 min,  6.479 sec
 * ratio c/w:    11.263 speedup
 SCF:
 * wall-time:     0 d,  0 h,  0 min,  0.117 sec
 *  cpu-time:     0 d,  0 h,  0 min,  1.379 sec
 * ratio c/w:    11.758 speedup

