      -----------------------------------------------------------      
     |                   =====================                   |     
     |                           x T B                           |     
     |                   =====================                   |     
     |                         S. Grimme                         |     
     |          Mulliken Center for Theoretical Chemistry        |     
     |                    University of Bonn                     |     
      -----------------------------------------------------------      

   * xtb version 6.6.1 (8d0f1dd) compiled by 'stahn@M-Bot' on 2023-08-01

   xtb is free software: you can redistribute it and/or modify it under
   the terms of the GNU Lesser General Public License as published by
   the Free Software Foundation, either version 3 of the License, or
   (at your option) any later version.
   
   xtb is distributed in the hope that it will be useful,
   but WITHOUT ANY WARRANTY; without even the implied warranty of
   MERCHANTABILITY or FITNESS FOR A PARTICULAR PURPOSE.  See the
   GNU Lesser General Public License for more details.
   
   Cite this work as:
   * C. Bannwarth, E. Caldeweyher, S. Ehlert, A. Hansen, P. Pracht,
     J. Seibert, S. Spicher, S. Grimme, WIREs Comput. Mol. Sci., 2020, 11,
     e01493. DOI: 10.1002/wcms.1493
   
   for GFN2-xTB:
   * C. Bannwarth, S. Ehlert and S. Grimme., J. Chem. Theory Comput., 2019,
     15, 1652-1671. DOI: 10.1021/acs.jctc.8b01176
   for GFN1-xTB:
   * S. Grimme, C. Bannwarth, P. Shushkov, J. Chem. Theory Comput., 2017,
     13, 1989-2009. DOI: 10.1021/acs.jctc.7b00118
   for GFN0-xTB:
   * P. Pracht, E. Caldeweyher, S. Ehlert, S. Grimme, ChemRxiv, 2019, preprint.
     DOI: 10.26434/chemrxiv.8326202.v1
   for GFN-FF:
   * S. Spicher and S. Grimme, Angew. Chem. Int. Ed., 2020, 59, 15665-15673.
     DOI: 10.1002/anie.202004239
   
   for ALPB and GBSA implicit solvation:
   * S. Ehlert, M. Stahn, S. Spicher, S. Grimme, J. Chem. Theory Comput.,
     2021, 17, 4250-4261. DOI: 10.1021/acs.jctc.1c00471
   
   for DFT-D4:
   * E. Caldeweyher, C. Bannwarth and S. Grimme, J. Chem. Phys., 2017,
     147, 034112. DOI: 10.1063/1.4993215
   * E. Caldeweyher, S. Ehlert, A. Hansen, H. Neugebauer, S. Spicher,
     C. Bannwarth and S. Grimme, J. Chem. Phys., 2019, 150, 154122.
     DOI: 10.1063/1.5090222
   * E. Caldeweyher, J.-M. Mewes, S. Ehlert and S. Grimme, Phys. Chem. Chem. Phys.
     2020, 22, 8499-8512. DOI: 10.1039/D0CP00502A
   
   for sTDA-xTB:
   * S. Grimme and C. Bannwarth, J. Chem. Phys., 2016, 145, 054103.
     DOI: 10.1063/1.4959605
   
   in the mass-spec context:
   * V. Asgeirsson, C. Bauer and S. Grimme, Chem. Sci., 2017, 8, 4879.
     DOI: 10.1039/c7sc00601b
   * J. Koopman and S. Grimme, ACS Omega 2019, 4, 12, 15120-15133.
     DOI: 10.1021/acsomega.9b02011
   
   for metadynamics refer to:
   * S. Grimme, J. Chem. Theory Comput., 2019, 155, 2847-2862
     DOI: 10.1021/acs.jctc.9b00143
   
   for SPH calculations refer to:
   * S. Spicher and S. Grimme, J. Chem. Theory Comput., 2021, 17, 1701-1714
     DOI: 10.1021/acs.jctc.0c01306
   
   with help from (in alphabetical order)
   P. Atkinson, C. Bannwarth, F. Bohle, G. Brandenburg, E. Caldeweyher
   M. Checinski, S. Dohm, S. Ehlert, S. Ehrlich, I. Gerasimov, C. Hölzer
   A. Katbashev, J. Koopman, C. Lavigne, S. Lehtola, F. März, M. Müller,
   F. Musil, H. Neugebauer, J. Pisarek, C. Plett, P. Pracht, F. Pultar,
   J. Seibert, P. Shushkov, S. Spicher, M. Stahn, M. Steiner, T. Strunk,
   J. Stückrath, T. Rose, and J. Unsleber
   
 * started run on 2024/10/14 at 08:38:44.048     

           -------------------------------------------------
          |                Calculation Setup                |
           -------------------------------------------------

          program call               : xtb tsopted.xyz --gfn 2 --charge 0 --vipea
          coordinate file            : tsopted.xyz
          omp threads                :                    12

   ID    Z sym.   atoms
    1   26 Fe     1
    2    6 C      2, 4, 8, 10, 12-14, 19, 20, 22-26, 34, 35, 42-48, 57-60
    3   46 Pd     3
    4    1 H      5-7, 15-18, 27, 29-32, 36-41, 49-55, 61-69
    5    8 O      9, 11, 21, 56
    6    7 N      28, 33

molecular fragmentation (1/2 indicates fragments):
111111111111111111111111111111111111121111111111111111211111111111111
# atoms in fragment 1/2:    67     2
 fragment masses (1/2) :      610.82        2.02
CMA distance (Bohr)    :   2.882
constraining FC (au)   :  0.0500

           -------------------------------------------------
          |                 G F N 2 - x T B                 |
           -------------------------------------------------

        Reference                      10.1021/acs.jctc.8b01176
      * Hamiltonian:
        H0-scaling (s, p, d)           1.850000    2.230000    2.230000
        zeta-weighting                 0.500000
      * Dispersion:
        s8                             2.700000
        a1                             0.520000
        a2                             5.000000
        s9                             5.000000
      * Repulsion:
        kExp                           1.500000    1.000000
        rExp                           1.000000
      * Coulomb:
        alpha                          2.000000
        third order                    shell-resolved
        anisotropic                    true
        a3                             3.000000
        a5                             4.000000
        cn-shift                       1.200000
        cn-exp                         4.000000
        max-rad                        5.000000

q/qsh data taken from xtbrestart
CAMM data taken from xtbrestart

          ...................................................
          :                      SETUP                      :
          :.................................................:
          :  # basis functions                 186          :
          :  # atomic orbitals                 184          :
          :  # shells                          106          :
          :  # electrons                       194          :
          :  max. iterations                   250          :
          :  Hamiltonian                  GFN2-xTB          :
          :  restarted?                       true          :
          :  GBSA solvation                  false          :
          :  PC potential                    false          :
          :  electronic temp.          300.0000000     K    :
          :  accuracy                    1.0000000          :
          :  -> integral cutoff          0.2500000E+02      :
          :  -> integral neglect         0.1000000E-07      :
          :  -> SCF convergence          0.1000000E-05 Eh   :
          :  -> wf. convergence          0.1000000E-03 e    :
          :  Broyden damping             0.4000000          :
          ...................................................

 iter      E             dE          RMSdq      gap      omega  full diag
   1   -106.5690201 -0.106569E+03  0.262E-04    1.63       0.0  T
   2   -106.5690201 -0.375962E-09  0.185E-04    1.63      65.2  T
   3   -106.5690201 -0.257501E-09  0.150E-04    1.63      80.3  T

   *** convergence criteria satisfied after 3 iterations ***

         #    Occupation            Energy/Eh            Energy/eV
      -------------------------------------------------------------
         1        2.0000           -0.8813578             -23.9830
       ...           ...                  ...                  ...
        91        2.0000           -0.3548767              -9.6567
        92        2.0000           -0.3471493              -9.4464
        93        2.0000           -0.3467455              -9.4354
        94        2.0000           -0.3415774              -9.2948
        95        2.0000           -0.3321895              -9.0393
        96        2.0000           -0.3292652              -8.9598
        97        2.0000           -0.3136352              -8.5344 (HOMO)
        98                         -0.2536495              -6.9022 (LUMO)
        99                         -0.2488469              -6.7715
       100                         -0.2339907              -6.3672
       101                         -0.2088534              -5.6832
       102                         -0.2042557              -5.5581
       ...                                ...                  ...
       184                          5.9814694             162.7641
      -------------------------------------------------------------
                  HL-Gap            0.0599857 Eh            1.6323 eV
             Fermi-level           -0.2836424 Eh           -7.7183 eV

 SCC (total)                   0 d,  0 h,  0 min,  0.041 sec
 SCC setup                      ...        0 min,  0.003 sec (  6.686%)
 Dispersion                     ...        0 min,  0.001 sec (  2.450%)
 classical contributions        ...        0 min,  0.000 sec (  0.124%)
 integral evaluation            ...        0 min,  0.006 sec ( 14.831%)
 iterations                     ...        0 min,  0.016 sec ( 39.369%)
 molecular gradient             ...        0 min,  0.011 sec ( 26.260%)
 printout                       ...        0 min,  0.004 sec ( 10.185%)

         :::::::::::::::::::::::::::::::::::::::::::::::::::::
         ::                     SUMMARY                     ::
         :::::::::::::::::::::::::::::::::::::::::::::::::::::
         :: total energy            -105.118410892864 Eh    ::
         :: gradient norm              0.000132747733 Eh/a0 ::
         :: HOMO-LUMO gap              1.632293846110 eV    ::
         ::.................................................::
         :: SCC energy              -106.569020076409 Eh    ::
         :: -> isotropic ES           -0.114956495536 Eh    ::
         :: -> anisotropic ES         -0.022166656180 Eh    ::
         :: -> anisotropic XC          0.025571996672 Eh    ::
         :: -> dispersion             -0.114428161198 Eh    ::
         :: repulsion energy           1.445414523008 Eh    ::
         :: add. restraining           0.000000000000 Eh    ::
         :: total charge              -0.000000000000 e     ::
         :::::::::::::::::::::::::::::::::::::::::::::::::::::

           ------------------------------------------------- 
          |        vertical delta SCC IP calculation        |
           ------------------------------------------------- 

 iter      E             dE          RMSdq      gap      omega  full diag
   1   -106.1270232 -0.106127E+03  0.939E-01    1.63       0.0  T
   2   -105.9689129  0.158110E+00  0.184E+00    0.91       1.0  T
   3   -106.1698827 -0.200970E+00  0.673E-01    1.60       1.0  T
   4   -106.1728982 -0.301551E-02  0.614E-01    1.60       1.0  T
   5   -106.1716749  0.122324E-02  0.608E-01    1.57       1.0  T
   6   -106.1770263 -0.535132E-02  0.306E-01    1.59       1.0  T
   7   -106.1753887  0.163754E-02  0.205E-01    1.59       1.0  T
   8   -106.1769673 -0.157858E-02  0.153E-01    1.60       1.0  T
   9   -106.1718102  0.515711E-02  0.260E-01    1.56       1.0  T
  10   -106.1782156 -0.640544E-02  0.638E-02    1.58       1.0  T
  11   -106.1772715  0.944170E-03  0.111E-01    1.58       1.0  T
  12   -106.1783983 -0.112687E-02  0.204E-02    1.59       1.0  T
  13   -106.1784105 -0.121572E-04  0.106E-02    1.58       1.1  T
  14   -106.1784113 -0.809399E-06  0.822E-03    1.58       1.5  T
  15   -106.1784122 -0.942652E-06  0.399E-03    1.58       3.0  T
  16   -106.1784131 -0.899767E-06  0.160E-03    1.58       7.5  T
  17   -106.1784131  0.198682E-07  0.138E-03    1.58       8.7  T
  18   -106.1784133 -0.137528E-06  0.391E-04    1.58      30.8  T
  19   -106.1784133  0.295813E-09  0.297E-04    1.58      40.5  T
     SCC iter.                  ...        0 min,  0.086 sec
     gradient                   ...        0 min,  0.011 sec
------------------------------------------------------------------------
empirical IP shift (eV):    4.8455
delta SCC IP (eV):    5.7834
------------------------------------------------------------------------
           ------------------------------------------------- 
          |        vertical delta SCC EA calculation        |
           ------------------------------------------------- 

 iter      E             dE          RMSdq      gap      omega  full diag
   1   -106.5824080 -0.106582E+03  0.134E+00    0.19       0.0  T
   2   -106.5893423 -0.693436E-02  0.210E+00    0.46       1.0  T
   3   -106.7208217 -0.131479E+00  0.108E+00    0.19       1.0  T
   4   -106.7402292 -0.194075E-01  0.691E-01    0.02       1.0  T
   5   -106.7243009  0.159283E-01  0.764E-01    0.19       1.0  T
   6   -106.7156642  0.863674E-02  0.779E-01    0.10       1.0  T
   7   -106.7346192 -0.189550E-01  0.437E-01    0.03       1.0  T
   8   -106.7425708 -0.795163E-02  0.235E-01    0.07       1.0  T
   9   -106.7439360 -0.136518E-02  0.120E-01    0.06       1.0  T
  10   -106.7444492 -0.513179E-03  0.618E-02    0.04       1.0  T
  11   -106.7445111 -0.619203E-04  0.350E-02    0.04       1.0  T
  12   -106.7445357 -0.246356E-04  0.218E-02    0.04       1.0  T
  13   -106.7445544 -0.186726E-04  0.706E-03    0.04       1.7  T
  14   -106.7445410  0.134571E-04  0.163E-02    0.04       1.0  T
  15   -106.7445526 -0.116339E-04  0.769E-03    0.04       1.6  T
  16   -106.7445545 -0.185572E-05  0.427E-03    0.04       2.8  T
  17   -106.7445552 -0.784692E-06  0.783E-04    0.04      15.4  T
  18   -106.7445553 -0.239229E-07  0.406E-04    0.04      29.7  T
     SCC iter.                  ...        0 min,  0.078 sec
     gradient                   ...        0 min,  0.010 sec
------------------------------------------------------------------------
empirical EA shift (eV):    4.8455
delta SCC EA (eV):   -0.0689
------------------------------------------------------------------------
           -------------------------------------------------
          |                Property Printout                |
           -------------------------------------------------

    * Orbital Energies and Occupations

         #    Occupation            Energy/Eh            Energy/eV
      -------------------------------------------------------------
         1        2.0000           -0.7439842             -20.2448
       ...           ...                  ...                  ...
        86        2.0000           -0.2418605              -6.5814
        87        2.0000           -0.2406051              -6.5472
        88        2.0000           -0.2353201              -6.4034
        89        2.0000           -0.2300903              -6.2611
        90        2.0000           -0.2190621              -5.9610
        91        2.0000           -0.2141159              -5.8264
        92        2.0000           -0.2036029              -5.5403
        93        2.0000           -0.1985773              -5.4036
        94        2.0000           -0.1916802              -5.2159
        95        2.0000           -0.1883381              -5.1249
        96        2.0000           -0.1776464              -4.8340
        97        2.0000           -0.1601909              -4.3590
        98        0.6832           -0.1011567              -2.7526 (HOMO)
        99        0.3168           -0.0996965              -2.7129 (LUMO)
       100        0.0000           -0.0909932              -2.4761
       101                         -0.0846504              -2.3035
       102                         -0.0834615              -2.2711
       103                         -0.0690630              -1.8793
       104                         -0.0262845              -0.7152
       105                         -0.0150681              -0.4100
       106                         -0.0074366              -0.2024
       107                          0.0032190               0.0876
       108                          0.0189582               0.5159
       109                          0.0392120               1.0670
       ...                                ...                  ...
       184                          6.1112659             166.2960
      -------------------------------------------------------------
                  HL-Gap            0.0014602 Eh            0.0397 eV
             Fermi-level           -0.1155502 Eh           -3.1443 eV

     #   Z          covCN         q      C6AA      α(0)
     1  26 Fe      10.049     1.534   108.219    18.345
     2   6 C        2.763     0.368    20.763     7.462
     3  46 Pd       4.465    -0.514   394.999    36.297
     4   6 C        3.796    -0.014    20.839     6.500
     5   1 H        0.927     0.004     2.983     2.701
     6   1 H        0.927     0.005     2.974     2.697
     7   1 H        0.927     0.063     2.169     2.303
     8   6 C        2.687     0.375    20.644     7.436
     9   8 O        0.856    -0.546    24.823     6.680
    10   6 C        4.176    -0.104    22.388     6.720
    11   8 O        1.602    -0.461    22.090     6.343
    12   6 C        3.915    -0.165    23.626     6.908
    13   6 C        3.889    -0.162    23.589     6.905
    14   6 C        3.875    -0.169    23.740     6.928
    15   1 H        0.927     0.024     2.678     2.559
    16   1 H        0.927     0.007     2.934     2.679
    17   1 H        0.927     0.006     2.957     2.689
    18   1 H        0.831     0.337     0.615     1.230
    19   6 C        3.853    -0.228    24.995     7.111
    20   6 C        3.828     0.038    19.910     6.349
    21   8 O        1.516    -0.433    21.609     6.270
    22   6 C        3.874    -0.127    22.886     6.802
    23   6 C        3.881    -0.158    23.492     6.891
    24   6 C        3.909    -0.169    23.718     6.922
    25   6 C        3.916    -0.166    23.655     6.913
    26   6 C        3.937    -0.144    23.195     6.844
    27   1 H        0.927     0.065     2.146     2.291
    28   7 N        2.669    -0.200    25.357     7.479
    29   1 H        0.923    -0.007     3.189     2.793
    30   1 H        0.925     0.039     2.467     2.456
    31   1 H        0.923     0.003     3.011     2.714
    32   1 H        0.927     0.033     2.547     2.496
    33   7 N        3.511    -0.035    21.915     6.953
    34   6 C        3.863    -0.024    20.955     6.510
    35   6 C        3.716    -0.034    21.302     6.594
    36   1 H        0.923    -0.003     3.117     2.761
    37   1 H        0.924     0.077     2.014     2.219
    38   1 H        0.923     0.091     1.867     2.137
    39   1 H        0.923    -0.000     3.065     2.738
    40   1 H        0.924     0.076     2.024     2.225
    41   1 H        0.925     0.042     2.422     2.434
    42   6 C        3.808    -0.065    21.742     6.638
    43   6 C        2.967     0.012    27.746     8.640
    44   6 C        2.928    -0.054    29.352     8.885
    45   6 C        2.919    -0.050    29.236     8.867
    46   6 C        2.918    -0.051    29.273     8.872
    47   6 C        2.943    -0.082    30.045     8.990
    48   6 C        3.060    -0.113    30.801     9.101
    49   1 H        0.924     0.056     2.241     2.341
    50   1 H        0.924     0.014     2.829     2.630
    51   1 H        0.925    -0.005     3.138     2.770
    52   1 H        0.926    -0.008     3.204     2.799
    53   1 H        0.926    -0.004     3.120     2.762
    54   1 H        0.930     0.033     2.546     2.495
    55   1 H        1.606     0.072     2.048     2.234
    56   8 O        1.705    -0.301    19.012     5.887
    57   6 C        3.758    -0.113    22.717     6.795
    58   6 C        3.782     0.158    18.065     6.055
    59   6 C        3.755    -0.116    22.775     6.805
    60   6 C        3.755    -0.120    22.861     6.817
    61   1 H        0.925     0.054     2.266     2.354
    62   1 H        0.925     0.046     2.366     2.406
    63   1 H        0.925     0.033     2.547     2.496
    64   1 H        0.925     0.039     2.466     2.456
    65   1 H        0.925     0.028     2.609     2.526
    66   1 H        0.925     0.066     2.131     2.283
    67   1 H        0.925     0.056     2.247     2.344
    68   1 H        0.925     0.028     2.609     2.526
    69   1 H        0.925     0.064     2.154     2.295

 Mol. C6AA /au·bohr⁶  :      59139.385039
 Mol. C8AA /au·bohr⁸  :    1716829.749046
 Mol. α(0) /au        :        374.349282


Wiberg/Mayer (AO) data.
largest (>0.10) Wiberg bond orders for each atom

 ---------------------------------------------------------------------------
     #   Z sym  total        # sym  WBO       # sym  WBO       # sym  WBO
 ---------------------------------------------------------------------------
     1  26 Fe  -0.483 --    10 C    0.176    13 C    0.159    24 C    0.149
                            12 C    0.137    14 C    0.129    25 C    0.123
     2   6 C    3.935 --     9 O    1.579    21 O    1.392    20 C    0.877
     3  46 Pd   3.384 --    19 C    0.742    28 N    0.509    21 O    0.425
                            33 N    0.361    26 C    0.200    55 H    0.183
                            22 C    0.158    10 C    0.144    12 C    0.102
     4   6 C    3.973 --    10 C    1.005    33 N    0.973    30 H    0.963
                            31 H    0.959
     5   1 H    0.998 --    24 C    1.004
     6   1 H    0.999 --    25 C    0.983
     7   1 H    0.993 --    26 C    0.937
     8   6 C    3.923 --    28 N    1.545    11 O    1.163    56 O    1.071
     9   8 O    1.897 --     2 C    1.579    21 O    0.202
    10   6 C    3.945 --    14 C    1.278    19 C    1.196     4 C    1.005
                             1 Fe   0.176     3 Pd   0.144
    11   8 O    2.091 --     8 C    1.163    18 H    0.563    28 N    0.134
    12   6 C    3.934 --    13 C    1.314    19 C    1.243    15 H    0.974
                             1 Fe   0.137     3 Pd   0.102
    13   6 C    3.966 --    12 C    1.314    14 C    1.312    16 H    0.985
                             1 Fe   0.159
    14   6 C    3.935 --    13 C    1.312    10 C    1.278    17 H    0.994
                             1 Fe   0.129
    15   1 H    0.997 --    12 C    0.974
    16   1 H    0.996 --    13 C    0.985
    17   1 H    0.997 --    14 C    0.994
    18   1 H    0.880 --    11 O    0.563    19 C    0.210
    19   6 C    3.717 --    12 C    1.243    10 C    1.196     3 Pd   0.742
                            18 H    0.210
    20   6 C    3.960 --    28 N    0.987    42 C    0.967    29 H    0.949
                             2 C    0.877
    21   8 O    2.144 --     2 C    1.392     3 Pd   0.425     9 O    0.202
    22   6 C    3.962 --    23 C    1.335    26 C    1.287    27 H    0.956
                             3 Pd   0.158
    23   6 C    3.953 --    22 C    1.335    24 C    1.328    32 H    0.979
    24   6 C    3.958 --    23 C    1.328    25 C    1.302     5 H    1.004
                             1 Fe   0.149
    25   6 C    3.935 --    24 C    1.302    26 C    1.300     6 H    0.983
                             1 Fe   0.123
    26   6 C    3.971 --    25 C    1.300    22 C    1.287     7 H    0.937
                             3 Pd   0.200
    27   1 H    0.993 --    22 C    0.956
    28   7 N    3.367 --     8 C    1.545    20 C    0.987     3 Pd   0.509
                            11 O    0.134
    29   1 H    1.000 --    20 C    0.949
    30   1 H    0.996 --     4 C    0.963
    31   1 H    0.997 --     4 C    0.959
    32   1 H    0.996 --    23 C    0.979
    33   7 N    3.414 --    35 C    1.003    34 C    0.992     4 C    0.973
                             3 Pd   0.361
    34   6 C    3.980 --    33 N    0.992    36 H    0.969    37 H    0.956
                            38 H    0.933
    35   6 C    3.983 --    33 N    1.003    39 H    0.972    41 H    0.972
                            40 H    0.967
    36   1 H    0.998 --    34 C    0.969
    37   1 H    0.993 --    34 C    0.956
    38   1 H    0.990 --    34 C    0.933
    39   1 H    0.997 --    35 C    0.972
    40   1 H    0.993 --    35 C    0.967
    41   1 H    0.997 --    35 C    0.972
    42   6 C    3.993 --    43 C    1.016    50 H    0.975    20 C    0.967
                            49 H    0.947
    43   6 C    3.964 --    48 C    1.431    44 C    1.363    42 C    1.016
    44   6 C    3.975 --    45 C    1.472    43 C    1.363    51 H    0.969
                            47 C    0.103
    45   6 C    3.978 --    44 C    1.472    46 C    1.391    52 H    0.972
                            48 C    0.108
    46   6 C    3.960 --    47 C    1.457    45 C    1.391    53 H    0.972
    47   6 C    3.976 --    46 C    1.457    48 C    1.398    54 H    0.960
                            44 C    0.103
    48   6 C    3.959 --    43 C    1.431    47 C    1.398    55 H    0.841
                            45 C    0.108
    49   1 H    0.995 --    42 C    0.947
    50   1 H    0.999 --    42 C    0.975
    51   1 H    0.999 --    44 C    0.969
    52   1 H    0.999 --    45 C    0.972
    53   1 H    0.999 --    46 C    0.972
    54   1 H    0.998 --    47 C    0.960
    55   1 H    0.995 --    48 C    0.841     3 Pd   0.183
    56   8 O    2.232 --     8 C    1.071    58 C    0.913
    57   6 C    3.995 --    58 C    0.994    63 H    0.986    62 H    0.985
                            61 H    0.984
    58   6 C    3.931 --    60 C    0.995    57 C    0.994    59 C    0.994
                            56 O    0.913
    59   6 C    3.994 --    58 C    0.994    64 H    0.986    65 H    0.986
                            66 H    0.979
    60   6 C    3.992 --    58 C    0.995    68 H    0.985    67 H    0.982
                            69 H    0.980
    61   1 H    0.997 --    57 C    0.984
    62   1 H    0.998 --    57 C    0.985
    63   1 H    0.998 --    57 C    0.986
    64   1 H    0.998 --    59 C    0.986
    65   1 H    0.999 --    59 C    0.986
    66   1 H    0.996 --    59 C    0.979
    67   1 H    0.997 --    60 C    0.982
    68   1 H    0.999 --    60 C    0.985
    69   1 H    0.996 --    60 C    0.980
 ---------------------------------------------------------------------------

Topologies differ in total number of bonds
Writing topology from bond orders to xtbtopo.mol

molecular dipole:
                 x           y           z       tot (Debye)
 q only:       -0.310       0.445      -3.615
   full:        0.066      -0.999      -3.200       8.522
molecular quadrupole (traceless):
                xx          xy          yy          xz          yz          zz
 q only:       18.973      -1.812       4.838      -0.342      12.276     -23.811
  q+dip:       24.891       4.138      11.725       5.758       5.973     -36.616
   full:       25.953       4.619       5.839       4.509       8.686     -31.792


           -------------------------------------------------
          | TOTAL ENERGY             -105.293946078084 Eh   |
          | GRADIENT NORM               0.077504548102 Eh/α |
          | HOMO-LUMO GAP               0.039733538468 eV   |
           -------------------------------------------------

------------------------------------------------------------------------
 * finished run on 2024/10/14 at 08:38:44.484     
------------------------------------------------------------------------
 total:
 * wall-time:     0 d,  0 h,  0 min,  0.435 sec
 *  cpu-time:     0 d,  0 h,  0 min,  4.826 sec
 * ratio c/w:    11.094 speedup
 SCF:
 * wall-time:     0 d,  0 h,  0 min,  0.241 sec
 *  cpu-time:     0 d,  0 h,  0 min,  2.856 sec
 * ratio c/w:    11.861 speedup

