      -----------------------------------------------------------      
     |                   =====================                   |     
     |                           x T B                           |     
     |                   =====================                   |     
     |                         S. Grimme                         |     
     |          Mulliken Center for Theoretical Chemistry        |     
     |                    University of Bonn                     |     
      -----------------------------------------------------------      

   * xtb version 6.6.1 (8d0f1dd) compiled by 'stahn@M-Bot' on 2023-08-01

   xtb is free software: you can redistribute it and/or modify it under
   the terms of the GNU Lesser General Public License as published by
   the Free Software Foundation, either version 3 of the License, or
   (at your option) any later version.
   
   xtb is distributed in the hope that it will be useful,
   but WITHOUT ANY WARRANTY; without even the implied warranty of
   MERCHANTABILITY or FITNESS FOR A PARTICULAR PURPOSE.  See the
   GNU Lesser General Public License for more details.
   
   Cite this work as:
   * C. Bannwarth, E. Caldeweyher, S. Ehlert, A. Hansen, P. Pracht,
     J. Seibert, S. Spicher, S. Grimme, WIREs Comput. Mol. Sci., 2020, 11,
     e01493. DOI: 10.1002/wcms.1493
   
   for GFN2-xTB:
   * C. Bannwarth, S. Ehlert and S. Grimme., J. Chem. Theory Comput., 2019,
     15, 1652-1671. DOI: 10.1021/acs.jctc.8b01176
   for GFN1-xTB:
   * S. Grimme, C. Bannwarth, P. Shushkov, J. Chem. Theory Comput., 2017,
     13, 1989-2009. DOI: 10.1021/acs.jctc.7b00118
   for GFN0-xTB:
   * P. Pracht, E. Caldeweyher, S. Ehlert, S. Grimme, ChemRxiv, 2019, preprint.
     DOI: 10.26434/chemrxiv.8326202.v1
   for GFN-FF:
   * S. Spicher and S. Grimme, Angew. Chem. Int. Ed., 2020, 59, 15665-15673.
     DOI: 10.1002/anie.202004239
   
   for ALPB and GBSA implicit solvation:
   * S. Ehlert, M. Stahn, S. Spicher, S. Grimme, J. Chem. Theory Comput.,
     2021, 17, 4250-4261. DOI: 10.1021/acs.jctc.1c00471
   
   for DFT-D4:
   * E. Caldeweyher, C. Bannwarth and S. Grimme, J. Chem. Phys., 2017,
     147, 034112. DOI: 10.1063/1.4993215
   * E. Caldeweyher, S. Ehlert, A. Hansen, H. Neugebauer, S. Spicher,
     C. Bannwarth and S. Grimme, J. Chem. Phys., 2019, 150, 154122.
     DOI: 10.1063/1.5090222
   * E. Caldeweyher, J.-M. Mewes, S. Ehlert and S. Grimme, Phys. Chem. Chem. Phys.
     2020, 22, 8499-8512. DOI: 10.1039/D0CP00502A
   
   for sTDA-xTB:
   * S. Grimme and C. Bannwarth, J. Chem. Phys., 2016, 145, 054103.
     DOI: 10.1063/1.4959605
   
   in the mass-spec context:
   * V. Asgeirsson, C. Bauer and S. Grimme, Chem. Sci., 2017, 8, 4879.
     DOI: 10.1039/c7sc00601b
   * J. Koopman and S. Grimme, ACS Omega 2019, 4, 12, 15120-15133.
     DOI: 10.1021/acsomega.9b02011
   
   for metadynamics refer to:
   * S. Grimme, J. Chem. Theory Comput., 2019, 155, 2847-2862
     DOI: 10.1021/acs.jctc.9b00143
   
   for SPH calculations refer to:
   * S. Spicher and S. Grimme, J. Chem. Theory Comput., 2021, 17, 1701-1714
     DOI: 10.1021/acs.jctc.0c01306
   
   with help from (in alphabetical order)
   P. Atkinson, C. Bannwarth, F. Bohle, G. Brandenburg, E. Caldeweyher
   M. Checinski, S. Dohm, S. Ehlert, S. Ehrlich, I. Gerasimov, C. Hölzer
   A. Katbashev, J. Koopman, C. Lavigne, S. Lehtola, F. März, M. Müller,
   F. Musil, H. Neugebauer, J. Pisarek, C. Plett, P. Pracht, F. Pultar,
   J. Seibert, P. Shushkov, S. Spicher, M. Stahn, M. Steiner, T. Strunk,
   J. Stückrath, T. Rose, and J. Unsleber
   
 * started run on 2024/10/15 at 08:33:53.782     

           -------------------------------------------------
          |                Calculation Setup                |
           -------------------------------------------------

          program call               : xtb tsopted.xyz --gfn 2 --charge 0
          coordinate file            : tsopted.xyz
          omp threads                :                    12

   ID    Z sym.   atoms
    1   26 Fe     1
    2    6 C      2, 4, 8, 10, 12-14, 19, 20, 22-26, 33-36, 47-60
    3   46 Pd     3
    4    1 H      5-7, 15-18, 27, 29-31, 37-45, 61-71
    5    8 O      9, 11, 21, 32, 46
    6    7 N      28

           -------------------------------------------------
          |                 G F N 2 - x T B                 |
           -------------------------------------------------

        Reference                      10.1021/acs.jctc.8b01176
      * Hamiltonian:
        H0-scaling (s, p, d)           1.850000    2.230000    2.230000
        zeta-weighting                 0.500000
      * Dispersion:
        s8                             2.700000
        a1                             0.520000
        a2                             5.000000
        s9                             5.000000
      * Repulsion:
        kExp                           1.500000    1.000000
        rExp                           1.000000
      * Coulomb:
        alpha                          2.000000
        third order                    shell-resolved
        anisotropic                    true
        a3                             3.000000
        a5                             4.000000
        cn-shift                       1.200000
        cn-exp                         4.000000
        max-rad                        5.000000

q/qsh data taken from xtbrestart
CAMM data taken from xtbrestart

          ...................................................
          :                      SETUP                      :
          :.................................................:
          :  # basis functions                 203          :
          :  # atomic orbitals                 201          :
          :  # shells                          113          :
          :  # electrons                       212          :
          :  max. iterations                   250          :
          :  Hamiltonian                  GFN2-xTB          :
          :  restarted?                       true          :
          :  GBSA solvation                  false          :
          :  PC potential                    false          :
          :  electronic temp.          300.0000000     K    :
          :  accuracy                    1.0000000          :
          :  -> integral cutoff          0.2500000E+02      :
          :  -> integral neglect         0.1000000E-07      :
          :  -> SCF convergence          0.1000000E-05 Eh   :
          :  -> wf. convergence          0.1000000E-03 e    :
          :  Broyden damping             0.4000000          :
          ...................................................

 iter      E             dE          RMSdq      gap      omega  full diag
   1   -117.0593007 -0.117059E+03  0.551E-01    1.68       0.0  T
   2   -117.0724571 -0.131564E-01  0.603E-01    1.21       1.0  T
   3   -117.0825572 -0.101001E-01  0.270E-01    1.36       1.0  T
   4   -117.0828433 -0.286088E-03  0.205E-01    1.36       1.0  T
   5   -117.0831668 -0.323474E-03  0.929E-02    1.37       1.0  T
   6   -117.0832157 -0.489635E-04  0.428E-02    1.37       1.0  T
   7   -117.0832151  0.648303E-06  0.317E-02    1.37       1.0  T
   8   -117.0832256 -0.105314E-04  0.124E-02    1.37       1.0  T
   9   -117.0832285 -0.289912E-05  0.775E-03    1.37       1.5  T
  10   -117.0832300 -0.151928E-05  0.301E-03    1.37       3.9  T
  11   -117.0832301 -0.103778E-06  0.204E-03    1.37       5.8  T
  12   -117.0832302 -0.890485E-07  0.121E-03    1.37       9.8  T
  13   -117.0832303 -0.179178E-07  0.751E-04    1.37      15.8  T
  14   -117.0832303 -0.103223E-08  0.396E-04    1.37      30.0  T

   *** convergence criteria satisfied after 14 iterations ***

         #    Occupation            Energy/Eh            Energy/eV
      -------------------------------------------------------------
         1        2.0000           -0.8415662             -22.9002
       ...           ...                  ...                  ...
       100        2.0000           -0.3727238             -10.1423
       101        2.0000           -0.3703567             -10.0779
       102        2.0000           -0.3538124              -9.6277
       103        2.0000           -0.3525313              -9.5929
       104        2.0000           -0.3444728              -9.3736
       105        2.0000           -0.3365332              -9.1575
       106        2.0000           -0.3308571              -9.0031 (HOMO)
       107                         -0.2803566              -7.6289 (LUMO)
       108                         -0.2686681              -7.3108
       109                         -0.2543904              -6.9223
       110                         -0.2426498              -6.6028
       111                         -0.2356844              -6.4133
       ...                                ...                  ...
       201                          6.6751637             181.6405
      -------------------------------------------------------------
                  HL-Gap            0.0505004 Eh            1.3742 eV
             Fermi-level           -0.3056068 Eh           -8.3160 eV

 SCC (total)                   0 d,  0 h,  0 min,  0.119 sec
 SCC setup                      ...        0 min,  0.003 sec (  2.539%)
 Dispersion                     ...        0 min,  0.001 sec (  1.069%)
 classical contributions        ...        0 min,  0.000 sec (  0.040%)
 integral evaluation            ...        0 min,  0.007 sec (  5.510%)
 iterations                     ...        0 min,  0.089 sec ( 75.090%)
 molecular gradient             ...        0 min,  0.014 sec ( 12.071%)
 printout                       ...        0 min,  0.004 sec (  3.643%)

         :::::::::::::::::::::::::::::::::::::::::::::::::::::
         ::                     SUMMARY                     ::
         :::::::::::::::::::::::::::::::::::::::::::::::::::::
         :: total energy            -115.445803213347 Eh    ::
         :: gradient norm              0.000176733832 Eh/a0 ::
         :: HOMO-LUMO gap              1.374187058578 eV    ::
         ::.................................................::
         :: SCC energy              -117.083230256666 Eh    ::
         :: -> isotropic ES           -0.028657623225 Eh    ::
         :: -> anisotropic ES         -0.024857204775 Eh    ::
         :: -> anisotropic XC          0.023567442472 Eh    ::
         :: -> dispersion             -0.123037645454 Eh    ::
         :: repulsion energy           1.631620520354 Eh    ::
         :: add. restraining           0.000000000000 Eh    ::
         :: total charge               0.000039695493 e     ::
         :::::::::::::::::::::::::::::::::::::::::::::::::::::

           -------------------------------------------------
          |                Property Printout                |
           -------------------------------------------------

    * Orbital Energies and Occupations

         #    Occupation            Energy/Eh            Energy/eV
      -------------------------------------------------------------
         1        2.0000           -0.8415662             -22.9002
       ...           ...                  ...                  ...
        94        2.0000           -0.3956963             -10.7674
        95        2.0000           -0.3904439             -10.6245
        96        2.0000           -0.3878776             -10.5547
        97        2.0000           -0.3870587             -10.5324
        98        2.0000           -0.3831539             -10.4261
        99        2.0000           -0.3771952             -10.2640
       100        2.0000           -0.3727238             -10.1423
       101        2.0000           -0.3703567             -10.0779
       102        2.0000           -0.3538124              -9.6277
       103        2.0000           -0.3525313              -9.5929
       104        2.0000           -0.3444728              -9.3736
       105        2.0000           -0.3365332              -9.1575
       106        2.0000           -0.3308571              -9.0031 (HOMO)
       107                         -0.2803566              -7.6289 (LUMO)
       108                         -0.2686681              -7.3108
       109                         -0.2543904              -6.9223
       110                         -0.2426498              -6.6028
       111                         -0.2356844              -6.4133
       112                         -0.2191108              -5.9623
       113                         -0.2111105              -5.7446
       114                         -0.2036643              -5.5420
       115                         -0.1998001              -5.4368
       116                         -0.1824915              -4.9658
       117                         -0.1805621              -4.9133
       ...                                ...                  ...
       201                          6.6751637             181.6405
      -------------------------------------------------------------
                  HL-Gap            0.0505004 Eh            1.3742 eV
             Fermi-level           -0.3056068 Eh           -8.3160 eV

     #   Z          covCN         q      C6AA      α(0)
     1  26 Fe      10.030     1.512   108.465    18.366
     2   6 C        2.709     0.367    20.779     7.461
     3  46 Pd       4.042    -0.162   373.385    35.290
     4   6 C        3.718     0.097    19.093     6.242
     5   1 H        0.927     0.052     2.290     2.366
     6   1 H        0.927     0.092     1.859     2.132
     7   1 H        0.927     0.141     1.456     1.887
     8   6 C        2.736     0.391    20.392     7.393
     9   8 O        0.856    -0.494    23.662     6.522
    10   6 C        3.989    -0.117    22.653     6.762
    11   8 O        1.599    -0.440    21.671     6.283
    12   6 C        3.925    -0.137    23.072     6.826
    13   6 C        3.856    -0.135    23.051     6.828
    14   6 C        3.881    -0.148    23.303     6.863
    15   1 H        0.926     0.061     2.185     2.311
    16   1 H        0.927     0.055     2.255     2.348
    17   1 H        0.927     0.050     2.319     2.381
    18   1 H        0.879     0.335     0.617     1.230
    19   6 C        3.914    -0.177    23.888     6.947
    20   6 C        3.819     0.024    20.151     6.388
    21   8 O        1.497    -0.435    21.680     6.279
    22   6 C        3.901    -0.150    23.340     6.867
    23   6 C        3.886    -0.143    23.196     6.847
    24   6 C        3.885    -0.149    23.312     6.864
    25   6 C        3.884    -0.114    22.628     6.763
    26   6 C        3.883    -0.122    22.786     6.786
    27   1 H        0.927     0.072     2.068     2.249
    28   7 N        2.659    -0.237    26.200     7.602
    29   1 H        0.923     0.027     2.633     2.538
    30   1 H        0.924     0.009     2.902     2.664
    31   1 H        0.927     0.058     2.217     2.328
    32   8 O        1.501    -0.376    20.519     6.108
    33   6 C        3.900     0.026    20.084     6.370
    34   6 C        3.758    -0.131    23.074     6.848
    35   6 C        3.760    -0.108    22.603     6.777
    36   6 C        3.760    -0.118    22.809     6.808
    37   1 H        0.924     0.057     2.233     2.337
    38   1 H        0.925     0.034     2.524     2.485
    39   1 H        0.925     0.049     2.332     2.388
    40   1 H        0.925     0.036     2.498     2.472
    41   1 H        0.925     0.039     2.462     2.454
    42   1 H        0.925     0.021     2.717     2.578
    43   1 H        0.925     0.070     2.089     2.260
    44   1 H        0.925     0.036     2.498     2.472
    45   1 H        0.925     0.034     2.535     2.490
    46   8 O        1.704    -0.278    18.611     5.825
    47   6 C        3.709     0.088    19.244     6.270
    48   6 C        3.889    -0.028    21.028     6.519
    49   6 C        3.051    -0.000    27.990     8.677
    50   6 C        2.914    -0.038    28.944     8.822
    51   6 C        2.922    -0.032    28.807     8.802
    52   6 C        2.922    -0.030    28.739     8.791
    53   6 C        2.914    -0.028    28.696     8.784
    54   6 C        3.037     0.004    27.890     8.662
    55   6 C        3.036     0.010    27.750     8.640
    56   6 C        2.911    -0.008    28.207     8.709
    57   6 C        2.940     0.008    27.849     8.655
    58   6 C        2.921    -0.012    28.305     8.725
    59   6 C        2.911    -0.028    28.705     8.785
    60   6 C        3.048     0.001    27.952     8.671
    61   1 H        0.924     0.058     2.226     2.333
    62   1 H        0.924     0.056     2.243     2.342
    63   1 H        0.924     0.046     2.375     2.410
    64   1 H        0.926     0.022     2.699     2.569
    65   1 H        0.926     0.029     2.603     2.523
    66   1 H        0.926     0.035     2.512     2.479
    67   1 H        0.926     0.052     2.294     2.369
    68   1 H        0.926     0.059     2.206     2.322
    69   1 H        0.925     0.077     2.008     2.216
    70   1 H        0.925     0.051     2.313     2.378
    71   1 H        0.926     0.033     2.538     2.491

 Mol. C6AA /au·bohr⁶  :      68308.737879
 Mol. C8AA /au·bohr⁸  :    2012278.570255
 Mol. α(0) /au        :        405.231109


Wiberg/Mayer (AO) data.
largest (>0.10) Wiberg bond orders for each atom

 ---------------------------------------------------------------------------
     #   Z sym  total        # sym  WBO       # sym  WBO       # sym  WBO
 ---------------------------------------------------------------------------
     1  26 Fe   1.105 --    14 C    0.269    22 C    0.239    24 C    0.216
                            23 C    0.211    13 C    0.184    12 C    0.184
                            25 C    0.172    19 C    0.153     4 C    0.140
                            26 C    0.129    10 C    0.120
     2   6 C    3.941 --     9 O    1.619    21 O    1.367    20 C    0.879
     3  46 Pd   3.586 --    19 C    0.753    28 N    0.546    21 O    0.467
                            32 O    0.459    26 C    0.195    12 C    0.137
                            57 C    0.113
     4   6 C    3.962 --    32 O    1.447    10 C    1.182    30 H    0.957
                             1 Fe   0.140
     5   1 H    0.996 --    24 C    0.984
     6   1 H    0.990 --    25 C    0.966
     7   1 H    0.978 --    26 C    0.912
     8   6 C    3.932 --    28 N    1.530    11 O    1.171    46 O    1.075
     9   8 O    1.951 --     2 C    1.619    21 O    0.201
    10   6 C    3.911 --     4 C    1.182    14 C    1.157    19 C    1.133
                             1 Fe   0.120    32 O    0.114
    11   8 O    2.122 --     8 C    1.171    18 H    0.580    28 N    0.134
    12   6 C    3.976 --    19 C    1.277    13 C    1.273    15 H    0.960
                             1 Fe   0.184     3 Pd   0.137
    13   6 C    3.975 --    14 C    1.354    12 C    1.273    16 H    0.986
                             1 Fe   0.184
    14   6 C    3.972 --    13 C    1.354    10 C    1.157    17 H    0.986
                             1 Fe   0.269
    15   1 H    0.995 --    12 C    0.960
    16   1 H    0.995 --    13 C    0.986
    17   1 H    0.995 --    14 C    0.986
    18   1 H    0.885 --    11 O    0.580    19 C    0.205
    19   6 C    3.802 --    12 C    1.277    10 C    1.133     3 Pd   0.753
                            18 H    0.205     1 Fe   0.153
    20   6 C    3.953 --    28 N    0.979    29 H    0.947    33 C    0.944
                             2 C    0.879
    21   8 O    2.186 --     2 C    1.367     3 Pd   0.467     9 O    0.201
    22   6 C    3.972 --    23 C    1.290    26 C    1.269    27 H    0.977
                             1 Fe   0.239
    23   6 C    3.972 --    24 C    1.307    22 C    1.290    31 H    0.987
                             1 Fe   0.211
    24   6 C    3.973 --    23 C    1.307    25 C    1.291     5 H    0.984
                             1 Fe   0.216
    25   6 C    3.975 --    26 C    1.321    24 C    1.291     6 H    0.966
                             1 Fe   0.172
    26   6 C    3.973 --    25 C    1.321    22 C    1.269     7 H    0.912
                             3 Pd   0.195     1 Fe   0.129
    27   1 H    0.995 --    22 C    0.977
    28   7 N    3.376 --     8 C    1.530    20 C    0.979     3 Pd   0.546
                            11 O    0.134
    29   1 H    0.998 --    20 C    0.947
    30   1 H    0.997 --     4 C    0.957
    31   1 H    0.996 --    23 C    0.987
    32   8 O    2.207 --     4 C    1.447     3 Pd   0.459    10 C    0.114
    33   6 C    3.989 --    36 C    1.000    34 C    0.997    35 C    0.996
                            20 C    0.944
    34   6 C    3.993 --    33 C    0.997    38 H    0.986    39 H    0.981
                            37 H    0.943
    35   6 C    3.997 --    33 C    0.996    41 H    0.985    42 H    0.985
                            40 H    0.985
    36   6 C    3.991 --    33 C    1.000    44 H    0.985    45 H    0.985
                            43 H    0.975
    37   1 H    0.994 --    34 C    0.943
    38   1 H    0.998 --    34 C    0.986
    39   1 H    0.997 --    34 C    0.981
    40   1 H    0.998 --    35 C    0.985
    41   1 H    0.998 --    35 C    0.985
    42   1 H    0.999 --    35 C    0.985
    43   1 H    0.995 --    36 C    0.975
    44   1 H    0.999 --    36 C    0.985
    45   1 H    0.998 --    36 C    0.985
    46   8 O    2.237 --     8 C    1.075    47 C    0.940
    47   6 C    3.924 --    61 H    0.970    62 H    0.967    48 C    0.959
                            46 O    0.940
    48   6 C    3.992 --    60 C    0.998    49 C    0.997    47 C    0.959
                            63 H    0.947
    49   6 C    3.985 --    50 C    1.447    54 C    1.332    48 C    0.997
                            52 C    0.103
    50   6 C    3.992 --    49 C    1.447    51 C    1.421    64 H    0.969
                            53 C    0.104
    51   6 C    3.971 --    52 C    1.441    50 C    1.421    65 H    0.972
    52   6 C    3.991 --    53 C    1.442    51 C    1.441    66 H    0.971
                            49 C    0.103
    53   6 C    3.979 --    52 C    1.442    54 C    1.395    67 H    0.967
                            50 C    0.104
    54   6 C    3.989 --    53 C    1.395    49 C    1.332    55 C    1.078
    55   6 C    3.988 --    56 C    1.387    60 C    1.325    54 C    1.078
    56   6 C    3.975 --    57 C    1.397    55 C    1.387    68 H    0.961
                            59 C    0.104
    57   6 C    3.987 --    56 C    1.397    58 C    1.380    69 H    0.942
                             3 Pd   0.113    60 C    0.103
    58   6 C    3.971 --    59 C    1.402    57 C    1.380    70 H    0.955
    59   6 C    3.990 --    60 C    1.433    58 C    1.402    71 H    0.967
                            56 C    0.104
    60   6 C    3.985 --    59 C    1.433    55 C    1.325    48 C    0.998
                            57 C    0.103
    61   1 H    0.995 --    47 C    0.970
    62   1 H    0.996 --    47 C    0.967
    63   1 H    0.997 --    48 C    0.947
    64   1 H    0.999 --    50 C    0.969
    65   1 H    0.999 --    51 C    0.972
    66   1 H    0.998 --    52 C    0.971
    67   1 H    0.997 --    53 C    0.967
    68   1 H    0.995 --    56 C    0.961
    69   1 H    0.992 --    57 C    0.942
    70   1 H    0.996 --    58 C    0.955
    71   1 H    0.998 --    59 C    0.967
 ---------------------------------------------------------------------------

Topologies differ in total number of bonds
Writing topology from bond orders to xtbtopo.mol

molecular dipole:
                 x           y           z       tot (Debye)
 q only:        3.251      -0.826       2.164
   full:        2.559      -0.944       2.529       9.454
molecular quadrupole (traceless):
                xx          xy          yy          xz          yz          zz
 q only:       33.996      14.701     -11.328      -2.630      11.514     -22.668
  q+dip:       35.204       9.062     -14.869      -6.048      14.421     -20.335
   full:       31.173       9.253     -12.095      -6.310      13.569     -19.079


           -------------------------------------------------
          | TOTAL ENERGY             -115.445803213347 Eh   |
          | GRADIENT NORM               0.000176733832 Eh/α |
          | HOMO-LUMO GAP               1.374187058578 eV   |
           -------------------------------------------------
########################################################################
[WARNING] Runtime exception occurred
-1- restart_readRestart: Multiplicity missmatch in restart file.
########################################################################

------------------------------------------------------------------------
 * finished run on 2024/10/15 at 08:33:54.110     
------------------------------------------------------------------------
 total:
 * wall-time:     0 d,  0 h,  0 min,  0.327 sec
 *  cpu-time:     0 d,  0 h,  0 min,  3.497 sec
 * ratio c/w:    10.680 speedup
 SCF:
 * wall-time:     0 d,  0 h,  0 min,  0.122 sec
 *  cpu-time:     0 d,  0 h,  0 min,  1.438 sec
 * ratio c/w:    11.756 speedup

