      -----------------------------------------------------------      
     |                   =====================                   |     
     |                           x T B                           |     
     |                   =====================                   |     
     |                         S. Grimme                         |     
     |          Mulliken Center for Theoretical Chemistry        |     
     |                    University of Bonn                     |     
      -----------------------------------------------------------      

   * xtb version 6.6.1 (8d0f1dd) compiled by 'stahn@M-Bot' on 2023-08-01

   xtb is free software: you can redistribute it and/or modify it under
   the terms of the GNU Lesser General Public License as published by
   the Free Software Foundation, either version 3 of the License, or
   (at your option) any later version.
   
   xtb is distributed in the hope that it will be useful,
   but WITHOUT ANY WARRANTY; without even the implied warranty of
   MERCHANTABILITY or FITNESS FOR A PARTICULAR PURPOSE.  See the
   GNU Lesser General Public License for more details.
   
   Cite this work as:
   * C. Bannwarth, E. Caldeweyher, S. Ehlert, A. Hansen, P. Pracht,
     J. Seibert, S. Spicher, S. Grimme, WIREs Comput. Mol. Sci., 2020, 11,
     e01493. DOI: 10.1002/wcms.1493
   
   for GFN2-xTB:
   * C. Bannwarth, S. Ehlert and S. Grimme., J. Chem. Theory Comput., 2019,
     15, 1652-1671. DOI: 10.1021/acs.jctc.8b01176
   for GFN1-xTB:
   * S. Grimme, C. Bannwarth, P. Shushkov, J. Chem. Theory Comput., 2017,
     13, 1989-2009. DOI: 10.1021/acs.jctc.7b00118
   for GFN0-xTB:
   * P. Pracht, E. Caldeweyher, S. Ehlert, S. Grimme, ChemRxiv, 2019, preprint.
     DOI: 10.26434/chemrxiv.8326202.v1
   for GFN-FF:
   * S. Spicher and S. Grimme, Angew. Chem. Int. Ed., 2020, 59, 15665-15673.
     DOI: 10.1002/anie.202004239
   
   for ALPB and GBSA implicit solvation:
   * S. Ehlert, M. Stahn, S. Spicher, S. Grimme, J. Chem. Theory Comput.,
     2021, 17, 4250-4261. DOI: 10.1021/acs.jctc.1c00471
   
   for DFT-D4:
   * E. Caldeweyher, C. Bannwarth and S. Grimme, J. Chem. Phys., 2017,
     147, 034112. DOI: 10.1063/1.4993215
   * E. Caldeweyher, S. Ehlert, A. Hansen, H. Neugebauer, S. Spicher,
     C. Bannwarth and S. Grimme, J. Chem. Phys., 2019, 150, 154122.
     DOI: 10.1063/1.5090222
   * E. Caldeweyher, J.-M. Mewes, S. Ehlert and S. Grimme, Phys. Chem. Chem. Phys.
     2020, 22, 8499-8512. DOI: 10.1039/D0CP00502A
   
   for sTDA-xTB:
   * S. Grimme and C. Bannwarth, J. Chem. Phys., 2016, 145, 054103.
     DOI: 10.1063/1.4959605
   
   in the mass-spec context:
   * V. Asgeirsson, C. Bauer and S. Grimme, Chem. Sci., 2017, 8, 4879.
     DOI: 10.1039/c7sc00601b
   * J. Koopman and S. Grimme, ACS Omega 2019, 4, 12, 15120-15133.
     DOI: 10.1021/acsomega.9b02011
   
   for metadynamics refer to:
   * S. Grimme, J. Chem. Theory Comput., 2019, 155, 2847-2862
     DOI: 10.1021/acs.jctc.9b00143
   
   for SPH calculations refer to:
   * S. Spicher and S. Grimme, J. Chem. Theory Comput., 2021, 17, 1701-1714
     DOI: 10.1021/acs.jctc.0c01306
   
   with help from (in alphabetical order)
   P. Atkinson, C. Bannwarth, F. Bohle, G. Brandenburg, E. Caldeweyher
   M. Checinski, S. Dohm, S. Ehlert, S. Ehrlich, I. Gerasimov, C. Hölzer
   A. Katbashev, J. Koopman, C. Lavigne, S. Lehtola, F. März, M. Müller,
   F. Musil, H. Neugebauer, J. Pisarek, C. Plett, P. Pracht, F. Pultar,
   J. Seibert, P. Shushkov, S. Spicher, M. Stahn, M. Steiner, T. Strunk,
   J. Stückrath, T. Rose, and J. Unsleber
   
 * started run on 2024/10/15 at 08:33:51.712     

           -------------------------------------------------
          |                Calculation Setup                |
           -------------------------------------------------

          program call               : xtb tsopted.xyz --gfn 2 --charge 0 --vfukui
          coordinate file            : tsopted.xyz
          omp threads                :                    12

   ID    Z sym.   atoms
    1   26 Fe     1
    2    6 C      2, 4, 8, 10, 12-14, 19, 20, 22-26, 33-36, 47-60
    3   46 Pd     3
    4    1 H      5-7, 15-18, 27, 29-31, 37-45, 61-71
    5    8 O      9, 11, 21, 32, 46
    6    7 N      28

           -------------------------------------------------
          |                 G F N 2 - x T B                 |
           -------------------------------------------------

        Reference                      10.1021/acs.jctc.8b01176
      * Hamiltonian:
        H0-scaling (s, p, d)           1.850000    2.230000    2.230000
        zeta-weighting                 0.500000
      * Dispersion:
        s8                             2.700000
        a1                             0.520000
        a2                             5.000000
        s9                             5.000000
      * Repulsion:
        kExp                           1.500000    1.000000
        rExp                           1.000000
      * Coulomb:
        alpha                          2.000000
        third order                    shell-resolved
        anisotropic                    true
        a3                             3.000000
        a5                             4.000000
        cn-shift                       1.200000
        cn-exp                         4.000000
        max-rad                        5.000000


          ...................................................
          :                      SETUP                      :
          :.................................................:
          :  # basis functions                 203          :
          :  # atomic orbitals                 201          :
          :  # shells                          113          :
          :  # electrons                       212          :
          :  max. iterations                   250          :
          :  Hamiltonian                  GFN2-xTB          :
          :  restarted?                      false          :
          :  GBSA solvation                  false          :
          :  PC potential                    false          :
          :  electronic temp.          300.0000000     K    :
          :  accuracy                    1.0000000          :
          :  -> integral cutoff          0.2500000E+02      :
          :  -> integral neglect         0.1000000E-07      :
          :  -> SCF convergence          0.1000000E-05 Eh   :
          :  -> wf. convergence          0.1000000E-03 e    :
          :  Broyden damping             0.4000000          :
          ...................................................

 iter      E             dE          RMSdq      gap      omega  full diag
   1   -116.6642276 -0.116664E+03  0.751E+00    1.14       0.0  T
   2   -116.9958863 -0.331659E+00  0.449E+00    1.61       1.0  T
   3   -117.0494619 -0.535756E-01  0.304E+00    1.69       1.0  T
   4   -117.0336402  0.158217E-01  0.172E+00    1.42       1.0  T
   5   -117.0568006 -0.231603E-01  0.107E+00    1.39       1.0  T
   6   -117.0770424 -0.202419E-01  0.712E-01    1.42       1.0  T
   7   -117.0819159 -0.487347E-02  0.291E-01    1.36       1.0  T
   8   -117.0829136 -0.997739E-03  0.106E-01    1.41       1.0  T
   9   -117.0831997 -0.286086E-03  0.619E-02    1.37       1.0  T
  10   -117.0832146 -0.148961E-04  0.299E-02    1.38       1.0  T
  11   -117.0832229 -0.831177E-05  0.174E-02    1.37       1.0  T
  12   -117.0832282 -0.526502E-05  0.103E-02    1.37       1.2  T
  13   -117.0832300 -0.178063E-05  0.422E-03    1.37       2.8  T
  14   -117.0832302 -0.193425E-06  0.170E-03    1.37       7.0  T
  15   -117.0832302 -0.738868E-07  0.882E-04    1.37      13.4  T
  16   -117.0832303 -0.793294E-08  0.490E-04    1.37      24.2  T

   *** convergence criteria satisfied after 16 iterations ***

         #    Occupation            Energy/Eh            Energy/eV
      -------------------------------------------------------------
         1        2.0000           -0.8415602             -22.9000
       ...           ...                  ...                  ...
       100        2.0000           -0.3727333             -10.1426
       101        2.0000           -0.3703653             -10.0782
       102        2.0000           -0.3538222              -9.6280
       103        2.0000           -0.3525409              -9.5931
       104        2.0000           -0.3444828              -9.3739
       105        2.0000           -0.3365433              -9.1578
       106        2.0000           -0.3308662              -9.0033 (HOMO)
       107                         -0.2803668              -7.6292 (LUMO)
       108                         -0.2686778              -7.3111
       109                         -0.2543999              -6.9226
       110                         -0.2426582              -6.6031
       111                         -0.2356942              -6.4136
       ...                                ...                  ...
       201                          6.6751402             181.6398
      -------------------------------------------------------------
                  HL-Gap            0.0504994 Eh            1.3742 eV
             Fermi-level           -0.3056165 Eh           -8.3162 eV

 SCC (total)                   0 d,  0 h,  0 min,  0.122 sec
 SCC setup                      ...        0 min,  0.004 sec (  2.969%)
 Dispersion                     ...        0 min,  0.001 sec (  1.110%)
 classical contributions        ...        0 min,  0.000 sec (  0.038%)
 integral evaluation            ...        0 min,  0.009 sec (  7.342%)
 iterations                     ...        0 min,  0.093 sec ( 75.751%)
 molecular gradient             ...        0 min,  0.012 sec (  9.569%)
 printout                       ...        0 min,  0.004 sec (  3.181%)

         :::::::::::::::::::::::::::::::::::::::::::::::::::::
         ::                     SUMMARY                     ::
         :::::::::::::::::::::::::::::::::::::::::::::::::::::
         :: total energy            -115.445803212982 Eh    ::
         :: gradient norm              0.000176291199 Eh/a0 ::
         :: HOMO-LUMO gap              1.374157265929 eV    ::
         ::.................................................::
         :: SCC energy              -117.083230256301 Eh    ::
         :: -> isotropic ES           -0.028650765462 Eh    ::
         :: -> anisotropic ES         -0.024856158997 Eh    ::
         :: -> anisotropic XC          0.023566617027 Eh    ::
         :: -> dispersion             -0.123037415063 Eh    ::
         :: repulsion energy           1.631620520354 Eh    ::
         :: add. restraining           0.000000000000 Eh    ::
         :: total charge              -0.000000000000 e     ::
         :::::::::::::::::::::::::::::::::::::::::::::::::::::


Fukui index Calculation

 iter      E             dE          RMSdq      gap      omega  full diag
   1   -117.2260386 -0.117226E+03  0.764E-01    0.32       0.0  T
   2   -117.0862275  0.139811E+00  0.164E+00    0.60       1.0  T
   3   -117.2755699 -0.189342E+00  0.424E-01    0.18       1.0  T
   4   -117.2354882  0.400817E-01  0.648E-01    0.07       1.0  T
   5   -117.2691699 -0.336816E-01  0.359E-01    0.29       1.0  T
   6   -117.2798531 -0.106833E-01  0.236E-01    0.13       1.0  T
   7   -117.2853662 -0.551301E-02  0.125E-01    0.07       1.0  T
   8   -117.2820649  0.330129E-02  0.171E-01    0.02       1.0  T
   9   -117.2830907 -0.102580E-02  0.147E-01    0.09       1.0  T
  10   -117.2862707 -0.318003E-02  0.414E-02    0.06       1.0  T
  11   -117.2862359  0.347387E-04  0.417E-02    0.06       1.0  T
  12   -117.2864919 -0.255966E-03  0.140E-02    0.05       1.0  T
  13   -117.2865157 -0.237706E-04  0.727E-03    0.05       1.6  T
  14   -117.2865237 -0.802742E-05  0.153E-03    0.05       7.7  T
  15   -117.2865236  0.951473E-07  0.140E-03    0.05       8.5  T
  16   -117.2865236 -0.123138E-07  0.120E-03    0.05       9.9  T
  17   -117.2865231  0.535640E-06  0.205E-03    0.05       5.8  T
  18   -117.2865238 -0.687425E-06  0.174E-04    0.05      68.3  T
  19   -117.2865238  0.152369E-07  0.342E-04    0.05      34.7  T
     SCC iter.                  ...        0 min,  0.103 sec
     gradient                   ...        0 min,  0.011 sec

 iter      E             dE          RMSdq      gap      omega  full diag
   1   -116.6386630 -0.116639E+03  0.108E+00    1.37       0.0  T
   2   -116.6369573  0.170561E-02  0.745E-01    1.77       1.0  T
   3   -116.6473704 -0.104131E-01  0.639E-01    1.79       1.0  T
   4   -116.6708248 -0.234543E-01  0.396E-01    1.66       1.0  T
   5   -116.6737315 -0.290672E-02  0.248E-01    1.75       1.0  T
   6   -116.6698053  0.392617E-02  0.292E-01    1.74       1.0  T
   7   -116.6738706 -0.406533E-02  0.183E-01    1.79       1.0  T
   8   -116.6721017  0.176892E-02  0.212E-01    1.71       1.0  T
   9   -116.6766785 -0.457678E-02  0.474E-02    1.75       1.0  T
  10   -116.6767513 -0.728040E-04  0.397E-02    1.76       1.0  T
  11   -116.6768387 -0.874028E-04  0.207E-02    1.76       1.0  T
  12   -116.6768623 -0.236370E-04  0.917E-03    1.75       1.3  T
  13   -116.6768581  0.422920E-05  0.139E-02    1.75       1.0  T
  14   -116.6768618 -0.369164E-05  0.712E-03    1.75       1.7  T
  15   -116.6768662 -0.440119E-05  0.423E-03    1.75       2.8  T
  16   -116.6768670 -0.755985E-06  0.260E-03    1.75       4.6  T
  17   -116.6768674 -0.418886E-06  0.254E-03    1.75       4.7  T
  18   -116.6768677 -0.363532E-06  0.883E-04    1.75      13.4  T
  19   -116.6768678 -0.535425E-07  0.517E-04    1.75      23.0  T
     SCC iter.                  ...        0 min,  0.108 sec
     gradient                   ...        0 min,  0.016 sec

     #        f(+)     f(-)     f(0)
     1Fe     -0.089   -0.056   -0.072
     2C       0.002   -0.005   -0.001
     3Pd     -0.099   -0.217   -0.158
     4C       0.006    0.011    0.008
     5H      -0.035   -0.029   -0.032
     6H      -0.031   -0.018   -0.025
     7H      -0.029   -0.008   -0.018
     8C      -0.000   -0.004   -0.002
     9O      -0.033   -0.086   -0.059
    10C      -0.014   -0.012   -0.013
    11O      -0.017   -0.027   -0.022
    12C      -0.001    0.003    0.001
    13C      -0.009   -0.004   -0.007
    14C      -0.007   -0.005   -0.006
    15H      -0.031   -0.020   -0.026
    16H      -0.036   -0.032   -0.034
    17H      -0.035   -0.032   -0.033
    18H      -0.010   -0.005   -0.008
    19C      -0.007    0.009    0.001
    20C       0.007   -0.011   -0.002
    21O       0.003   -0.021   -0.009
    22C      -0.005   -0.002   -0.004
    23C      -0.017   -0.006   -0.011
    24C      -0.005   -0.005   -0.005
    25C      -0.008   -0.000   -0.004
    26C      -0.005    0.004   -0.001
    27H      -0.034   -0.023   -0.028
    28N       0.001    0.018    0.009
    29H      -0.014   -0.028   -0.021
    30H      -0.033   -0.035   -0.034
    31H      -0.037   -0.030   -0.034
    32O      -0.018   -0.006   -0.012
    33C      -0.001   -0.002   -0.002
    34C       0.008    0.012    0.010
    35C       0.008    0.008    0.008
    36C       0.008    0.011    0.009
    37H       0.017    0.010    0.013
    38H      -0.016   -0.023   -0.019
    39H      -0.006   -0.010   -0.008
    40H      -0.016   -0.024   -0.020
    41H      -0.008   -0.012   -0.010
    42H       0.002   -0.005   -0.001
    43H      -0.004   -0.006   -0.005
    44H      -0.010   -0.014   -0.012
    45H      -0.015   -0.024   -0.020
    46O      -0.017   -0.020   -0.018
    47C       0.008    0.010    0.009
    48C       0.003    0.003    0.003
    49C      -0.009   -0.006   -0.007
    50C      -0.007   -0.005   -0.006
    51C      -0.019   -0.014   -0.016
    52C      -0.008   -0.006   -0.007
    53C      -0.008   -0.003   -0.005
    54C      -0.010   -0.001   -0.006
    55C      -0.012   -0.004   -0.008
    56C      -0.005    0.004   -0.000
    57C       0.001    0.005    0.003
    58C      -0.006   -0.002   -0.004
    59C      -0.002    0.000   -0.001
    60C      -0.010   -0.008   -0.009
    61H      -0.020   -0.022   -0.021
    62H      -0.013   -0.014   -0.014
    63H      -0.025   -0.024   -0.025
    64H      -0.024   -0.021   -0.023
    65H      -0.030   -0.026   -0.028
    66H      -0.026   -0.021   -0.024
    67H      -0.017   -0.008   -0.012
    68H      -0.019   -0.009   -0.014
    69H      -0.014   -0.010   -0.012
    70H      -0.016   -0.016   -0.016
    71H      -0.020   -0.019   -0.020
           -------------------------------------------------
          |                Property Printout                |
           -------------------------------------------------

    * Orbital Energies and Occupations

         #    Occupation            Energy/Eh            Energy/eV
      -------------------------------------------------------------
         1        2.0000           -0.8415602             -22.9000
       ...           ...                  ...                  ...
        94        2.0000           -0.3957052             -10.7677
        95        2.0000           -0.3904533             -10.6248
        96        2.0000           -0.3878874             -10.5550
        97        2.0000           -0.3870698             -10.5327
        98        2.0000           -0.3831636             -10.4264
        99        2.0000           -0.3772049             -10.2643
       100        2.0000           -0.3727333             -10.1426
       101        2.0000           -0.3703653             -10.0782
       102        2.0000           -0.3538222              -9.6280
       103        2.0000           -0.3525409              -9.5931
       104        2.0000           -0.3444828              -9.3739
       105        2.0000           -0.3365433              -9.1578
       106        2.0000           -0.3308662              -9.0033 (HOMO)
       107                         -0.2803668              -7.6292 (LUMO)
       108                         -0.2686778              -7.3111
       109                         -0.2543999              -6.9226
       110                         -0.2426582              -6.6031
       111                         -0.2356942              -6.4136
       112                         -0.2191197              -5.9625
       113                         -0.2111197              -5.7449
       114                         -0.2036737              -5.5422
       115                         -0.1998103              -5.4371
       116                         -0.1824999              -4.9661
       117                         -0.1805702              -4.9136
       ...                                ...                  ...
       201                          6.6751402             181.6398
      -------------------------------------------------------------
                  HL-Gap            0.0504994 Eh            1.3742 eV
             Fermi-level           -0.3056165 Eh           -8.3162 eV

     #   Z          covCN         q      C6AA      α(0)
     1  26 Fe      10.030     1.512   108.466    18.366
     2   6 C        2.709     0.367    20.779     7.461
     3  46 Pd       4.042    -0.162   373.386    35.290
     4   6 C        3.718     0.097    19.093     6.242
     5   1 H        0.927     0.052     2.290     2.366
     6   1 H        0.927     0.092     1.859     2.132
     7   1 H        0.927     0.141     1.456     1.887
     8   6 C        2.736     0.391    20.392     7.393
     9   8 O        0.856    -0.494    23.662     6.522
    10   6 C        3.989    -0.117    22.653     6.762
    11   8 O        1.599    -0.440    21.671     6.283
    12   6 C        3.925    -0.137    23.071     6.826
    13   6 C        3.856    -0.135    23.051     6.828
    14   6 C        3.881    -0.148    23.303     6.863
    15   1 H        0.926     0.061     2.185     2.311
    16   1 H        0.927     0.055     2.255     2.348
    17   1 H        0.927     0.050     2.319     2.381
    18   1 H        0.879     0.335     0.617     1.230
    19   6 C        3.914    -0.177    23.888     6.947
    20   6 C        3.819     0.024    20.151     6.388
    21   8 O        1.497    -0.435    21.680     6.279
    22   6 C        3.901    -0.150    23.339     6.867
    23   6 C        3.886    -0.143    23.196     6.847
    24   6 C        3.885    -0.149    23.312     6.864
    25   6 C        3.884    -0.114    22.627     6.763
    26   6 C        3.883    -0.122    22.785     6.786
    27   1 H        0.927     0.072     2.068     2.249
    28   7 N        2.659    -0.237    26.200     7.602
    29   1 H        0.923     0.027     2.633     2.538
    30   1 H        0.924     0.009     2.902     2.664
    31   1 H        0.927     0.058     2.217     2.328
    32   8 O        1.501    -0.376    20.519     6.108
    33   6 C        3.900     0.026    20.084     6.370
    34   6 C        3.758    -0.131    23.074     6.848
    35   6 C        3.760    -0.108    22.603     6.777
    36   6 C        3.760    -0.118    22.809     6.808
    37   1 H        0.924     0.057     2.233     2.337
    38   1 H        0.925     0.034     2.524     2.485
    39   1 H        0.925     0.049     2.332     2.388
    40   1 H        0.925     0.036     2.498     2.472
    41   1 H        0.925     0.039     2.462     2.454
    42   1 H        0.925     0.021     2.717     2.577
    43   1 H        0.925     0.070     2.089     2.260
    44   1 H        0.925     0.036     2.498     2.472
    45   1 H        0.925     0.034     2.535     2.490
    46   8 O        1.704    -0.278    18.611     5.825
    47   6 C        3.709     0.088    19.244     6.270
    48   6 C        3.889    -0.028    21.028     6.519
    49   6 C        3.051    -0.000    27.991     8.677
    50   6 C        2.914    -0.038    28.944     8.822
    51   6 C        2.922    -0.032    28.807     8.802
    52   6 C        2.922    -0.030    28.739     8.791
    53   6 C        2.914    -0.028    28.696     8.784
    54   6 C        3.037     0.004    27.890     8.662
    55   6 C        3.036     0.010    27.750     8.640
    56   6 C        2.911    -0.008    28.207     8.709
    57   6 C        2.940     0.008    27.848     8.655
    58   6 C        2.921    -0.012    28.305     8.725
    59   6 C        2.911    -0.028    28.705     8.785
    60   6 C        3.048     0.001    27.952     8.671
    61   1 H        0.924     0.058     2.226     2.333
    62   1 H        0.924     0.056     2.243     2.342
    63   1 H        0.924     0.046     2.375     2.410
    64   1 H        0.926     0.022     2.699     2.569
    65   1 H        0.926     0.029     2.603     2.523
    66   1 H        0.926     0.035     2.512     2.479
    67   1 H        0.926     0.052     2.294     2.369
    68   1 H        0.926     0.059     2.206     2.322
    69   1 H        0.925     0.077     2.008     2.216
    70   1 H        0.925     0.051     2.312     2.378
    71   1 H        0.926     0.033     2.538     2.491

 Mol. C6AA /au·bohr⁶  :      68308.693382
 Mol. C8AA /au·bohr⁸  :    2012278.374722
 Mol. α(0) /au        :        405.231021


Wiberg/Mayer (AO) data.
largest (>0.10) Wiberg bond orders for each atom

 ---------------------------------------------------------------------------
     #   Z sym  total        # sym  WBO       # sym  WBO       # sym  WBO
 ---------------------------------------------------------------------------
     1  26 Fe   1.105 --    14 C    0.269    22 C    0.239    24 C    0.216
                            23 C    0.211    13 C    0.184    12 C    0.184
                            25 C    0.172    19 C    0.153     4 C    0.140
                            26 C    0.129    10 C    0.120
     2   6 C    3.941 --     9 O    1.619    21 O    1.367    20 C    0.879
     3  46 Pd   3.586 --    19 C    0.753    28 N    0.546    21 O    0.467
                            32 O    0.459    26 C    0.195    12 C    0.137
                            57 C    0.113
     4   6 C    3.962 --    32 O    1.447    10 C    1.182    30 H    0.957
                             1 Fe   0.140
     5   1 H    0.996 --    24 C    0.984
     6   1 H    0.990 --    25 C    0.966
     7   1 H    0.978 --    26 C    0.912
     8   6 C    3.932 --    28 N    1.530    11 O    1.171    46 O    1.075
     9   8 O    1.951 --     2 C    1.619    21 O    0.201
    10   6 C    3.911 --     4 C    1.182    14 C    1.157    19 C    1.133
                             1 Fe   0.120    32 O    0.114
    11   8 O    2.122 --     8 C    1.171    18 H    0.580    28 N    0.134
    12   6 C    3.976 --    19 C    1.277    13 C    1.273    15 H    0.960
                             1 Fe   0.184     3 Pd   0.137
    13   6 C    3.975 --    14 C    1.354    12 C    1.273    16 H    0.986
                             1 Fe   0.184
    14   6 C    3.972 --    13 C    1.354    10 C    1.157    17 H    0.986
                             1 Fe   0.269
    15   1 H    0.995 --    12 C    0.960
    16   1 H    0.995 --    13 C    0.986
    17   1 H    0.995 --    14 C    0.986
    18   1 H    0.885 --    11 O    0.580    19 C    0.205
    19   6 C    3.802 --    12 C    1.277    10 C    1.133     3 Pd   0.753
                            18 H    0.205     1 Fe   0.153
    20   6 C    3.953 --    28 N    0.979    29 H    0.947    33 C    0.944
                             2 C    0.879
    21   8 O    2.186 --     2 C    1.367     3 Pd   0.467     9 O    0.201
    22   6 C    3.972 --    23 C    1.290    26 C    1.269    27 H    0.977
                             1 Fe   0.239
    23   6 C    3.972 --    24 C    1.307    22 C    1.290    31 H    0.987
                             1 Fe   0.211
    24   6 C    3.973 --    23 C    1.307    25 C    1.291     5 H    0.984
                             1 Fe   0.216
    25   6 C    3.975 --    26 C    1.321    24 C    1.291     6 H    0.966
                             1 Fe   0.172
    26   6 C    3.973 --    25 C    1.321    22 C    1.269     7 H    0.912
                             3 Pd   0.195     1 Fe   0.129
    27   1 H    0.995 --    22 C    0.977
    28   7 N    3.376 --     8 C    1.530    20 C    0.979     3 Pd   0.546
                            11 O    0.134
    29   1 H    0.998 --    20 C    0.947
    30   1 H    0.997 --     4 C    0.957
    31   1 H    0.996 --    23 C    0.987
    32   8 O    2.207 --     4 C    1.447     3 Pd   0.459    10 C    0.114
    33   6 C    3.989 --    36 C    1.000    34 C    0.997    35 C    0.996
                            20 C    0.944
    34   6 C    3.993 --    33 C    0.997    38 H    0.986    39 H    0.981
                            37 H    0.943
    35   6 C    3.997 --    33 C    0.996    41 H    0.985    42 H    0.985
                            40 H    0.985
    36   6 C    3.991 --    33 C    1.000    44 H    0.985    45 H    0.985
                            43 H    0.975
    37   1 H    0.994 --    34 C    0.943
    38   1 H    0.998 --    34 C    0.986
    39   1 H    0.997 --    34 C    0.981
    40   1 H    0.998 --    35 C    0.985
    41   1 H    0.998 --    35 C    0.985
    42   1 H    0.999 --    35 C    0.985
    43   1 H    0.995 --    36 C    0.975
    44   1 H    0.999 --    36 C    0.985
    45   1 H    0.998 --    36 C    0.985
    46   8 O    2.237 --     8 C    1.075    47 C    0.940
    47   6 C    3.924 --    61 H    0.970    62 H    0.967    48 C    0.959
                            46 O    0.940
    48   6 C    3.992 --    60 C    0.998    49 C    0.997    47 C    0.959
                            63 H    0.947
    49   6 C    3.985 --    50 C    1.447    54 C    1.332    48 C    0.997
                            52 C    0.103
    50   6 C    3.992 --    49 C    1.447    51 C    1.421    64 H    0.969
                            53 C    0.104
    51   6 C    3.971 --    52 C    1.441    50 C    1.421    65 H    0.972
    52   6 C    3.991 --    53 C    1.442    51 C    1.441    66 H    0.971
                            49 C    0.103
    53   6 C    3.979 --    52 C    1.442    54 C    1.395    67 H    0.967
                            50 C    0.104
    54   6 C    3.989 --    53 C    1.395    49 C    1.332    55 C    1.078
    55   6 C    3.988 --    56 C    1.387    60 C    1.325    54 C    1.078
    56   6 C    3.975 --    57 C    1.397    55 C    1.387    68 H    0.961
                            59 C    0.104
    57   6 C    3.987 --    56 C    1.397    58 C    1.380    69 H    0.942
                             3 Pd   0.113    60 C    0.103
    58   6 C    3.971 --    59 C    1.402    57 C    1.380    70 H    0.955
    59   6 C    3.990 --    60 C    1.433    58 C    1.402    71 H    0.967
                            56 C    0.104
    60   6 C    3.985 --    59 C    1.433    55 C    1.325    48 C    0.998
                            57 C    0.103
    61   1 H    0.995 --    47 C    0.970
    62   1 H    0.996 --    47 C    0.967
    63   1 H    0.997 --    48 C    0.947
    64   1 H    0.999 --    50 C    0.969
    65   1 H    0.999 --    51 C    0.972
    66   1 H    0.998 --    52 C    0.971
    67   1 H    0.997 --    53 C    0.967
    68   1 H    0.995 --    56 C    0.961
    69   1 H    0.992 --    57 C    0.942
    70   1 H    0.996 --    58 C    0.955
    71   1 H    0.998 --    59 C    0.967
 ---------------------------------------------------------------------------

Topologies differ in total number of bonds
Writing topology from bond orders to xtbtopo.mol

molecular dipole:
                 x           y           z       tot (Debye)
 q only:        3.251      -0.826       2.164
   full:        2.559      -0.944       2.528       9.454
molecular quadrupole (traceless):
                xx          xy          yy          xz          yz          zz
 q only:       33.993      14.702     -11.327      -2.630      11.514     -22.666
  q+dip:       35.202       9.063     -14.868      -6.048      14.420     -20.334
   full:       31.172       9.253     -12.094      -6.310      13.569     -19.078


           -------------------------------------------------
          | TOTAL ENERGY             -115.445803212982 Eh   |
          | GRADIENT NORM               0.000176291199 Eh/α |
          | HOMO-LUMO GAP               1.374157265929 eV   |
           -------------------------------------------------

------------------------------------------------------------------------
 * finished run on 2024/10/15 at 08:33:52.293     
------------------------------------------------------------------------
 total:
 * wall-time:     0 d,  0 h,  0 min,  0.581 sec
 *  cpu-time:     0 d,  0 h,  0 min,  6.553 sec
 * ratio c/w:    11.287 speedup
 SCF:
 * wall-time:     0 d,  0 h,  0 min,  0.126 sec
 *  cpu-time:     0 d,  0 h,  0 min,  1.482 sec
 * ratio c/w:    11.770 speedup

