      -----------------------------------------------------------      
     |                   =====================                   |     
     |                           x T B                           |     
     |                   =====================                   |     
     |                         S. Grimme                         |     
     |          Mulliken Center for Theoretical Chemistry        |     
     |                    University of Bonn                     |     
      -----------------------------------------------------------      

   * xtb version 6.6.1 (8d0f1dd) compiled by 'stahn@M-Bot' on 2023-08-01

   xtb is free software: you can redistribute it and/or modify it under
   the terms of the GNU Lesser General Public License as published by
   the Free Software Foundation, either version 3 of the License, or
   (at your option) any later version.
   
   xtb is distributed in the hope that it will be useful,
   but WITHOUT ANY WARRANTY; without even the implied warranty of
   MERCHANTABILITY or FITNESS FOR A PARTICULAR PURPOSE.  See the
   GNU Lesser General Public License for more details.
   
   Cite this work as:
   * C. Bannwarth, E. Caldeweyher, S. Ehlert, A. Hansen, P. Pracht,
     J. Seibert, S. Spicher, S. Grimme, WIREs Comput. Mol. Sci., 2020, 11,
     e01493. DOI: 10.1002/wcms.1493
   
   for GFN2-xTB:
   * C. Bannwarth, S. Ehlert and S. Grimme., J. Chem. Theory Comput., 2019,
     15, 1652-1671. DOI: 10.1021/acs.jctc.8b01176
   for GFN1-xTB:
   * S. Grimme, C. Bannwarth, P. Shushkov, J. Chem. Theory Comput., 2017,
     13, 1989-2009. DOI: 10.1021/acs.jctc.7b00118
   for GFN0-xTB:
   * P. Pracht, E. Caldeweyher, S. Ehlert, S. Grimme, ChemRxiv, 2019, preprint.
     DOI: 10.26434/chemrxiv.8326202.v1
   for GFN-FF:
   * S. Spicher and S. Grimme, Angew. Chem. Int. Ed., 2020, 59, 15665-15673.
     DOI: 10.1002/anie.202004239
   
   for ALPB and GBSA implicit solvation:
   * S. Ehlert, M. Stahn, S. Spicher, S. Grimme, J. Chem. Theory Comput.,
     2021, 17, 4250-4261. DOI: 10.1021/acs.jctc.1c00471
   
   for DFT-D4:
   * E. Caldeweyher, C. Bannwarth and S. Grimme, J. Chem. Phys., 2017,
     147, 034112. DOI: 10.1063/1.4993215
   * E. Caldeweyher, S. Ehlert, A. Hansen, H. Neugebauer, S. Spicher,
     C. Bannwarth and S. Grimme, J. Chem. Phys., 2019, 150, 154122.
     DOI: 10.1063/1.5090222
   * E. Caldeweyher, J.-M. Mewes, S. Ehlert and S. Grimme, Phys. Chem. Chem. Phys.
     2020, 22, 8499-8512. DOI: 10.1039/D0CP00502A
   
   for sTDA-xTB:
   * S. Grimme and C. Bannwarth, J. Chem. Phys., 2016, 145, 054103.
     DOI: 10.1063/1.4959605
   
   in the mass-spec context:
   * V. Asgeirsson, C. Bauer and S. Grimme, Chem. Sci., 2017, 8, 4879.
     DOI: 10.1039/c7sc00601b
   * J. Koopman and S. Grimme, ACS Omega 2019, 4, 12, 15120-15133.
     DOI: 10.1021/acsomega.9b02011
   
   for metadynamics refer to:
   * S. Grimme, J. Chem. Theory Comput., 2019, 155, 2847-2862
     DOI: 10.1021/acs.jctc.9b00143
   
   for SPH calculations refer to:
   * S. Spicher and S. Grimme, J. Chem. Theory Comput., 2021, 17, 1701-1714
     DOI: 10.1021/acs.jctc.0c01306
   
   with help from (in alphabetical order)
   P. Atkinson, C. Bannwarth, F. Bohle, G. Brandenburg, E. Caldeweyher
   M. Checinski, S. Dohm, S. Ehlert, S. Ehrlich, I. Gerasimov, C. Hölzer
   A. Katbashev, J. Koopman, C. Lavigne, S. Lehtola, F. März, M. Müller,
   F. Musil, H. Neugebauer, J. Pisarek, C. Plett, P. Pracht, F. Pultar,
   J. Seibert, P. Shushkov, S. Spicher, M. Stahn, M. Steiner, T. Strunk,
   J. Stückrath, T. Rose, and J. Unsleber
   
 * started run on 2024/10/15 at 08:33:52.932     

           -------------------------------------------------
          |                Calculation Setup                |
           -------------------------------------------------

          program call               : xtb tsopted.xyz --gfn 2 --charge 0 --vomega
          coordinate file            : tsopted.xyz
          omp threads                :                    12

   ID    Z sym.   atoms
    1   26 Fe     1
    2    6 C      2, 4, 8, 10, 12-14, 19, 20, 22-26, 33-36, 47-60
    3   46 Pd     3
    4    1 H      5-7, 15-18, 27, 29-31, 37-45, 61-71
    5    8 O      9, 11, 21, 32, 46
    6    7 N      28

           -------------------------------------------------
          |                 G F N 2 - x T B                 |
           -------------------------------------------------

        Reference                      10.1021/acs.jctc.8b01176
      * Hamiltonian:
        H0-scaling (s, p, d)           1.850000    2.230000    2.230000
        zeta-weighting                 0.500000
      * Dispersion:
        s8                             2.700000
        a1                             0.520000
        a2                             5.000000
        s9                             5.000000
      * Repulsion:
        kExp                           1.500000    1.000000
        rExp                           1.000000
      * Coulomb:
        alpha                          2.000000
        third order                    shell-resolved
        anisotropic                    true
        a3                             3.000000
        a5                             4.000000
        cn-shift                       1.200000
        cn-exp                         4.000000
        max-rad                        5.000000

q/qsh data taken from xtbrestart
CAMM data taken from xtbrestart

          ...................................................
          :                      SETUP                      :
          :.................................................:
          :  # basis functions                 203          :
          :  # atomic orbitals                 201          :
          :  # shells                          113          :
          :  # electrons                       212          :
          :  max. iterations                   250          :
          :  Hamiltonian                  GFN2-xTB          :
          :  restarted?                       true          :
          :  GBSA solvation                  false          :
          :  PC potential                    false          :
          :  electronic temp.          300.0000000     K    :
          :  accuracy                    1.0000000          :
          :  -> integral cutoff          0.2500000E+02      :
          :  -> integral neglect         0.1000000E-07      :
          :  -> SCF convergence          0.1000000E-05 Eh   :
          :  -> wf. convergence          0.1000000E-03 e    :
          :  Broyden damping             0.4000000          :
          ...................................................

 iter      E             dE          RMSdq      gap      omega  full diag
   1   -117.0593007 -0.117059E+03  0.551E-01    1.68       0.0  T
   2   -117.0724571 -0.131564E-01  0.603E-01    1.21       1.0  T
   3   -117.0825572 -0.101001E-01  0.270E-01    1.36       1.0  T
   4   -117.0828433 -0.286088E-03  0.205E-01    1.36       1.0  T
   5   -117.0831668 -0.323474E-03  0.929E-02    1.37       1.0  T
   6   -117.0832157 -0.489635E-04  0.428E-02    1.37       1.0  T
   7   -117.0832151  0.648303E-06  0.317E-02    1.37       1.0  T
   8   -117.0832256 -0.105314E-04  0.124E-02    1.37       1.0  T
   9   -117.0832285 -0.289912E-05  0.775E-03    1.37       1.5  T
  10   -117.0832300 -0.151928E-05  0.301E-03    1.37       3.9  T
  11   -117.0832301 -0.103778E-06  0.204E-03    1.37       5.8  T
  12   -117.0832302 -0.890484E-07  0.121E-03    1.37       9.8  T
  13   -117.0832303 -0.179179E-07  0.751E-04    1.37      15.8  T
  14   -117.0832303 -0.103218E-08  0.396E-04    1.37      30.0  T

   *** convergence criteria satisfied after 14 iterations ***

         #    Occupation            Energy/Eh            Energy/eV
      -------------------------------------------------------------
         1        2.0000           -0.8415662             -22.9002
       ...           ...                  ...                  ...
       100        2.0000           -0.3727238             -10.1423
       101        2.0000           -0.3703567             -10.0779
       102        2.0000           -0.3538124              -9.6277
       103        2.0000           -0.3525313              -9.5929
       104        2.0000           -0.3444728              -9.3736
       105        2.0000           -0.3365332              -9.1575
       106        2.0000           -0.3308571              -9.0031 (HOMO)
       107                         -0.2803566              -7.6289 (LUMO)
       108                         -0.2686681              -7.3108
       109                         -0.2543904              -6.9223
       110                         -0.2426498              -6.6028
       111                         -0.2356844              -6.4133
       ...                                ...                  ...
       201                          6.6751637             181.6405
      -------------------------------------------------------------
                  HL-Gap            0.0505004 Eh            1.3742 eV
             Fermi-level           -0.3056068 Eh           -8.3160 eV

 SCC (total)                   0 d,  0 h,  0 min,  0.159 sec
 SCC setup                      ...        0 min,  0.005 sec (  3.341%)
 Dispersion                     ...        0 min,  0.002 sec (  1.003%)
 classical contributions        ...        0 min,  0.000 sec (  0.037%)
 integral evaluation            ...        0 min,  0.008 sec (  5.003%)
 iterations                     ...        0 min,  0.126 sec ( 78.814%)
 molecular gradient             ...        0 min,  0.014 sec (  8.797%)
 printout                       ...        0 min,  0.005 sec (  2.971%)

         :::::::::::::::::::::::::::::::::::::::::::::::::::::
         ::                     SUMMARY                     ::
         :::::::::::::::::::::::::::::::::::::::::::::::::::::
         :: total energy            -115.445803213347 Eh    ::
         :: gradient norm              0.000176733832 Eh/a0 ::
         :: HOMO-LUMO gap              1.374187058578 eV    ::
         ::.................................................::
         :: SCC energy              -117.083230256666 Eh    ::
         :: -> isotropic ES           -0.028657623225 Eh    ::
         :: -> anisotropic ES         -0.024857204775 Eh    ::
         :: -> anisotropic XC          0.023567442472 Eh    ::
         :: -> dispersion             -0.123037645454 Eh    ::
         :: repulsion energy           1.631620520354 Eh    ::
         :: add. restraining           0.000000000000 Eh    ::
         :: total charge               0.000039695493 e     ::
         :::::::::::::::::::::::::::::::::::::::::::::::::::::

           ------------------------------------------------- 
          |        vertical delta SCC IP calculation        |
           ------------------------------------------------- 

 iter      E             dE          RMSdq      gap      omega  full diag
   1   -116.6386628 -0.116639E+03  0.108E+00    1.37       0.0  T
   2   -116.6369578  0.170500E-02  0.745E-01    1.77       1.0  T
   3   -116.6473702 -0.104123E-01  0.639E-01    1.79       1.0  T
   4   -116.6708235 -0.234533E-01  0.396E-01    1.66       1.0  T
   5   -116.6737293 -0.290584E-02  0.248E-01    1.75       1.0  T
   6   -116.6698099  0.391944E-02  0.291E-01    1.74       1.0  T
   7   -116.6738703 -0.406043E-02  0.183E-01    1.79       1.0  T
   8   -116.6720970  0.177329E-02  0.212E-01    1.71       1.0  T
   9   -116.6766782 -0.458116E-02  0.475E-02    1.75       1.0  T
  10   -116.6767514 -0.732139E-04  0.397E-02    1.76       1.0  T
  11   -116.6768387 -0.872992E-04  0.207E-02    1.76       1.0  T
  12   -116.6768623 -0.236611E-04  0.917E-03    1.75       1.3  T
  13   -116.6768581  0.419846E-05  0.139E-02    1.75       1.0  T
  14   -116.6768618 -0.367567E-05  0.711E-03    1.75       1.7  T
  15   -116.6768662 -0.439336E-05  0.423E-03    1.75       2.8  T
  16   -116.6768670 -0.760306E-06  0.259E-03    1.75       4.6  T
  17   -116.6768674 -0.416792E-06  0.253E-03    1.75       4.7  T
  18   -116.6768677 -0.362484E-06  0.883E-04    1.75      13.4  T
  19   -116.6768678 -0.535539E-07  0.517E-04    1.75      23.0  T
     SCC iter.                  ...        0 min,  0.256 sec
     gradient                   ...        0 min,  0.013 sec
------------------------------------------------------------------------
empirical IP shift (eV):    4.8455
delta SCC IP (eV):    6.2122
------------------------------------------------------------------------
           ------------------------------------------------- 
          |        vertical delta SCC EA calculation        |
           ------------------------------------------------- 

 iter      E             dE          RMSdq      gap      omega  full diag
   1   -117.1941093 -0.117194E+03  0.100E+00    0.34       0.0  T
   2   -117.0987901  0.953192E-01  0.166E+00    0.35       1.0  T
   3   -117.2627802 -0.163990E+00  0.606E-01    0.30       1.0  T
   4   -117.2592129  0.356731E-02  0.654E-01    0.01       1.0  T
   5   -117.2672889 -0.807603E-02  0.473E-01    0.16       1.0  T
   6   -117.2819506 -0.146617E-01  0.237E-01    0.02       1.0  T
   7   -117.2705176  0.114330E-01  0.324E-01    0.24       1.0  T
   8   -117.2816207 -0.111032E-01  0.190E-01    0.02       1.0  T
   9   -117.2796882  0.193250E-02  0.201E-01    0.13       1.0  T
  10   -117.2844308 -0.474252E-02  0.113E-01    0.03       1.0  T
  11   -117.2848281 -0.397387E-03  0.101E-01    0.08       1.0  T
  12   -117.2865030 -0.167482E-02  0.136E-02    0.05       1.0  T
  13   -117.2865227 -0.197621E-04  0.565E-03    0.05       2.1  T
  14   -117.2865222  0.499612E-06  0.457E-03    0.05       2.6  T
  15   -117.2864629  0.593152E-04  0.190E-02    0.05       1.0  T
  16   -117.2865212 -0.582465E-04  0.410E-03    0.05       2.9  T
  17   -117.2865208  0.335466E-06  0.423E-03    0.05       2.8  T
  18   -117.2865237 -0.291175E-05  0.611E-04    0.05      19.4  T
  19   -117.2865237  0.438324E-07  0.767E-04    0.05      15.5  T
  20   -117.2865238 -0.820657E-07  0.300E-04    0.05      39.5  T
     SCC iter.                  ...        0 min,  0.121 sec
     gradient                   ...        0 min,  0.013 sec
------------------------------------------------------------------------
empirical EA shift (eV):    4.8455
delta SCC EA (eV):    0.6864
------------------------------------------------------------------------

------------------------------------------------------------------------
Calculation of global electrophilicity index (IP+EA)²/(8·(IP-EA))
Global electrophilicity index (eV):    1.0766
------------------------------------------------------------------------
           -------------------------------------------------
          |                Property Printout                |
           -------------------------------------------------

    * Orbital Energies and Occupations

         #    Occupation            Energy/Eh            Energy/eV
      -------------------------------------------------------------
         1        2.0000           -0.7103189             -19.3288
       ...           ...                  ...                  ...
        95        2.0000           -0.2715857              -7.3902
        96        2.0000           -0.2675700              -7.2809
        97        2.0000           -0.2618150              -7.1243
        98        2.0000           -0.2534332              -6.8963
        99        2.0000           -0.2426207              -6.6020
       100        2.0000           -0.2373743              -6.4593
       101        2.0000           -0.2335933              -6.3564
       102        2.0000           -0.2297475              -6.2517
       103        2.0000           -0.2199865              -5.9861
       104        2.0000           -0.2171243              -5.9083
       105        2.0000           -0.2002497              -5.4491
       106        2.0000           -0.1977071              -5.3799
       107        0.7292           -0.1359307              -3.6989 (HOMO)
       108        0.2708           -0.1340488              -3.6477 (LUMO)
       109        0.0000           -0.1252658              -3.4087
       110                         -0.1186875              -3.2297
       111                         -0.1108956              -3.0176
       112                         -0.1037990              -2.8245
       113                         -0.0973264              -2.6484
       114                         -0.0839625              -2.2847
       115                         -0.0727251              -1.9790
       116                         -0.0649156              -1.7664
       117                         -0.0446655              -1.2154
       118                         -0.0434040              -1.1811
       ...                                ...                  ...
       201                          6.8029957             185.1189
      -------------------------------------------------------------
                  HL-Gap            0.0018819 Eh            0.0512 eV
             Fermi-level           -0.1509044 Eh           -4.1063 eV

     #   Z          covCN         q      C6AA      α(0)
     1  26 Fe      10.030     1.424   109.472    18.451
     2   6 C        2.709     0.369    20.740     7.454
     3  46 Pd       4.042    -0.261   379.278    35.567
     4   6 C        3.718     0.103    19.002     6.227
     5   1 H        0.927     0.017     2.777     2.606
     6   1 H        0.927     0.061     2.190     2.314
     7   1 H        0.927     0.112     1.680     2.027
     8   6 C        2.736     0.390    20.399     7.395
     9   8 O        0.856    -0.527    24.400     6.623
    10   6 C        3.989    -0.131    22.936     6.804
    11   8 O        1.599    -0.456    22.008     6.331
    12   6 C        3.925    -0.138    23.088     6.829
    13   6 C        3.856    -0.144    23.238     6.856
    14   6 C        3.881    -0.155    23.443     6.884
    15   1 H        0.926     0.030     2.588     2.516
    16   1 H        0.927     0.020     2.738     2.588
    17   1 H        0.927     0.016     2.802     2.617
    18   1 H        0.879     0.325     0.642     1.254
    19   6 C        3.914    -0.185    24.041     6.969
    20   6 C        3.819     0.031    20.033     6.370
    21   8 O        1.497    -0.432    21.622     6.270
    22   6 C        3.901    -0.155    23.441     6.882
    23   6 C        3.886    -0.160    23.532     6.897
    24   6 C        3.885    -0.154    23.419     6.880
    25   6 C        3.884    -0.123    22.791     6.787
    26   6 C        3.883    -0.128    22.892     6.802
    27   1 H        0.927     0.038     2.481     2.463
    28   7 N        2.659    -0.236    26.179     7.599
    29   1 H        0.923     0.012     2.853     2.642
    30   1 H        0.924    -0.023     3.500     2.925
    31   1 H        0.927     0.021     2.716     2.577
    32   8 O        1.501    -0.394    20.861     6.159
    33   6 C        3.900     0.025    20.102     6.373
    34   6 C        3.758    -0.123    22.917     6.825
    35   6 C        3.760    -0.100    22.455     6.755
    36   6 C        3.760    -0.110    22.650     6.785
    37   1 H        0.924     0.074     2.045     2.236
    38   1 H        0.925     0.019     2.751     2.594
    39   1 H        0.925     0.043     2.412     2.429
    40   1 H        0.925     0.021     2.724     2.581
    41   1 H        0.925     0.031     2.570     2.507
    42   1 H        0.925     0.023     2.682     2.561
    43   1 H        0.925     0.065     2.137     2.286
    44   1 H        0.925     0.027     2.632     2.537
    45   1 H        0.925     0.019     2.756     2.596
    46   8 O        1.704    -0.295    18.908     5.871
    47   6 C        3.709     0.096    19.124     6.250
    48   6 C        3.889    -0.025    20.968     6.510
    49   6 C        3.051    -0.010    28.210     8.711
    50   6 C        2.914    -0.045    29.116     8.848
    51   6 C        2.922    -0.051    29.268     8.872
    52   6 C        2.922    -0.038    28.942     8.822
    53   6 C        2.914    -0.036    28.893     8.814
    54   6 C        3.037    -0.006    28.123     8.698
    55   6 C        3.036    -0.001    28.025     8.683
    56   6 C        2.911    -0.012    28.319     8.726
    57   6 C        2.940     0.009    27.827     8.652
    58   6 C        2.921    -0.018    28.455     8.748
    59   6 C        2.911    -0.031    28.766     8.795
    60   6 C        3.048    -0.008    28.177     8.706
    61   1 H        0.924     0.037     2.483     2.464
    62   1 H        0.924     0.043     2.406     2.426
    63   1 H        0.924     0.021     2.724     2.581
    64   1 H        0.926    -0.002     3.093     2.750
    65   1 H        0.926    -0.001     3.077     2.743
    66   1 H        0.926     0.009     2.899     2.663
    67   1 H        0.926     0.035     2.512     2.478
    68   1 H        0.926     0.041     2.438     2.441
    69   1 H        0.925     0.063     2.167     2.302
    70   1 H        0.925     0.034     2.526     2.485
    71   1 H        0.926     0.013     2.839     2.635

 Mol. C6AA /au·bohr⁶  :      70005.717014
 Mol. C8AA /au·bohr⁸  :    2049772.267375
 Mol. α(0) /au        :        410.306174


Wiberg/Mayer (AO) data.
largest (>0.10) Wiberg bond orders for each atom

 ---------------------------------------------------------------------------
     #   Z sym  total        # sym  WBO       # sym  WBO       # sym  WBO
 ---------------------------------------------------------------------------
     1  26 Fe   0.882 --    14 C    0.249    22 C    0.238    24 C    0.215
                            12 C    0.193     4 C    0.172    13 C    0.142
                            23 C    0.138    25 C    0.125    10 C    0.113
                            19 C    0.103
     2   6 C    3.940 --     9 O    1.591    21 O    1.397    20 C    0.877
     3  46 Pd   3.580 --    19 C    0.763    28 N    0.498    32 O    0.467
                            21 O    0.431    26 C    0.203    12 C    0.138
                            57 C    0.112
     4   6 C    3.966 --    32 O    1.415    10 C    1.191    30 H    0.958
                             1 Fe   0.172
     5   1 H    0.998 --    24 C    0.987
     6   1 H    0.995 --    25 C    0.972
     7   1 H    0.985 --    26 C    0.919
     8   6 C    3.923 --    28 N    1.541    11 O    1.170    46 O    1.053
     9   8 O    1.916 --     2 C    1.591    21 O    0.205
    10   6 C    3.903 --     4 C    1.191    14 C    1.150    19 C    1.134
                            32 O    0.115     1 Fe   0.113
    11   8 O    2.098 --     8 C    1.170    18 H    0.555    28 N    0.134
    12   6 C    3.972 --    13 C    1.276    19 C    1.267    15 H    0.963
                             1 Fe   0.193     3 Pd   0.138
    13   6 C    3.958 --    14 C    1.373    12 C    1.276    16 H    0.991
                             1 Fe   0.142
    14   6 C    3.965 --    13 C    1.373    10 C    1.150    17 H    0.990
                             1 Fe   0.249
    15   1 H    0.998 --    12 C    0.963
    16   1 H    0.997 --    13 C    0.991
    17   1 H    0.997 --    14 C    0.990
    18   1 H    0.888 --    11 O    0.555    19 C    0.229
    19   6 C    3.777 --    12 C    1.267    10 C    1.134     3 Pd   0.763
                            18 H    0.229     1 Fe   0.103
    20   6 C    3.958 --    28 N    0.985    29 H    0.949    33 C    0.947
                             2 C    0.877
    21   8 O    2.176 --     2 C    1.397     3 Pd   0.431     9 O    0.205
    22   6 C    3.968 --    23 C    1.304    26 C    1.256    27 H    0.981
                             1 Fe   0.238
    23   6 C    3.934 --    24 C    1.322    22 C    1.304    31 H    0.992
                             1 Fe   0.138
    24   6 C    3.967 --    23 C    1.322    25 C    1.276     5 H    0.987
                             1 Fe   0.215
    25   6 C    3.962 --    26 C    1.354    24 C    1.276     6 H    0.972
                             1 Fe   0.125
    26   6 C    3.962 --    25 C    1.354    22 C    1.256     7 H    0.919
                             3 Pd   0.203
    27   1 H    0.998 --    22 C    0.981
    28   7 N    3.346 --     8 C    1.541    20 C    0.985     3 Pd   0.498
                            11 O    0.134
    29   1 H    0.998 --    20 C    0.949
    30   1 H    0.996 --     4 C    0.958
    31   1 H    0.999 --    23 C    0.992
    32   8 O    2.189 --     4 C    1.415     3 Pd   0.467    10 C    0.115
    33   6 C    3.990 --    36 C    1.000    34 C    0.998    35 C    0.995
                            20 C    0.947
    34   6 C    3.991 --    33 C    0.998    38 H    0.987    39 H    0.982
                            37 H    0.942
    35   6 C    3.998 --    33 C    0.995    40 H    0.986    41 H    0.986
                            42 H    0.985
    36   6 C    3.993 --    33 C    1.000    44 H    0.986    45 H    0.986
                            43 H    0.976
    37   1 H    0.991 --    34 C    0.942
    38   1 H    0.999 --    34 C    0.987
    39   1 H    0.998 --    34 C    0.982
    40   1 H    0.999 --    35 C    0.986
    41   1 H    0.999 --    35 C    0.986
    42   1 H    0.999 --    35 C    0.985
    43   1 H    0.996 --    36 C    0.976
    44   1 H    0.999 --    36 C    0.986
    45   1 H    0.999 --    36 C    0.986
    46   8 O    2.214 --     8 C    1.053    47 C    0.947
    47   6 C    3.928 --    61 H    0.972    62 H    0.968    48 C    0.958
                            46 O    0.947
    48   6 C    3.991 --    60 C    0.996    49 C    0.996    47 C    0.958
                            63 H    0.951
    49   6 C    3.955 --    50 C    1.465    54 C    1.300    48 C    0.996
    50   6 C    3.979 --    49 C    1.465    51 C    1.395    64 H    0.970
    51   6 C    3.905 --    52 C    1.415    50 C    1.395    65 H    0.973
    52   6 C    3.979 --    53 C    1.460    51 C    1.415    66 H    0.972
    53   6 C    3.952 --    52 C    1.460    54 C    1.358    67 H    0.968
    54   6 C    3.930 --    53 C    1.358    49 C    1.300    55 C    1.104
    55   6 C    3.940 --    56 C    1.355    60 C    1.296    54 C    1.104
    56   6 C    3.950 --    57 C    1.414    55 C    1.355    68 H    0.963
    57   6 C    3.976 --    56 C    1.414    58 C    1.359    69 H    0.945
                             3 Pd   0.112
    58   6 C    3.919 --    59 C    1.386    57 C    1.359    70 H    0.956
    59   6 C    3.982 --    60 C    1.445    58 C    1.386    71 H    0.968
    60   6 C    3.951 --    59 C    1.445    55 C    1.296    48 C    0.996
    61   1 H    0.997 --    47 C    0.972
    62   1 H    0.997 --    47 C    0.968
    63   1 H    0.996 --    48 C    0.951
    64   1 H    1.000 --    50 C    0.970
    65   1 H    1.000 --    51 C    0.973
    66   1 H    0.999 --    52 C    0.972
    67   1 H    0.998 --    53 C    0.968
    68   1 H    0.997 --    56 C    0.963
    69   1 H    0.994 --    57 C    0.945
    70   1 H    0.997 --    58 C    0.956
    71   1 H    0.999 --    59 C    0.968
 ---------------------------------------------------------------------------

Topologies differ in total number of bonds
Writing topology from bond orders to xtbtopo.mol

molecular dipole:
                 x           y           z       tot (Debye)
 q only:        2.316      -0.878       2.120
   full:        1.445      -0.809       2.511       7.643
molecular quadrupole (traceless):
                xx          xy          yy          xz          yz          zz
 q only:       -8.494      15.939       8.200      -3.520      11.720       0.295
  q+dip:       -7.499       9.465       5.003      -7.622      15.187       2.496
   full:      -11.341       9.421       7.581      -7.970      14.521       3.760


           -------------------------------------------------
          | TOTAL ENERGY             -115.649096727195 Eh   |
          | GRADIENT NORM               0.078530149447 Eh/α |
          | HOMO-LUMO GAP               0.051209831276 eV   |
           -------------------------------------------------
########################################################################
[WARNING] Runtime exception occurred
-1- restart_readRestart: Multiplicity missmatch in restart file.
########################################################################

------------------------------------------------------------------------
 * finished run on 2024/10/15 at 08:33:53.715     
------------------------------------------------------------------------
 total:
 * wall-time:     0 d,  0 h,  0 min,  0.782 sec
 *  cpu-time:     0 d,  0 h,  0 min,  8.889 sec
 * ratio c/w:    11.365 speedup
 SCF:
 * wall-time:     0 d,  0 h,  0 min,  0.587 sec
 *  cpu-time:     0 d,  0 h,  0 min,  6.976 sec
 * ratio c/w:    11.878 speedup

