%chk=1-modopt.chk
#p opt=(modredundant,nomicro) external='./xtb.sh'

Generate automatically by rxnb

0 1
Fe          -3.715210        4.164440        1.367260
C           -3.209470       -1.650440       -2.096370
Pd          -3.991600        0.772200       -0.832230
C           -5.625150        3.160350       -1.035310
H           -4.323780        6.861160        2.002320
H           -3.823680        6.218190       -0.581100
H           -1.742830        4.472680       -0.615970
C           -1.287400        0.599160        0.000060
O           -3.194060       -2.643110       -2.793680
C           -5.135670        3.116550        0.375780
O           -1.449580        1.813690        0.354650
C           -3.963760        2.259830        2.166580
C           -4.963490        3.138480        2.672830
C           -5.712130        3.645680        1.566180
H           -3.208180        1.748200        2.760520
H           -5.117730        3.399420        3.718740
H           -6.550790        4.338630        1.620260
H           -2.746450        2.069130        0.320860
C           -4.041680        2.226290        0.729290
C           -2.187060       -1.494170       -0.943370
O           -4.092830       -0.683590       -2.223160
C           -2.165910        4.955580        0.262550
C           -3.266850        5.864130        0.285150
C           -3.531070        6.204180        1.648670
C           -2.589130        5.508270        2.466320
C           -1.748750        4.733040        1.611260
H           -0.956940        4.056360        1.922690
N           -2.295350       -0.152220       -0.386040
H           -1.183860       -1.641930       -1.372380
H           -4.891570        3.650580       -1.691040
H           -6.587190        3.694370       -1.136390
H           -2.543620        5.537310        3.534960
N           -5.754840        1.774190       -1.507140
C           -5.716650        1.551910       -2.906130
C           -6.669970        0.955630       -0.773800
H           -6.589380        0.971000       -3.303590
H           -5.597030        2.522800       -3.456240
H           -4.807600        0.957890       -3.183740
H           -7.657740        1.464490       -0.737900
H           -6.735430       -0.075960       -1.123830
H           -6.316950        0.949690        0.299130
C           -2.428560       -2.590410        0.081480
C           -1.517410       -3.707010       -0.232060
C           -1.867060       -4.734060       -1.085310
C           -0.992320       -5.774560       -1.368510
C            0.266630       -5.822660       -0.805260
C            0.613900       -4.794330        0.047790
C           -0.255390       -3.747100        0.338080
H           -2.232050       -2.219400        1.132290
H           -3.489290       -2.923810        0.100640
H           -2.870900       -4.688910       -1.530240
H           -1.306990       -6.566320       -2.047860
H            0.955020       -6.636760       -1.025150
H            1.584420       -4.806750        0.498420
H            0.037160       -2.935370        1.020290
O            0.000000        0.000000        0.000000
C            2.368720        0.000000       -0.000000
C            1.126420        0.841020        0.000000
C            1.004410        1.759090       -1.163780
C            1.122290        1.643780        1.293210
H            2.100510       -0.970940        0.502060
H            2.786720       -0.181780       -0.998560
H            3.150810        0.449130        0.668740
H            1.450060        1.401060       -2.097950
H            1.371780        2.797030       -0.929300
H           -0.092540        1.910070       -1.392230
H            0.273330        1.327120        1.939480
H            2.042180        1.476920        1.891450
H            1.103450        2.725340        1.054360

B 11 18 F
B 18 19 F
B 3 19 F
B 3 33 F
B 3 28 F
B 3 21 F

