%chk=2-modfreq.chk
#p freq external='./xtb.sh'

Generate automatically by rxnb

0 1
Fe           2.512110       -0.763010        0.125300
C           -2.139350        0.458280        1.230530
Pd          -0.139030       -0.786650       -0.260370
C            1.336140       -3.239190       -0.344850
H            4.946450       -0.755010        1.086050
H            3.313250       -2.677250        1.796150
H            0.883080       -1.589750        2.236330
C            0.381170        1.958320       -0.396090
O           -2.855230        0.858390        2.128590
C            2.061810       -2.166420       -1.063900
O            1.562040        1.466050       -0.483570
C            2.764180       -0.152490       -1.773090
C            3.866960       -0.828140       -1.276730
C            3.449210       -2.105050       -0.878210
H            2.820130        0.864560       -2.087460
H            4.833330       -0.401570       -1.147970
H            4.050110       -2.833430       -0.386430
H            1.550930        0.161510       -0.698830
C            1.550530       -0.900780       -1.559450
C           -1.977810        1.297400       -0.085530
O           -1.459850       -0.618720        1.253400
C            1.768910       -1.087340        1.911490
C            3.050110       -1.646120        1.745080
C            3.939300       -0.618680        1.397330
C            3.209650        0.574200        1.332420
C            1.881940        0.295060        1.699340
H            1.083220        0.993620        1.810610
N           -0.599030        1.133450       -0.440700
H           -2.257200        2.341900        0.087490
H            1.781830       -3.239500        0.649480
H            1.481350       -4.229430       -0.806490
H            3.578690        1.461370        0.877360
N           -0.078490       -2.922810       -0.219840
C           -0.690080       -3.608280        0.907410
C           -0.792350       -3.256550       -1.449650
H           -0.745390       -4.691540        0.732710
H           -0.108770       -3.432700        1.810540
H           -1.693980       -3.220430        1.074680
H           -0.802970       -4.345030       -1.613870
H           -1.826590       -2.908360       -1.389480
H           -0.299110       -2.781740       -2.299270
C           -2.839610        0.651900       -1.195620
C           -4.195330        0.272780       -0.680240
C           -4.421770       -1.006900       -0.190950
C           -5.652810       -1.356820        0.330940
C           -6.677570       -0.427340        0.365950
C           -6.462200        0.850940       -0.119320
C           -5.228400        1.198990       -0.637820
H           -2.916540        1.344070       -2.037870
H           -2.295830       -0.255660       -1.534450
H           -3.618070       -1.733330       -0.204390
H           -5.813510       -2.354030        0.715780
H           -7.639970       -0.696900        0.776140
H           -7.257650        1.581610       -0.087820
H           -5.060870        2.200510       -1.008130
O            0.137600        3.269770       -0.289290
C            0.526230        5.576590       -0.185790
C            1.214100        4.212930       -0.105450
C            1.833720        4.002930        1.275700
C            2.272280        4.083920       -1.202390
H            0.089770        5.717070       -1.170960
H           -0.268230        5.631710        0.553270
H            1.244360        6.369010        0.002850
H            1.069740        4.100980        2.043610
H            2.608140        4.743970        1.452480
H            2.266840        3.009630        1.335610
H            1.798460        4.116800       -2.180790
H            2.975680        4.908260       -1.123290
H            2.802260        3.139980       -1.100150


