%chk=4-tsfreq.chk
#p freq external='./xtb.sh'

Generate automatically by rxnb

0 1
Fe           2.618820       -0.581740        0.030790
C           -2.096870        0.309220        1.220390
Pd           0.026990       -0.810860       -0.255040
C            1.782140       -3.163110       -0.286450
H            5.157060       -0.278710        0.683360
H            3.850380       -2.339440        1.643230
H            1.379090       -1.497760        2.353040
C            0.132690        2.080100       -0.382560
O           -2.899940        0.686640        2.053490
C            2.316950       -2.081010       -1.137330
O            1.384290        1.951030       -0.390400
C            2.464880        0.043850       -1.818510
C            3.755290       -0.384540       -1.522240
C            3.672880       -1.720100       -1.088530
H            2.242080        1.055130       -2.064860
H            4.610120        0.247810       -1.481650
H            4.465800       -2.304320       -0.683830
H            1.458820        0.287070       -0.089940
C            1.512600       -1.003140       -1.604940
C           -2.031760        0.998190       -0.184410
O           -1.239380       -0.618290        1.387860
C            2.163860       -0.928160        1.911710
C            3.459940       -1.349450        1.588010
C            4.179470       -0.243000        1.100240
C            3.326430        0.862230        1.105000
C            2.084630        0.453570        1.638340
H            1.254250        1.084600        1.866510
N           -0.630160        1.036510       -0.522730
H           -2.470970        1.999140       -0.123300
H            2.350920       -3.091800        0.637520
H            1.898070       -4.170710       -0.712630
H            3.503520        1.779330        0.596370
N            0.374620       -2.874270       -0.003920
C           -0.055990       -3.485330        1.248620
C           -0.466860       -3.389080       -1.086010
H           -0.194920       -4.568590        1.137410
H            0.689110       -3.321310        2.023860
H           -0.993670       -3.033990        1.573240
H           -0.416340       -4.487980       -1.131400
H           -1.508790       -3.103310       -0.916900
H           -0.128950       -2.986960       -2.042020
C           -2.775810        0.138390       -1.231930
C           -4.106440       -0.314510       -0.712240
C           -4.214860       -1.507010       -0.008760
C           -5.428040       -1.913000        0.514010
C           -6.554500       -1.129190        0.335190
C           -6.457760        0.061850       -0.363230
C           -5.241460        0.466710       -0.881910
H           -2.890790        0.722090       -2.149050
H           -2.131230       -0.739230       -1.456320
H           -3.334550       -2.118450        0.149260
H           -5.495620       -2.839560        1.066540
H           -7.503720       -1.442700        0.744980
H           -7.333080        0.680860       -0.499120
H           -5.167790        1.401670       -1.419310
O           -0.479350        3.272270       -0.247000
C           -0.743430        5.567400        0.130890
C            0.300140        4.457390       -0.004070
C            1.092800        4.311700        1.297050
C            1.233660        4.739180       -1.183070
H           -1.322430        5.645550       -0.785420
H           -1.422460        5.337030        0.947350
H           -0.255640        6.517670        0.327520
H            0.419960        4.043960        2.108990
H            1.580690        5.252010        1.538010
H            1.844060        3.534070        1.188480
H            0.657720        4.814760       -2.102620
H            1.762760        5.673490       -1.017430
H            1.951800        3.929440       -1.282990


