69
charge 0 multiplicity 1
Fe           2.51211  -0.76301   0.12530
C           -2.13935   0.45828   1.23053
Pd          -0.13903  -0.78665  -0.26037
C            1.33614  -3.23919  -0.34485
H            4.94645  -0.75501   1.08605
H            3.31325  -2.67725   1.79615
H            0.88308  -1.58975   2.23633
C            0.38117   1.95832  -0.39609
O           -2.85523   0.85839   2.12859
C            2.06181  -2.16642  -1.06390
O            1.56204   1.46605  -0.48357
C            2.76418  -0.15249  -1.77309
C            3.86696  -0.82814  -1.27673
C            3.44921  -2.10505  -0.87821
H            2.82013   0.86456  -2.08746
H            4.83333  -0.40157  -1.14797
H            4.05011  -2.83343  -0.38643
H            1.55093   0.16151  -0.69883
C            1.55053  -0.90078  -1.55945
C           -1.97781   1.29740  -0.08553
O           -1.45985  -0.61872   1.25340
C            1.76891  -1.08734   1.91149
C            3.05011  -1.64612   1.74508
C            3.93930  -0.61868   1.39733
C            3.20965   0.57420   1.33242
C            1.88194   0.29506   1.69934
H            1.08322   0.99362   1.81061
N           -0.59903   1.13345  -0.44070
H           -2.25720   2.34190   0.08749
H            1.78183  -3.23950   0.64948
H            1.48135  -4.22943  -0.80649
H            3.57869   1.46137   0.87736
N           -0.07849  -2.92281  -0.21984
C           -0.69008  -3.60828   0.90741
C           -0.79235  -3.25655  -1.44965
H           -0.74539  -4.69154   0.73271
H           -0.10877  -3.43270   1.81054
H           -1.69398  -3.22043   1.07468
H           -0.80297  -4.34503  -1.61387
H           -1.82659  -2.90836  -1.38948
H           -0.29911  -2.78174  -2.29927
C           -2.83961   0.65190  -1.19562
C           -4.19533   0.27278  -0.68024
C           -4.42177  -1.00690  -0.19095
C           -5.65281  -1.35682   0.33094
C           -6.67757  -0.42734   0.36595
C           -6.46220   0.85094  -0.11932
C           -5.22840   1.19899  -0.63782
H           -2.91654   1.34407  -2.03787
H           -2.29583  -0.25566  -1.53445
H           -3.61807  -1.73333  -0.20439
H           -5.81351  -2.35403   0.71578
H           -7.63997  -0.69690   0.77614
H           -7.25765   1.58161  -0.08782
H           -5.06087   2.20051  -1.00813
O            0.13760   3.26977  -0.28929
C            0.52623   5.57659  -0.18579
C            1.21410   4.21293  -0.10545
C            1.83372   4.00293   1.27570
C            2.27228   4.08392  -1.20239
H            0.08977   5.71707  -1.17096
H           -0.26823   5.63171   0.55327
H            1.24436   6.36901   0.00285
H            1.06974   4.10098   2.04361
H            2.60814   4.74397   1.45248
H            2.26684   3.00963   1.33561
H            1.79846   4.11680  -2.18079
H            2.97568   4.90826  -1.12329
H            2.80226   3.13998  -1.10015