%chk=sp_0_1.chk
%mem=300GB
%nprocshared=68
#p opt=(calcfc,ts,noeigen,maxstep=5) freq b3lyp def2svp em=gd3bj  

Freeze index  [11, 18]  [18, 19]  [3, 19]  [3, 33]  [3, 28]  [3, 21] // Local index  3  18  20  33  (20,)  [11, 18]  [18, 19]

0 1
Fe          -3.71521   4.16444   1.36726
C           -3.20947  -1.65044  -2.09637
Pd          -3.99160   0.77220  -0.83223
C           -5.62515   3.16035  -1.03531
H           -4.32378   6.86116   2.00232
H           -3.82368   6.21819  -0.58110
H           -1.74283   4.47268  -0.61597
C           -1.28740   0.59916   0.00006
O           -3.19406  -2.64311  -2.79368
C           -5.13567   3.11655   0.37578
O           -1.44958   1.81369   0.35465
C           -3.96376   2.25983   2.16658
C           -4.96349   3.13848   2.67283
C           -5.71213   3.64568   1.56618
H           -3.20818   1.74820   2.76052
H           -5.11773   3.39942   3.71874
H           -6.55079   4.33863   1.62026
H           -2.74645   2.06913   0.32086
C           -4.04168   2.22629   0.72929
C           -2.18706  -1.49417  -0.94337
O           -4.09283  -0.68359  -2.22316
C           -2.16591   4.95558   0.26255
C           -3.26685   5.86413   0.28515
C           -3.53107   6.20418   1.64867
C           -2.58913   5.50827   2.46632
C           -1.74875   4.73304   1.61126
H           -0.95694   4.05636   1.92269
N           -2.29535  -0.15222  -0.38604
H           -1.18386  -1.64193  -1.37238
H           -4.89157   3.65058  -1.69104
H           -6.58719   3.69437  -1.13639
H           -2.54362   5.53731   3.53496
N           -5.75484   1.77419  -1.50714
C           -5.71665   1.55191  -2.90613
C           -6.66997   0.95563  -0.77380
H           -6.58938   0.97100  -3.30359
H           -5.59703   2.52280  -3.45624
H           -4.80760   0.95789  -3.18374
H           -7.65774   1.46449  -0.73790
H           -6.73543  -0.07596  -1.12383
H           -6.31695   0.94969   0.29913
C           -2.42856  -2.59041   0.08148
C           -1.51741  -3.70701  -0.23206
C           -1.86706  -4.73406  -1.08531
C           -0.99232  -5.77456  -1.36851
C            0.26663  -5.82266  -0.80526
C            0.61390  -4.79433   0.04779
C           -0.25539  -3.74710   0.33808
H           -2.23205  -2.21940   1.13229
H           -3.48929  -2.92381   0.10064
H           -2.87090  -4.68891  -1.53024
H           -1.30699  -6.56632  -2.04786
H            0.95502  -6.63676  -1.02515
H            1.58442  -4.80675   0.49842
H            0.03716  -2.93537   1.02029
O            0.00000   0.00000   0.00000
C            2.36872   0.00000  -0.00000
C            1.12642   0.84102   0.00000
C            1.00441   1.75909  -1.16378
C            1.12229   1.64378   1.29321
H            2.10051  -0.97094   0.50206
H            2.78672  -0.18178  -0.99856
H            3.15081   0.44913   0.66874
H            1.45006   1.40106  -2.09795
H            1.37178   2.79703  -0.92930
H           -0.09254   1.91007  -1.39223
H            0.27333   1.32712   1.93948
H            2.04218   1.47692   1.89145
H            1.10345   2.72534   1.05436



