69
charge 0 multiplicity 1
Fe           2.61882  -0.58174   0.03079
C           -2.09687   0.30922   1.22039
Pd           0.02699  -0.81086  -0.25504
C            1.78214  -3.16311  -0.28645
H            5.15706  -0.27871   0.68336
H            3.85038  -2.33944   1.64323
H            1.37909  -1.49776   2.35304
C            0.13269   2.08010  -0.38256
O           -2.89994   0.68664   2.05349
C            2.31695  -2.08101  -1.13733
O            1.38429   1.95103  -0.39040
C            2.46488   0.04385  -1.81851
C            3.75529  -0.38454  -1.52224
C            3.67288  -1.72010  -1.08853
H            2.24208   1.05513  -2.06486
H            4.61012   0.24781  -1.48165
H            4.46580  -2.30432  -0.68383
H            1.45882   0.28707  -0.08994
C            1.51260  -1.00314  -1.60494
C           -2.03176   0.99819  -0.18441
O           -1.23938  -0.61829   1.38786
C            2.16386  -0.92816   1.91171
C            3.45994  -1.34945   1.58801
C            4.17947  -0.24300   1.10024
C            3.32643   0.86223   1.10500
C            2.08463   0.45357   1.63834
H            1.25425   1.08460   1.86651
N           -0.63016   1.03651  -0.52273
H           -2.47097   1.99914  -0.12330
H            2.35092  -3.09180   0.63752
H            1.89807  -4.17071  -0.71263
H            3.50352   1.77933   0.59637
N            0.37462  -2.87427  -0.00392
C           -0.05599  -3.48533   1.24862
C           -0.46686  -3.38908  -1.08601
H           -0.19492  -4.56859   1.13741
H            0.68911  -3.32131   2.02386
H           -0.99367  -3.03399   1.57324
H           -0.41634  -4.48798  -1.13140
H           -1.50879  -3.10331  -0.91690
H           -0.12895  -2.98696  -2.04202
C           -2.77581   0.13839  -1.23193
C           -4.10644  -0.31451  -0.71224
C           -4.21486  -1.50701  -0.00876
C           -5.42804  -1.91300   0.51401
C           -6.55450  -1.12919   0.33519
C           -6.45776   0.06185  -0.36323
C           -5.24146   0.46671  -0.88191
H           -2.89079   0.72209  -2.14905
H           -2.13123  -0.73923  -1.45632
H           -3.33455  -2.11845   0.14926
H           -5.49562  -2.83956   1.06654
H           -7.50372  -1.44270   0.74498
H           -7.33308   0.68086  -0.49912
H           -5.16779   1.40167  -1.41931
O           -0.47935   3.27227  -0.24700
C           -0.74343   5.56740   0.13089
C            0.30014   4.45739  -0.00407
C            1.09280   4.31170   1.29705
C            1.23366   4.73918  -1.18307
H           -1.32243   5.64555  -0.78542
H           -1.42246   5.33703   0.94735
H           -0.25564   6.51767   0.32752
H            0.41996   4.04396   2.10899
H            1.58069   5.25201   1.53801
H            1.84406   3.53407   1.18848
H            0.65772   4.81476  -2.10262
H            1.76276   5.67349  -1.01743
H            1.95180   3.92944  -1.28299