68
charge 0 multiplicity 1
Fe           1.92455   1.22765  -0.05680
C           -1.55651  -1.99049   1.56829
Pd           0.48021  -0.96029  -0.10538
C            3.40011  -1.05710  -0.34318
H            3.32673   3.41846   0.37993
H            4.16833   1.16252   1.41681
H            2.01136  -0.17982   2.34739
C           -1.70380   0.95067  -0.17383
O           -2.19347  -2.61220   2.40371
C            2.82804  -0.01358  -1.21603
O           -0.80804   1.81810  -0.35218
C            1.22800   1.39349  -1.88453
C            2.38395   2.14479  -1.69890
C            3.39855   1.26736  -1.27739
H            0.28995   1.84177  -2.11225
H            2.42760   3.20774  -1.72303
H            4.37416   1.53822  -0.94774
H            0.51490   0.86625  -0.10057
C            1.45549   0.00927  -1.59720
C           -2.29126  -1.32586   0.36024
O           -0.29664  -1.81105   1.61516
C            2.03207   0.76314   1.85094
C            3.15165   1.48182   1.41081
C            2.71355   2.70867   0.88089
C            1.32092   2.74714   0.97776
C            0.89496   1.56054   1.61001
H           -0.10234   1.32434   1.90772
N           -1.39768  -0.31105  -0.15251
H           -3.20793  -0.85717   0.73987
H            3.74511  -0.52046   0.53714
H            4.24230  -1.60544  -0.79128
H            0.69047   3.43628   0.46934
N            2.32678  -1.97260   0.04459
C            2.61854  -2.62002   1.31864
C            2.16927  -3.01163  -0.97281
H            3.40353  -3.37940   1.20799
H            2.96072  -1.88665   2.04537
H            1.71496  -3.09070   1.70537
H            3.08014  -3.62551  -1.04648
H            1.33744  -3.66596  -0.70641
H            1.98252  -2.55323  -1.94440
C           -2.69231  -2.36048  -0.72169
C           -1.47582  -3.20149  -1.12620
C           -3.21491  -1.61224  -1.95232
C           -3.78823  -3.26523  -0.15791
H           -0.70131  -2.54115  -1.55577
H           -1.75969  -3.93419  -1.88124
H           -1.09034  -3.73825  -0.25539
H           -3.55914  -2.31822  -2.70606
H           -4.04402  -0.96441  -1.67688
H           -2.42805  -0.99350  -2.38305
H           -3.47702  -3.68756   0.79425
H           -4.69995  -2.69600   0.00990
H           -4.00879  -4.07450  -0.85217
O           -2.99912   1.27805   0.00713
C           -4.89996   2.61061   0.30993
C           -3.38798   2.66121   0.08259
C           -2.69432   3.34393   1.26370
C           -3.06991   3.38299  -1.22841
H           -5.38292   2.10153  -0.51990
H           -5.11898   2.06328   1.22287
H           -5.29963   3.61706   0.39237
H           -2.89673   2.79327   2.17988
H           -3.06640   4.35876   1.37248
H           -1.62098   3.36959   1.09665
H           -3.53662   2.86132  -2.06092
H           -3.44903   4.40034  -1.18906
H           -1.99444   3.40316  -1.38407