      -----------------------------------------------------------      
     |                   =====================                   |     
     |                           x T B                           |     
     |                   =====================                   |     
     |                         S. Grimme                         |     
     |          Mulliken Center for Theoretical Chemistry        |     
     |                    University of Bonn                     |     
      -----------------------------------------------------------      

   * xtb version 6.6.1 (8d0f1dd) compiled by 'stahn@M-Bot' on 2023-08-01

   xtb is free software: you can redistribute it and/or modify it under
   the terms of the GNU Lesser General Public License as published by
   the Free Software Foundation, either version 3 of the License, or
   (at your option) any later version.
   
   xtb is distributed in the hope that it will be useful,
   but WITHOUT ANY WARRANTY; without even the implied warranty of
   MERCHANTABILITY or FITNESS FOR A PARTICULAR PURPOSE.  See the
   GNU Lesser General Public License for more details.
   
   Cite this work as:
   * C. Bannwarth, E. Caldeweyher, S. Ehlert, A. Hansen, P. Pracht,
     J. Seibert, S. Spicher, S. Grimme, WIREs Comput. Mol. Sci., 2020, 11,
     e01493. DOI: 10.1002/wcms.1493
   
   for GFN2-xTB:
   * C. Bannwarth, S. Ehlert and S. Grimme., J. Chem. Theory Comput., 2019,
     15, 1652-1671. DOI: 10.1021/acs.jctc.8b01176
   for GFN1-xTB:
   * S. Grimme, C. Bannwarth, P. Shushkov, J. Chem. Theory Comput., 2017,
     13, 1989-2009. DOI: 10.1021/acs.jctc.7b00118
   for GFN0-xTB:
   * P. Pracht, E. Caldeweyher, S. Ehlert, S. Grimme, ChemRxiv, 2019, preprint.
     DOI: 10.26434/chemrxiv.8326202.v1
   for GFN-FF:
   * S. Spicher and S. Grimme, Angew. Chem. Int. Ed., 2020, 59, 15665-15673.
     DOI: 10.1002/anie.202004239
   
   for ALPB and GBSA implicit solvation:
   * S. Ehlert, M. Stahn, S. Spicher, S. Grimme, J. Chem. Theory Comput.,
     2021, 17, 4250-4261. DOI: 10.1021/acs.jctc.1c00471
   
   for DFT-D4:
   * E. Caldeweyher, C. Bannwarth and S. Grimme, J. Chem. Phys., 2017,
     147, 034112. DOI: 10.1063/1.4993215
   * E. Caldeweyher, S. Ehlert, A. Hansen, H. Neugebauer, S. Spicher,
     C. Bannwarth and S. Grimme, J. Chem. Phys., 2019, 150, 154122.
     DOI: 10.1063/1.5090222
   * E. Caldeweyher, J.-M. Mewes, S. Ehlert and S. Grimme, Phys. Chem. Chem. Phys.
     2020, 22, 8499-8512. DOI: 10.1039/D0CP00502A
   
   for sTDA-xTB:
   * S. Grimme and C. Bannwarth, J. Chem. Phys., 2016, 145, 054103.
     DOI: 10.1063/1.4959605
   
   in the mass-spec context:
   * V. Asgeirsson, C. Bauer and S. Grimme, Chem. Sci., 2017, 8, 4879.
     DOI: 10.1039/c7sc00601b
   * J. Koopman and S. Grimme, ACS Omega 2019, 4, 12, 15120-15133.
     DOI: 10.1021/acsomega.9b02011
   
   for metadynamics refer to:
   * S. Grimme, J. Chem. Theory Comput., 2019, 155, 2847-2862
     DOI: 10.1021/acs.jctc.9b00143
   
   for SPH calculations refer to:
   * S. Spicher and S. Grimme, J. Chem. Theory Comput., 2021, 17, 1701-1714
     DOI: 10.1021/acs.jctc.0c01306
   
   with help from (in alphabetical order)
   P. Atkinson, C. Bannwarth, F. Bohle, G. Brandenburg, E. Caldeweyher
   M. Checinski, S. Dohm, S. Ehlert, S. Ehrlich, I. Gerasimov, C. Hölzer
   A. Katbashev, J. Koopman, C. Lavigne, S. Lehtola, F. März, M. Müller,
   F. Musil, H. Neugebauer, J. Pisarek, C. Plett, P. Pracht, F. Pultar,
   J. Seibert, P. Shushkov, S. Spicher, M. Stahn, M. Steiner, T. Strunk,
   J. Stückrath, T. Rose, and J. Unsleber
   
 * started run on 2024/10/15 at 00:14:30.665     

           -------------------------------------------------
          |                Calculation Setup                |
           -------------------------------------------------

          program call               : xtb tsopted.xyz --gfn 2 --charge 0 --vfukui
          coordinate file            : tsopted.xyz
          omp threads                :                    12

   ID    Z sym.   atoms
    1   26 Fe     1
    2    6 C      2, 4, 8, 10, 12-14, 19, 20, 22-26, 34, 35, 42-45, 56-59
    3   46 Pd     3
    4    1 H      5-7, 15-18, 27, 29-32, 36-41, 46-54, 60-68
    5    8 O      9, 11, 21, 55
    6    7 N      28, 33

           -------------------------------------------------
          |                 G F N 2 - x T B                 |
           -------------------------------------------------

        Reference                      10.1021/acs.jctc.8b01176
      * Hamiltonian:
        H0-scaling (s, p, d)           1.850000    2.230000    2.230000
        zeta-weighting                 0.500000
      * Dispersion:
        s8                             2.700000
        a1                             0.520000
        a2                             5.000000
        s9                             5.000000
      * Repulsion:
        kExp                           1.500000    1.000000
        rExp                           1.000000
      * Coulomb:
        alpha                          2.000000
        third order                    shell-resolved
        anisotropic                    true
        a3                             3.000000
        a5                             4.000000
        cn-shift                       1.200000
        cn-exp                         4.000000
        max-rad                        5.000000


          ...................................................
          :                      SETUP                      :
          :.................................................:
          :  # basis functions                 176          :
          :  # atomic orbitals                 174          :
          :  # shells                          102          :
          :  # electrons                       184          :
          :  max. iterations                   250          :
          :  Hamiltonian                  GFN2-xTB          :
          :  restarted?                      false          :
          :  GBSA solvation                  false          :
          :  PC potential                    false          :
          :  electronic temp.          300.0000000     K    :
          :  accuracy                    1.0000000          :
          :  -> integral cutoff          0.2500000E+02      :
          :  -> integral neglect         0.1000000E-07      :
          :  -> SCF convergence          0.1000000E-05 Eh   :
          :  -> wf. convergence          0.1000000E-03 e    :
          :  Broyden damping             0.4000000          :
          ...................................................

 iter      E             dE          RMSdq      gap      omega  full diag
   1   -100.6264632 -0.100626E+03  0.753E+00    1.48       0.0  T
   2   -100.9699417 -0.343479E+00  0.457E+00    1.59       1.0  T
   3   -101.0122160 -0.422743E-01  0.309E+00    1.73       1.0  T
   4   -101.0279546 -0.157386E-01  0.187E+00    1.54       1.0  T
   5   -101.0249207  0.303388E-02  0.114E+00    1.51       1.0  T
   6   -101.0329247 -0.800396E-02  0.633E-01    1.47       1.0  T
   7   -101.0366758 -0.375111E-02  0.304E-01    1.50       1.0  T
   8   -101.0386652 -0.198942E-02  0.174E-01    1.49       1.0  T
   9   -101.0393598 -0.694614E-03  0.107E-01    1.49       1.0  T
  10   -101.0394460 -0.861739E-04  0.457E-02    1.47       1.0  T
  11   -101.0394580 -0.119958E-04  0.222E-02    1.48       1.0  T
  12   -101.0394629 -0.484440E-05  0.104E-02    1.48       1.2  T
  13   -101.0394647 -0.180554E-05  0.400E-03    1.48       3.0  T
  14   -101.0394649 -0.224866E-06  0.186E-03    1.48       6.5  T
  15   -101.0394649 -0.471266E-07  0.915E-04    1.48      13.3  T
  16   -101.0394649 -0.598094E-08  0.505E-04    1.48      24.0  T

   *** convergence criteria satisfied after 16 iterations ***

         #    Occupation            Energy/Eh            Energy/eV
      -------------------------------------------------------------
         1        2.0000           -0.8661435             -23.5690
       ...           ...                  ...                  ...
        86        2.0000           -0.3690255             -10.0417
        87        2.0000           -0.3641746              -9.9097
        88        2.0000           -0.3504679              -9.5367
        89        2.0000           -0.3481568              -9.4738
        90        2.0000           -0.3406380              -9.2692
        91        2.0000           -0.3293635              -8.9624
        92        2.0000           -0.3181361              -8.6569 (HOMO)
        93                         -0.2636745              -7.1749 (LUMO)
        94                         -0.2547080              -6.9310
        95                         -0.2355343              -6.4092
        96                         -0.1847379              -5.0270
        97                         -0.1761230              -4.7926
       ...                                ...                  ...
       174                          6.9599801             189.3907
      -------------------------------------------------------------
                  HL-Gap            0.0544615 Eh            1.4820 eV
             Fermi-level           -0.2909053 Eh           -7.9159 eV

 SCC (total)                   0 d,  0 h,  0 min,  0.112 sec
 SCC setup                      ...        0 min,  0.005 sec (  4.434%)
 Dispersion                     ...        0 min,  0.001 sec (  1.067%)
 classical contributions        ...        0 min,  0.000 sec (  0.049%)
 integral evaluation            ...        0 min,  0.006 sec (  5.335%)
 iterations                     ...        0 min,  0.087 sec ( 77.922%)
 molecular gradient             ...        0 min,  0.009 sec (  8.373%)
 printout                       ...        0 min,  0.003 sec (  2.779%)

         :::::::::::::::::::::::::::::::::::::::::::::::::::::
         ::                     SUMMARY                     ::
         :::::::::::::::::::::::::::::::::::::::::::::::::::::
         :: total energy             -99.747783587068 Eh    ::
         :: gradient norm              0.000051534690 Eh/a0 ::
         :: HOMO-LUMO gap              1.481974140349 eV    ::
         ::.................................................::
         :: SCC energy              -101.039464935737 Eh    ::
         :: -> isotropic ES           -0.050785785115 Eh    ::
         :: -> anisotropic ES         -0.027803575845 Eh    ::
         :: -> anisotropic XC          0.019126809901 Eh    ::
         :: -> dispersion             -0.100830722225 Eh    ::
         :: repulsion energy           1.288015904864 Eh    ::
         :: add. restraining           0.000000000000 Eh    ::
         :: total charge              -0.000000000000 e     ::
         :::::::::::::::::::::::::::::::::::::::::::::::::::::


Fukui index Calculation

 iter      E             dE          RMSdq      gap      omega  full diag
   1   -101.1637287 -0.101164E+03  0.767E-01    0.24       0.0  T
   2   -101.1089248  0.548039E-01  0.157E+00    0.58       1.0  T
   3   -101.2153020 -0.106377E+00  0.459E-01    0.24       1.0  T
   4   -101.2164050 -0.110301E-02  0.422E-01    0.25       1.0  T
   5   -101.2125000  0.390501E-02  0.393E-01    0.23       1.0  T
   6   -101.2174068 -0.490675E-02  0.183E-01    0.25       1.0  T
   7   -101.2177225 -0.315779E-03  0.118E-01    0.25       1.0  T
   8   -101.2180020 -0.279439E-03  0.493E-02    0.26       1.0  T
   9   -101.2180596 -0.576299E-04  0.209E-02    0.26       1.0  T
  10   -101.2180728 -0.132002E-04  0.963E-03    0.26       1.3  T
  11   -101.2180745 -0.164821E-05  0.494E-03    0.26       2.5  T
  12   -101.2180748 -0.338697E-06  0.250E-03    0.26       4.8  T
  13   -101.2180749 -0.554505E-07  0.130E-03    0.26       9.3  T
  14   -101.2180749 -0.198377E-07  0.982E-04    0.26      12.4  T
  15   -101.2180749 -0.110996E-07  0.605E-04    0.26      20.0  T
     SCC iter.                  ...        0 min,  0.065 sec
     gradient                   ...        0 min,  0.011 sec

 iter      E             dE          RMSdq      gap      omega  full diag
   1   -100.6208434 -0.100621E+03  0.588E-01    1.48       0.0  T
   2   -100.6263776 -0.553423E-02  0.607E-01    1.96       1.0  T
   3   -100.6318961 -0.551851E-02  0.504E-01    1.67       1.0  T
   4   -100.6422615 -0.103653E-01  0.350E-01    1.85       1.0  T
   5   -100.6452177 -0.295620E-02  0.230E-01    1.87       1.0  T
   6   -100.6454938 -0.276140E-03  0.133E-01    1.84       1.0  T
   7   -100.6459289 -0.435077E-03  0.745E-02    1.81       1.0  T
   8   -100.6461959 -0.267044E-03  0.306E-02    1.82       1.0  T
   9   -100.6461797  0.162297E-04  0.273E-02    1.82       1.0  T
  10   -100.6462104 -0.306879E-04  0.112E-02    1.82       1.1  T
  11   -100.6462166 -0.621965E-05  0.470E-03    1.82       2.6  T
  12   -100.6462166  0.270542E-07  0.388E-03    1.82       3.1  T
  13   -100.6462160  0.593605E-06  0.378E-03    1.82       3.2  T
  14   -100.6462170 -0.101650E-05  0.126E-03    1.82       9.6  T
  15   -100.6462170  0.387824E-08  0.796E-04    1.82      15.2  T
  16   -100.6462170 -0.156171E-07  0.313E-04    1.82      38.8  T
     SCC iter.                  ...        0 min,  0.069 sec
     gradient                   ...        0 min,  0.010 sec

     #        f(+)     f(-)     f(0)
     1Fe     -0.118   -0.068   -0.093
     2C       0.000   -0.011   -0.005
     3Pd     -0.178   -0.220   -0.199
     4C       0.016    0.017    0.016
     5H      -0.043   -0.031   -0.037
     6H      -0.043   -0.030   -0.036
     7H      -0.038   -0.016   -0.027
     8C      -0.002   -0.011   -0.006
     9O      -0.048   -0.101   -0.074
    10C      -0.014   -0.005   -0.010
    11O       0.002   -0.035   -0.016
    12C      -0.006   -0.002   -0.004
    13C      -0.011   -0.005   -0.008
    14C      -0.009   -0.003   -0.006
    15H      -0.040   -0.020   -0.030
    16H      -0.044   -0.033   -0.038
    17H      -0.043   -0.033   -0.038
    18H       0.001    0.021    0.011
    19C      -0.019   -0.002   -0.010
    20C       0.010   -0.012   -0.001
    21O       0.003   -0.019   -0.008
    22C      -0.004    0.005    0.001
    23C      -0.005   -0.003   -0.004
    24C      -0.017   -0.006   -0.011
    25C      -0.008   -0.005   -0.007
    26C      -0.005    0.001   -0.002
    27H      -0.039   -0.010   -0.024
    28N      -0.004   -0.000   -0.002
    29H      -0.029   -0.036   -0.032
    30H      -0.012   -0.016   -0.014
    31H      -0.042   -0.035   -0.039
    32H      -0.040   -0.023   -0.031
    33N       0.010    0.009    0.009
    34C       0.017    0.016    0.016
    35C       0.016    0.015    0.016
    36H      -0.030   -0.030   -0.030
    37H      -0.007   -0.013   -0.010
    38H      -0.015   -0.006   -0.010
    39H      -0.028   -0.030   -0.029
    40H      -0.018   -0.007   -0.012
    41H      -0.004   -0.006   -0.005
    42C      -0.001   -0.004   -0.002
    43C       0.008    0.009    0.008
    44C       0.008    0.008    0.008
    45C       0.010    0.012    0.011
    46H       0.009    0.003    0.006
    47H      -0.023   -0.031   -0.027
    48H      -0.006   -0.007   -0.006
    49H      -0.018   -0.028   -0.023
    50H      -0.011   -0.015   -0.013
    51H       0.005   -0.004    0.001
    52H      -0.006   -0.008   -0.007
    53H      -0.013   -0.018   -0.015
    54H      -0.017   -0.028   -0.023
    55O      -0.023   -0.028   -0.025
    56C       0.007    0.008    0.008
    57C       0.002    0.002    0.002
    58C       0.005    0.007    0.006
    59C       0.005    0.007    0.006
    60H      -0.009   -0.009   -0.009
    61H      -0.007   -0.007   -0.007
    62H      -0.015   -0.019   -0.017
    63H      -0.006   -0.006   -0.006
    64H      -0.017   -0.021   -0.019
    65H       0.012    0.005    0.009
    66H      -0.009   -0.009   -0.009
    67H      -0.016   -0.021   -0.018
    68H       0.009    0.003    0.006
           -------------------------------------------------
          |                Property Printout                |
           -------------------------------------------------

    * Orbital Energies and Occupations

         #    Occupation            Energy/Eh            Energy/eV
      -------------------------------------------------------------
         1        2.0000           -0.8661435             -23.5690
       ...           ...                  ...                  ...
        80        2.0000           -0.3965667             -10.7911
        81        2.0000           -0.3879796             -10.5575
        82        2.0000           -0.3844387             -10.4611
        83        2.0000           -0.3804751             -10.3533
        84        2.0000           -0.3745029             -10.1907
        85        2.0000           -0.3731581             -10.1541
        86        2.0000           -0.3690255             -10.0417
        87        2.0000           -0.3641746              -9.9097
        88        2.0000           -0.3504679              -9.5367
        89        2.0000           -0.3481568              -9.4738
        90        2.0000           -0.3406380              -9.2692
        91        2.0000           -0.3293635              -8.9624
        92        2.0000           -0.3181361              -8.6569 (HOMO)
        93                         -0.2636745              -7.1749 (LUMO)
        94                         -0.2547080              -6.9310
        95                         -0.2355343              -6.4092
        96                         -0.1847379              -5.0270
        97                         -0.1761230              -4.7926
        98                         -0.1665931              -4.5332
        99                         -0.1629235              -4.4334
       100                         -0.1532196              -4.1693
       101                         -0.1451592              -3.9500
       102                         -0.1049797              -2.8566
       103                         -0.0025754              -0.0701
       ...                                ...                  ...
       174                          6.9599801             189.3907
      -------------------------------------------------------------
                  HL-Gap            0.0544615 Eh            1.4820 eV
             Fermi-level           -0.2909053 Eh           -7.9159 eV

     #   Z          covCN         q      C6AA      α(0)
     1  26 Fe      10.235     1.592   107.572    18.290
     2   6 C        2.730     0.371    20.711     7.450
     3  46 Pd       4.733    -0.307   382.064    35.698
     4   6 C        3.839    -0.040    21.266     6.560
     5   1 H        0.927     0.061     2.184     2.311
     6   1 H        0.927     0.044     2.391     2.418
     7   1 H        0.927     0.094     1.841     2.122
     8   6 C        2.668     0.384    20.499     7.408
     9   8 O        0.856    -0.503    23.851     6.548
    10   6 C        4.073    -0.104    22.395     6.722
    11   8 O        0.863    -0.561    25.169     6.726
    12   6 C        3.934    -0.136    23.030     6.820
    13   6 C        3.871    -0.148    23.298     6.863
    14   6 C        3.875    -0.158    23.504     6.893
    15   1 H        0.927     0.089     1.884     2.146
    16   1 H        0.927     0.057     2.237     2.339
    17   1 H        0.927     0.046     2.368     2.406
    18   1 H        1.490     0.156     1.341     1.808
    19   6 C        3.766    -0.188    24.222     7.015
    20   6 C        3.840     0.033    19.991     6.361
    21   8 O        1.532    -0.441    21.750     6.291
    22   6 C        3.878    -0.143    23.197     6.848
    23   6 C        3.901    -0.151    23.356     6.870
    24   6 C        3.892    -0.149    23.324     6.866
    25   6 C        3.890    -0.150    23.337     6.868
    26   6 C        3.886    -0.106    22.473     6.740
    27   1 H        0.927     0.102     1.771     2.081
    28   7 N        2.661    -0.240    26.274     7.613
    29   1 H        0.924     0.028     2.609     2.526
    30   1 H        0.925     0.046     2.368     2.406
    31   1 H        0.923     0.044     2.399     2.422
    32   1 H        0.927     0.079     1.986     2.204
    33   7 N        3.495    -0.045    22.103     6.983
    34   6 C        3.723    -0.049    21.574     6.633
    35   6 C        3.779    -0.042    21.352     6.583
    36   1 H        0.924     0.029     2.603     2.523
    37   1 H        0.925     0.050     2.326     2.385
    38   1 H        0.925     0.091     1.869     2.138
    39   1 H        0.923     0.025     2.660     2.551
    40   1 H        0.924     0.090     1.884     2.146
    41   1 H        0.924     0.078     1.995     2.209
    42   6 C        3.898     0.033    19.965     6.352
    43   6 C        3.757    -0.105    22.568     6.773
    44   6 C        3.760    -0.106    22.581     6.774
    45   6 C        3.760    -0.112    22.698     6.792
    46   1 H        0.923     0.120     1.617     1.989
    47   1 H        0.925     0.031     2.569     2.507
    48   1 H        0.924     0.064     2.149     2.293
    49   1 H        0.925     0.030     2.583     2.513
    50   1 H        0.925     0.034     2.532     2.488
    51   1 H        0.925     0.041     2.431     2.438
    52   1 H        0.925     0.061     2.191     2.315
    53   1 H        0.925     0.032     2.556     2.500
    54   1 H        0.925     0.028     2.615     2.529
    55   8 O        1.705    -0.311    19.186     5.914
    56   6 C        3.758    -0.118    22.805     6.809
    57   6 C        3.784     0.160    18.039     6.050
    58   6 C        3.756    -0.125    22.960     6.832
    59   6 C        3.756    -0.124    22.929     6.828
    60   1 H        0.925     0.050     2.315     2.379
    61   1 H        0.925     0.052     2.292     2.367
    62   1 H        0.925     0.043     2.407     2.426
    63   1 H        0.925     0.042     2.417     2.431
    64   1 H        0.925     0.039     2.459     2.452
    65   1 H        0.925     0.065     2.144     2.290
    66   1 H        0.925     0.043     2.409     2.427
    67   1 H        0.925     0.038     2.473     2.459
    68   1 H        0.925     0.066     2.134     2.285

 Mol. C6AA /au·bohr⁶  :      50543.999887
 Mol. C8AA /au·bohr⁸  :    1461945.388026
 Mol. α(0) /au        :        341.000119


Wiberg/Mayer (AO) data.
largest (>0.10) Wiberg bond orders for each atom

 ---------------------------------------------------------------------------
     #   Z sym  total        # sym  WBO       # sym  WBO       # sym  WBO
 ---------------------------------------------------------------------------
     1  26 Fe   0.632 --    14 C    0.228    10 C    0.200    13 C    0.196
                            12 C    0.192    24 C    0.189    25 C    0.177
                            23 C    0.173    19 C    0.158    22 C    0.149
                            26 C    0.102
     2   6 C    3.935 --     9 O    1.625    21 O    1.340    20 C    0.884
     3  46 Pd   3.818 --    19 C    0.786    28 N    0.613    21 O    0.496
                            18 H    0.421    33 N    0.418    22 C    0.151
                            26 C    0.144    10 C    0.112    43 C    0.104
     4   6 C    3.974 --    10 C    1.010    33 N    0.976    30 H    0.965
                            31 H    0.956
     5   1 H    0.995 --    24 C    0.989
     6   1 H    0.996 --    23 C    0.981
     7   1 H    0.989 --    22 C    0.942
     8   6 C    3.937 --    28 N    1.420    11 O    1.342    55 O    1.056
     9   8 O    1.943 --     2 C    1.625    21 O    0.195
    10   6 C    3.959 --    14 C    1.278    19 C    1.214     4 C    1.010
                             1 Fe   0.200     3 Pd   0.112
    11   8 O    1.930 --     8 C    1.342    28 N    0.166    18 H    0.122
    12   6 C    3.965 --    13 C    1.344    19 C    1.175    15 H    0.968
                             1 Fe   0.192
    13   6 C    3.970 --    12 C    1.344    14 C    1.270    16 H    0.988
                             1 Fe   0.196
    14   6 C    3.974 --    10 C    1.278    13 C    1.270    17 H    0.988
                             1 Fe   0.228
    15   1 H    0.991 --    12 C    0.968
    16   1 H    0.994 --    13 C    0.988
    17   1 H    0.996 --    14 C    0.988
    18   1 H    0.975 --     3 Pd   0.421    11 O    0.122    26 C    0.114
    19   6 C    3.663 --    10 C    1.214    12 C    1.175     3 Pd   0.786
                             1 Fe   0.158
    20   6 C    3.967 --    28 N    0.978    29 H    0.950    42 C    0.943
                             2 C    0.884
    21   8 O    2.182 --     2 C    1.340     3 Pd   0.496     9 O    0.195
    22   6 C    3.975 --    23 C    1.323    26 C    1.252     7 H    0.942
                             3 Pd   0.151     1 Fe   0.149
    23   6 C    3.975 --    22 C    1.323    24 C    1.285     6 H    0.981
                             1 Fe   0.173
    24   6 C    3.973 --    25 C    1.329    23 C    1.285     5 H    0.989
                             1 Fe   0.189
    25   6 C    3.966 --    24 C    1.329    26 C    1.272    32 H    0.983
                             1 Fe   0.177
    26   6 C    3.974 --    25 C    1.272    22 C    1.252    27 H    0.953
                             3 Pd   0.144    18 H    0.114     1 Fe   0.102
    27   1 H    0.987 --    26 C    0.953
    28   7 N    3.397 --     8 C    1.420    20 C    0.978     3 Pd   0.613
                            11 O    0.166
    29   1 H    0.998 --    20 C    0.950
    30   1 H    0.997 --     4 C    0.965
    31   1 H    0.995 --     4 C    0.956
    32   1 H    0.991 --    25 C    0.983
    33   7 N    3.466 --    34 C    0.994    35 C    0.991     4 C    0.976
                             3 Pd   0.418
    34   6 C    3.972 --    33 N    0.994    36 H    0.974    37 H    0.971
                            38 H    0.964
    35   6 C    3.972 --    33 N    0.991    39 H    0.971    41 H    0.959
                            40 H    0.950
    36   1 H    0.997 --    34 C    0.974
    37   1 H    0.996 --    34 C    0.971
    38   1 H    0.990 --    34 C    0.964
    39   1 H    0.998 --    35 C    0.971
    40   1 H    0.991 --    35 C    0.950
    41   1 H    0.993 --    35 C    0.959
    42   6 C    3.991 --    45 C    0.999    44 C    0.995    43 C    0.994
                            20 C    0.943
    43   6 C    3.987 --    42 C    0.994    47 H    0.986    48 H    0.956
                            46 H    0.873     3 Pd   0.104
    44   6 C    3.996 --    42 C    0.995    50 H    0.986    49 H    0.986
                            51 H    0.978
    45   6 C    3.993 --    42 C    0.999    53 H    0.986    54 H    0.985
                            52 H    0.979
    46   1 H    0.983 --    43 C    0.873
    47   1 H    0.998 --    43 C    0.986
    48   1 H    0.993 --    43 C    0.956
    49   1 H    0.998 --    44 C    0.986
    50   1 H    0.999 --    44 C    0.986
    51   1 H    0.998 --    44 C    0.978
    52   1 H    0.996 --    45 C    0.979
    53   1 H    0.999 --    45 C    0.986
    54   1 H    0.998 --    45 C    0.985
    55   8 O    2.230 --     8 C    1.056    57 C    0.917
    56   6 C    3.992 --    57 C    0.994    62 H    0.985    60 H    0.985
                            61 H    0.985
    57   6 C    3.926 --    56 C    0.994    58 C    0.994    59 C    0.994
                            55 O    0.917
    58   6 C    3.993 --    57 C    0.994    63 H    0.986    64 H    0.985
                            65 H    0.977
    59   6 C    3.993 --    57 C    0.994    66 H    0.986    67 H    0.985
                            68 H    0.978
    60   1 H    0.997 --    56 C    0.985
    61   1 H    0.997 --    56 C    0.985
    62   1 H    0.997 --    56 C    0.985
    63   1 H    0.998 --    58 C    0.986
    64   1 H    0.998 --    58 C    0.985
    65   1 H    0.995 --    58 C    0.977
    66   1 H    0.998 --    59 C    0.986
    67   1 H    0.998 --    59 C    0.985
    68   1 H    0.995 --    59 C    0.978
 ---------------------------------------------------------------------------

Topologies differ in total number of bonds
Writing topology from bond orders to xtbtopo.mol

molecular dipole:
                 x           y           z       tot (Debye)
 q only:        4.022       2.262      -1.718
   full:        3.598       1.256      -1.336      10.265
molecular quadrupole (traceless):
                xx          xy          yy          xz          yz          zz
 q only:       13.850     -12.096       6.418      13.532      16.630     -20.268
  q+dip:       19.709     -17.598       7.833      16.642      15.868     -27.542
   full:       19.039     -21.145       3.483      14.377      16.009     -22.522


           -------------------------------------------------
          | TOTAL ENERGY              -99.747783587068 Eh   |
          | GRADIENT NORM               0.000051534690 Eh/α |
          | HOMO-LUMO GAP               1.481974140349 eV   |
           -------------------------------------------------

------------------------------------------------------------------------
 * finished run on 2024/10/15 at 00:14:31.120     
------------------------------------------------------------------------
 total:
 * wall-time:     0 d,  0 h,  0 min,  0.455 sec
 *  cpu-time:     0 d,  0 h,  0 min,  5.059 sec
 * ratio c/w:    11.121 speedup
 SCF:
 * wall-time:     0 d,  0 h,  0 min,  0.115 sec
 *  cpu-time:     0 d,  0 h,  0 min,  1.347 sec
 * ratio c/w:    11.702 speedup

