      -----------------------------------------------------------      
     |                   =====================                   |     
     |                           x T B                           |     
     |                   =====================                   |     
     |                         S. Grimme                         |     
     |          Mulliken Center for Theoretical Chemistry        |     
     |                    University of Bonn                     |     
      -----------------------------------------------------------      

   * xtb version 6.6.1 (8d0f1dd) compiled by 'stahn@M-Bot' on 2023-08-01

   xtb is free software: you can redistribute it and/or modify it under
   the terms of the GNU Lesser General Public License as published by
   the Free Software Foundation, either version 3 of the License, or
   (at your option) any later version.
   
   xtb is distributed in the hope that it will be useful,
   but WITHOUT ANY WARRANTY; without even the implied warranty of
   MERCHANTABILITY or FITNESS FOR A PARTICULAR PURPOSE.  See the
   GNU Lesser General Public License for more details.
   
   Cite this work as:
   * C. Bannwarth, E. Caldeweyher, S. Ehlert, A. Hansen, P. Pracht,
     J. Seibert, S. Spicher, S. Grimme, WIREs Comput. Mol. Sci., 2020, 11,
     e01493. DOI: 10.1002/wcms.1493
   
   for GFN2-xTB:
   * C. Bannwarth, S. Ehlert and S. Grimme., J. Chem. Theory Comput., 2019,
     15, 1652-1671. DOI: 10.1021/acs.jctc.8b01176
   for GFN1-xTB:
   * S. Grimme, C. Bannwarth, P. Shushkov, J. Chem. Theory Comput., 2017,
     13, 1989-2009. DOI: 10.1021/acs.jctc.7b00118
   for GFN0-xTB:
   * P. Pracht, E. Caldeweyher, S. Ehlert, S. Grimme, ChemRxiv, 2019, preprint.
     DOI: 10.26434/chemrxiv.8326202.v1
   for GFN-FF:
   * S. Spicher and S. Grimme, Angew. Chem. Int. Ed., 2020, 59, 15665-15673.
     DOI: 10.1002/anie.202004239
   
   for ALPB and GBSA implicit solvation:
   * S. Ehlert, M. Stahn, S. Spicher, S. Grimme, J. Chem. Theory Comput.,
     2021, 17, 4250-4261. DOI: 10.1021/acs.jctc.1c00471
   
   for DFT-D4:
   * E. Caldeweyher, C. Bannwarth and S. Grimme, J. Chem. Phys., 2017,
     147, 034112. DOI: 10.1063/1.4993215
   * E. Caldeweyher, S. Ehlert, A. Hansen, H. Neugebauer, S. Spicher,
     C. Bannwarth and S. Grimme, J. Chem. Phys., 2019, 150, 154122.
     DOI: 10.1063/1.5090222
   * E. Caldeweyher, J.-M. Mewes, S. Ehlert and S. Grimme, Phys. Chem. Chem. Phys.
     2020, 22, 8499-8512. DOI: 10.1039/D0CP00502A
   
   for sTDA-xTB:
   * S. Grimme and C. Bannwarth, J. Chem. Phys., 2016, 145, 054103.
     DOI: 10.1063/1.4959605
   
   in the mass-spec context:
   * V. Asgeirsson, C. Bauer and S. Grimme, Chem. Sci., 2017, 8, 4879.
     DOI: 10.1039/c7sc00601b
   * J. Koopman and S. Grimme, ACS Omega 2019, 4, 12, 15120-15133.
     DOI: 10.1021/acsomega.9b02011
   
   for metadynamics refer to:
   * S. Grimme, J. Chem. Theory Comput., 2019, 155, 2847-2862
     DOI: 10.1021/acs.jctc.9b00143
   
   for SPH calculations refer to:
   * S. Spicher and S. Grimme, J. Chem. Theory Comput., 2021, 17, 1701-1714
     DOI: 10.1021/acs.jctc.0c01306
   
   with help from (in alphabetical order)
   P. Atkinson, C. Bannwarth, F. Bohle, G. Brandenburg, E. Caldeweyher
   M. Checinski, S. Dohm, S. Ehlert, S. Ehrlich, I. Gerasimov, C. Hölzer
   A. Katbashev, J. Koopman, C. Lavigne, S. Lehtola, F. März, M. Müller,
   F. Musil, H. Neugebauer, J. Pisarek, C. Plett, P. Pracht, F. Pultar,
   J. Seibert, P. Shushkov, S. Spicher, M. Stahn, M. Steiner, T. Strunk,
   J. Stückrath, T. Rose, and J. Unsleber
   
 * started run on 2024/10/15 at 00:14:31.632     

           -------------------------------------------------
          |                Calculation Setup                |
           -------------------------------------------------

          program call               : xtb tsopted.xyz --gfn 2 --charge 0 --vomega
          coordinate file            : tsopted.xyz
          omp threads                :                    12

   ID    Z sym.   atoms
    1   26 Fe     1
    2    6 C      2, 4, 8, 10, 12-14, 19, 20, 22-26, 34, 35, 42-45, 56-59
    3   46 Pd     3
    4    1 H      5-7, 15-18, 27, 29-32, 36-41, 46-54, 60-68
    5    8 O      9, 11, 21, 55
    6    7 N      28, 33

           -------------------------------------------------
          |                 G F N 2 - x T B                 |
           -------------------------------------------------

        Reference                      10.1021/acs.jctc.8b01176
      * Hamiltonian:
        H0-scaling (s, p, d)           1.850000    2.230000    2.230000
        zeta-weighting                 0.500000
      * Dispersion:
        s8                             2.700000
        a1                             0.520000
        a2                             5.000000
        s9                             5.000000
      * Repulsion:
        kExp                           1.500000    1.000000
        rExp                           1.000000
      * Coulomb:
        alpha                          2.000000
        third order                    shell-resolved
        anisotropic                    true
        a3                             3.000000
        a5                             4.000000
        cn-shift                       1.200000
        cn-exp                         4.000000
        max-rad                        5.000000

q/qsh data taken from xtbrestart
CAMM data taken from xtbrestart

          ...................................................
          :                      SETUP                      :
          :.................................................:
          :  # basis functions                 176          :
          :  # atomic orbitals                 174          :
          :  # shells                          102          :
          :  # electrons                       184          :
          :  max. iterations                   250          :
          :  Hamiltonian                  GFN2-xTB          :
          :  restarted?                       true          :
          :  GBSA solvation                  false          :
          :  PC potential                    false          :
          :  electronic temp.          300.0000000     K    :
          :  accuracy                    1.0000000          :
          :  -> integral cutoff          0.2500000E+02      :
          :  -> integral neglect         0.1000000E-07      :
          :  -> SCF convergence          0.1000000E-05 Eh   :
          :  -> wf. convergence          0.1000000E-03 e    :
          :  Broyden damping             0.4000000          :
          ...................................................

 iter      E             dE          RMSdq      gap      omega  full diag
   1   -100.9982825 -0.100998E+03  0.707E-01    1.92       0.0  T
   2   -101.0248153 -0.265328E-01  0.793E-01    1.32       1.0  T
   3   -101.0381508 -0.133355E-01  0.428E-01    1.47       1.0  T
   4   -101.0384775 -0.326646E-03  0.354E-01    1.47       1.0  T
   5   -101.0391873 -0.709808E-03  0.196E-01    1.46       1.0  T
   6   -101.0392827 -0.953740E-04  0.129E-01    1.47       1.0  T
   7   -101.0394267 -0.144067E-03  0.594E-02    1.47       1.0  T
   8   -101.0394391 -0.123111E-04  0.298E-02    1.48       1.0  T
   9   -101.0394624 -0.233898E-04  0.114E-02    1.48       1.1  T
  10   -101.0394647 -0.220709E-05  0.535E-03    1.48       2.3  T
  11   -101.0394649 -0.203518E-06  0.282E-03    1.48       4.3  T
  12   -101.0394649 -0.573046E-07  0.174E-03    1.48       7.0  T
  13   -101.0394649 -0.121713E-07  0.901E-04    1.48      13.5  T
  14   -101.0394649 -0.896458E-08  0.397E-04    1.48      30.5  T

   *** convergence criteria satisfied after 14 iterations ***

         #    Occupation            Energy/Eh            Energy/eV
      -------------------------------------------------------------
         1        2.0000           -0.8661422             -23.5689
       ...           ...                  ...                  ...
        86        2.0000           -0.3690154             -10.0414
        87        2.0000           -0.3641644              -9.9094
        88        2.0000           -0.3504590              -9.5365
        89        2.0000           -0.3481492              -9.4736
        90        2.0000           -0.3406301              -9.2690
        91        2.0000           -0.3293544              -8.9622
        92        2.0000           -0.3181271              -8.6567 (HOMO)
        93                         -0.2636645              -7.1747 (LUMO)
        94                         -0.2546980              -6.9307
        95                         -0.2355271              -6.4090
        96                         -0.1847285              -5.0267
        97                         -0.1761137              -4.7923
       ...                                ...                  ...
       174                          6.9599753             189.3906
      -------------------------------------------------------------
                  HL-Gap            0.0544626 Eh            1.4820 eV
             Fermi-level           -0.2908958 Eh           -7.9157 eV

 SCC (total)                   0 d,  0 h,  0 min,  0.076 sec
 SCC setup                      ...        0 min,  0.003 sec (  4.149%)
 Dispersion                     ...        0 min,  0.001 sec (  1.464%)
 classical contributions        ...        0 min,  0.000 sec (  0.050%)
 integral evaluation            ...        0 min,  0.005 sec (  6.550%)
 iterations                     ...        0 min,  0.054 sec ( 70.952%)
 molecular gradient             ...        0 min,  0.009 sec ( 12.064%)
 printout                       ...        0 min,  0.004 sec (  4.722%)

         :::::::::::::::::::::::::::::::::::::::::::::::::::::
         ::                     SUMMARY                     ::
         :::::::::::::::::::::::::::::::::::::::::::::::::::::
         :: total energy             -99.747783585890 Eh    ::
         :: gradient norm              0.000051269306 Eh/a0 ::
         :: HOMO-LUMO gap              1.482002493874 eV    ::
         ::.................................................::
         :: SCC energy              -101.039464934559 Eh    ::
         :: -> isotropic ES           -0.050778102383 Eh    ::
         :: -> anisotropic ES         -0.027801581394 Eh    ::
         :: -> anisotropic XC          0.019127853561 Eh    ::
         :: -> dispersion             -0.100830686985 Eh    ::
         :: repulsion energy           1.288015904864 Eh    ::
         :: add. restraining           0.000000000000 Eh    ::
         :: total charge              -0.000000945527 e     ::
         :::::::::::::::::::::::::::::::::::::::::::::::::::::

           ------------------------------------------------- 
          |        vertical delta SCC IP calculation        |
           ------------------------------------------------- 

 iter      E             dE          RMSdq      gap      omega  full diag
   1   -100.6208420 -0.100621E+03  0.589E-01    1.48       0.0  T
   2   -100.6263708 -0.552877E-02  0.607E-01    1.96       1.0  T
   3   -100.6318888 -0.551802E-02  0.504E-01    1.67       1.0  T
   4   -100.6422673 -0.103784E-01  0.350E-01    1.85       1.0  T
   5   -100.6452194 -0.295212E-02  0.229E-01    1.87       1.0  T
   6   -100.6454945 -0.275110E-03  0.133E-01    1.84       1.0  T
   7   -100.6459289 -0.434391E-03  0.745E-02    1.81       1.0  T
   8   -100.6461959 -0.267030E-03  0.306E-02    1.82       1.0  T
   9   -100.6461797  0.162347E-04  0.273E-02    1.82       1.0  T
  10   -100.6462104 -0.307079E-04  0.112E-02    1.82       1.1  T
  11   -100.6462166 -0.622569E-05  0.470E-03    1.82       2.6  T
  12   -100.6462166  0.288618E-07  0.389E-03    1.82       3.1  T
  13   -100.6462160  0.591179E-06  0.378E-03    1.82       3.2  T
  14   -100.6462170 -0.101550E-05  0.126E-03    1.82       9.6  T
  15   -100.6462170  0.397539E-08  0.797E-04    1.82      15.2  T
  16   -100.6462170 -0.157129E-07  0.313E-04    1.82      38.8  T
     SCC iter.                  ...        0 min,  0.063 sec
     gradient                   ...        0 min,  0.010 sec
------------------------------------------------------------------------
empirical IP shift (eV):    4.8455
delta SCC IP (eV):    5.8553
------------------------------------------------------------------------
           ------------------------------------------------- 
          |        vertical delta SCC EA calculation        |
           ------------------------------------------------- 

 iter      E             dE          RMSdq      gap      omega  full diag
   1   -101.1222291 -0.101122E+03  0.102E+00    0.30       0.0  T
   2   -101.1230055 -0.776420E-03  0.168E+00    0.37       1.0  T
   3   -101.2025463 -0.795408E-01  0.773E-01    0.22       1.0  T
   4   -101.1951751  0.737118E-02  0.849E-01    0.27       1.0  T
   5   -101.2102168 -0.150417E-01  0.547E-01    0.23       1.0  T
   6   -101.2172729 -0.705607E-02  0.266E-01    0.25       1.0  T
   7   -101.2177456 -0.472712E-03  0.153E-01    0.25       1.0  T
   8   -101.2179561 -0.210463E-03  0.653E-02    0.26       1.0  T
   9   -101.2180615 -0.105442E-03  0.250E-02    0.26       1.0  T
  10   -101.2180624 -0.861770E-06  0.164E-02    0.26       1.0  T
  11   -101.2180738 -0.114011E-04  0.743E-03    0.26       1.6  T
  12   -101.2180743 -0.504393E-06  0.553E-03    0.26       2.2  T
  13   -101.2180747 -0.453644E-06  0.297E-03    0.26       4.1  T
  14   -101.2180749 -0.124793E-06  0.144E-03    0.26       8.4  T
  15   -101.2180749 -0.915085E-08  0.932E-04    0.26      13.0  T
  16   -101.2180749 -0.253147E-07  0.392E-04    0.26      30.9  T
     SCC iter.                  ...        0 min,  0.068 sec
     gradient                   ...        0 min,  0.011 sec
------------------------------------------------------------------------
empirical EA shift (eV):    4.8455
delta SCC EA (eV):    0.0147
------------------------------------------------------------------------

------------------------------------------------------------------------
Calculation of global electrophilicity index (IP+EA)²/(8·(IP-EA))
Global electrophilicity index (eV):    0.7375
------------------------------------------------------------------------
           -------------------------------------------------
          |                Property Printout                |
           -------------------------------------------------

    * Orbital Energies and Occupations

         #    Occupation            Energy/Eh            Energy/eV
      -------------------------------------------------------------
         1        2.0000           -0.7196347             -19.5823
       ...           ...                  ...                  ...
        81        2.0000           -0.2443163              -6.6482
        82        2.0000           -0.2411639              -6.5624
        83        2.0000           -0.2381134              -6.4794
        84        2.0000           -0.2261992              -6.1552
        85        2.0000           -0.2207851              -6.0079
        86        2.0000           -0.2131912              -5.8012
        87        2.0000           -0.2096187              -5.7040
        88        2.0000           -0.2011020              -5.4723
        89        2.0000           -0.1961414              -5.3373
        90        2.0000           -0.1931710              -5.2565
        91        2.0000           -0.1833316              -4.9887
        92        2.0000           -0.1671329              -4.5479
        93        0.9927           -0.0965918              -2.6284 (HOMO)
        94        0.0062           -0.0871018              -2.3702 (LUMO)
        95        0.0011           -0.0854524              -2.3253
        96                         -0.0345366              -0.9398
        97                         -0.0270632              -0.7364
        98                         -0.0263946              -0.7182
        99                         -0.0170653              -0.4644
       100                         -0.0079201              -0.2155
       101                          0.0078315               0.2131
       102                          0.0536548               1.4600
       103                          0.1187361               3.2310
       104                          0.1277660               3.4767
       ...                                ...                  ...
       174                          7.1020684             193.2571
      -------------------------------------------------------------
                  HL-Gap            0.0094900 Eh            0.2582 eV
             Fermi-level           -0.1118936 Eh           -3.0448 eV

     #   Z          covCN         q      C6AA      α(0)
     1  26 Fe      10.235     1.474   108.898    18.403
     2   6 C        2.730     0.371    20.706     7.450
     3  46 Pd       4.733    -0.484   393.116    36.210
     4   6 C        3.839    -0.025    20.984     6.517
     5   1 H        0.927     0.018     2.766     2.600
     6   1 H        0.927     0.002     3.025     2.720
     7   1 H        0.927     0.056     2.245     2.343
     8   6 C        2.668     0.382    20.532     7.414
     9   8 O        0.856    -0.551    24.934     6.695
    10   6 C        4.073    -0.118    22.665     6.762
    11   8 O        0.863    -0.559    25.122     6.720
    12   6 C        3.934    -0.141    23.147     6.837
    13   6 C        3.871    -0.159    23.524     6.897
    14   6 C        3.875    -0.167    23.695     6.921
    15   1 H        0.927     0.050     2.325     2.384
    16   1 H        0.927     0.013     2.838     2.634
    17   1 H        0.927     0.003     3.008     2.712
    18   1 H        1.490     0.158     1.332     1.802
    19   6 C        3.766    -0.206    24.620     7.072
    20   6 C        3.840     0.043    19.830     6.335
    21   8 O        1.532    -0.438    21.683     6.281
    22   6 C        3.878    -0.146    23.269     6.859
    23   6 C        3.901    -0.157    23.466     6.886
    24   6 C        3.892    -0.166    23.662     6.915
    25   6 C        3.890    -0.158    23.508     6.893
    26   6 C        3.886    -0.112    22.575     6.755
    27   1 H        0.927     0.063     2.165     2.301
    28   7 N        2.661    -0.244    26.369     7.627
    29   1 H        0.924    -0.000     3.061     2.736
    30   1 H        0.925     0.034     2.525     2.485
    31   1 H        0.923     0.002     3.025     2.720
    32   1 H        0.927     0.040     2.453     2.449
    33   7 N        3.495    -0.035    21.914     6.953
    34   6 C        3.723    -0.033    21.269     6.586
    35   6 C        3.779    -0.026    21.060     6.538
    36   1 H        0.924    -0.001     3.074     2.742
    37   1 H        0.925     0.043     2.410     2.428
    38   1 H        0.925     0.076     2.020     2.223
    39   1 H        0.923    -0.003     3.112     2.759
    40   1 H        0.924     0.072     2.065     2.247
    41   1 H        0.924     0.074     2.040     2.233
    42   6 C        3.898     0.032    19.974     6.353
    43   6 C        3.757    -0.097    22.414     6.750
    44   6 C        3.760    -0.098    22.429     6.752
    45   6 C        3.760    -0.103    22.507     6.763
    46   1 H        0.923     0.129     1.543     1.943
    47   1 H        0.925     0.008     2.918     2.671
    48   1 H        0.924     0.058     2.219     2.330
    49   1 H        0.925     0.012     2.857     2.643
    50   1 H        0.925     0.023     2.688     2.564
    51   1 H        0.925     0.046     2.366     2.405
    52   1 H        0.925     0.055     2.258     2.350
    53   1 H        0.925     0.019     2.746     2.592
    54   1 H        0.925     0.011     2.881     2.654
    55   8 O        1.705    -0.334    19.588     5.975
    56   6 C        3.758    -0.110    22.660     6.787
    57   6 C        3.784     0.162    18.011     6.045
    58   6 C        3.756    -0.120    22.854     6.816
    59   6 C        3.756    -0.118    22.823     6.812
    60   1 H        0.925     0.041     2.434     2.440
    61   1 H        0.925     0.045     2.386     2.415
    62   1 H        0.925     0.028     2.614     2.528
    63   1 H        0.925     0.036     2.496     2.471
    64   1 H        0.925     0.022     2.704     2.572
    65   1 H        0.925     0.077     2.008     2.216
    66   1 H        0.925     0.034     2.529     2.487
    67   1 H        0.925     0.022     2.703     2.571
    68   1 H        0.925     0.075     2.036     2.232

 Mol. C6AA /au·bohr⁶  :      52023.069031
 Mol. C8AA /au·bohr⁸  :    1494982.331581
 Mol. α(0) /au        :        346.180147


Wiberg/Mayer (AO) data.
largest (>0.10) Wiberg bond orders for each atom

 ---------------------------------------------------------------------------
     #   Z sym  total        # sym  WBO       # sym  WBO       # sym  WBO
 ---------------------------------------------------------------------------
     1  26 Fe   0.488 --    10 C    0.202    12 C    0.200    25 C    0.186
                            14 C    0.179    23 C    0.173    13 C    0.142
                            18 H    0.127    24 C    0.124    22 C    0.123
     2   6 C    3.936 --     9 O    1.581    21 O    1.385    20 C    0.881
     3  46 Pd   3.820 --    19 C    0.816    28 N    0.536    21 O    0.434
                            18 H    0.411    33 N    0.376    22 C    0.162
                            26 C    0.160    10 C    0.116
     4   6 C    3.971 --    10 C    1.003    33 N    0.973    30 H    0.967
                            31 H    0.960
     5   1 H    0.998 --    24 C    0.995
     6   1 H    0.998 --    23 C    0.984
     7   1 H    0.994 --    22 C    0.947
     8   6 C    3.931 --    28 N    1.434    11 O    1.360    55 O    1.017
     9   8 O    1.893 --     2 C    1.581    21 O    0.202
    10   6 C    3.948 --    14 C    1.270    19 C    1.224     4 C    1.003
                             1 Fe   0.202     3 Pd   0.116
    11   8 O    1.922 --     8 C    1.360    28 N    0.175    18 H    0.102
    12   6 C    3.970 --    13 C    1.340    19 C    1.175    15 H    0.974
                             1 Fe   0.200
    13   6 C    3.964 --    12 C    1.340    14 C    1.306    16 H    0.993
                             1 Fe   0.142
    14   6 C    3.965 --    13 C    1.306    10 C    1.270    17 H    0.992
                             1 Fe   0.179
    15   1 H    0.996 --    12 C    0.974
    16   1 H    0.996 --    13 C    0.993
    17   1 H    0.998 --    14 C    0.992
    18   1 H    0.975 --     3 Pd   0.411     1 Fe   0.127    26 C    0.118
                            11 O    0.102
    19   6 C    3.625 --    10 C    1.224    12 C    1.175     3 Pd   0.816
    20   6 C    3.972 --    28 N    0.988    29 H    0.953    42 C    0.945
                             2 C    0.881
    21   8 O    2.166 --     2 C    1.385     3 Pd   0.434     9 O    0.202
    22   6 C    3.971 --    23 C    1.302    26 C    1.277     7 H    0.947
                             3 Pd   0.162     1 Fe   0.123
    23   6 C    3.969 --    24 C    1.305    22 C    1.302     6 H    0.984
                             1 Fe   0.173
    24   6 C    3.962 --    25 C    1.341    23 C    1.305     5 H    0.995
                             1 Fe   0.124
    25   6 C    3.965 --    24 C    1.341    26 C    1.257    32 H    0.988
                             1 Fe   0.186
    26   6 C    3.975 --    22 C    1.277    25 C    1.257    27 H    0.960
                             3 Pd   0.160    18 H    0.118
    27   1 H    0.993 --    26 C    0.960
    28   7 N    3.360 --     8 C    1.434    20 C    0.988     3 Pd   0.536
                            11 O    0.175
    29   1 H    0.998 --    20 C    0.953
    30   1 H    0.998 --     4 C    0.967
    31   1 H    0.998 --     4 C    0.960
    32   1 H    0.996 --    25 C    0.988
    33   7 N    3.440 --    34 C    1.001    35 C    0.997     4 C    0.973
                             3 Pd   0.376
    34   6 C    3.981 --    33 N    1.001    36 H    0.974    37 H    0.972
                            38 H    0.967
    35   6 C    3.981 --    33 N    0.997    39 H    0.970    41 H    0.960
                            40 H    0.954
    36   1 H    0.998 --    34 C    0.974
    37   1 H    0.997 --    34 C    0.972
    38   1 H    0.993 --    34 C    0.967
    39   1 H    0.999 --    35 C    0.970
    40   1 H    0.993 --    35 C    0.954
    41   1 H    0.993 --    35 C    0.960
    42   6 C    3.990 --    45 C    0.999    44 C    0.995    43 C    0.995
                            20 C    0.945
    43   6 C    3.986 --    42 C    0.995    47 H    0.987    48 H    0.959
                            46 H    0.876
    44   6 C    3.997 --    42 C    0.995    50 H    0.987    49 H    0.987
                            51 H    0.979
    45   6 C    3.995 --    42 C    0.999    53 H    0.987    54 H    0.986
                            52 H    0.980
    46   1 H    0.981 --    43 C    0.876
    47   1 H    0.999 --    43 C    0.987
    48   1 H    0.994 --    43 C    0.959
    49   1 H    0.999 --    44 C    0.987
    50   1 H    0.999 --    44 C    0.987
    51   1 H    0.998 --    44 C    0.979
    52   1 H    0.997 --    45 C    0.980
    53   1 H    1.000 --    45 C    0.987
    54   1 H    0.999 --    45 C    0.986
    55   8 O    2.196 --     8 C    1.017    57 C    0.932
    56   6 C    3.996 --    57 C    0.993    62 H    0.987    60 H    0.986
                            61 H    0.986
    57   6 C    3.938 --    56 C    0.993    58 C    0.993    59 C    0.992
                            55 O    0.932
    58   6 C    3.992 --    57 C    0.993    64 H    0.986    63 H    0.986
                            65 H    0.975
    59   6 C    3.993 --    57 C    0.992    67 H    0.986    66 H    0.986
                            68 H    0.976
    60   1 H    0.998 --    56 C    0.986
    61   1 H    0.998 --    56 C    0.986
    62   1 H    0.998 --    56 C    0.987
    63   1 H    0.999 --    58 C    0.986
    64   1 H    0.999 --    58 C    0.986
    65   1 H    0.994 --    58 C    0.975
    66   1 H    0.999 --    59 C    0.986
    67   1 H    0.999 --    59 C    0.986
    68   1 H    0.994 --    59 C    0.976
 ---------------------------------------------------------------------------

Topologies differ in total number of bonds
Writing topology from bond orders to xtbtopo.mol

molecular dipole:
                 x           y           z       tot (Debye)
 q only:        2.301       1.640      -1.807
   full:        1.646       0.502      -1.277       5.448
molecular quadrupole (traceless):
                xx          xy          yy          xz          yz          zz
 q only:       -0.352     -18.618       4.534      14.184      17.638      -4.182
  q+dip:        7.059     -24.612       6.740      18.146      16.207     -13.799
   full:        6.908     -28.373       2.552      16.028      16.321      -9.460


           -------------------------------------------------
          | TOTAL ENERGY              -99.926393545982 Eh   |
          | GRADIENT NORM               0.102561116033 Eh/α |
          | HOMO-LUMO GAP               0.258236157114 eV   |
           -------------------------------------------------
########################################################################
[WARNING] Runtime exception occurred
-1- restart_readRestart: Multiplicity missmatch in restart file.
########################################################################

------------------------------------------------------------------------
 * finished run on 2024/10/15 at 00:14:32.131     
------------------------------------------------------------------------
 total:
 * wall-time:     0 d,  0 h,  0 min,  0.499 sec
 *  cpu-time:     0 d,  0 h,  0 min,  5.296 sec
 * ratio c/w:    10.613 speedup
 SCF:
 * wall-time:     0 d,  0 h,  0 min,  0.244 sec
 *  cpu-time:     0 d,  0 h,  0 min,  2.899 sec
 * ratio c/w:    11.862 speedup

