%chk=1-modopt.chk
#p opt=(modredundant,nomicro) external='./xtb.sh'

Generate automatically by rxnb

0 1
Fe          -3.715230        4.164420        1.367260
C           -3.209460       -1.650470       -2.096360
Pd          -3.991610        0.772170       -0.832220
C           -5.625180        3.160320       -1.035290
H           -4.323820        6.861140        2.002320
H           -3.823720        6.218160       -0.581100
H           -1.742850        4.472660       -0.615970
C           -1.287400        0.599160        0.000060
O           -3.194050       -2.643140       -2.793660
C           -5.135690        3.116520        0.375800
O           -1.449600        1.813680        0.354640
C           -3.963760        2.259810        2.166580
C           -4.963490        3.138440        2.672850
C           -5.712140        3.645630        1.566190
H           -3.208180        1.748190        2.760530
H           -5.117740        3.399390        3.718750
H           -6.550810        4.338590        1.620280
H           -2.746460        2.069110        0.320860
C           -4.041690        2.226270        0.729300
C           -2.187050       -1.494190       -0.943370
O           -4.092820       -0.683620       -2.223150
C           -2.165940        4.955570        0.262550
C           -3.266890        5.864110        0.285150
C           -3.531100        6.204160        1.648670
C           -2.589160        5.508260        2.466320
C           -1.748770        4.733030        1.611250
H           -0.956960        4.056360        1.922690
N           -2.295350       -0.152230       -0.386030
H           -1.183860       -1.641940       -1.372380
H           -4.891590        3.650540       -1.691030
H           -6.587220        3.694310       -1.136370
H           -2.543650        5.537300        3.534960
N           -5.754850        1.774150       -1.507130
C           -5.716670        1.551860       -2.906100
C           -6.669970        0.955580       -0.773780
H           -6.589390        0.970950       -3.303570
H           -5.597060        2.522760       -3.456230
H           -4.807610        0.957850       -3.183720
H           -7.657750        1.464440       -0.737880
H           -6.735430       -0.076010       -1.123810
H           -6.316950        0.949650        0.299160
C           -2.428540       -2.590430        0.081490
C           -1.984150       -2.022730        1.352040
C           -1.662650       -3.703430       -0.491860
C           -2.294870       -4.204430       -1.764380
H           -1.394570       -1.155920        1.150480
H           -1.473150       -2.784290        2.000650
H           -2.862620       -1.661190        1.978040
H           -3.439130       -2.457120       -0.222090
H           -1.337670       -4.501860        0.178780
H           -0.721620       -3.143490       -0.802060
H           -1.686720       -4.077900       -2.662200
H           -2.501270       -5.303620       -1.670070
H           -3.283610       -3.708000       -1.948530
O            0.000000        0.000000        0.000000
C            2.368720       -0.000000        0.000000
C            1.126420        0.841020        0.000000
C            1.004410        1.759090       -1.163780
C            1.122290        1.643780        1.293210
H            2.100510       -0.970940        0.502060
H            2.786720       -0.181780       -0.998560
H            3.150810        0.449130        0.668740
H            1.450060        1.401060       -2.097950
H            1.371780        2.797030       -0.929300
H           -0.092540        1.910070       -1.392230
H            0.273330        1.327120        1.939480
H            2.042180        1.476920        1.891450
H            1.103450        2.725340        1.054360

B 11 18 F
B 18 19 F
B 3 19 F
B 3 33 F
B 3 28 F
B 3 21 F

