%chk=2-modfreq.chk
#p freq external='./xtb.sh'

Generate automatically by rxnb

0 1
Fe          -2.223440        0.287750       -0.011640
C            2.358090       -0.834620       -1.527740
Pd           0.122150       -0.992950        0.128690
C           -2.322320       -2.461050        0.418290
H           -4.443720        1.462600       -0.745790
H           -3.982540       -0.987400       -1.553970
H           -1.379630       -1.164820       -2.241570
C            0.983000        1.665610        0.252110
O            3.124380       -0.836880       -2.474080
C           -2.380890       -1.185240        1.168960
O           -0.279250        1.788860        0.449950
C           -1.979680        0.907010        1.884910
C           -3.311500        0.843160        1.509380
C           -3.585240       -0.471330        1.108580
H           -1.519260        1.823330        2.175980
H           -3.968770        1.678490        1.457630
H           -4.501630       -0.819120        0.692810
H           -0.865400        0.629700        0.696920
C           -1.289170       -0.321910        1.582360
C            2.714350       -0.040630       -0.226490
O            1.235010       -1.436530       -1.492730
C           -1.889620       -0.311060       -1.849900
C           -3.261240       -0.203300       -1.552820
C           -3.524880        1.114450       -1.151270
C           -2.316710        1.820930       -1.183540
C           -1.317960        0.956870       -1.663630
H           -0.298150        1.198800       -1.863000
N            1.451920        0.474880        0.218550
H            3.442210        0.748640       -0.445680
H           -2.820930       -2.234900       -0.524050
H           -2.863220       -3.275600        0.927050
H           -2.179710        2.767700       -0.719690
N           -0.947930       -2.843190        0.133950
C           -0.855520       -3.707600       -1.031230
C           -0.337980       -3.502660        1.285320
H           -1.300220       -4.692490       -0.832740
H           -1.376700       -3.256730       -1.873600
H            0.189320       -3.837390       -1.309650
H           -0.818710       -4.473460        1.482140
H            0.723600       -3.675540        1.090590
H           -0.450170       -2.873380        2.169860
C            3.243880       -0.999810        0.861760
C            3.739240       -0.184060        2.054780
C            4.325350       -1.951500        0.329380
C            3.751980       -3.310610       -0.061070
H            4.618110        0.395310        1.777780
H            4.001970       -0.837510        2.884950
H            2.962530        0.503250        2.386920
H            2.367590       -1.599740        1.201310
H            5.090160       -2.096790        1.096580
H            4.805810       -1.503470       -0.542120
H            4.529110       -3.947770       -0.477620
H            3.329550       -3.812600        0.810550
H            2.977290       -3.192400       -0.815340
O            1.809530        2.709440        0.110050
C            2.548900        4.928020       -0.004430
C            1.294670        4.052900        0.008390
C            0.522770        4.197240       -1.302790
C            0.408060        4.408800        1.203080
H            3.090760        4.816860        0.930890
H            3.201580        4.623410       -0.817830
H            2.275860        5.970620       -0.137480
H            1.167060        3.945710       -2.142170
H            0.175210        5.219860       -1.419400
H           -0.330030        3.525820       -1.300390
H            0.930760        4.189930        2.131430
H            0.170780        5.468690        1.173470
H           -0.510440        3.827690        1.170770


