%chk=4-tsfreq.chk
#p freq external='./xtb.sh'

Generate automatically by rxnb

0 1
Fe           1.913380        1.263930       -0.054060
C           -1.739920       -1.723450        1.470430
Pd           0.412960       -0.875930       -0.130580
C            3.340340       -1.053410       -0.309610
H            3.350810        3.429900        0.393040
H            4.129190        1.164310        1.459150
H            1.928710       -0.125480        2.364110
C           -1.739320        1.047830       -0.270860
O           -2.509390       -2.087500        2.342590
C            2.806350       -0.001510       -1.197500
O           -0.840600        1.924570       -0.371560
C            1.238980        1.436660       -1.884810
C            2.409380        2.164620       -1.692730
C            3.401670        1.268800       -1.255940
H            0.309290        1.902680       -2.112140
H            2.474970        3.226360       -1.719070
H            4.378310        1.522510       -0.915790
H            0.494910        0.937420       -0.085770
C            1.441480        0.048840       -1.598540
C           -2.282250       -1.299660        0.067170
O           -0.475280       -1.626800        1.599230
C            1.978780        0.810860        1.858790
C            3.119350        1.503500        1.432700
C            2.714590        2.735640        0.887010
C            1.321670        2.801870        0.957950
C            0.860530        1.627370        1.590560
H           -0.145010        1.417850        1.881310
N           -1.429440       -0.210710       -0.346660
H           -3.327600       -0.985090        0.159290
H            3.717070       -0.514240        0.556350
H            4.151910       -1.649230       -0.753180
H            0.709760        3.497450        0.435610
N            2.231090       -1.911740        0.110230
C            2.500070       -2.538990        1.399220
C            2.005660       -2.968450       -0.877440
H            3.224600       -3.357850        1.300960
H            2.911130       -1.811320        2.095350
H            1.571730       -2.930910        1.814760
H            2.872000       -3.646290       -0.930270
H            1.128380       -3.554800       -0.590340
H            1.849530       -2.528250       -1.863450
C           -2.158780       -2.444860       -0.959980
C           -2.855330       -2.031330       -2.255870
C           -2.705470       -3.772320       -0.415230
C           -1.607810       -4.646980        0.183260
H           -3.927290       -1.934190       -2.094510
H           -2.687000       -2.770650       -3.037370
H           -2.466980       -1.071970       -2.594850
H           -1.073300       -2.562010       -1.187720
H           -3.195370       -4.322310       -1.223000
H           -3.452920       -3.565970        0.352740
H           -2.032670       -5.550180        0.615950
H           -0.890840       -4.942610       -0.584590
H           -1.087860       -4.112690        0.975640
O           -3.041090        1.351230       -0.099020
C           -4.958030        2.644020        0.265500
C           -3.444090        2.722710        0.062170
C           -2.772500        3.331320        1.295580
C           -3.113460        3.531810       -1.193700
H           -5.424870        2.183370       -0.601010
H           -5.181300        2.037160        1.138780
H           -5.369040        3.639450        0.406210
H           -2.965480        2.706520        2.165060
H           -3.171080        4.325180        1.479080
H           -1.699270        3.397260        1.138080
H           -3.575730        3.071310       -2.063950
H           -3.488390        4.545900       -1.087020
H           -2.036590        3.557710       -1.339060


