68
charge 0 multiplicity 1
Fe          -2.22344   0.28775  -0.01164
C            2.35809  -0.83462  -1.52774
Pd           0.12215  -0.99295   0.12869
C           -2.32232  -2.46105   0.41829
H           -4.44372   1.46260  -0.74579
H           -3.98254  -0.98740  -1.55397
H           -1.37963  -1.16482  -2.24157
C            0.98300   1.66561   0.25211
O            3.12438  -0.83688  -2.47408
C           -2.38089  -1.18524   1.16896
O           -0.27925   1.78886   0.44995
C           -1.97968   0.90701   1.88491
C           -3.31150   0.84316   1.50938
C           -3.58524  -0.47133   1.10858
H           -1.51926   1.82333   2.17598
H           -3.96877   1.67849   1.45763
H           -4.50163  -0.81912   0.69281
H           -0.86540   0.62970   0.69692
C           -1.28917  -0.32191   1.58236
C            2.71435  -0.04063  -0.22649
O            1.23501  -1.43653  -1.49273
C           -1.88962  -0.31106  -1.84990
C           -3.26124  -0.20330  -1.55282
C           -3.52488   1.11445  -1.15127
C           -2.31671   1.82093  -1.18354
C           -1.31796   0.95687  -1.66363
H           -0.29815   1.19880  -1.86300
N            1.45192   0.47488   0.21855
H            3.44221   0.74864  -0.44568
H           -2.82093  -2.23490  -0.52405
H           -2.86322  -3.27560   0.92705
H           -2.17971   2.76770  -0.71969
N           -0.94793  -2.84319   0.13395
C           -0.85552  -3.70760  -1.03123
C           -0.33798  -3.50266   1.28532
H           -1.30022  -4.69249  -0.83274
H           -1.37670  -3.25673  -1.87360
H            0.18932  -3.83739  -1.30965
H           -0.81871  -4.47346   1.48214
H            0.72360  -3.67554   1.09059
H           -0.45017  -2.87338   2.16986
C            3.24388  -0.99981   0.86176
C            3.73924  -0.18406   2.05478
C            4.32535  -1.95150   0.32938
C            3.75198  -3.31061  -0.06107
H            4.61811   0.39531   1.77778
H            4.00197  -0.83751   2.88495
H            2.96253   0.50325   2.38692
H            2.36759  -1.59974   1.20131
H            5.09016  -2.09679   1.09658
H            4.80581  -1.50347  -0.54212
H            4.52911  -3.94777  -0.47762
H            3.32955  -3.81260   0.81055
H            2.97729  -3.19240  -0.81534
O            1.80953   2.70944   0.11005
C            2.54890   4.92802  -0.00443
C            1.29467   4.05290   0.00839
C            0.52277   4.19724  -1.30279
C            0.40806   4.40880   1.20308
H            3.09076   4.81686   0.93089
H            3.20158   4.62341  -0.81783
H            2.27586   5.97062  -0.13748
H            1.16706   3.94571  -2.14217
H            0.17521   5.21986  -1.41940
H           -0.33003   3.52582  -1.30039
H            0.93076   4.18993   2.13143
H            0.17078   5.46869   1.17347
H           -0.51044   3.82769   1.17077