%chk=1-modopt.chk
#p opt=(modredundant,nomicro) external='./xtb.sh'

Generate automatically by rxnb

0 1
Fe           0.048700       -5.196190       -2.486880
C           -3.258220       -1.658590        2.288000
Pd          -2.215070       -3.535280        0.437980
C           -2.812230       -5.891810       -1.127240
H            0.416530       -6.912240       -4.717260
H           -1.859420       -5.450740       -4.565930
H           -1.199720       -2.972280       -3.676350
C           -0.509950       -1.312110       -0.186300
O           -3.811840       -1.222660        3.276130
C           -1.322950       -5.793280       -1.125350
O           -0.047450       -2.071760       -1.097560
C            0.719170       -4.902150       -0.539670
C            0.925210       -6.256340       -0.929900
C           -0.343710       -6.820370       -1.261610
H            1.499210       -4.191180       -0.274530
H            1.885230       -6.766920       -0.987930
H           -0.529710       -7.842570       -1.588600
H           -0.624360       -3.253090       -0.961890
C           -0.678820       -4.577030       -0.658070
C           -2.221580       -0.815120        1.514690
O           -3.552230       -2.826370        1.754550
C            0.904740       -3.750220       -3.678740
C            1.432910       -5.033450       -4.015720
C            0.345860       -5.867440       -4.419830
C           -0.855210       -5.095870       -4.339350
C           -0.509350       -3.788060       -3.881830
H            1.464420       -2.902240       -3.291570
N           -1.465170       -1.701470        0.629870
H           -1.549720       -0.341420        2.248440
H           -3.320630       -6.295460       -1.977820
H            2.476790       -5.334080       -3.945620
O           -3.554450       -5.449820       -0.000220
C           -2.943880        0.283930        0.752630
C           -3.696320       -0.294860       -0.411110
C           -1.882790        1.271970        0.340990
C           -3.913690        1.002070        1.661730
H           -3.231740       -1.278230       -0.655010
H           -3.678800        0.406160       -1.251110
H           -4.770490       -0.402410       -0.113180
H           -2.322430        2.241370        0.013150
H           -1.300880        1.503850        1.280710
H           -1.226110        0.902520       -0.462590
H           -3.851600        0.511030        2.653710
H           -3.662440        2.094000        1.759510
H           -4.964450        0.968060        1.252280
O            0.000000        0.000000        0.000000
C            1.408640       -0.000000       -0.000000
C            1.885270        1.455460        0.000000
C            1.389050        2.164700       -1.196630
C            1.607230        1.932180       -2.537010
C            1.032960        2.756500       -3.505730
C            0.238400        3.822510       -3.102240
C            0.043920        4.008410       -1.764340
C            0.600510        3.216800       -0.780130
C            0.559440        3.223380        0.684820
C           -0.055520        4.052840        1.594250
C            0.045400        3.874430        2.964780
C            0.814000        2.836630        3.417400
C            1.426790        1.992530        2.527820
C            1.318190        2.176710        1.163280
H            1.795950       -0.512360       -0.900470
H            1.704020       -0.481490        0.951540
H            3.006340        1.417460        0.027230
H            2.216010        1.104650       -2.906650
H            1.176750        2.587410       -4.567210
H           -0.269270        4.378000       -3.878680
H           -0.599140        4.812700       -1.445190
H           -0.654650        4.870980        1.195830
H           -0.530250        4.471100        3.671600
H            0.923290        2.652260        4.470840
H            2.032700        1.180660        2.913810

B 11 18 F
B 18 19 F
B 3 19 F
B 3 32 F
B 3 28 F
B 3 21 F

