%chk=2-modfreq.chk
#p freq external='./xtb.sh'

Generate automatically by rxnb

0 1
Fe          -3.289220       -0.064590        0.112340
C            0.855120       -1.484180       -1.482190
Pd          -0.803180        0.503960       -0.349640
C           -3.241700        2.028190       -0.392880
H           -5.321640        0.657820       -1.516040
H           -2.883780        0.417280       -2.576000
H           -1.767400       -1.756340       -1.590560
C            1.130650        0.267490        1.546490
O            1.372420       -2.239960       -2.287650
C           -3.174440        1.663080        0.979540
O            0.529460        1.252990        2.078140
C           -2.510390       -0.289040        1.898770
C           -3.917230       -0.268220        1.942010
C           -4.344360        0.928160        1.370120
H           -1.929420       -1.116160        2.248080
H           -4.533170       -1.083860        2.242580
H           -5.347170        1.184710        1.113130
H           -0.718410        1.246570        1.642760
C           -2.013810        0.926170        1.383210
C            1.187970       -1.611590        0.032250
O            0.041040       -0.561500       -1.824760
C           -3.608740       -1.902330       -0.340340
C           -4.798080       -1.152180       -0.387110
C           -4.615730       -0.113330       -1.312670
C           -3.332620       -0.244820       -1.867360
C           -2.704850       -1.352010       -1.276450
H           -3.419810       -2.690460        0.350130
N            0.538750       -0.519710        0.705510
H            2.279900       -1.537430        0.133470
H           -4.246900        2.293730       -0.729990
H           -5.640780       -1.271380        0.252270
O           -2.289650        2.166550       -1.172830
C            0.729710       -2.950470        0.669110
C           -0.781980       -3.118220        0.469470
C            1.035480       -2.913440        2.171440
C            1.488760       -4.115200        0.036150
H           -1.294330       -2.159780        0.610850
H           -1.172180       -3.847040        1.178170
H           -0.981340       -3.484440       -0.534070
H            0.806050       -3.877800        2.620640
H            2.086280       -2.693070        2.341300
H            0.445640       -2.148670        2.673330
H            1.411120       -4.073290       -1.046430
H            2.542650       -4.066810        0.300320
H            1.084610       -5.062190        0.388280
O            2.380160       -0.042450        1.952020
C            3.176570        1.043490        2.400850
C            3.806570        1.764280        1.189060
C            4.601230        0.780110        0.366540
C            5.736610        0.079960        0.711540
C            6.245810       -0.845830       -0.190300
C            5.617330       -1.075880       -1.404750
C            4.475730       -0.375260       -1.759540
C            3.976390        0.561530       -0.870100
C            2.807590        1.424460       -0.955280
C            1.852000        1.556870       -1.951100
C            0.765490        2.398190       -1.719330
C            0.693840        3.161200       -0.550960
C            1.691400        3.078040        0.416090
C            2.723100        2.180250        0.225230
H            3.949660        0.598830        3.030550
H            2.564670        1.735050        2.988090
H            4.405250        2.601990        1.556890
H            6.223590        0.242690        1.662930
H            7.136730       -1.401730        0.063840
H            6.020390       -1.815190       -2.080990
H            3.975410       -0.571930       -2.694840
H            1.930000        0.996790       -2.871030
H            0.001520        2.515670       -2.479470
H           -0.134730        3.843560       -0.412980
H            1.634610        3.676080        1.314380


