%chk=4-tsfreq.chk
#p freq external='./xtb.sh'

Generate automatically by rxnb

0 1
Fe           3.370250        0.055180        0.147300
C           -0.917780        1.482430       -1.525650
Pd           0.844620       -0.502430       -0.392700
C            3.173280       -1.872730       -0.638200
H            5.597640       -0.427890       -1.257810
H            3.302540       -0.196390       -2.607250
H            1.906170        1.753340       -1.570140
C           -1.134220       -0.278190        1.547930
O           -1.549020        2.215740       -2.269910
C            3.113400       -1.759200        0.773990
O           -0.504260       -1.256140        2.153930
C            2.497510        0.100640        1.895060
C            3.896610       -0.019150        2.016450
C            4.297480       -1.154890        1.314560
H            1.959430        0.941260        2.282620
H            4.533810        0.705460        2.468030
H            5.300530       -1.433950        1.084530
H            0.509210       -1.301000        1.722520
C            1.957950       -1.000810        1.189800
C           -1.225850        1.538440        0.012390
O           -0.031780        0.663130       -1.911620
C            3.604020        1.937180       -0.115830
C            4.844750        1.272180       -0.084370
C            4.838430        0.302730       -1.098190
C            3.624870        0.418870       -1.796960
C            2.852590        1.421440       -1.198570
H            3.298970        2.657850        0.605220
N           -0.556630        0.431690        0.650800
H           -2.314370        1.448670        0.127190
H            4.143560       -2.143630       -1.056400
H            5.597860        1.381940        0.659600
O            2.178710       -1.798920       -1.392510
C           -0.780380        2.864400        0.682850
C            0.726940        3.046660        0.480980
C           -1.075670        2.804390        2.187110
C           -1.553210        4.036130        0.079470
H            1.243770        2.092950        0.636680
H            1.110540        3.789260        1.179020
H            0.923150        3.397780       -0.528240
H           -0.859130        3.769080        2.642170
H           -2.121350        2.566090        2.363100
H           -0.467270        2.048520        2.681100
H           -1.490390        4.014630       -1.004480
H           -2.603600        3.976280        0.355270
H           -1.149590        4.978720        0.443980
O           -2.363670        0.017900        1.989540
C           -3.167850       -1.076420        2.415710
C           -3.798490       -1.765130        1.188250
C           -4.610120       -0.767350        0.397810
C           -5.740180       -0.076480        0.777100
C           -6.269500        0.862210       -0.099480
C           -5.666190        1.113190       -1.322560
C           -4.530970        0.420970       -1.712380
C           -4.011700       -0.528210       -0.847760
C           -2.844050       -1.387830       -0.971440
C           -1.918840       -1.513280       -1.996020
C           -0.841390       -2.375800       -1.814920
C           -0.729730       -3.140800       -0.651850
C           -1.688800       -3.052140        0.353760
C           -2.726440       -2.154020        0.199690
H           -3.939670       -0.635210        3.049070
H           -2.567110       -1.782220        2.995970
H           -4.389800       -2.616810        1.536290
H           -6.207740       -0.255760        1.735300
H           -7.156050        1.411920        0.181890
H           -6.083920        1.862900       -1.977940
H           -4.047640        0.636290       -2.652110
H           -2.016990       -0.936840       -2.903280
H           -0.104320       -2.487810       -2.600460
H            0.094920       -3.834740       -0.547390
H           -1.604330       -3.655790        1.246760


