71
charge 0 multiplicity 1
Fe          -3.28922  -0.06459   0.11234
C            0.85512  -1.48418  -1.48219
Pd          -0.80318   0.50396  -0.34964
C           -3.24170   2.02819  -0.39288
H           -5.32164   0.65782  -1.51604
H           -2.88378   0.41728  -2.57600
H           -1.76740  -1.75634  -1.59056
C            1.13065   0.26749   1.54649
O            1.37242  -2.23996  -2.28765
C           -3.17444   1.66308   0.97954
O            0.52946   1.25299   2.07814
C           -2.51039  -0.28904   1.89877
C           -3.91723  -0.26822   1.94201
C           -4.34436   0.92816   1.37012
H           -1.92942  -1.11616   2.24808
H           -4.53317  -1.08386   2.24258
H           -5.34717   1.18471   1.11313
H           -0.71841   1.24657   1.64276
C           -2.01381   0.92617   1.38321
C            1.18797  -1.61159   0.03225
O            0.04104  -0.56150  -1.82476
C           -3.60874  -1.90233  -0.34034
C           -4.79808  -1.15218  -0.38711
C           -4.61573  -0.11333  -1.31267
C           -3.33262  -0.24482  -1.86736
C           -2.70485  -1.35201  -1.27645
H           -3.41981  -2.69046   0.35013
N            0.53875  -0.51971   0.70551
H            2.27990  -1.53743   0.13347
H           -4.24690   2.29373  -0.72999
H           -5.64078  -1.27138   0.25227
O           -2.28965   2.16655  -1.17283
C            0.72971  -2.95047   0.66911
C           -0.78198  -3.11822   0.46947
C            1.03548  -2.91344   2.17144
C            1.48876  -4.11520   0.03615
H           -1.29433  -2.15978   0.61085
H           -1.17218  -3.84704   1.17817
H           -0.98134  -3.48444  -0.53407
H            0.80605  -3.87780   2.62064
H            2.08628  -2.69307   2.34130
H            0.44564  -2.14867   2.67333
H            1.41112  -4.07329  -1.04643
H            2.54265  -4.06681   0.30032
H            1.08461  -5.06219   0.38828
O            2.38016  -0.04245   1.95202
C            3.17657   1.04349   2.40085
C            3.80657   1.76428   1.18906
C            4.60123   0.78011   0.36654
C            5.73661   0.07996   0.71154
C            6.24581  -0.84583  -0.19030
C            5.61733  -1.07588  -1.40475
C            4.47573  -0.37526  -1.75954
C            3.97639   0.56153  -0.87010
C            2.80759   1.42446  -0.95528
C            1.85200   1.55687  -1.95110
C            0.76549   2.39819  -1.71933
C            0.69384   3.16120  -0.55096
C            1.69140   3.07804   0.41609
C            2.72310   2.18025   0.22523
H            3.94966   0.59883   3.03055
H            2.56467   1.73505   2.98809
H            4.40525   2.60199   1.55689
H            6.22359   0.24269   1.66293
H            7.13673  -1.40173   0.06384
H            6.02039  -1.81519  -2.08099
H            3.97541  -0.57193  -2.69484
H            1.93000   0.99679  -2.87103
H            0.00152   2.51567  -2.47947
H           -0.13473   3.84356  -0.41298
H            1.63461   3.67608   1.31438