%chk=rp_2_2.chk
%mem=300GB
%nprocshared=68
#p opt=(calcfc,ts,noeigen,maxstep=5) freq b3lyp def2svp em=gd3bj  

Freeze index  [11, 18]  [18, 19]  [3, 19]  [3, 32]  [3, 28]  [3, 21] // Local index  3  18  20  32  (20,)  [11, 18]  [18, 19]

-1 1
Fe           0.04870  -5.19619  -2.48688
C           -3.25822  -1.65859   2.28800
Pd          -2.21507  -3.53528   0.43798
C           -2.81223  -5.89181  -1.12724
H            0.41653  -6.91224  -4.71726
H           -1.85942  -5.45074  -4.56593
H           -1.19972  -2.97228  -3.67635
C           -0.50995  -1.31211  -0.18630
O           -3.81184  -1.22266   3.27613
C           -1.32295  -5.79328  -1.12535
O           -0.04745  -2.07176  -1.09756
C            0.71917  -4.90215  -0.53967
C            0.92521  -6.25634  -0.92990
C           -0.34371  -6.82037  -1.26161
H            1.49921  -4.19118  -0.27453
H            1.88523  -6.76692  -0.98793
H           -0.52971  -7.84257  -1.58860
H           -0.62436  -3.25309  -0.96189
C           -0.67882  -4.57703  -0.65807
C           -2.22158  -0.81512   1.51469
O           -3.55223  -2.82637   1.75455
C            0.90474  -3.75022  -3.67874
C            1.43291  -5.03345  -4.01572
C            0.34586  -5.86744  -4.41983
C           -0.85521  -5.09587  -4.33935
C           -0.50935  -3.78806  -3.88183
H            1.46442  -2.90224  -3.29157
N           -1.46517  -1.70147   0.62987
H           -1.54972  -0.34142   2.24844
H           -3.32063  -6.29546  -1.97782
H            2.47679  -5.33408  -3.94562
O           -3.55445  -5.44982  -0.00022
C           -2.94388   0.28393   0.75263
C           -3.69632  -0.29486  -0.41111
C           -1.88279   1.27197   0.34099
C           -3.91369   1.00207   1.66173
H           -3.23174  -1.27823  -0.65501
H           -3.67880   0.40616  -1.25111
H           -4.77049  -0.40241  -0.11318
H           -2.32243   2.24137   0.01315
H           -1.30088   1.50385   1.28071
H           -1.22611   0.90252  -0.46259
H           -3.85160   0.51103   2.65371
H           -3.66244   2.09400   1.75951
H           -4.96445   0.96806   1.25228
O            0.00000   0.00000   0.00000
C            1.40864  -0.00000  -0.00000
C            1.88527   1.45546   0.00000
C            1.38905   2.16470  -1.19663
C            1.60723   1.93218  -2.53701
C            1.03296   2.75650  -3.50573
C            0.23840   3.82251  -3.10224
C            0.04392   4.00841  -1.76434
C            0.60051   3.21680  -0.78013
C            0.55944   3.22338   0.68482
C           -0.05552   4.05284   1.59425
C            0.04540   3.87443   2.96478
C            0.81400   2.83663   3.41740
C            1.42679   1.99253   2.52782
C            1.31819   2.17671   1.16328
H            1.79595  -0.51236  -0.90047
H            1.70402  -0.48149   0.95154
H            3.00634   1.41746   0.02723
H            2.21601   1.10465  -2.90665
H            1.17675   2.58741  -4.56721
H           -0.26927   4.37800  -3.87868
H           -0.59914   4.81270  -1.44519
H           -0.65465   4.87098   1.19583
H           -0.53025   4.47110   3.67160
H            0.92329   2.65226   4.47084
H            2.03270   1.18066   2.91381



