71
charge 0 multiplicity 1
Fe           3.37025   0.05518   0.14730
C           -0.91778   1.48243  -1.52565
Pd           0.84462  -0.50243  -0.39270
C            3.17328  -1.87273  -0.63820
H            5.59764  -0.42789  -1.25781
H            3.30254  -0.19639  -2.60725
H            1.90617   1.75334  -1.57014
C           -1.13422  -0.27819   1.54793
O           -1.54902   2.21574  -2.26991
C            3.11340  -1.75920   0.77399
O           -0.50426  -1.25614   2.15393
C            2.49751   0.10064   1.89506
C            3.89661  -0.01915   2.01645
C            4.29748  -1.15489   1.31456
H            1.95943   0.94126   2.28262
H            4.53381   0.70546   2.46803
H            5.30053  -1.43395   1.08453
H            0.50921  -1.30100   1.72252
C            1.95795  -1.00081   1.18980
C           -1.22585   1.53844   0.01239
O           -0.03178   0.66313  -1.91162
C            3.60402   1.93718  -0.11583
C            4.84475   1.27218  -0.08437
C            4.83843   0.30273  -1.09819
C            3.62487   0.41887  -1.79696
C            2.85259   1.42144  -1.19857
H            3.29897   2.65785   0.60522
N           -0.55663   0.43169   0.65080
H           -2.31437   1.44867   0.12719
H            4.14356  -2.14363  -1.05640
H            5.59786   1.38194   0.65960
O            2.17871  -1.79892  -1.39251
C           -0.78038   2.86440   0.68285
C            0.72694   3.04666   0.48098
C           -1.07567   2.80439   2.18711
C           -1.55321   4.03613   0.07947
H            1.24377   2.09295   0.63668
H            1.11054   3.78926   1.17902
H            0.92315   3.39778  -0.52824
H           -0.85913   3.76908   2.64217
H           -2.12135   2.56609   2.36310
H           -0.46727   2.04852   2.68110
H           -1.49039   4.01463  -1.00448
H           -2.60360   3.97628   0.35527
H           -1.14959   4.97872   0.44398
O           -2.36367   0.01790   1.98954
C           -3.16785  -1.07642   2.41571
C           -3.79849  -1.76513   1.18825
C           -4.61012  -0.76735   0.39781
C           -5.74018  -0.07648   0.77710
C           -6.26950   0.86221  -0.09948
C           -5.66619   1.11319  -1.32256
C           -4.53097   0.42097  -1.71238
C           -4.01170  -0.52821  -0.84776
C           -2.84405  -1.38783  -0.97144
C           -1.91884  -1.51328  -1.99602
C           -0.84139  -2.37580  -1.81492
C           -0.72973  -3.14080  -0.65185
C           -1.68880  -3.05214   0.35376
C           -2.72644  -2.15402   0.19969
H           -3.93967  -0.63521   3.04907
H           -2.56711  -1.78222   2.99597
H           -4.38980  -2.61681   1.53629
H           -6.20774  -0.25576   1.73530
H           -7.15605   1.41192   0.18189
H           -6.08392   1.86290  -1.97794
H           -4.04764   0.63629  -2.65211
H           -2.01699  -0.93684  -2.90328
H           -0.10432  -2.48781  -2.60046
H            0.09492  -3.83474  -0.54739
H           -1.60433  -3.65579   1.24676