%chk=1-modopt.chk
#p opt=(modredundant,nomicro) external='./xtb.sh'

Generate automatically by rxnb

0 1
Fe          -0.305880       -5.038290       -2.745330
C           -2.675820       -1.737370        2.690890
Pd          -2.033100       -3.565700        0.611690
C           -1.562440       -6.344720       -0.072760
H            0.826440       -7.077810       -4.359080
H            1.541270       -6.941660       -1.749830
H            1.871890       -4.321760       -1.113640
C           -0.509950       -1.312110       -0.186300
O           -3.097780       -1.250910        3.719070
C           -1.676790       -5.615620       -1.371990
O            0.057340       -2.133620       -0.980290
C           -1.957260       -3.773030       -2.728660
C           -2.238480       -4.936350       -3.500300
C           -2.096640       -6.077940       -2.652360
H           -1.941770       -2.750910       -3.103420
H           -2.493810       -4.957390       -4.558680
H           -2.248880       -7.117030       -2.941480
H           -0.671940       -3.236300       -1.001000
C           -1.597870       -4.163800       -1.390330
C           -2.210160       -0.821990        1.531410
O           -2.626730       -3.032290        2.462980
C            1.623630       -4.721650       -2.094680
C            1.437750       -6.097000       -2.429250
C            1.060720       -6.169490       -3.806670
C            1.018950       -4.838130       -4.322230
C            1.361740       -3.942990       -3.264130
H            1.381050       -2.857250       -3.315930
N           -1.584010       -1.637850        0.499200
H           -1.475750       -0.114580        1.946760
H           -0.938400       -7.210710        0.001610
H            0.740980       -4.554310       -5.335750
O           -2.281930       -5.888350        1.063230
C           -3.400520       -0.023870        1.025020
C           -4.505620       -0.947290        0.599010
C           -2.878730        0.835020       -0.098210
C           -3.913720        0.896340        2.107870
H           -4.048740       -1.941720        0.387610
H           -5.030530       -0.526020       -0.263740
H           -5.255670       -0.999790        1.428980
H           -3.591750        1.647830       -0.365460
H           -1.965070        1.354970        0.314510
H           -2.644700        0.267810       -1.013070
H           -3.285040        0.723300        3.004420
H           -3.851870        1.976470        1.800510
H           -5.003670        0.705570        2.328170
O            0.000000        0.000000        0.000000
C            1.408640        0.000000        0.000000
C            1.885270        1.455460       -0.000000
C            1.389050        2.164700       -1.196630
C            1.607230        1.932180       -2.537010
C            1.032960        2.756500       -3.505730
C            0.238400        3.822510       -3.102240
C            0.043920        4.008410       -1.764340
C            0.600510        3.216800       -0.780130
C            0.559440        3.223380        0.684820
C           -0.055520        4.052840        1.594250
C            0.045400        3.874430        2.964780
C            0.814000        2.836630        3.417400
C            1.426790        1.992530        2.527820
C            1.318190        2.176710        1.163280
H            1.795950       -0.512360       -0.900470
H            1.704020       -0.481490        0.951540
H            3.006340        1.417460        0.027230
H            2.216010        1.104650       -2.906650
H            1.176750        2.587410       -4.567210
H           -0.269270        4.378000       -3.878680
H           -0.599140        4.812700       -1.445190
H           -0.654650        4.870980        1.195830
H           -0.530250        4.471100        3.671600
H            0.923290        2.652260        4.470840
H            2.032700        1.180660        2.913810

B 11 18 F
B 18 19 F
B 3 19 F
B 3 32 F
B 3 28 F
B 3 21 F

