%chk=2-modfreq.chk
#p freq external='./xtb.sh'

Generate automatically by rxnb

0 1
Fe          -0.855930       -2.234300        0.053810
C            3.243510        0.111830       -1.455710
Pd           1.550270       -1.063680        0.442500
C            0.737100       -3.583480        1.209070
H           -0.924120       -4.828610       -0.572890
H            1.221400       -3.427100       -1.318750
H            0.389250       -1.094480       -2.227160
C            0.317760        0.934000       -0.770020
O            3.983350        0.343730       -2.392990
C           -0.240780       -2.734050        1.770620
O           -0.684350        0.200630       -0.455440
C           -1.588720       -0.971160        1.443630
C           -2.365120       -2.114200        1.299300
C           -1.556200       -3.218430        1.539700
H           -1.974370       -0.001590        1.233920
H           -3.375340       -2.114040        0.967230
H           -1.833490       -4.239860        1.431220
H           -0.347810       -0.779830        0.365300
C           -0.210080       -1.282150        1.629370
C            2.691030        1.293330       -0.584140
O            2.822260       -1.043030       -1.121410
C           -0.236220       -1.854250       -1.813540
C            0.204500       -3.099060       -1.358120
C           -0.928810       -3.850970       -0.990300
C           -2.064930       -3.056970       -1.185390
C           -1.633230       -1.809860       -1.652660
H           -2.248130       -0.945930       -1.674570
N            1.411520        0.835940       -0.108060
H            2.574430        2.179390       -1.220690
H            0.363400       -4.601760        1.046630
H           -3.053130       -3.300010       -0.880500
O            1.921690       -3.352720        0.974340
C            3.631340        1.638060        0.597200
C            3.922530        0.405750        1.470310
C            2.952460        2.710630        1.457410
C            4.942620        2.180310        0.025140
H            3.010900        0.085190        2.014530
H            4.678600        0.660030        2.212490
H            4.311500       -0.420290        0.863090
H            3.590830        2.982030        2.295730
H            2.754870        3.604460        0.869460
H            2.001810        2.342070        1.841790
H            5.396030        1.455410       -0.645770
H            4.763290        3.091390       -0.541400
H            5.642550        2.405130        0.827510
O            0.235010        1.794450       -1.799260
C           -1.010140        1.889630       -2.465710
C           -2.101780        2.601270       -1.638020
C           -3.028760        1.675490       -0.894720
C           -3.786720        0.633500       -1.383020
C           -4.569400       -0.097480       -0.497040
C           -4.641320        0.255290        0.840840
C           -3.899700        1.317950        1.334800
C           -3.068970        2.009480        0.466750
C           -2.122990        3.087740        0.702940
C           -1.729380        3.708150        1.876900
C           -0.746890        4.682630        1.812960
C           -0.173020        5.034180        0.600790
C           -0.567510        4.419120       -0.579900
C           -1.540960        3.445380       -0.521620
H           -1.351560        0.887050       -2.742890
H           -0.777250        2.461890       -3.365690
H           -2.687660        3.221150       -2.326740
H           -3.792610        0.396290       -2.437390
H           -5.141980       -0.935900       -0.864430
H           -5.280450       -0.302330        1.508720
H           -3.956470        1.588370        2.377840
H           -2.170230        3.431790        2.822800
H           -0.418740        5.171170        2.718450
H            0.594350        5.793590        0.575080
H           -0.109590        4.690360       -1.519150


