%chk=4-tsfreq.chk
#p freq external='./xtb.sh'

Generate automatically by rxnb

0 1
Fe           0.902730       -2.151300       -0.223400
C           -3.092030        0.126650        1.768550
Pd          -1.515300       -1.068990       -0.225650
C           -0.666510       -3.465840       -1.037550
H            1.421750       -4.743370        0.208250
H           -0.655250       -3.651140        1.487400
H            0.074680       -1.268330        2.341480
C           -0.338330        1.154200        0.881390
O           -3.844990        0.420050        2.678880
C            0.088950       -2.649620       -1.898670
O            0.735150        0.488160        0.770370
C            1.140290       -0.716100       -1.545620
C            2.122410       -1.704840       -1.657970
C            1.483290       -2.924870       -1.870210
H            1.371890        0.282530       -1.264090
H            3.152590       -1.553900       -1.447860
H            1.928610       -3.890570       -1.875450
H            0.268810       -0.890760        0.251830
C           -0.163030       -1.250510       -1.701510
C           -2.713010        1.205490        0.689480
O           -2.513330       -0.995380        1.607220
C            0.671000       -1.926370        1.748760
C            0.304520       -3.210050        1.338140
C            1.398600       -3.789170        0.677320
C            2.449960       -2.860820        0.672880
C            1.991450       -1.697090        1.292520
H            2.482350       -0.756210        1.273630
N           -1.401700        0.800830        0.243000
H           -2.656770        2.188020        1.172870
H           -0.314150       -4.490080       -0.914200
H            3.374450       -2.975300        0.162580
O           -1.732010       -3.111170       -0.511470
C           -3.757090        1.266160       -0.456580
C           -4.361880       -0.112870       -0.772790
C           -3.087930        1.814980       -1.722700
C           -4.883650        2.195880        0.002340
H           -3.587590       -0.822910       -1.131490
H           -5.111810       -0.008840       -1.556780
H           -4.846370       -0.527720        0.112140
H           -3.832680        1.984540       -2.498160
H           -2.582050        2.755210       -1.511900
H           -2.342860        1.104810       -2.094460
H           -5.266320        1.862280        0.964350
H           -4.519860        3.215420        0.113370
H           -5.698180        2.197400       -0.719650
O           -0.377670        2.252020        1.666540
C            0.827980        2.618970        2.307110
C            1.931100        3.115830        1.339040
C            2.958540        2.061940        1.019440
C            3.776500        1.361600        1.879440
C            4.622200        0.389940        1.355840
C            4.648700        0.133600       -0.006370
C            3.847520        0.853350       -0.879000
C            3.001000        1.818140       -0.360320
C            2.020020        2.674870       -1.008960
C            1.636580        2.772860       -2.336710
C            0.616840        3.649700       -2.667980
C           -0.005040        4.416030       -1.694300
C            0.376210        4.322760       -0.362430
C            1.388400        3.449930       -0.026300
H            1.209810        1.767430        2.881520
H            0.526140        3.415760        2.989160
H            2.411360        3.987480        1.795810
H            3.758540        1.551670        2.942410
H            5.258270       -0.176430        2.018780
H            5.311300       -0.628940       -0.389400
H            3.881690        0.668980       -1.941520
H            2.112910        2.171980       -3.096750
H            0.296810        3.732760       -3.695890
H           -0.800690        5.090610       -1.974400
H           -0.121420        4.911570        0.393460


