71
charge 0 multiplicity 1
Fe          -0.85593  -2.23430   0.05381
C            3.24351   0.11183  -1.45571
Pd           1.55027  -1.06368   0.44250
C            0.73710  -3.58348   1.20907
H           -0.92412  -4.82861  -0.57289
H            1.22140  -3.42710  -1.31875
H            0.38925  -1.09448  -2.22716
C            0.31776   0.93400  -0.77002
O            3.98335   0.34373  -2.39299
C           -0.24078  -2.73405   1.77062
O           -0.68435   0.20063  -0.45544
C           -1.58872  -0.97116   1.44363
C           -2.36512  -2.11420   1.29930
C           -1.55620  -3.21843   1.53970
H           -1.97437  -0.00159   1.23392
H           -3.37534  -2.11404   0.96723
H           -1.83349  -4.23986   1.43122
H           -0.34781  -0.77983   0.36530
C           -0.21008  -1.28215   1.62937
C            2.69103   1.29333  -0.58414
O            2.82226  -1.04303  -1.12141
C           -0.23622  -1.85425  -1.81354
C            0.20450  -3.09906  -1.35812
C           -0.92881  -3.85097  -0.99030
C           -2.06493  -3.05697  -1.18539
C           -1.63323  -1.80986  -1.65266
H           -2.24813  -0.94593  -1.67457
N            1.41152   0.83594  -0.10806
H            2.57443   2.17939  -1.22069
H            0.36340  -4.60176   1.04663
H           -3.05313  -3.30001  -0.88050
O            1.92169  -3.35272   0.97434
C            3.63134   1.63806   0.59720
C            3.92253   0.40575   1.47031
C            2.95246   2.71063   1.45741
C            4.94262   2.18031   0.02514
H            3.01090   0.08519   2.01453
H            4.67860   0.66003   2.21249
H            4.31150  -0.42029   0.86309
H            3.59083   2.98203   2.29573
H            2.75487   3.60446   0.86946
H            2.00181   2.34207   1.84179
H            5.39603   1.45541  -0.64577
H            4.76329   3.09139  -0.54140
H            5.64255   2.40513   0.82751
O            0.23501   1.79445  -1.79926
C           -1.01014   1.88963  -2.46571
C           -2.10178   2.60127  -1.63802
C           -3.02876   1.67549  -0.89472
C           -3.78672   0.63350  -1.38302
C           -4.56940  -0.09748  -0.49704
C           -4.64132   0.25529   0.84084
C           -3.89970   1.31795   1.33480
C           -3.06897   2.00948   0.46675
C           -2.12299   3.08774   0.70294
C           -1.72938   3.70815   1.87690
C           -0.74689   4.68263   1.81296
C           -0.17302   5.03418   0.60079
C           -0.56751   4.41912  -0.57990
C           -1.54096   3.44538  -0.52162
H           -1.35156   0.88705  -2.74289
H           -0.77725   2.46189  -3.36569
H           -2.68766   3.22115  -2.32674
H           -3.79261   0.39629  -2.43739
H           -5.14198  -0.93590  -0.86443
H           -5.28045  -0.30233   1.50872
H           -3.95647   1.58837   2.37784
H           -2.17023   3.43179   2.82280
H           -0.41874   5.17117   2.71845
H            0.59435   5.79359   0.57508
H           -0.10959   4.69036  -1.51915