%chk=1-modopt.chk
#p opt=(modredundant,nomicro) external='./xtb.sh'

Generate automatically by rxnb

0 1
Fe          -3.590170        4.396860        0.982750
C           -3.544810       -1.922620       -1.529630
Pd          -4.090480        0.702030       -0.609730
C           -6.134770        2.464910        0.426030
H           -4.478310        6.626780        2.497130
H           -5.027460        4.136220        3.410590
H           -2.827400        2.597800        3.007780
C           -1.287400        0.599160        0.000060
O           -3.655960       -2.952070       -2.162720
C           -5.024820        3.366000       -0.002560
O           -1.474200        1.751040        0.509640
C           -2.983670        3.880160       -0.938910
C           -3.793860        5.050870       -0.978670
C           -5.070730        4.725570       -0.429020
H           -1.940520        3.818260       -1.242660
H           -3.486710        6.029970       -1.343000
H           -5.919490        5.400340       -0.325680
H           -2.726690        2.095710        0.266250
C           -3.722670        2.806920       -0.325590
C           -2.189510       -1.499540       -0.922790
O           -4.565460       -1.142250       -1.239770
C           -1.914630        4.472350        2.179030
C           -2.451180        5.784930        2.010290
C           -3.791470        5.782230        2.504370
C           -4.081070        4.467470        2.985940
C           -2.921300        3.658850        2.785010
H           -0.931820        4.130370        1.863800
N           -2.262700       -0.084510       -0.558080
H           -1.408830       -1.659380       -1.683830
H           -5.963400        2.072200        1.438490
H           -7.119040        2.967090        0.413450
H           -1.948790        6.616820        1.562580
N           -6.136220        1.308830       -0.481930
C           -6.660660        1.499300       -1.784510
C           -6.427300        0.047270        0.125540
H           -7.460940        0.767660       -2.069720
H           -7.017580        2.555300       -1.915050
H           -5.853920        1.378400       -2.553170
H           -7.388280        0.128090        0.678620
H           -6.400850       -0.801970       -0.559340
H           -5.651780       -0.115510        0.930490
C           -1.879660       -2.389030        0.270180
C           -1.357360       -3.667830       -0.246710
C           -2.176350       -4.736810       -0.549490
C           -1.663340       -5.931220       -1.037530
C           -0.308300       -6.096930       -1.239810
C            0.508670       -5.026360       -0.936190
C            0.004490       -3.825210       -0.446620
H           -1.113230       -1.909480        0.950680
H           -2.767250       -2.545490        0.921610
H           -3.254130       -4.597440       -0.386150
H           -2.344140       -6.751250       -1.264480
H            0.097320       -7.031850       -1.622420
H            1.563710       -5.127680       -1.083700
H            0.669580       -2.981800       -0.209570
O            0.000000        0.000000        0.000000
C            2.368720       -0.000000       -0.000000
C            1.126420        0.841020        0.000000
C            1.004410        1.759090       -1.163780
C            1.122290        1.643780        1.293210
H            2.100510       -0.970940        0.502060
H            2.786720       -0.181780       -0.998560
H            3.150810        0.449130        0.668740
H            1.450060        1.401060       -2.097950
H            1.371780        2.797030       -0.929300
H           -0.092540        1.910070       -1.392230
H            0.273330        1.327120        1.939480
H            2.042180        1.476920        1.891450
H            1.103450        2.725340        1.054360

B 11 18 F
B 18 19 F
B 3 19 F
B 3 33 F
B 3 28 F
B 3 21 F

