%chk=3-tsopt.chk
#p opt(ts,calcfc,noeigen,nomicro) external='./xtb.sh'

Generate automatically by rxnb

0 1
Fe          -1.983780       -0.467250        0.560400
C            0.633630        0.254380       -2.801380
Pd          -0.257850        1.150350       -0.397900
C           -2.388030        2.403280        1.078910
H           -4.110370       -1.898020        1.031820
H           -4.426950        0.618090        0.331910
H           -2.631330        1.135510       -1.622990
C            2.330300        0.520310        0.294240
O            0.470280       -0.226290       -3.911160
C           -1.895940        1.133410        1.663870
O            2.009350        1.170650        1.343910
C           -0.706710       -0.706930        2.109360
C           -2.039040       -0.974660        2.445490
C           -2.779730        0.175670        2.200250
H            0.100410       -1.392150        2.227170
H           -2.456100       -1.879180        2.821130
H           -3.833240        0.254860        2.312520
H            0.709170        1.042900        1.543850
C           -0.576450        0.618410        1.666590
C            1.669280       -0.414670       -1.837570
O            0.042580        1.300280       -2.375570
C           -2.127300       -0.975980       -1.410960
C           -2.688130       -1.985650       -0.642390
C           -3.618390       -1.415850        0.222210
C           -3.741670       -0.056950       -0.117790
C           -2.772640        0.228670       -1.085750
H           -1.384380       -1.099110       -2.168560
N            1.419030        0.084800       -0.519460
H            2.656320       -0.079640       -2.193210
H           -3.391720        2.202260        0.711300
H           -2.455310        3.202100        1.833970
H           -2.454190       -3.020230       -0.701820
N           -1.548710        2.817560       -0.046220
C           -0.435310        3.665400        0.400080
C           -2.292380        3.539340       -1.069860
H           -0.795670        4.668440        0.677400
H            0.050980        3.225130        1.273620
H            0.295840        3.769290       -0.414210
H           -2.554820        4.552060       -0.734500
H           -1.680500        3.612720       -1.969790
H           -3.216390        3.021240       -1.319430
C            1.622800       -1.948590       -1.921140
C            0.900650       -2.689300       -0.828380
C            1.270620       -4.025850       -0.641890
C            0.618280       -4.840300        0.257870
C           -0.459600       -4.341130        0.976270
C           -0.825980       -3.024840        0.802440
C           -0.134670       -2.179700       -0.060010
H            1.146340       -2.192050       -2.879110
H            2.645060       -2.329620       -1.968860
H            2.083600       -4.431690       -1.227440
H            0.932170       -5.866170        0.384980
H           -1.006180       -4.978930        1.654990
H           -1.685060       -2.581860        1.264680
H           -0.556390       -1.172110       -0.065060
O            3.600160        0.208940        0.008560
C            5.927780        0.055620        0.159870
C            4.687160        0.603500        0.867670
C            4.762550        2.127390        0.970970
C            4.535320       -0.038660        2.247140
H            5.850110       -1.023740        0.059870
H            6.011150        0.487790       -0.833920
H            6.819870        0.298290        0.729590
H            4.820880        2.564670       -0.023870
H            5.646170        2.413750        1.534500
H            3.880980        2.512980        1.476150
H            4.424080       -1.115970        2.143310
H            5.416290        0.171080        2.847340
H            3.658760        0.356660        2.753110


