 Entering Gaussian System, Link 0=g16
 Input=4-tsfreq.gjf
 Output=4-tsfreq.log
 Initial command:
 /home/echo/g16/l1.exe "/home/echo/scratch/Gau-3346.inp" -scrdir="/home/echo/scratch/"
 Entering Link 1 = /home/echo/g16/l1.exe PID=      3351.
  
 Copyright (c) 1988-2019, Gaussian, Inc.  All Rights Reserved.
  
 This is part of the Gaussian(R) 16 program.  It is based on
 the Gaussian(R) 09 system (copyright 2009, Gaussian, Inc.),
 the Gaussian(R) 03 system (copyright 2003, Gaussian, Inc.),
 the Gaussian(R) 98 system (copyright 1998, Gaussian, Inc.),
 the Gaussian(R) 94 system (copyright 1995, Gaussian, Inc.),
 the Gaussian 92(TM) system (copyright 1992, Gaussian, Inc.),
 the Gaussian 90(TM) system (copyright 1990, Gaussian, Inc.),
 the Gaussian 88(TM) system (copyright 1988, Gaussian, Inc.),
 the Gaussian 86(TM) system (copyright 1986, Carnegie Mellon
 University), and the Gaussian 82(TM) system (copyright 1983,
 Carnegie Mellon University). Gaussian is a federally registered
 trademark of Gaussian, Inc.
  
 This software contains proprietary and confidential information,
 including trade secrets, belonging to Gaussian, Inc.
  
 This software is provided under written license and may be
 used, copied, transmitted, or stored only in accord with that
 written license.
  
 The following legend is applicable only to US Government
 contracts under FAR:
  
                    RESTRICTED RIGHTS LEGEND
  
 Use, reproduction and disclosure by the US Government is
 subject to restrictions as set forth in subparagraphs (a)
 and (c) of the Commercial Computer Software - Restricted
 Rights clause in FAR 52.227-19.
  
 Gaussian, Inc.
 340 Quinnipiac St., Bldg. 40, Wallingford CT 06492
  
  
 ---------------------------------------------------------------
 Warning -- This program may not be used in any manner that
 competes with the business of Gaussian, Inc. or will provide
 assistance to any competitor of Gaussian, Inc.  The licensee
 of this program is prohibited from giving any competitor of
 Gaussian, Inc. access to this program.  By using this program,
 the user acknowledges that Gaussian, Inc. is engaged in the
 business of creating and licensing software in the field of
 computational chemistry and represents and warrants to the
 licensee that it is not a competitor of Gaussian, Inc. and that
 it will not use this program in any manner prohibited above.
 ---------------------------------------------------------------
  

 Cite this work as:
 Gaussian 16, Revision C.01,
 M. J. Frisch, G. W. Trucks, H. B. Schlegel, G. E. Scuseria, 
 M. A. Robb, J. R. Cheeseman, G. Scalmani, V. Barone, 
 G. A. Petersson, H. Nakatsuji, X. Li, M. Caricato, A. V. Marenich, 
 J. Bloino, B. G. Janesko, R. Gomperts, B. Mennucci, H. P. Hratchian, 
 J. V. Ortiz, A. F. Izmaylov, J. L. Sonnenberg, D. Williams-Young, 
 F. Ding, F. Lipparini, F. Egidi, J. Goings, B. Peng, A. Petrone, 
 T. Henderson, D. Ranasinghe, V. G. Zakrzewski, J. Gao, N. Rega, 
 G. Zheng, W. Liang, M. Hada, M. Ehara, K. Toyota, R. Fukuda, 
 J. Hasegawa, M. Ishida, T. Nakajima, Y. Honda, O. Kitao, H. Nakai, 
 T. Vreven, K. Throssell, J. A. Montgomery, Jr., J. E. Peralta, 
 F. Ogliaro, M. J. Bearpark, J. J. Heyd, E. N. Brothers, K. N. Kudin, 
 V. N. Staroverov, T. A. Keith, R. Kobayashi, J. Normand, 
 K. Raghavachari, A. P. Rendell, J. C. Burant, S. S. Iyengar, 
 J. Tomasi, M. Cossi, J. M. Millam, M. Klene, C. Adamo, R. Cammi, 
 J. W. Ochterski, R. L. Martin, K. Morokuma, O. Farkas, 
 J. B. Foresman, and D. J. Fox, Gaussian, Inc., Wallingford CT, 2019.
 
 ******************************************
 Gaussian 16:  ES64L-G16RevC.01  3-Jul-2019
                14-Oct-2024 
 ******************************************
 %chk=4-tsfreq.chk
 ---------------------------
 #p freq external='./xtb.sh'
 ---------------------------
 1/10=4,18=10,30=1,38=1/1,3;
 2/12=2,17=6,18=5,40=1/2;
 3/11=9,25=1,30=1,41=9900000,43=2,71=2,140=1/1;
 4/20=17,22=2,24=3,113=1,114=1/2;
 6/7=2,8=2,9=2,10=2/1;
 7/8=1,25=1,44=-1/16;
 1/10=4,18=10,30=1/3;
 99//99;
 Leave Link    1 at Mon Oct 14 08:38:33 2024, MaxMem=           0 cpu:               0.0 elap:               0.1
 (Enter /home/echo/g16/l101.exe)
 ------------------------------
 Generate automatically by rxnb
 ------------------------------
 Symbolic Z-matrix:
 Charge =  0 Multiplicity = 1
 Fe                   -1.54484   1.23333  -0.44163 
 C                     0.03843  -1.22366   2.75652 
 Pd                   -0.88332  -1.21005   0.1589 
 C                    -3.32958  -0.89577  -1.31352 
 H                    -2.55087   3.61593  -0.62787 
 H                    -4.19118   1.58844  -0.36523 
 H                    -3.07549  -0.11585   1.42825 
 C                     1.91615  -1.27914  -0.37047 
 O                     0.02537  -0.86105   3.92241 
 C                    -2.24231   0.00057  -1.76236 
 O                     1.55604  -1.42532  -1.62338 
 C                    -0.22505   0.94807  -1.92538 
 C                    -1.18229   1.92308  -2.22987 
 C                    -2.44066   1.33389  -2.15316 
 H                     0.82508   1.12805  -1.94198 
 H                    -1.02702   2.94748  -2.47441 
 H                    -3.36092   1.8492   -2.27774 
 H                     0.48639  -1.17604  -1.67128 
 C                    -0.85418  -0.28099  -1.62981 
 C                     1.35221  -0.98886   1.92819 
 O                    -0.9089   -1.81319   2.15696 
 C                    -1.54397   1.41922   1.59445 
 C                    -1.4256    2.67606   1.00913 
 C                    -2.45748   2.83801   0.09078 
 C                    -3.29714   1.71874   0.19347 
 C                    -2.69257   0.81121   1.07669 
 H                    -0.91207   1.01228   2.35204 
 N                     1.02772  -1.09538   0.53286 
 H                     2.02397  -1.81321   2.21231 
 H                    -4.03437  -0.28808  -0.75372 
 H                    -3.86492  -1.36023  -2.1562 
 H                    -0.68343   3.40257   1.23217 
 N                    -2.76013  -1.91097  -0.42634 
 C                    -2.25765  -3.05477  -1.19726 
 C                    -3.70705  -2.41305   0.56154 
 H                    -3.09199  -3.6623   -1.58111 
 H                    -1.67156  -2.70318  -2.04857 
 H                    -1.63193  -3.68819  -0.5534 
 H                    -4.43821  -3.09356   0.10454 
 H                    -3.15994  -2.94493   1.34122 
 H                    -4.25936  -1.59895   1.02605 
 C                     2.03933   0.34095   2.28409 
 C                     1.96484   1.44091   1.26226 
 C                     3.01937   2.35866   1.23077 
 C                     2.97907   3.47536   0.42229 
 C                     1.84875   3.73005  -0.34368 
 C                     0.81313   2.82181  -0.32858 
 C                     0.88413   1.65115   0.41911 
 H                     1.568     0.69432   3.21001 
 H                     3.08893   0.15175   2.51574 
 H                     3.87922   2.19615   1.86597 
 H                     3.81242   4.16299   0.41053 
 H                     1.78364   4.63114  -0.93501 
 H                    -0.12609   2.96591  -0.82889 
 H                    -0.01628   1.04083   0.29207 
 O                     3.19546  -1.31621  -0.02633 
 C                     5.50992  -1.03539  -0.13635 
 C                     4.25493  -1.17215  -0.99889 
 C                     4.34165  -2.41372  -1.88511 
 C                     4.04223   0.09601  -1.82658 
 H                     5.43849  -0.142     0.47784 
 H                     5.60669  -1.89803   0.51729 
 H                     6.39123  -0.96578  -0.76654 
 H                     4.47501  -3.30122  -1.27055 
 H                     5.18791  -2.32202  -2.55995 
 H                     3.43383  -2.52443  -2.4717 
 H                     3.81623   0.93349  -1.1685 
 H                     4.94627   0.3199   -2.38544 
 H                     3.22223  -0.03336  -2.52759 
 
 ITRead=  0  0  0  0  0  0  0  0  0  0  0  0  0  0  0  0  0  0  0  0
 ITRead=  0  0  0  0  0  0  0  0  0  0  0  0  0  0  0  0  0  0  0  0
 ITRead=  0  0  0  0  0  0  0  0  0  0  0  0  0  0  0  0  0  0  0  0
 ITRead=  0  0  0  0  0  0  0  0  0
 MicOpt= -1 -1 -1 -1 -1 -1 -1 -1 -1 -1 -1 -1 -1 -1 -1 -1 -1 -1 -1 -1
 MicOpt= -1 -1 -1 -1 -1 -1 -1 -1 -1 -1 -1 -1 -1 -1 -1 -1 -1 -1 -1 -1
 MicOpt= -1 -1 -1 -1 -1 -1 -1 -1 -1 -1 -1 -1 -1 -1 -1 -1 -1 -1 -1 -1
 MicOpt= -1 -1 -1 -1 -1 -1 -1 -1 -1
 NAtoms=     69 NQM=       69 NQMF=       0 NMMI=      0 NMMIF=      0
                NMic=       0 NMicF=      0.
                    Isotopes and Nuclear Properties:
 (Nuclear quadrupole moments (NQMom) in fm**2, nuclear magnetic moments (NMagM)
  in nuclear magnetons)

  Atom         1           2           3           4           5           6           7           8           9          10
 IAtWgt=          56          12         106          12           1           1           1          12          16          12
 AtmWgt=  55.9349393  12.0000000 105.9032000  12.0000000   1.0078250   1.0078250   1.0078250  12.0000000  15.9949146  12.0000000
 NucSpn=           0           0           0           0           1           1           1           0           0           0
 AtZEff=  -0.0000000  -0.0000000  -0.0000000  -0.0000000  -0.0000000  -0.0000000  -0.0000000  -0.0000000  -0.0000000  -0.0000000
 NQMom=    0.0000000   0.0000000   0.0000000   0.0000000   0.0000000   0.0000000   0.0000000   0.0000000   0.0000000   0.0000000
 NMagM=    0.0000000   0.0000000   0.0000000   0.0000000   2.7928460   2.7928460   2.7928460   0.0000000   0.0000000   0.0000000
 AtZNuc=  26.0000000   6.0000000  46.0000000   6.0000000   1.0000000   1.0000000   1.0000000   6.0000000   8.0000000   6.0000000

  Atom        11          12          13          14          15          16          17          18          19          20
 IAtWgt=          16          12          12          12           1           1           1           1          12          12
 AtmWgt=  15.9949146  12.0000000  12.0000000  12.0000000   1.0078250   1.0078250   1.0078250   1.0078250  12.0000000  12.0000000
 NucSpn=           0           0           0           0           1           1           1           1           0           0
 AtZEff=  -0.0000000  -0.0000000  -0.0000000  -0.0000000  -0.0000000  -0.0000000  -0.0000000  -0.0000000  -0.0000000  -0.0000000
 NQMom=    0.0000000   0.0000000   0.0000000   0.0000000   0.0000000   0.0000000   0.0000000   0.0000000   0.0000000   0.0000000
 NMagM=    0.0000000   0.0000000   0.0000000   0.0000000   2.7928460   2.7928460   2.7928460   2.7928460   0.0000000   0.0000000
 AtZNuc=   8.0000000   6.0000000   6.0000000   6.0000000   1.0000000   1.0000000   1.0000000   1.0000000   6.0000000   6.0000000

  Atom        21          22          23          24          25          26          27          28          29          30
 IAtWgt=          16          12          12          12          12          12           1          14           1           1
 AtmWgt=  15.9949146  12.0000000  12.0000000  12.0000000  12.0000000  12.0000000   1.0078250  14.0030740   1.0078250   1.0078250
 NucSpn=           0           0           0           0           0           0           1           2           1           1
 AtZEff=  -0.0000000  -0.0000000  -0.0000000  -0.0000000  -0.0000000  -0.0000000  -0.0000000  -0.0000000  -0.0000000  -0.0000000
 NQMom=    0.0000000   0.0000000   0.0000000   0.0000000   0.0000000   0.0000000   0.0000000   2.0440000   0.0000000   0.0000000
 NMagM=    0.0000000   0.0000000   0.0000000   0.0000000   0.0000000   0.0000000   2.7928460   0.4037610   2.7928460   2.7928460
 AtZNuc=   8.0000000   6.0000000   6.0000000   6.0000000   6.0000000   6.0000000   1.0000000   7.0000000   1.0000000   1.0000000

  Atom        31          32          33          34          35          36          37          38          39          40
 IAtWgt=           1           1          14          12          12           1           1           1           1           1
 AtmWgt=   1.0078250   1.0078250  14.0030740  12.0000000  12.0000000   1.0078250   1.0078250   1.0078250   1.0078250   1.0078250
 NucSpn=           1           1           2           0           0           1           1           1           1           1
 AtZEff=  -0.0000000  -0.0000000  -0.0000000  -0.0000000  -0.0000000  -0.0000000  -0.0000000  -0.0000000  -0.0000000  -0.0000000
 NQMom=    0.0000000   0.0000000   2.0440000   0.0000000   0.0000000   0.0000000   0.0000000   0.0000000   0.0000000   0.0000000
 NMagM=    2.7928460   2.7928460   0.4037610   0.0000000   0.0000000   2.7928460   2.7928460   2.7928460   2.7928460   2.7928460
 AtZNuc=   1.0000000   1.0000000   7.0000000   6.0000000   6.0000000   1.0000000   1.0000000   1.0000000   1.0000000   1.0000000

  Atom        41          42          43          44          45          46          47          48          49          50
 IAtWgt=           1          12          12          12          12          12          12          12           1           1
 AtmWgt=   1.0078250  12.0000000  12.0000000  12.0000000  12.0000000  12.0000000  12.0000000  12.0000000   1.0078250   1.0078250
 NucSpn=           1           0           0           0           0           0           0           0           1           1
 AtZEff=  -0.0000000  -0.0000000  -0.0000000  -0.0000000  -0.0000000  -0.0000000  -0.0000000  -0.0000000  -0.0000000  -0.0000000
 NQMom=    0.0000000   0.0000000   0.0000000   0.0000000   0.0000000   0.0000000   0.0000000   0.0000000   0.0000000   0.0000000
 NMagM=    2.7928460   0.0000000   0.0000000   0.0000000   0.0000000   0.0000000   0.0000000   0.0000000   2.7928460   2.7928460
 AtZNuc=   1.0000000   6.0000000   6.0000000   6.0000000   6.0000000   6.0000000   6.0000000   6.0000000   1.0000000   1.0000000

  Atom        51          52          53          54          55          56          57          58          59          60
 IAtWgt=           1           1           1           1           1          16          12          12          12          12
 AtmWgt=   1.0078250   1.0078250   1.0078250   1.0078250   1.0078250  15.9949146  12.0000000  12.0000000  12.0000000  12.0000000
 NucSpn=           1           1           1           1           1           0           0           0           0           0
 AtZEff=  -0.0000000  -0.0000000  -0.0000000  -0.0000000  -0.0000000  -0.0000000  -0.0000000  -0.0000000  -0.0000000  -0.0000000
 NQMom=    0.0000000   0.0000000   0.0000000   0.0000000   0.0000000   0.0000000   0.0000000   0.0000000   0.0000000   0.0000000
 NMagM=    2.7928460   2.7928460   2.7928460   2.7928460   2.7928460   0.0000000   0.0000000   0.0000000   0.0000000   0.0000000
 AtZNuc=   1.0000000   1.0000000   1.0000000   1.0000000   1.0000000   8.0000000   6.0000000   6.0000000   6.0000000   6.0000000

  Atom        61          62          63          64          65          66          67          68          69
 IAtWgt=           1           1           1           1           1           1           1           1           1
 AtmWgt=   1.0078250   1.0078250   1.0078250   1.0078250   1.0078250   1.0078250   1.0078250   1.0078250   1.0078250
 NucSpn=           1           1           1           1           1           1           1           1           1
 AtZEff=  -0.0000000  -0.0000000  -0.0000000  -0.0000000  -0.0000000  -0.0000000  -0.0000000  -0.0000000  -0.0000000
 NQMom=    0.0000000   0.0000000   0.0000000   0.0000000   0.0000000   0.0000000   0.0000000   0.0000000   0.0000000
 NMagM=    2.7928460   2.7928460   2.7928460   2.7928460   2.7928460   2.7928460   2.7928460   2.7928460   2.7928460
 AtZNuc=   1.0000000   1.0000000   1.0000000   1.0000000   1.0000000   1.0000000   1.0000000   1.0000000   1.0000000
 Leave Link  101 at Mon Oct 14 08:38:33 2024, MaxMem=   104857600 cpu:               0.1 elap:               0.1
 (Enter /home/echo/g16/l103.exe)

 GradGradGradGradGradGradGradGradGradGradGradGradGradGradGradGradGradGrad
 Berny optimization.
 Initialization pass.
 Trust Radius=3.00D-01 FncErr=1.00D-07 GrdErr=1.00D-07 EigMax=2.50D+02 EigMin=1.00D-04
 Number of steps in this run=      2 maximum allowed number of steps=      2.
 GradGradGradGradGradGradGradGradGradGradGradGradGradGradGradGradGradGrad

 Leave Link  103 at Mon Oct 14 08:38:33 2024, MaxMem=   104857600 cpu:               0.0 elap:               0.0
 (Enter /home/echo/g16/l202.exe)
 Stoichiometry    C27H34FeN2O4Pd
 Framework group  C1[X(C27H34FeN2O4Pd)]
 Deg. of freedom   201
 Full point group                 C1      NOp   1
 Largest Abelian subgroup         C1      NOp   1
 Largest concise Abelian subgroup C1      NOp   1
                         Standard orientation:                         
 ---------------------------------------------------------------------
 Center     Atomic      Atomic             Coordinates (Angstroms)
 Number     Number       Type             X           Y           Z
 ---------------------------------------------------------------------
      1         26           0       -1.544839    1.233330   -0.441630
      2          6           0        0.038430   -1.223661    2.756520
      3         46           0       -0.883320   -1.210050    0.158900
      4          6           0       -3.329580   -0.895769   -1.313520
      5          1           0       -2.550868    3.615931   -0.627870
      6          1           0       -4.191179    1.588441   -0.365230
      7          1           0       -3.075490   -0.115849    1.428250
      8          6           0        1.916150   -1.279142   -0.370470
      9          8           0        0.025370   -0.861051    3.922410
     10          6           0       -2.242310    0.000570   -1.762360
     11          8           0        1.556040   -1.425322   -1.623380
     12          6           0       -0.225049    0.948069   -1.925380
     13          6           0       -1.182289    1.923080   -2.229870
     14          6           0       -2.440659    1.333891   -2.153160
     15          1           0        0.825081    1.128049   -1.941980
     16          1           0       -1.027018    2.947480   -2.474410
     17          1           0       -3.360919    1.849201   -2.277740
     18          1           0        0.486390   -1.176041   -1.671280
     19          6           0       -0.854180   -0.280990   -1.629810
     20          6           0        1.352210   -0.988861    1.928190
     21          8           0       -0.908901   -1.813190    2.156960
     22          6           0       -1.543969    1.419220    1.594450
     23          6           0       -1.425598    2.676060    1.009130
     24          6           0       -2.457478    2.838011    0.090780
     25          6           0       -3.297139    1.718741    0.193470
     26          6           0       -2.692569    0.811211    1.076690
     27          1           0       -0.912069    1.012280    2.352040
     28          7           0        1.027720   -1.095381    0.532860
     29          1           0        2.023969   -1.813212    2.212310
     30          1           0       -4.034370   -0.288079   -0.753720
     31          1           0       -3.864920   -1.360229   -2.156200
     32          1           0       -0.683428    3.402570    1.232170
     33          7           0       -2.760131   -1.910969   -0.426340
     34          6           0       -2.257651   -3.054770   -1.197260
     35          6           0       -3.707051   -2.413049    0.561540
     36          1           0       -3.091992   -3.662299   -1.581110
     37          1           0       -1.671561   -2.703180   -2.048570
     38          1           0       -1.631932   -3.688190   -0.553400
     39          1           0       -4.438211   -3.093558    0.104540
     40          1           0       -3.159941   -2.944929    1.341220
     41          1           0       -4.259361   -1.598949    1.026050
     42          6           0        2.039330    0.340948    2.284090
     43          6           0        1.964841    1.440908    1.262260
     44          6           0        3.019372    2.358658    1.230770
     45          6           0        2.979072    3.475358    0.422290
     46          6           0        1.848752    3.730048   -0.343680
     47          6           0        0.813132    2.821809   -0.328580
     48          6           0        0.884131    1.651149    0.419110
     49          1           0        1.568001    0.694318    3.210010
     50          1           0        3.088930    0.151748    2.515740
     51          1           0        3.879221    2.196147    1.865970
     52          1           0        3.812422    4.162987    0.410530
     53          1           0        1.783643    4.631138   -0.935010
     54          1           0       -0.126088    2.965909   -0.828890
     55          1           0       -0.016279    1.040829    0.292070
     56          8           0        3.195460   -1.316212   -0.026330
     57          6           0        5.509920   -1.035394   -0.136350
     58          6           0        4.254930   -1.172153   -0.998890
     59          6           0        4.341649   -2.413723   -1.885110
     60          6           0        4.042230    0.096007   -1.826580
     61          1           0        5.438490   -0.142004    0.477840
     62          1           0        5.606689   -1.898034    0.517290
     63          1           0        6.391230   -0.965784   -0.766540
     64          1           0        4.475009   -3.301223   -1.270550
     65          1           0        5.187909   -2.322023   -2.559950
     66          1           0        3.433829   -2.524433   -2.471700
     67          1           0        3.816231    0.933487   -1.168500
     68          1           0        4.946270    0.319897   -2.385440
     69          1           0        3.222230   -0.033362   -2.527590
 ---------------------------------------------------------------------
 Rotational constants (GHZ):           0.1702275           0.1147766           0.0995565
 Leave Link  202 at Mon Oct 14 08:38:33 2024, MaxMem=   104857600 cpu:               0.0 elap:               0.0
 (Enter /home/echo/g16/l301.exe)
 Standard basis: STO-3G (5D, 7F)
 Ernie: Thresh=  0.10000D-02 Tol=  0.10000D-05 Strict=F.
 There are   247 symmetry adapted cartesian basis functions of A   symmetry.
 There are   244 symmetry adapted basis functions of A   symmetry.
   244 basis functions,   741 primitive gaussians,   247 cartesian basis functions
   157 alpha electrons      157 beta electrons
       nuclear repulsion energy      6800.1980660913 Hartrees.
 IExCor=    0 DFT=F Ex=HF Corr=None ExCW=0 ScaHFX=  1.000000
 ScaDFX=  1.000000  1.000000  1.000000  1.000000 ScalE2=  1.000000  1.000000
 IRadAn=      5 IRanWt=     -1 IRanGd=            0 ICorTp=0 IEmpDi=  4
 NAtoms=   69 NActive=   69 NUniq=   69 SFac= 1.00D+00 NAtFMM=   60 NAOKFM=T Big=T
 Integral buffers will be    131072 words long.
 Raffenetti 1 integral format.
 Two-electron integral symmetry is turned on.
 Leave Link  301 at Mon Oct 14 08:38:33 2024, MaxMem=   104857600 cpu:               0.0 elap:               0.0
 (Enter /home/echo/g16/l402.exe)
 External calculation of energy, first and second derivatives.
 Running external command "./xtb.sh R"
         input file       "/home/echo/scratch/Gau-3351.EIn"
         output file      "/home/echo/scratch/Gau-3351.EOu"
         message file     "/home/echo/scratch/Gau-3351.EMs"
         fchk file        "/home/echo/scratch/Gau-3351.EFC"
         mat. el file     "/home/echo/scratch/Gau-3351.EUF"
Generating mol.tmp
Generating mol.xyz via genxyz
Running: xtb mol.xyz --chrg 0 --uhf 0 --gfn2 --hess --grad > xtbout
xtb running finished!
Extracting data from xtb outputs via extderi
 Recovered energy= -105.118410889     dipole=      0.000000000000      0.000000000000      0.000000000000
 Energy=    -105.118411     NIter=   0.
 Dipole moment=       0.000000       0.000000       0.000000
 Leave Link  402 at Mon Oct 14 08:38:41 2024, MaxMem=   104857600 cpu:               0.0 elap:               8.6
 (Enter /home/echo/g16/l601.exe)
 Leave Link  601 at Mon Oct 14 08:38:41 2024, MaxMem=   104857600 cpu:               0.0 elap:               0.0
 (Enter /home/echo/g16/l716.exe)
 Dipole        = 0.00000000D+00 0.00000000D+00 0.00000000D+00
 Full mass-weighted force constant matrix:
 Low frequencies --- -478.9065   -0.0184   -0.0167   -0.0160    0.0094    0.0118
 Low frequencies ---    0.0144   25.7568   41.6049
 ******    1 imaginary frequencies (negative Signs) ****** 
 Diagonal vibrational polarizability:
        0.0000000       0.0000000       0.0000000
 Harmonic frequencies (cm**-1), IR intensities (KM/Mole), Raman scattering
 activities (A**4/AMU), depolarization ratios for plane and unpolarized
 incident light, reduced masses (AMU), force constants (mDyne/A),
 and normal coordinates:
                      1                      2                      3
                      A                      A                      A
 Frequencies --   -478.9065                25.7568                41.6049
 Red. masses --      1.7521                 4.3946                 4.8131
 Frc consts  --      0.2368                 0.0017                 0.0049
 IR Inten    --      0.0000                 0.0000                 0.0000
  Atom  AN      X      Y      Z        X      Y      Z        X      Y      Z
     1  26    -0.01   0.02  -0.01     0.02  -0.02  -0.01    -0.06  -0.01   0.01
     2   6    -0.02  -0.00   0.01    -0.03  -0.03   0.01    -0.01  -0.05  -0.01
     3  46    -0.00  -0.00  -0.01    -0.03  -0.02   0.01    -0.00   0.00  -0.02
     4   6    -0.03   0.00   0.01    -0.02   0.01   0.01    -0.02  -0.04   0.01
     5   1    -0.00   0.00  -0.00     0.06   0.00  -0.03    -0.13  -0.03   0.03
     6   1     0.00  -0.00  -0.01     0.03   0.04   0.01    -0.07  -0.07   0.12
     7   1    -0.00   0.00  -0.00     0.01   0.04   0.02     0.04  -0.02   0.10
     8   6     0.05   0.01   0.08    -0.02   0.00   0.01    -0.00   0.09  -0.00
     9   8     0.01   0.00   0.00    -0.03  -0.03   0.01    -0.02  -0.11   0.01
    10   6    -0.07   0.04   0.01    -0.01  -0.01  -0.00    -0.04  -0.01  -0.00
    11   8     0.10  -0.03  -0.05    -0.01  -0.01   0.01     0.02   0.11  -0.01
    12   6    -0.01  -0.06   0.01     0.01  -0.04  -0.01    -0.07   0.05  -0.01
    13   6     0.01  -0.02  -0.01     0.02  -0.03  -0.02    -0.10   0.03   0.03
    14   6    -0.02   0.03  -0.01     0.01  -0.01  -0.01    -0.09  -0.01   0.02
    15   1    -0.01  -0.06   0.03     0.01  -0.06  -0.02    -0.08   0.07  -0.03
    16   1     0.04  -0.03  -0.01     0.04  -0.03  -0.02    -0.14   0.04   0.06
    17   1     0.01   0.07  -0.02     0.02   0.00  -0.01    -0.11  -0.04   0.05
    18   1     0.88  -0.35  -0.14    -0.03  -0.04   0.01     0.00   0.08  -0.01
    19   6    -0.12   0.01   0.08    -0.01  -0.03  -0.00    -0.03   0.02  -0.02
    20   6    -0.01   0.00  -0.00    -0.03  -0.04   0.01    -0.02   0.04  -0.00
    21   8     0.00  -0.01   0.01    -0.04  -0.01   0.01     0.01  -0.06  -0.04
    22   6    -0.01  -0.00   0.01     0.05   0.01  -0.02     0.03   0.00  -0.01
    23   6     0.00  -0.00  -0.01     0.07  -0.00  -0.04    -0.01  -0.01  -0.05
    24   6    -0.01   0.01   0.01     0.06   0.01  -0.03    -0.08  -0.03   0.02
    25   6    -0.00   0.01   0.01     0.04   0.03  -0.00    -0.05  -0.04   0.08
    26   6     0.00   0.00   0.01     0.03   0.03   0.00     0.01  -0.02   0.07
    27   1    -0.01   0.01   0.02     0.05   0.01  -0.02     0.07   0.02  -0.04
    28   7     0.01  -0.01  -0.02    -0.03  -0.04   0.01    -0.02   0.08  -0.01
    29   1    -0.01   0.00  -0.01    -0.04  -0.05   0.01     0.02   0.06  -0.04
    30   1    -0.05  -0.03   0.02    -0.01   0.03   0.01    -0.02  -0.05   0.03
    31   1    -0.02  -0.01   0.01    -0.03   0.01   0.02    -0.03  -0.04   0.03
    32   1    -0.00  -0.00  -0.00     0.08  -0.01  -0.06    -0.00   0.00  -0.12
    33   7     0.00   0.00  -0.00    -0.04   0.01   0.02     0.02  -0.03  -0.00
    34   6    -0.01  -0.00  -0.01    -0.07  -0.01   0.04     0.02  -0.02  -0.01
    35   6     0.01  -0.00  -0.00    -0.05   0.05   0.03     0.05  -0.04   0.02
    36   1    -0.02   0.00  -0.00    -0.08   0.01   0.04     0.03  -0.02  -0.00
    37   1    -0.02  -0.00  -0.01    -0.06  -0.03   0.03     0.01  -0.01  -0.02
    38   1    -0.02  -0.01  -0.01    -0.08  -0.02   0.04     0.04  -0.01  -0.02
    39   1     0.00   0.00  -0.00    -0.06   0.06   0.05     0.05  -0.05   0.04
    40   1     0.01  -0.00  -0.00    -0.05   0.05   0.04     0.08  -0.03   0.01
    41   1     0.01  -0.00   0.00    -0.03   0.07   0.02     0.05  -0.05   0.03
    42   6    -0.00  -0.00  -0.00    -0.02  -0.05   0.02    -0.09   0.07   0.04
    43   6     0.00   0.00  -0.00     0.03  -0.06   0.00     0.02   0.03  -0.01
    44   6     0.00   0.00   0.00     0.05  -0.09   0.01     0.09  -0.05  -0.03
    45   6    -0.00   0.00   0.00     0.10  -0.10  -0.01     0.17  -0.07  -0.06
    46   6    -0.00  -0.00  -0.00     0.12  -0.08  -0.03     0.19  -0.01  -0.07
    47   6     0.00  -0.00  -0.00     0.09  -0.05  -0.04     0.13   0.06  -0.05
    48   6     0.00  -0.00  -0.00     0.05  -0.04  -0.02     0.04   0.07  -0.04
    49   1    -0.01  -0.01  -0.01    -0.04  -0.03  -0.00    -0.20   0.09  -0.03
    50   1    -0.00  -0.01   0.00    -0.03  -0.06   0.05    -0.11   0.09   0.17
    51   1     0.00   0.00   0.00     0.04  -0.10   0.03     0.07  -0.09  -0.02
    52   1    -0.00   0.00   0.00     0.12  -0.12  -0.01     0.22  -0.13  -0.08
    53   1    -0.00  -0.00   0.00     0.15  -0.09  -0.05     0.25  -0.01  -0.09
    54   1    -0.01  -0.02  -0.00     0.11  -0.03  -0.06     0.15   0.13  -0.08
    55   1    -0.01   0.01  -0.00     0.03  -0.02  -0.03     0.02   0.10  -0.04
    56   8     0.03  -0.00   0.01    -0.02   0.07   0.00    -0.01   0.09   0.03
    57   6     0.01   0.00  -0.00    -0.04   0.26   0.01     0.01  -0.04   0.08
    58   6     0.01   0.00  -0.01    -0.03   0.15   0.00     0.02  -0.01   0.05
    59   6     0.01  -0.00  -0.00     0.07   0.16   0.01    -0.03  -0.05   0.11
    60   6     0.00   0.00   0.00    -0.13   0.13  -0.00     0.11  -0.03  -0.01
    61   1     0.00   0.00  -0.00    -0.11   0.27  -0.01     0.03  -0.02   0.04
    62   1     0.00   0.00  -0.00     0.03   0.28   0.02    -0.05  -0.02   0.11
    63   1     0.01   0.00   0.00    -0.04   0.32   0.01     0.03  -0.11   0.10
    64   1    -0.00   0.00   0.00     0.16   0.17   0.01    -0.11  -0.03   0.15
    65   1     0.02  -0.01   0.01     0.05   0.23  -0.00     0.00  -0.14   0.13
    66   1     0.03  -0.01  -0.02     0.07   0.08   0.02    -0.01  -0.02   0.08
    67   1    -0.01  -0.00   0.00    -0.21   0.12  -0.01     0.17   0.01  -0.05
    68   1     0.01   0.02   0.02    -0.14   0.21   0.01     0.13  -0.12  -0.02
    69   1     0.03   0.01  -0.02    -0.11   0.06  -0.01     0.11  -0.01  -0.01
                      4                      5                      6
                      A                      A                      A
 Frequencies --     50.3725                58.3965                60.2266
 Red. masses --      2.9079                 7.9027                 5.0640
 Frc consts  --      0.0043                 0.0159                 0.0108
 IR Inten    --      0.0000                 0.0000                 0.0000
  Atom  AN      X      Y      Z        X      Y      Z        X      Y      Z
     1  26    -0.01  -0.01  -0.01    -0.01  -0.01   0.06    -0.00  -0.02  -0.01
     2   6     0.00   0.00  -0.01    -0.09   0.17  -0.05    -0.05   0.05  -0.05
     3  46    -0.00   0.00   0.00     0.00  -0.02  -0.01    -0.00  -0.02  -0.02
     4   6    -0.01  -0.02   0.01     0.01  -0.00  -0.01    -0.01  -0.03   0.01
     5   1    -0.03  -0.01  -0.03    -0.05  -0.02   0.09    -0.09  -0.05  -0.03
     6   1    -0.01  -0.02   0.02    -0.02  -0.06   0.05    -0.01  -0.10   0.11
     7   1     0.02   0.01   0.03     0.01  -0.07   0.03     0.12  -0.01   0.12
     8   6    -0.00  -0.02  -0.01     0.00  -0.00  -0.00    -0.01  -0.00  -0.02
     9   8     0.01   0.01  -0.01    -0.21   0.46  -0.14    -0.10   0.17  -0.08
    10   6    -0.01  -0.02  -0.00     0.01   0.02   0.02    -0.02  -0.03  -0.00
    11   8     0.01   0.02  -0.01     0.00   0.02  -0.00    -0.01  -0.03  -0.02
    12   6    -0.02  -0.01  -0.02     0.00   0.03   0.05    -0.02  -0.02  -0.02
    13   6    -0.03  -0.01  -0.01    -0.00   0.04   0.07    -0.03  -0.02  -0.00
    14   6    -0.02  -0.02  -0.01     0.00   0.03   0.05    -0.03  -0.03   0.00
    15   1    -0.02   0.00  -0.03     0.00   0.04   0.05    -0.02  -0.01  -0.02
    16   1    -0.04  -0.01  -0.01    -0.00   0.04   0.09    -0.04  -0.01   0.01
    17   1    -0.03  -0.03   0.00    -0.00   0.02   0.06    -0.04  -0.03   0.03
    18   1     0.00   0.02  -0.01    -0.00   0.03  -0.00     0.01  -0.03  -0.03
    19   6    -0.01  -0.01  -0.01     0.01   0.02   0.02    -0.01  -0.02  -0.03
    20   6     0.00  -0.00  -0.01    -0.02   0.00  -0.00    -0.02   0.02  -0.02
    21   8     0.00   0.00  -0.00    -0.00  -0.02   0.00     0.00  -0.04  -0.02
    22   6     0.02   0.02  -0.02    -0.02  -0.03   0.06     0.10   0.04  -0.03
    23   6     0.01   0.01  -0.04    -0.04  -0.03   0.07     0.04   0.02  -0.09
    24   6    -0.01  -0.01  -0.02    -0.04  -0.03   0.07    -0.03  -0.04  -0.02
    25   6    -0.00  -0.01   0.01    -0.02  -0.05   0.06     0.01  -0.06   0.06
    26   6     0.01   0.01   0.01    -0.01  -0.05   0.05     0.08  -0.01   0.06
    27   1     0.04   0.03  -0.02    -0.02  -0.01   0.07     0.15   0.08  -0.05
    28   7    -0.00  -0.00  -0.01    -0.00  -0.02  -0.00    -0.01   0.02  -0.03
    29   1    -0.00  -0.00  -0.01    -0.12  -0.05   0.05    -0.05  -0.01  -0.01
    30   1    -0.01  -0.01   0.00     0.01  -0.03   0.01    -0.02  -0.03  -0.00
    31   1    -0.01  -0.03   0.02     0.01   0.03  -0.03    -0.00  -0.05   0.01
    32   1     0.01   0.02  -0.06    -0.04  -0.02   0.08     0.03   0.05  -0.15
    33   7    -0.01  -0.00   0.03     0.02  -0.04  -0.06    -0.01  -0.01   0.03
    34   6    -0.01  -0.02   0.05     0.04   0.01  -0.10    -0.04  -0.05   0.07
    35   6    -0.00   0.02   0.05     0.02  -0.09  -0.08     0.00   0.05   0.07
    36   1    -0.02  -0.02   0.06     0.05   0.00  -0.12    -0.06  -0.04   0.09
    37   1    -0.01  -0.04   0.05     0.02   0.05  -0.09    -0.03  -0.09   0.05
    38   1    -0.02  -0.01   0.07     0.06  -0.01  -0.14    -0.05  -0.04   0.09
    39   1     0.00   0.01   0.07     0.00  -0.04  -0.12    -0.00   0.03   0.12
    40   1    -0.00   0.05   0.06     0.02  -0.15  -0.13     0.01   0.09   0.09
    41   1    -0.01   0.04   0.02     0.05  -0.11  -0.01     0.01   0.08   0.03
    42   6     0.00  -0.00  -0.02     0.09  -0.05  -0.04     0.01  -0.01   0.00
    43   6     0.00  -0.00  -0.01     0.06  -0.05  -0.04     0.01   0.04   0.05
    44   6     0.00   0.00   0.00     0.10  -0.10  -0.14    -0.03   0.09   0.20
    45   6     0.01   0.00   0.00     0.08  -0.10  -0.14    -0.00   0.13   0.25
    46   6     0.02  -0.00  -0.02     0.02  -0.05  -0.03     0.08   0.09   0.13
    47   6     0.03  -0.00  -0.03    -0.02  -0.00   0.06     0.12   0.04  -0.01
    48   6     0.01  -0.00  -0.03     0.00  -0.01   0.05     0.08   0.03  -0.03
    49   1     0.01  -0.00  -0.01     0.17  -0.03  -0.01     0.03  -0.04   0.03
    50   1     0.00  -0.00  -0.02     0.10  -0.11  -0.12     0.01  -0.04  -0.03
    51   1    -0.01   0.01   0.02     0.16  -0.14  -0.21    -0.09   0.11   0.29
    52   1     0.01   0.01   0.02     0.12  -0.14  -0.22    -0.04   0.18   0.38
    53   1     0.03  -0.00  -0.02     0.01  -0.05  -0.02     0.10   0.11   0.15
    54   1     0.03   0.00  -0.05    -0.05   0.02   0.12     0.17   0.05  -0.11
    55   1     0.01   0.00  -0.03    -0.02   0.01   0.09     0.08   0.02  -0.10
    56   8    -0.00  -0.08   0.00    -0.00  -0.00   0.01    -0.00  -0.00  -0.03
    57   6     0.01  -0.16   0.06     0.00  -0.00   0.03    -0.01   0.00  -0.06
    58   6     0.01   0.01   0.03     0.01   0.02   0.02    -0.01  -0.02  -0.04
    59   6    -0.02   0.14  -0.15     0.01   0.03  -0.01    -0.02  -0.05  -0.01
    60   6     0.05   0.14   0.21     0.02   0.03   0.04    -0.03  -0.05  -0.07
    61   1     0.03  -0.26   0.20    -0.00  -0.01   0.04     0.00   0.02  -0.09
    62   1    -0.02  -0.27  -0.08    -0.01  -0.01   0.02     0.00   0.02  -0.04
    63   1     0.01  -0.08   0.07     0.01   0.01   0.04    -0.01  -0.01  -0.07
    64   1    -0.07   0.04  -0.29     0.01   0.02  -0.02    -0.01  -0.03   0.01
    65   1     0.00   0.21  -0.12     0.02   0.05   0.00    -0.03  -0.06  -0.02
    66   1    -0.01   0.26  -0.20     0.02   0.04  -0.01    -0.03  -0.07   0.00
    67   1     0.09   0.06   0.33     0.02   0.02   0.05    -0.03  -0.03  -0.09
    68   1     0.05   0.18   0.22     0.02   0.03   0.04    -0.03  -0.05  -0.08
    69   1     0.03   0.27   0.21     0.02   0.05   0.04    -0.02  -0.07  -0.07
                      7                      8                      9
                      A                      A                      A
 Frequencies --     70.7145                74.7732                82.4198
 Red. masses --      4.0154                 3.8775                 4.5903
 Frc consts  --      0.0118                 0.0128                 0.0184
 IR Inten    --      0.0000                 0.0000                 0.0000
  Atom  AN      X      Y      Z        X      Y      Z        X      Y      Z
     1  26     0.02  -0.01   0.01    -0.05  -0.01  -0.01     0.04  -0.00  -0.01
     2   6     0.02  -0.01  -0.05     0.01  -0.00   0.00    -0.05  -0.02   0.00
     3  46    -0.01  -0.01  -0.02     0.01   0.03   0.02     0.00  -0.02   0.01
     4   6    -0.01   0.02   0.00     0.03  -0.04  -0.11    -0.00   0.02   0.05
     5   1     0.01  -0.01   0.04    -0.11  -0.03  -0.05     0.14   0.03  -0.02
     6   1     0.02  -0.01   0.05    -0.06  -0.08  -0.08     0.06   0.09  -0.06
     7   1     0.04  -0.01   0.03    -0.07  -0.03  -0.03    -0.03   0.05  -0.05
     8   6     0.00   0.03  -0.07     0.04   0.02  -0.00     0.03   0.11   0.02
     9   8     0.04   0.01  -0.06     0.02   0.01  -0.00    -0.11   0.03  -0.02
    10   6    -0.00   0.00   0.01     0.04  -0.02  -0.05     0.01  -0.01   0.02
    11   8     0.03   0.09  -0.08     0.04   0.04  -0.01     0.03   0.14   0.02
    12   6    -0.02   0.01  -0.02     0.03   0.02   0.05     0.01  -0.04  -0.02
    13   6    -0.02   0.01   0.00     0.03   0.01   0.02     0.02  -0.03  -0.03
    14   6    -0.02   0.01   0.03     0.03  -0.02  -0.05     0.02  -0.01  -0.00
    15   1    -0.02   0.02  -0.04     0.03   0.03   0.09     0.01  -0.04  -0.03
    16   1    -0.03   0.02   0.01     0.02   0.01   0.04     0.04  -0.04  -0.05
    17   1    -0.02   0.01   0.05     0.03  -0.04  -0.08     0.03  -0.00  -0.01
    18   1    -0.01   0.06  -0.08     0.06   0.01  -0.02    -0.00   0.05   0.03
    19   6     0.00   0.00  -0.03     0.03   0.01   0.02     0.00  -0.02   0.01
    20   6     0.01  -0.04  -0.07     0.02  -0.04   0.00    -0.03  -0.02   0.04
    21   8     0.01  -0.01  -0.03    -0.01   0.02   0.01    -0.02  -0.07  -0.01
    22   6     0.03  -0.01   0.02    -0.10  -0.00  -0.02     0.00   0.00   0.01
    23   6     0.02  -0.01   0.04    -0.11  -0.00  -0.04     0.05   0.00   0.02
    24   6     0.02  -0.01   0.04    -0.10  -0.03  -0.05     0.09   0.03  -0.02
    25   6     0.02  -0.01   0.04    -0.08  -0.05  -0.06     0.05   0.06  -0.04
    26   6     0.04  -0.02   0.02    -0.08  -0.03  -0.03     0.00   0.04  -0.03
    27   1     0.04  -0.01   0.01    -0.11   0.02   0.00    -0.03  -0.02   0.02
    28   7    -0.01  -0.03  -0.07     0.03  -0.03  -0.00     0.01  -0.02   0.03
    29   1    -0.01  -0.06  -0.08    -0.00  -0.05   0.01    -0.03  -0.01   0.06
    30   1    -0.03   0.04  -0.04    -0.06  -0.04  -0.22     0.03   0.04   0.08
    31   1     0.01  -0.01  -0.00     0.14  -0.12  -0.13    -0.04   0.04   0.07
    32   1     0.01  -0.00   0.05    -0.12   0.01  -0.03     0.07  -0.02   0.05
    33   7    -0.05   0.04   0.05    -0.03   0.03   0.02     0.00   0.00   0.03
    34   6    -0.08  -0.02   0.12     0.02  -0.04   0.16    -0.03   0.01   0.00
    35   6    -0.08   0.12   0.07    -0.12   0.12  -0.01     0.02  -0.00   0.05
    36   1    -0.10   0.00   0.12     0.04  -0.06   0.13    -0.04   0.02   0.01
    37   1    -0.04  -0.08   0.12     0.11  -0.13   0.19    -0.04   0.01  -0.01
    38   1    -0.13  -0.01   0.17    -0.06  -0.00   0.28    -0.02  -0.01  -0.02
    39   1    -0.05   0.06   0.11    -0.02   0.01   0.00     0.01   0.01   0.06
    40   1    -0.10   0.21   0.14    -0.17   0.26   0.13     0.04  -0.01   0.03
    41   1    -0.12   0.15  -0.03    -0.22   0.15  -0.20     0.04  -0.00   0.07
    42   6     0.06  -0.07  -0.09     0.04  -0.05   0.02    -0.06  -0.01   0.05
    43   6     0.00  -0.04  -0.05     0.02  -0.04   0.04    -0.04  -0.03   0.03
    44   6    -0.03  -0.00  -0.05     0.05  -0.08   0.00    -0.06  -0.01   0.03
    45   6    -0.08   0.02  -0.02     0.07  -0.07   0.02    -0.06  -0.03  -0.00
    46   6    -0.10   0.00   0.01     0.05  -0.02   0.06    -0.06  -0.07  -0.03
    47   6    -0.07  -0.03   0.00     0.02   0.02   0.08    -0.04  -0.08  -0.02
    48   6    -0.02  -0.04  -0.03    -0.01   0.01   0.08    -0.03  -0.07   0.00
    49   1     0.13  -0.08  -0.05     0.06  -0.07   0.03    -0.09  -0.00   0.03
    50   1     0.07  -0.09  -0.17     0.04  -0.06  -0.01    -0.06   0.01   0.09
    51   1    -0.01   0.01  -0.07     0.07  -0.12  -0.04    -0.07   0.02   0.05
    52   1    -0.10   0.05  -0.01     0.09  -0.10  -0.00    -0.08  -0.02  -0.00
    53   1    -0.14   0.02   0.04     0.07  -0.01   0.07    -0.06  -0.08  -0.05
    54   1    -0.08  -0.05   0.03     0.02   0.05   0.07    -0.05  -0.11  -0.01
    55   1    -0.01  -0.06  -0.02    -0.03   0.04   0.07    -0.02  -0.08   0.01
    56   8    -0.01   0.05  -0.01     0.04   0.05  -0.03     0.03   0.22   0.01
    57   6    -0.01   0.03   0.17     0.05  -0.01  -0.10     0.07  -0.09  -0.11
    58   6     0.06   0.01   0.07     0.02   0.01  -0.06     0.01   0.05  -0.04
    59   6     0.12  -0.02   0.13    -0.02   0.00  -0.05    -0.18   0.02  -0.01
    60   6     0.14  -0.02   0.01     0.03   0.01  -0.07     0.13   0.06  -0.07
    61   1    -0.05   0.06   0.13     0.09  -0.00  -0.10     0.20  -0.09  -0.09
    62   1    -0.08   0.06   0.22     0.06  -0.01  -0.09     0.02  -0.11  -0.12
    63   1     0.05  -0.01   0.25     0.03  -0.03  -0.12     0.04  -0.18  -0.16
    64   1     0.07  -0.00   0.17    -0.05   0.00  -0.04    -0.35   0.01   0.01
    65   1     0.16  -0.06   0.17    -0.02  -0.03  -0.05    -0.14  -0.14   0.02
    66   1     0.15  -0.04   0.08    -0.03   0.02  -0.04    -0.17   0.15  -0.04
    67   1     0.13   0.01  -0.04     0.07   0.02  -0.07     0.32   0.11  -0.07
    68   1     0.18  -0.07   0.05     0.03  -0.02  -0.09     0.12  -0.10  -0.16
    69   1     0.18  -0.03  -0.03     0.01   0.02  -0.04     0.05   0.16   0.01
                     10                     11                     12
                      A                      A                      A
 Frequencies --     93.5906               107.3790               114.4808
 Red. masses --      5.1577                 4.8358                 4.6399
 Frc consts  --      0.0266                 0.0329                 0.0358
 IR Inten    --      0.0000                 0.0000                 0.0000
  Atom  AN      X      Y      Z        X      Y      Z        X      Y      Z
     1  26    -0.00  -0.02  -0.01    -0.04   0.03  -0.02     0.04   0.01   0.02
     2   6     0.05   0.09   0.06    -0.02   0.01   0.00    -0.05   0.03   0.03
     3  46    -0.05  -0.02   0.02     0.02   0.04  -0.00     0.01  -0.01  -0.04
     4   6    -0.03  -0.02  -0.02    -0.00  -0.01   0.08     0.03  -0.01  -0.07
     5   1    -0.01  -0.02  -0.01    -0.08   0.01  -0.10    -0.23  -0.12  -0.02
     6   1    -0.01  -0.02   0.01    -0.05  -0.00   0.02     0.02  -0.29   0.16
     7   1     0.01  -0.02   0.01     0.02   0.07   0.05     0.31  -0.09   0.19
     8   6    -0.02   0.06  -0.01     0.02  -0.02  -0.01     0.01  -0.01   0.06
     9   8     0.19   0.02   0.08     0.00   0.01   0.01    -0.03  -0.07   0.06
    10   6    -0.02  -0.02  -0.01    -0.03  -0.01   0.01     0.02   0.03  -0.00
    11   8    -0.01   0.07  -0.02     0.01   0.08  -0.01     0.02  -0.02   0.06
    12   6    -0.01  -0.04   0.00    -0.07   0.04  -0.05     0.02   0.02  -0.03
    13   6     0.01  -0.03  -0.01    -0.10   0.02  -0.03     0.02   0.03   0.01
    14   6    -0.00  -0.02  -0.01    -0.08  -0.02  -0.00     0.02   0.04   0.04
    15   1    -0.00  -0.04   0.01    -0.07   0.07  -0.08     0.02   0.02  -0.04
    16   1     0.02  -0.03  -0.00    -0.13   0.03  -0.00     0.02   0.04   0.02
    17   1     0.00  -0.02  -0.01    -0.10  -0.06   0.00     0.01   0.05   0.10
    18   1    -0.02   0.01  -0.02    -0.04   0.09   0.02     0.03  -0.02   0.04
    19   6    -0.02  -0.04   0.00    -0.02   0.03  -0.02     0.02   0.03  -0.03
    20   6     0.02  -0.01  -0.01     0.01  -0.10   0.02    -0.04   0.01   0.05
    21   8    -0.06   0.23   0.10    -0.07   0.11  -0.01    -0.09   0.13  -0.01
    22   6     0.02  -0.02  -0.02    -0.01   0.11  -0.03     0.13   0.11   0.04
    23   6     0.02  -0.02  -0.03    -0.03   0.08  -0.09    -0.04   0.08  -0.04
    24   6     0.00  -0.02  -0.01    -0.05   0.04  -0.07    -0.11  -0.08   0.02
    25   6     0.00  -0.02   0.00    -0.04   0.03  -0.01     0.03  -0.18   0.12
    26   6     0.01  -0.02   0.00    -0.01   0.07   0.01     0.19  -0.07   0.12
    27   1     0.04  -0.01  -0.03     0.01   0.14  -0.03     0.22   0.21   0.02
    28   7    -0.03  -0.02  -0.00     0.03  -0.08   0.01    -0.00  -0.03   0.04
    29   1    -0.02  -0.05  -0.02    -0.05  -0.14   0.04    -0.05   0.01   0.09
    30   1    -0.01  -0.02   0.01     0.04  -0.02   0.14    -0.03  -0.06  -0.11
    31   1    -0.05   0.02  -0.03    -0.07  -0.00   0.12     0.11  -0.02  -0.12
    32   1     0.02  -0.02  -0.05    -0.04   0.10  -0.13    -0.10   0.18  -0.12
    33   7    -0.04  -0.06  -0.06     0.07  -0.01   0.02     0.01   0.00  -0.04
    34   6    -0.02  -0.01  -0.12     0.08   0.03  -0.04    -0.01  -0.04   0.01
    35   6    -0.08  -0.11  -0.13     0.18  -0.07   0.09    -0.02   0.08  -0.04
    36   1    -0.01  -0.01  -0.14     0.08  -0.01   0.01    -0.01  -0.03   0.01
    37   1    -0.03   0.05  -0.10    -0.01   0.08  -0.07     0.03  -0.08   0.02
    38   1    -0.00  -0.03  -0.16     0.16   0.05  -0.10    -0.04  -0.03   0.06
    39   1    -0.18   0.06  -0.23     0.16  -0.09   0.14    -0.04   0.09  -0.02
    40   1    -0.13  -0.31  -0.23     0.27  -0.07   0.03    -0.06   0.09  -0.00
    41   1     0.04  -0.12   0.03     0.19  -0.11   0.16     0.00   0.13  -0.09
    42   6     0.13  -0.06  -0.07     0.06  -0.14  -0.00    -0.02   0.01   0.02
    43   6     0.07  -0.02  -0.02    -0.02  -0.11   0.03    -0.02  -0.01  -0.01
    44   6     0.04   0.02   0.03    -0.04  -0.09   0.06    -0.02  -0.01  -0.05
    45   6     0.03   0.05   0.08    -0.04  -0.08   0.07    -0.04  -0.03  -0.07
    46   6     0.04   0.03   0.05    -0.02  -0.10   0.04    -0.07  -0.03  -0.04
    47   6     0.06   0.01   0.00    -0.01  -0.11   0.02    -0.06  -0.04  -0.00
    48   6     0.06  -0.01  -0.01    -0.02  -0.11   0.03    -0.02  -0.03  -0.00
    49   1     0.28  -0.07   0.01     0.16  -0.16   0.06    -0.01   0.04   0.01
    50   1     0.16  -0.12  -0.22     0.08  -0.16  -0.12    -0.02   0.01   0.01
    51   1     0.03   0.01   0.04    -0.05  -0.09   0.07    -0.01   0.01  -0.07
    52   1     0.00   0.08   0.13    -0.05  -0.07   0.10    -0.04  -0.03  -0.11
    53   1     0.03   0.05   0.07    -0.01  -0.11   0.03    -0.09  -0.03  -0.04
    54   1     0.08   0.00  -0.03     0.00  -0.12  -0.01    -0.08  -0.06   0.03
    55   1     0.05   0.00  -0.03    -0.05  -0.08  -0.00    -0.00  -0.05   0.00
    56   8    -0.03   0.12  -0.00     0.03  -0.05  -0.01     0.01   0.02   0.05
    57   6    -0.01  -0.03   0.02     0.02   0.03   0.01     0.02  -0.01  -0.06
    58   6    -0.01   0.04   0.01     0.03  -0.02  -0.00    -0.02   0.01   0.00
    59   6    -0.08   0.02   0.03     0.07  -0.02   0.01    -0.07   0.00   0.00
    60   6     0.08   0.04  -0.01     0.01  -0.03  -0.02    -0.05   0.01   0.01
    61   1     0.04  -0.03   0.02     0.00   0.06  -0.03     0.06  -0.01  -0.05
    62   1    -0.07  -0.04   0.03     0.02   0.06   0.04     0.05  -0.01  -0.07
    63   1     0.00  -0.09   0.03     0.03   0.02   0.02    -0.01  -0.01  -0.11
    64   1    -0.19   0.01   0.05     0.16  -0.01   0.01    -0.08   0.00   0.00
    65   1    -0.03  -0.07   0.08     0.04   0.02  -0.03    -0.09  -0.02  -0.01
    66   1    -0.05   0.09  -0.02     0.05  -0.08   0.05    -0.09   0.02   0.02
    67   1     0.17   0.07  -0.03    -0.05  -0.04  -0.03    -0.02   0.01   0.02
    68   1     0.08  -0.05  -0.04     0.02   0.01   0.02    -0.06   0.01  -0.02
    69   1     0.05   0.09   0.01     0.04  -0.07  -0.05    -0.07   0.01   0.04
                     13                     14                     15
                      A                      A                      A
 Frequencies --    131.4806               144.7811               162.0043
 Red. masses --      2.8516                 4.3413                 1.4348
 Frc consts  --      0.0290                 0.0536                 0.0222
 IR Inten    --      0.0000                 0.0000                 0.0000
  Atom  AN      X      Y      Z        X      Y      Z        X      Y      Z
     1  26    -0.01  -0.03   0.00     0.02   0.02   0.01    -0.01  -0.00   0.01
     2   6    -0.01   0.05   0.02     0.05  -0.05  -0.02    -0.01   0.02  -0.01
     3  46     0.00  -0.02  -0.05    -0.03  -0.03   0.02     0.01   0.00  -0.01
     4   6    -0.00   0.01  -0.02     0.02   0.02   0.00    -0.01   0.01   0.02
     5   1     0.08   0.02   0.06    -0.13  -0.05  -0.15     0.00   0.01   0.00
     6   1    -0.00   0.07  -0.04    -0.00  -0.13  -0.05    -0.01   0.02   0.01
     7   1    -0.10  -0.02  -0.06     0.09   0.04   0.09    -0.02   0.01   0.01
     8   6    -0.02   0.01   0.02    -0.06   0.01  -0.05     0.01  -0.03  -0.01
     9   8     0.03   0.00   0.04     0.06  -0.01  -0.03    -0.01  -0.01  -0.00
    10   6    -0.01   0.01  -0.03     0.02   0.02   0.00    -0.00  -0.00   0.01
    11   8    -0.01  -0.03   0.02    -0.04  -0.06  -0.04    -0.02  -0.09   0.00
    12   6     0.00  -0.00   0.01     0.07  -0.05   0.07    -0.01   0.00   0.01
    13   6     0.01   0.01   0.02     0.11  -0.03   0.00    -0.01  -0.00   0.01
    14   6     0.01   0.02  -0.01     0.09   0.02  -0.03    -0.01  -0.00   0.01
    15   1     0.00  -0.01   0.03     0.07  -0.08   0.12    -0.01   0.00   0.01
    16   1     0.02   0.01   0.04     0.16  -0.04  -0.02    -0.01   0.00   0.01
    17   1     0.01   0.03  -0.01     0.11   0.05  -0.06    -0.01  -0.01   0.01
    18   1    -0.00  -0.03   0.01    -0.02  -0.08  -0.05    -0.04  -0.06   0.02
    19   6    -0.01  -0.01  -0.04     0.01  -0.02   0.05     0.00  -0.00  -0.00
    20   6    -0.01   0.02   0.01     0.02  -0.00  -0.05    -0.00   0.01  -0.00
    21   8    -0.04   0.12   0.01     0.08  -0.13   0.02    -0.03   0.05  -0.02
    22   6    -0.04  -0.10  -0.00    -0.02   0.16   0.00    -0.01   0.00   0.01
    23   6     0.01  -0.08   0.05    -0.09   0.13  -0.08    -0.00   0.00   0.01
    24   6     0.04  -0.01   0.03    -0.09  -0.00  -0.10    -0.00   0.01   0.00
    25   6    -0.01   0.02  -0.02    -0.02  -0.05  -0.04    -0.01   0.01   0.01
    26   6    -0.06  -0.03  -0.04     0.03   0.04   0.02    -0.02   0.01   0.01
    27   1    -0.07  -0.14   0.00     0.01   0.23   0.01    -0.02  -0.00   0.01
    28   7    -0.02   0.02   0.01    -0.05   0.05  -0.04     0.02  -0.01  -0.01
    29   1    -0.03   0.00   0.01     0.02  -0.02  -0.12    -0.00   0.01   0.01
    30   1    -0.00   0.02  -0.02     0.02  -0.01   0.03     0.01   0.02   0.03
    31   1    -0.01  -0.01  -0.00     0.01   0.03   0.00    -0.03   0.02   0.03
    32   1     0.03  -0.11   0.10    -0.14   0.19  -0.12    -0.00  -0.00   0.01
    33   7     0.04   0.04  -0.01     0.05   0.00  -0.03    -0.01   0.00   0.01
    34   6    -0.02   0.01  -0.00    -0.01   0.01  -0.07    -0.02   0.00  -0.00
    35   6     0.16   0.07   0.13     0.15   0.01   0.07    -0.02  -0.00   0.00
    36   1    -0.04   0.02   0.04    -0.04   0.02  -0.02    -0.03   0.01   0.01
    37   1    -0.03  -0.03  -0.03    -0.06   0.01  -0.10    -0.04   0.01  -0.01
    38   1    -0.02   0.01  -0.01     0.03  -0.01  -0.12    -0.02  -0.00  -0.02
    39   1     0.35  -0.27   0.34     0.17  -0.08   0.18    -0.06   0.06  -0.02
    40   1     0.31   0.46   0.30     0.25   0.12   0.08    -0.03  -0.07  -0.03
    41   1    -0.08   0.06  -0.13     0.12   0.01   0.04     0.03   0.00   0.05
    42   6     0.03   0.00  -0.01     0.04  -0.03  -0.02    -0.02   0.01   0.02
    43   6     0.02   0.00  -0.00     0.01   0.00   0.02    -0.01   0.01   0.02
    44   6     0.03  -0.00  -0.01     0.03  -0.02  -0.02    -0.01   0.01   0.02
    45   6     0.02   0.01   0.00     0.01  -0.01  -0.01     0.00  -0.01  -0.00
    46   6     0.01   0.02   0.02    -0.02   0.01   0.04     0.01  -0.01  -0.01
    47   6     0.01   0.02   0.02    -0.03   0.02   0.07     0.00  -0.00   0.00
    48   6     0.01   0.01   0.01    -0.02   0.03   0.07    -0.01   0.00   0.01
    49   1     0.07   0.01   0.01     0.05  -0.06   0.01    -0.03   0.00   0.01
    50   1     0.03  -0.03  -0.04     0.04  -0.04  -0.04    -0.02   0.02   0.03
    51   1     0.03  -0.01  -0.03     0.06  -0.05  -0.07    -0.02   0.01   0.03
    52   1     0.02   0.00  -0.00     0.02  -0.02  -0.04     0.01  -0.01  -0.01
    53   1    -0.00   0.03   0.04    -0.02   0.01   0.04     0.02  -0.02  -0.03
    54   1     0.00   0.02   0.03    -0.02   0.01   0.06     0.00   0.00  -0.00
    55   1     0.01   0.01   0.01    -0.03   0.03   0.08    -0.01   0.00   0.01
    56   8    -0.02   0.02   0.03    -0.07   0.06  -0.03     0.01   0.02  -0.03
    57   6    -0.02  -0.00  -0.01    -0.08  -0.01   0.06     0.01   0.02   0.01
    58   6    -0.03   0.01   0.02    -0.04   0.02   0.00     0.03   0.01  -0.01
    59   6    -0.06   0.00   0.02    -0.05   0.01   0.02     0.05   0.00  -0.00
    60   6    -0.03   0.01   0.02     0.02   0.02  -0.01     0.05  -0.00  -0.03
    61   1     0.00  -0.01   0.00    -0.13  -0.05   0.11    -0.18  -0.17   0.26
    62   1    -0.01  -0.01  -0.01    -0.09  -0.04   0.02     0.21  -0.14  -0.23
    63   1    -0.03  -0.01  -0.02    -0.05   0.05   0.11    -0.01   0.39   0.02
    64   1    -0.10   0.00   0.03    -0.23   0.00   0.04    -0.25  -0.02   0.03
    65   1    -0.05  -0.03   0.03     0.06  -0.08   0.14     0.24  -0.14   0.21
    66   1    -0.06   0.03   0.01     0.02   0.11  -0.11     0.18   0.15  -0.23
    67   1    -0.01   0.01   0.02     0.11   0.06  -0.02     0.31   0.07  -0.03
    68   1    -0.04  -0.00  -0.00     0.01  -0.06  -0.06    -0.04  -0.17  -0.24
    69   1    -0.05   0.02   0.04    -0.03   0.07   0.03    -0.12   0.08   0.15
                     16                     17                     18
                      A                      A                      A
 Frequencies --    166.4590               169.7249               176.5557
 Red. masses --      3.4325                 3.9485                 3.7454
 Frc consts  --      0.0560                 0.0670                 0.0688
 IR Inten    --      0.0000                 0.0000                 0.0000
  Atom  AN      X      Y      Z        X      Y      Z        X      Y      Z
     1  26     0.01  -0.01   0.04     0.06   0.03   0.01    -0.01   0.01  -0.00
     2   6    -0.04   0.05  -0.03    -0.07   0.00  -0.03    -0.05  -0.01  -0.01
     3  46    -0.00  -0.03  -0.03    -0.04   0.03   0.00     0.02  -0.03  -0.00
     4   6     0.02  -0.00   0.05     0.06  -0.12  -0.03     0.01   0.02   0.08
     5   1     0.03   0.00  -0.04     0.10   0.04   0.03    -0.00   0.03  -0.04
     6   1     0.01   0.02  -0.05     0.08   0.02  -0.05    -0.01   0.05  -0.02
     7   1    -0.02   0.04   0.01    -0.01   0.01  -0.06    -0.01   0.05  -0.00
     8   6     0.01   0.03  -0.05    -0.03   0.02  -0.03     0.03  -0.03   0.02
     9   8     0.01  -0.02  -0.01    -0.02  -0.04  -0.02    -0.07  -0.06   0.01
    10   6     0.03  -0.02   0.04     0.02  -0.02   0.05     0.02  -0.03   0.02
    11   8     0.01   0.01  -0.05     0.03   0.01  -0.06     0.02  -0.03   0.03
    12   6     0.04  -0.03   0.06     0.02   0.00  -0.01     0.01   0.01   0.02
    13   6     0.05  -0.03   0.04     0.00  -0.01  -0.00    -0.01  -0.01  -0.00
    14   6     0.04  -0.02   0.02     0.01  -0.02   0.03     0.00  -0.04  -0.01
    15   1     0.04  -0.04   0.08     0.02   0.02  -0.02     0.00   0.03   0.02
    16   1     0.05  -0.03   0.02    -0.01  -0.01  -0.01    -0.02  -0.01  -0.01
    17   1     0.05  -0.01  -0.00     0.01  -0.03   0.01    -0.00  -0.06  -0.03
    18   1    -0.01  -0.00  -0.05     0.13  -0.01  -0.12    -0.02  -0.00   0.04
    19   6     0.02  -0.03   0.02     0.03   0.00   0.01     0.03  -0.00   0.02
    20   6    -0.04   0.05  -0.04    -0.08   0.01  -0.05    -0.03  -0.02   0.02
    21   8    -0.10   0.14  -0.02    -0.10   0.04  -0.01    -0.06   0.03  -0.03
    22   6    -0.05   0.05   0.04     0.01   0.00   0.03    -0.01   0.04  -0.02
    23   6    -0.03   0.04   0.02     0.04   0.01   0.06    -0.01   0.04  -0.02
    24   6     0.01   0.01  -0.03     0.07   0.03   0.03    -0.00   0.03  -0.03
    25   6    -0.00   0.02  -0.03     0.05   0.04  -0.02    -0.01   0.04  -0.02
    26   6    -0.03   0.04   0.01     0.02   0.02  -0.02    -0.02   0.05  -0.01
    27   1    -0.08   0.06   0.06    -0.01  -0.02   0.05    -0.01   0.03  -0.03
    28   7     0.00   0.08  -0.06    -0.05   0.04  -0.06     0.01  -0.07   0.01
    29   1    -0.05   0.05  -0.04    -0.09  -0.01  -0.07    -0.03   0.01   0.07
    30   1     0.05   0.01   0.08    -0.03  -0.17  -0.08     0.08   0.05   0.12
    31   1    -0.02   0.03   0.06     0.16  -0.15  -0.08    -0.07   0.05   0.11
    32   1    -0.04   0.04   0.03     0.04  -0.00   0.10    -0.02   0.04  -0.00
    33   7    -0.00  -0.04   0.03     0.05  -0.10   0.02    -0.00  -0.02   0.04
    34   6    -0.08  -0.06   0.00     0.19  -0.12   0.15    -0.08  -0.02  -0.01
    35   6    -0.01  -0.02   0.04     0.04  -0.11  -0.00    -0.00  -0.02   0.05
    36   1    -0.12  -0.01   0.01     0.27  -0.23   0.16    -0.12   0.03   0.00
    37   1    -0.08  -0.08  -0.01     0.21  -0.16   0.14    -0.09  -0.02  -0.01
    38   1    -0.10  -0.10  -0.02     0.21  -0.01   0.25    -0.09  -0.07  -0.05
    39   1    -0.10   0.10   0.02     0.08  -0.15  -0.01    -0.14   0.16  -0.00
    40   1    -0.02  -0.13  -0.03     0.03  -0.07   0.03    -0.02  -0.21  -0.07
    41   1     0.11   0.00   0.13    -0.00  -0.12  -0.03     0.16  -0.01   0.21
    42   6    -0.06   0.04   0.05    -0.04  -0.02  -0.04    -0.04   0.01  -0.07
    43   6    -0.04   0.06   0.09     0.01  -0.01  -0.03     0.03  -0.03  -0.13
    44   6    -0.02   0.04   0.06     0.02  -0.03  -0.03     0.09  -0.10  -0.16
    45   6     0.03  -0.03  -0.03     0.01  -0.00   0.01     0.02   0.04   0.03
    46   6     0.04  -0.04  -0.06    -0.00   0.03   0.04    -0.05   0.17   0.18
    47   6    -0.01   0.01   0.03    -0.01   0.03   0.01    -0.01   0.12   0.04
    48   6    -0.04   0.05   0.08     0.00   0.02  -0.02     0.00   0.05  -0.06
    49   1    -0.09  -0.01   0.06    -0.04  -0.01  -0.04    -0.07   0.10  -0.12
    50   1    -0.06   0.04   0.08    -0.05  -0.05  -0.02    -0.05   0.01  -0.00
    51   1    -0.04   0.05   0.08     0.03  -0.06  -0.05     0.16  -0.22  -0.28
    52   1     0.05  -0.06  -0.09     0.01  -0.01   0.02     0.02   0.04   0.07
    53   1     0.08  -0.09  -0.14    -0.01   0.06   0.08    -0.11   0.28   0.35
    54   1    -0.01   0.02   0.03    -0.01   0.03   0.01    -0.00   0.15   0.02
    55   1    -0.03   0.03   0.10     0.01   0.01  -0.00    -0.00   0.05  -0.05
    56   8     0.01  -0.02  -0.06    -0.04  -0.01  -0.01     0.03   0.01   0.02
    57   6     0.01  -0.03   0.01    -0.06   0.01   0.00     0.05   0.00  -0.03
    58   6     0.04  -0.01  -0.04    -0.05  -0.00  -0.01     0.02   0.01   0.01
    59   6     0.09   0.01  -0.07    -0.04  -0.01  -0.00     0.01   0.01   0.01
    60   6     0.07  -0.01  -0.04    -0.04  -0.00  -0.02     0.01   0.01   0.01
    61   1     0.11   0.10  -0.16    -0.14  -0.06   0.09     0.11   0.04  -0.08
    62   1    -0.16   0.08   0.18     0.01  -0.05  -0.08     0.03   0.03   0.01
    63   1     0.06  -0.28   0.05    -0.06   0.14   0.02     0.03  -0.07  -0.06
    64   1     0.35   0.02  -0.12    -0.22  -0.02   0.02     0.10   0.02  -0.00
    65   1    -0.04   0.18  -0.22     0.08  -0.10   0.13    -0.06   0.04  -0.07
    66   1     0.01  -0.12   0.08     0.04   0.08  -0.15    -0.04  -0.03   0.08
    67   1    -0.09  -0.04  -0.05    -0.06  -0.01  -0.02     0.05   0.01   0.02
    68   1     0.13   0.07   0.10    -0.03   0.01   0.01    -0.00  -0.01  -0.02
    69   1     0.17  -0.05  -0.16    -0.02  -0.01  -0.04    -0.02   0.02   0.05
                     19                     20                     21
                      A                      A                      A
 Frequencies --    187.9849               188.8603               208.8607
 Red. masses --      3.3298                 2.7212                 2.7007
 Frc consts  --      0.0693                 0.0572                 0.0694
 IR Inten    --      0.0000                 0.0000                 0.0000
  Atom  AN      X      Y      Z        X      Y      Z        X      Y      Z
     1  26     0.00  -0.02  -0.00     0.01  -0.01  -0.01    -0.01  -0.05  -0.00
     2   6    -0.05  -0.01   0.02    -0.01   0.00   0.03    -0.03   0.01  -0.02
     3  46    -0.04   0.03   0.05    -0.02  -0.03   0.02     0.04   0.01   0.01
     4   6    -0.02   0.02  -0.04     0.00   0.02  -0.00    -0.00   0.07   0.07
     5   1    -0.02  -0.05   0.03    -0.01  -0.02  -0.02    -0.01  -0.07  -0.03
     6   1     0.01  -0.06   0.05     0.01  -0.02  -0.01    -0.02  -0.04   0.01
     7   1     0.03  -0.04   0.05     0.02  -0.01   0.01     0.00  -0.03   0.06
     8   6     0.00  -0.03  -0.02     0.02   0.05   0.00    -0.02   0.02  -0.03
     9   8    -0.03   0.00   0.01     0.01   0.02   0.02    -0.00  -0.00  -0.01
    10   6    -0.00   0.01  -0.02     0.02  -0.00  -0.01     0.00   0.00  -0.04
    11   8    -0.03  -0.06  -0.01     0.05   0.24  -0.02     0.02   0.02  -0.04
    12   6     0.02  -0.03  -0.00     0.02  -0.00   0.01     0.02  -0.05   0.02
    13   6     0.04  -0.01  -0.00     0.03  -0.00  -0.00     0.05  -0.02   0.01
    14   6     0.03   0.01  -0.01     0.03  -0.00  -0.01     0.04   0.01  -0.02
    15   1     0.02  -0.06   0.00     0.02  -0.00   0.02     0.03  -0.06   0.04
    16   1     0.06  -0.02  -0.02     0.03  -0.01  -0.01     0.08  -0.03   0.02
    17   1     0.04   0.04   0.02     0.03   0.00  -0.01     0.05   0.03   0.00
    18   1    -0.04  -0.05   0.01     0.03   0.16  -0.02     0.05  -0.02  -0.07
    19   6    -0.01  -0.02   0.01     0.01  -0.01   0.02    -0.00  -0.04  -0.02
    20   6    -0.04  -0.01   0.01    -0.01   0.00   0.01    -0.03   0.00  -0.03
    21   8    -0.07   0.01   0.04    -0.02   0.01   0.04    -0.05   0.04  -0.01
    22   6     0.04  -0.04   0.00     0.01   0.00  -0.00     0.00  -0.04  -0.01
    23   6     0.02  -0.04   0.00    -0.00  -0.00  -0.01    -0.01  -0.05  -0.02
    24   6    -0.00  -0.04   0.03    -0.00  -0.02  -0.01    -0.01  -0.06  -0.01
    25   6     0.01  -0.05   0.04     0.01  -0.02  -0.01    -0.01  -0.06   0.01
    26   6     0.04  -0.05   0.03     0.02  -0.02  -0.00    -0.00  -0.05   0.02
    27   1     0.06  -0.02  -0.01     0.01   0.01  -0.00     0.01  -0.03  -0.00
    28   7     0.01  -0.06   0.00     0.00   0.01   0.01    -0.02   0.03  -0.04
    29   1    -0.02   0.02   0.06     0.00   0.02   0.02    -0.04  -0.00  -0.04
    30   1    -0.03   0.02  -0.04     0.02   0.03   0.01     0.06   0.12   0.09
    31   1    -0.01   0.02  -0.04    -0.02   0.04  -0.00    -0.08   0.04   0.14
    32   1     0.02  -0.03  -0.01    -0.01   0.01  -0.01    -0.01  -0.04  -0.03
    33   7    -0.00   0.03  -0.04    -0.00   0.00  -0.02     0.04   0.11   0.08
    34   6     0.05   0.08  -0.06    -0.06   0.01  -0.05     0.09   0.15   0.04
    35   6     0.06  -0.00   0.00     0.02   0.02   0.02    -0.00   0.04  -0.01
    36   1     0.08   0.04  -0.06    -0.09   0.07  -0.09     0.12   0.07   0.12
    37   1     0.02   0.13  -0.06    -0.02   0.01  -0.03    -0.03   0.21  -0.01
    38   1     0.10   0.10  -0.08    -0.10  -0.05  -0.07     0.21   0.21  -0.01
    39   1     0.24  -0.27   0.11     0.06  -0.06   0.07    -0.13   0.26  -0.14
    40   1     0.15   0.28   0.14     0.05   0.11   0.06    -0.06  -0.23  -0.15
    41   1    -0.16  -0.03  -0.20    -0.03   0.02  -0.05     0.14   0.02   0.21
    42   6    -0.10   0.03  -0.00    -0.04   0.02   0.01    -0.04  -0.01  -0.01
    43   6    -0.03  -0.01  -0.05    -0.01   0.01  -0.01    -0.02  -0.01  -0.01
    44   6    -0.02  -0.02  -0.02    -0.00  -0.00  -0.02    -0.01  -0.02  -0.01
    45   6    -0.01   0.00   0.01     0.00   0.00  -0.01    -0.01  -0.01   0.00
    46   6    -0.00   0.03   0.02    -0.00   0.02   0.01    -0.01   0.00   0.01
    47   6     0.00   0.03  -0.04    -0.01   0.03  -0.00    -0.01   0.01  -0.00
    48   6    -0.00   0.00  -0.07    -0.01   0.02  -0.01    -0.01  -0.00  -0.01
    49   1    -0.19   0.07  -0.06    -0.09   0.04  -0.02    -0.05  -0.01  -0.02
    50   1    -0.12   0.06   0.11    -0.05   0.04   0.06    -0.04  -0.01   0.01
    51   1    -0.02  -0.04  -0.01     0.00  -0.01  -0.03    -0.01  -0.03  -0.01
    52   1    -0.01   0.00   0.04     0.01  -0.00  -0.01    -0.00  -0.02   0.01
    53   1    -0.00   0.06   0.06    -0.00   0.03   0.02    -0.00   0.01   0.02
    54   1     0.01   0.04  -0.03    -0.00   0.03  -0.00    -0.01   0.01  -0.00
    55   1     0.01  -0.01  -0.07     0.00   0.01  -0.01    -0.01   0.00  -0.02
    56   8     0.02   0.02  -0.07     0.02  -0.10  -0.00    -0.03  -0.01  -0.01
    57   6     0.03  -0.02   0.02     0.01   0.02  -0.04    -0.06  -0.00   0.02
    58   6     0.07   0.01  -0.05     0.00  -0.05  -0.02    -0.04   0.00  -0.01
    59   6     0.12   0.03  -0.08     0.06  -0.04  -0.03    -0.04  -0.01   0.00
    60   6     0.13   0.00  -0.07    -0.05  -0.05  -0.02    -0.04   0.01  -0.00
    61   1     0.08   0.05  -0.08    -0.23  -0.21   0.26    -0.04   0.05  -0.05
    62   1    -0.10   0.04   0.11     0.31  -0.17  -0.33    -0.13   0.04   0.08
    63   1     0.07  -0.17   0.07    -0.05   0.50  -0.06    -0.03  -0.09   0.05
    64   1     0.26   0.03  -0.12    -0.01  -0.05  -0.03    -0.29  -0.02   0.03
    65   1     0.06   0.14  -0.14     0.12  -0.04   0.05     0.10  -0.13   0.17
    66   1     0.09  -0.04  -0.01     0.11  -0.02  -0.11     0.05   0.12  -0.18
    67   1     0.22   0.04  -0.10    -0.16  -0.08  -0.02    -0.23  -0.04  -0.01
    68   1     0.13  -0.09  -0.11    -0.02   0.04   0.06     0.03   0.12   0.15
    69   1     0.09   0.04  -0.03     0.02  -0.10  -0.08     0.09  -0.05  -0.14
                     22                     23                     24
                      A                      A                      A
 Frequencies --    220.4440               224.7327               229.9552
 Red. masses --      1.3488                 4.0436                 3.6719
 Frc consts  --      0.0386                 0.1203                 0.1144
 IR Inten    --      0.0000                 0.0000                 0.0000
  Atom  AN      X      Y      Z        X      Y      Z        X      Y      Z
     1  26    -0.00  -0.02   0.01     0.01  -0.03   0.01     0.03   0.00  -0.03
     2   6    -0.01  -0.00  -0.02    -0.04  -0.01  -0.07     0.04   0.02   0.02
     3  46    -0.02   0.02  -0.00    -0.01   0.09   0.02     0.03   0.06  -0.01
     4   6    -0.01   0.01   0.02    -0.02  -0.01   0.03    -0.04  -0.04  -0.01
     5   1     0.00  -0.02  -0.02    -0.01  -0.06  -0.02     0.01  -0.02   0.02
     6   1    -0.00  -0.01   0.00    -0.00  -0.04   0.00     0.03  -0.06  -0.03
     7   1    -0.01   0.00   0.03    -0.01  -0.03   0.03     0.05  -0.07  -0.06
     8   6     0.00   0.02  -0.00     0.03   0.01  -0.00    -0.04   0.05  -0.00
     9   8    -0.01  -0.03  -0.02    -0.11  -0.10  -0.04     0.01   0.04   0.02
    10   6    -0.00  -0.00  -0.01     0.02  -0.05   0.01    -0.06  -0.00   0.00
    11   8     0.01  -0.02  -0.00     0.04   0.00   0.00    -0.06   0.01   0.01
    12   6     0.01  -0.03   0.01     0.03  -0.05   0.02    -0.01  -0.06  -0.05
    13   6     0.02  -0.01   0.01     0.03  -0.05   0.00     0.01  -0.04  -0.05
    14   6     0.01  -0.00  -0.00     0.03  -0.05   0.00    -0.01   0.00  -0.01
    15   1     0.01  -0.03   0.03     0.03  -0.05   0.03    -0.01  -0.08  -0.04
    16   1     0.03  -0.02   0.01     0.03  -0.05   0.01     0.04  -0.04  -0.04
    17   1     0.02   0.01   0.00     0.03  -0.05   0.00     0.01   0.04  -0.02
    18   1     0.01  -0.02  -0.01    -0.02  -0.02   0.00    -0.03  -0.06   0.02
    19   6    -0.00  -0.03  -0.02     0.03  -0.06  -0.01    -0.06  -0.03  -0.02
    20   6    -0.01   0.01  -0.02    -0.01   0.02  -0.02     0.04   0.03   0.03
    21   8    -0.01  -0.01  -0.03    -0.02  -0.01  -0.11     0.06   0.02  -0.01
    22   6    -0.00  -0.01   0.00    -0.00  -0.03   0.01     0.01  -0.04  -0.01
    23   6    -0.00  -0.01  -0.01    -0.01  -0.03   0.00    -0.00  -0.03   0.02
    24   6     0.00  -0.02  -0.01    -0.00  -0.05  -0.01     0.00  -0.03   0.01
    25   6    -0.00  -0.01   0.00     0.00  -0.05   0.00     0.02  -0.05  -0.02
    26   6    -0.01  -0.01   0.01    -0.00  -0.04   0.02     0.04  -0.06  -0.04
    27   1    -0.00   0.00   0.01    -0.01  -0.01   0.03    -0.00  -0.04   0.01
    28   7    -0.01   0.03  -0.02     0.01   0.05  -0.02     0.01   0.09   0.03
    29   1    -0.03  -0.01  -0.03    -0.06  -0.02  -0.01     0.06   0.04  -0.02
    30   1     0.01   0.02   0.02     0.03   0.02   0.06    -0.08  -0.08  -0.01
    31   1    -0.02   0.00   0.03    -0.07   0.04   0.03    -0.01  -0.04  -0.02
    32   1    -0.00  -0.01  -0.01    -0.01  -0.02  -0.00    -0.02  -0.02   0.04
    33   7     0.01   0.02   0.02    -0.05  -0.06  -0.01    -0.02  -0.04  -0.01
    34   6     0.04   0.04   0.02    -0.16  -0.04  -0.10    -0.10  -0.07  -0.01
    35   6     0.01  -0.00   0.01     0.00  -0.05   0.05    -0.00  -0.02   0.03
    36   1     0.05  -0.01   0.07    -0.22   0.09  -0.16    -0.13  -0.04   0.03
    37   1    -0.02   0.06  -0.01    -0.11  -0.02  -0.05    -0.10  -0.11  -0.02
    38   1     0.10   0.08   0.00    -0.23  -0.15  -0.15    -0.11  -0.08  -0.01
    39   1    -0.03   0.06  -0.03     0.06  -0.17   0.13    -0.09   0.07   0.03
    40   1     0.00  -0.08  -0.04     0.07   0.07   0.09     0.00  -0.11  -0.05
    41   1     0.05  -0.01   0.07    -0.07  -0.06  -0.02     0.09  -0.01   0.12
    42   6     0.03  -0.02  -0.02     0.11  -0.03  -0.03    -0.05   0.05   0.12
    43   6     0.01   0.00   0.00     0.06   0.02   0.01     0.04  -0.04   0.03
    44   6     0.01   0.01  -0.00     0.03   0.06  -0.01     0.07  -0.09  -0.04
    45   6    -0.00   0.01  -0.01     0.00   0.04  -0.03    -0.00  -0.04   0.03
    46   6    -0.00  -0.00  -0.01    -0.01   0.00  -0.03    -0.06  -0.00   0.13
    47   6     0.00  -0.01   0.00     0.01  -0.01   0.01    -0.02  -0.06   0.06
    48   6     0.01   0.00   0.01     0.04   0.01   0.04     0.03  -0.06   0.03
    49   1     0.08  -0.03   0.01     0.25  -0.05   0.04    -0.22   0.08   0.01
    50   1     0.04  -0.05  -0.07     0.13  -0.11  -0.18    -0.08   0.10   0.31
    51   1     0.01   0.02  -0.00     0.05   0.08  -0.02     0.11  -0.12  -0.10
    52   1    -0.01   0.02  -0.01    -0.01   0.06  -0.05    -0.01  -0.03   0.01
    53   1    -0.01  -0.01  -0.02    -0.02  -0.02  -0.07    -0.12   0.05   0.21
    54   1    -0.00  -0.01   0.01    -0.01  -0.04   0.02    -0.02  -0.10   0.05
    55   1     0.00   0.00   0.01     0.04   0.01   0.04     0.02  -0.05   0.02
    56   8     0.00   0.03   0.02     0.02  -0.02   0.03    -0.04   0.03  -0.04
    57   6     0.03  -0.01  -0.01     0.05   0.02  -0.05    -0.11  -0.02   0.09
    58   6     0.01  -0.00   0.02     0.01  -0.00   0.01    -0.03   0.00  -0.03
    59   6    -0.02  -0.01   0.03    -0.01  -0.01   0.03    -0.01   0.01  -0.04
    60   6     0.01  -0.00   0.02    -0.04   0.01   0.04     0.02  -0.01  -0.06
    61   1    -0.08  -0.16   0.20     0.15   0.10  -0.15    -0.25  -0.12   0.21
    62   1     0.22  -0.15  -0.22     0.02   0.09   0.05    -0.10  -0.11  -0.02
    63   1    -0.02   0.28  -0.06     0.03  -0.12  -0.10    -0.05   0.14   0.19
    64   1     0.41   0.04  -0.00    -0.28  -0.03   0.07     0.15   0.01  -0.08
    65   1    -0.29   0.18  -0.28     0.15  -0.16   0.21    -0.10   0.12  -0.14
    66   1    -0.20  -0.23   0.36     0.10   0.13  -0.16    -0.07  -0.06   0.06
    67   1     0.11   0.02   0.02    -0.13  -0.03   0.07    -0.09  -0.01  -0.10
    68   1    -0.03  -0.06  -0.07    -0.03   0.10   0.10     0.08   0.01   0.05
    69   1    -0.06   0.03   0.09     0.00  -0.02  -0.00     0.11  -0.06  -0.16
                     25                     26                     27
                      A                      A                      A
 Frequencies --    238.7744               240.8396               246.6083
 Red. masses --      3.8241                 1.6161                 2.1986
 Frc consts  --      0.1285                 0.0552                 0.0788
 IR Inten    --      0.0000                 0.0000                 0.0000
  Atom  AN      X      Y      Z        X      Y      Z        X      Y      Z
     1  26     0.00  -0.01   0.00     0.01  -0.02  -0.00     0.01   0.02  -0.01
     2   6     0.07  -0.01  -0.05     0.02   0.00   0.00    -0.02  -0.01  -0.02
     3  46    -0.01   0.03   0.00    -0.03   0.01  -0.01     0.06   0.00   0.02
     4   6     0.03   0.01   0.02    -0.00  -0.00  -0.01     0.01   0.01   0.03
     5   1     0.01  -0.01   0.01     0.02  -0.02  -0.01    -0.03  -0.01   0.03
     6   1     0.00   0.00   0.02     0.01  -0.01  -0.01     0.01  -0.03  -0.02
     7   1     0.01  -0.00   0.03    -0.00   0.00   0.02     0.04  -0.06  -0.05
     8   6     0.03  -0.03  -0.04     0.01   0.02   0.01    -0.02  -0.00  -0.03
     9   8     0.17   0.11  -0.08     0.03   0.02  -0.00     0.01   0.01  -0.02
    10   6     0.05  -0.03  -0.00    -0.01   0.00  -0.02     0.01   0.00   0.02
    11   8     0.06  -0.09  -0.04     0.02   0.05   0.00     0.01   0.05  -0.05
    12   6     0.01   0.03  -0.02    -0.00  -0.01  -0.00     0.02   0.00  -0.00
    13   6    -0.02   0.01   0.01     0.00  -0.00   0.00     0.02  -0.01  -0.03
    14   6    -0.00  -0.03   0.01     0.00   0.01  -0.00     0.02  -0.00  -0.01
    15   1     0.00   0.06  -0.04    -0.00  -0.01   0.01     0.02   0.01   0.00
    16   1    -0.06   0.02   0.02     0.01  -0.00   0.01     0.02  -0.01  -0.05
    17   1    -0.02  -0.07   0.03     0.01   0.02   0.00     0.02  -0.00  -0.02
    18   1     0.03  -0.03  -0.07     0.01   0.03  -0.00     0.05   0.02  -0.04
    19   6     0.06  -0.00  -0.04    -0.01  -0.02  -0.04     0.01   0.02   0.06
    20   6     0.02  -0.04  -0.08     0.01   0.02  -0.00    -0.02  -0.03  -0.03
    21   8     0.01   0.02   0.04     0.03  -0.01   0.01    -0.04   0.02   0.00
    22   6     0.00   0.01   0.02     0.00  -0.01   0.00    -0.00  -0.02  -0.00
    23   6     0.00   0.00   0.02     0.01  -0.01   0.00    -0.02  -0.01   0.02
    24   6     0.01  -0.01   0.01     0.02  -0.02  -0.01    -0.03  -0.01   0.02
    25   6     0.01  -0.01   0.02     0.01  -0.01  -0.01     0.00  -0.03  -0.00
    26   6     0.01  -0.01   0.02     0.01  -0.01  -0.00     0.02  -0.04  -0.02
    27   1     0.00   0.01   0.02    -0.00  -0.01   0.01     0.01  -0.02  -0.01
    28   7     0.00  -0.01  -0.07    -0.00   0.05  -0.00    -0.01  -0.02  -0.03
    29   1     0.09   0.01  -0.12     0.02   0.02  -0.03    -0.02  -0.03  -0.02
    30   1     0.08   0.05   0.04    -0.01  -0.01  -0.01     0.01   0.00   0.03
    31   1    -0.02   0.05   0.03    -0.00  -0.02   0.00     0.01   0.02   0.02
    32   1    -0.00   0.01   0.02    -0.00  -0.01   0.01    -0.02  -0.01   0.02
    33   7    -0.01  -0.02  -0.00     0.01   0.01   0.00    -0.00  -0.02   0.02
    34   6    -0.07  -0.01  -0.05     0.01  -0.00   0.02    -0.05  -0.01  -0.02
    35   6     0.00  -0.02   0.01     0.02   0.02   0.02    -0.02  -0.03   0.00
    36   1    -0.10   0.06  -0.10     0.01  -0.06   0.10    -0.07   0.10  -0.14
    37   1    -0.02   0.00  -0.02    -0.06  -0.02  -0.03     0.07  -0.01   0.06
    38   1    -0.12  -0.09  -0.08     0.08   0.05   0.01    -0.17  -0.12  -0.01
    39   1     0.03  -0.07   0.05    -0.09   0.15  -0.01     0.06  -0.12   0.01
    40   1     0.02   0.04   0.04     0.02  -0.13  -0.08    -0.02   0.07   0.07
    41   1    -0.03  -0.01  -0.03     0.15   0.03   0.15    -0.11  -0.04  -0.09
    42   6    -0.16   0.02   0.02    -0.02   0.02   0.04    -0.03  -0.03  -0.04
    43   6    -0.09  -0.03  -0.01     0.01  -0.00   0.02    -0.04  -0.00  -0.01
    44   6    -0.06  -0.08   0.03     0.02  -0.02  -0.01    -0.04  -0.00   0.03
    45   6     0.00  -0.08   0.04    -0.00  -0.01   0.00     0.01  -0.02   0.01
    46   6     0.02  -0.02   0.04    -0.02  -0.00   0.03     0.03  -0.00  -0.03
    47   6    -0.02   0.02  -0.01    -0.01  -0.01   0.02    -0.00   0.04  -0.02
    48   6    -0.06   0.00  -0.04     0.00  -0.01   0.02    -0.02   0.03  -0.02
    49   1    -0.37  -0.01  -0.08    -0.08   0.02   0.01    -0.00  -0.05  -0.02
    50   1    -0.19   0.13   0.23    -0.03   0.04   0.10    -0.02  -0.03  -0.07
    51   1    -0.08  -0.13   0.04     0.03  -0.03  -0.03    -0.06  -0.00   0.06
    52   1     0.03  -0.11   0.05     0.00  -0.01  -0.01     0.02  -0.03   0.02
    53   1     0.06   0.00   0.06    -0.03   0.01   0.05     0.08  -0.01  -0.05
    54   1    -0.00   0.07  -0.02    -0.01  -0.02   0.02    -0.00   0.05  -0.02
    55   1    -0.04  -0.01  -0.04     0.00  -0.02   0.01    -0.02   0.03  -0.03
    56   8     0.02   0.04   0.04     0.01  -0.07   0.01    -0.04  -0.03  -0.00
    57   6     0.09   0.00  -0.07     0.04   0.03  -0.04    -0.08   0.02   0.05
    58   6     0.01   0.01   0.04     0.01  -0.01   0.01    -0.05  -0.00   0.01
    59   6    -0.07  -0.03   0.10     0.04  -0.00  -0.00    -0.06  -0.00   0.01
    60   6    -0.03   0.04   0.09    -0.03  -0.01   0.03    -0.05  -0.00   0.01
    61   1     0.14  -0.03  -0.02     0.16   0.16  -0.21    -0.08   0.06  -0.01
    62   1     0.20  -0.02  -0.12    -0.04   0.15   0.14    -0.14   0.06   0.11
    63   1     0.01   0.06  -0.17     0.03  -0.20  -0.07    -0.04  -0.05   0.09
    64   1    -0.07   0.01   0.15    -0.01  -0.01  -0.00     0.11   0.02  -0.00
    65   1    -0.09  -0.11   0.05     0.09  -0.01   0.05    -0.16   0.06  -0.12
    66   1    -0.10  -0.04   0.14     0.08   0.02  -0.06    -0.13  -0.08   0.14
    67   1    -0.22  -0.04   0.13     0.39   0.07   0.07     0.38   0.09   0.03
    68   1     0.00   0.20   0.21    -0.19  -0.24  -0.32    -0.19  -0.26  -0.33
    69   1     0.06  -0.01  -0.02    -0.32   0.13   0.34    -0.32   0.14   0.30
                     28                     29                     30
                      A                      A                      A
 Frequencies --    255.8640               274.9342               280.8191
 Red. masses --      2.0913                 4.5390                 2.5484
 Frc consts  --      0.0807                 0.2021                 0.1184
 IR Inten    --      0.0000                 0.0000                 0.0000
  Atom  AN      X      Y      Z        X      Y      Z        X      Y      Z
     1  26    -0.01   0.02  -0.02    -0.03  -0.06   0.07     0.03   0.04  -0.01
     2   6    -0.01  -0.02   0.02     0.03  -0.02  -0.01     0.02  -0.01  -0.01
     3  46    -0.01   0.01   0.02     0.04   0.03  -0.01     0.00  -0.00  -0.02
     4   6     0.05  -0.02  -0.05    -0.04  -0.07  -0.15    -0.08  -0.00   0.01
     5   1    -0.02   0.01   0.08     0.11   0.00  -0.08    -0.05   0.00   0.04
     6   1     0.00  -0.02  -0.01     0.02   0.04   0.01     0.03  -0.07  -0.06
     7   1    -0.00  -0.03  -0.01    -0.10   0.14   0.12     0.07  -0.09  -0.10
     8   6    -0.00  -0.02   0.01     0.00  -0.02  -0.01     0.00  -0.02  -0.01
     9   8    -0.01   0.01   0.02    -0.00   0.01  -0.02    -0.00   0.01  -0.01
    10   6     0.03   0.02  -0.03    -0.03  -0.02  -0.01    -0.06   0.03   0.05
    11   8     0.00  -0.02   0.00    -0.01   0.08  -0.01    -0.07   0.04   0.02
    12   6     0.02   0.04  -0.01    -0.00  -0.11   0.08     0.01  -0.06  -0.02
    13   6     0.01   0.03  -0.01     0.05  -0.06   0.08     0.05  -0.03  -0.05
    14   6     0.02   0.02  -0.03     0.02  -0.01   0.05     0.02   0.03  -0.00
    15   1     0.02   0.04  -0.00     0.01  -0.15   0.08     0.02  -0.10  -0.01
    16   1     0.00   0.04  -0.01     0.09  -0.07   0.04     0.10  -0.04  -0.09
    17   1     0.01   0.01  -0.02     0.04   0.03   0.03     0.06   0.09  -0.02
    18   1     0.01   0.00  -0.00    -0.06  -0.04   0.03    -0.17   0.01   0.10
    19   6     0.03   0.04   0.01    -0.05  -0.10  -0.02    -0.06  -0.01   0.01
    20   6    -0.01  -0.03   0.01     0.04  -0.06   0.01     0.03  -0.04   0.01
    21   8    -0.01  -0.03   0.03     0.02   0.02  -0.04     0.02   0.02  -0.02
    22   6    -0.00  -0.07  -0.01    -0.04   0.09   0.09    -0.02  -0.01   0.01
    23   6    -0.01  -0.05   0.04     0.04   0.04   0.00    -0.06   0.01   0.06
    24   6    -0.02  -0.01   0.05     0.07   0.03  -0.04    -0.04  -0.01   0.03
    25   6    -0.01  -0.02   0.01    -0.00   0.08   0.03     0.01  -0.05  -0.03
    26   6    -0.00  -0.05  -0.02    -0.07   0.12   0.11     0.03  -0.06  -0.06
    27   1    -0.00  -0.09  -0.02    -0.07   0.09   0.12    -0.02  -0.01   0.01
    28   7    -0.01  -0.06   0.01     0.02  -0.12   0.03     0.02  -0.09   0.03
    29   1    -0.02  -0.03   0.03     0.08  -0.01   0.06     0.05  -0.01   0.05
    30   1     0.01  -0.04  -0.07    -0.10  -0.10  -0.18    -0.15  -0.06  -0.01
    31   1     0.09  -0.04  -0.06     0.06  -0.08  -0.19    -0.02  -0.00  -0.02
    32   1    -0.00  -0.05   0.05     0.07   0.02  -0.02    -0.08   0.03   0.07
    33   7     0.05  -0.00  -0.03    -0.00  -0.02  -0.12    -0.08  -0.01   0.02
    34   6    -0.07  -0.08   0.01    -0.00  -0.08  -0.05     0.01   0.02   0.04
    35   6     0.11   0.07   0.05     0.03   0.09  -0.05    -0.03  -0.07   0.05
    36   1    -0.13  -0.04   0.09     0.01  -0.26   0.22     0.07  -0.27   0.35
    37   1    -0.09  -0.17  -0.04    -0.22  -0.12  -0.21    -0.34   0.07  -0.18
    38   1    -0.07  -0.08   0.00     0.23   0.11  -0.08     0.37   0.26  -0.07
    39   1    -0.20   0.41   0.04    -0.06   0.13   0.03    -0.00  -0.11   0.08
    40   1     0.11  -0.29  -0.20     0.04   0.08  -0.06     0.04  -0.04   0.02
    41   1     0.46   0.12   0.38     0.13   0.16  -0.05    -0.06  -0.11   0.09
    42   6     0.01  -0.03  -0.04    -0.05   0.01  -0.04    -0.01  -0.01  -0.02
    43   6    -0.03   0.00  -0.01    -0.02  -0.02  -0.07    -0.03   0.02   0.01
    44   6    -0.04   0.02   0.03    -0.04   0.00  -0.02    -0.02   0.01   0.03
    45   6     0.01  -0.01  -0.01    -0.03   0.03   0.02     0.04  -0.01   0.00
    46   6     0.03  -0.00  -0.05     0.01   0.02  -0.03     0.05   0.02  -0.01
    47   6    -0.00   0.04  -0.02     0.02   0.01  -0.06     0.00   0.07   0.01
    48   6    -0.02   0.03  -0.02    -0.02   0.01  -0.06    -0.02   0.06   0.00
    49   1     0.08  -0.04  -0.00    -0.13   0.03  -0.09     0.01  -0.03  -0.01
    50   1     0.03  -0.04  -0.12    -0.06   0.07   0.05     0.01   0.02  -0.05
    51   1    -0.07   0.03   0.06    -0.06   0.00   0.01    -0.03  -0.01   0.04
    52   1     0.02  -0.02  -0.01    -0.05   0.06   0.09     0.07  -0.05  -0.01
    53   1     0.07  -0.02  -0.08     0.01   0.03  -0.02     0.10   0.01  -0.04
    54   1    -0.01   0.06  -0.00     0.03   0.05  -0.07    -0.00   0.08   0.00
    55   1    -0.00   0.02  -0.04    -0.03   0.00   0.01    -0.01   0.05  -0.01
    56   8     0.00   0.02  -0.00    -0.01  -0.01  -0.00     0.01  -0.01  -0.01
    57   6    -0.01  -0.00   0.01    -0.05   0.01   0.04     0.06   0.01  -0.03
    58   6    -0.00   0.01  -0.01    -0.02   0.00   0.00     0.03   0.00   0.01
    59   6    -0.00   0.01  -0.01    -0.05  -0.00   0.01     0.01  -0.02   0.04
    60   6     0.02   0.00  -0.02    -0.02   0.00  -0.00     0.01   0.02   0.04
    61   1    -0.03  -0.03   0.04    -0.09   0.02   0.03     0.09   0.01  -0.03
    62   1    -0.00  -0.02  -0.02    -0.07   0.02   0.05     0.10   0.01  -0.03
    63   1    -0.00   0.03   0.02    -0.02   0.02   0.08     0.02   0.01  -0.08
    64   1     0.01   0.00  -0.02    -0.03   0.00   0.01    -0.04  -0.00   0.08
    65   1    -0.01   0.02  -0.02    -0.08  -0.02  -0.03     0.03  -0.08   0.06
    66   1    -0.01   0.00  -0.00    -0.08   0.00   0.05     0.02  -0.00   0.02
    67   1    -0.04  -0.00  -0.04     0.03   0.01  -0.00    -0.06  -0.02   0.07
    68   1     0.05   0.02   0.04    -0.03  -0.03  -0.04     0.02   0.09   0.09
    69   1     0.07  -0.02  -0.07    -0.05   0.01   0.03     0.04   0.00   0.01
                     31                     32                     33
                      A                      A                      A
 Frequencies --    303.2628               305.1235               314.0708
 Red. masses --      3.6790                 1.9309                 3.2127
 Frc consts  --      0.1994                 0.1059                 0.1867
 IR Inten    --      0.0000                 0.0000                 0.0000
  Atom  AN      X      Y      Z        X      Y      Z        X      Y      Z
     1  26    -0.02   0.03   0.00     0.00  -0.00   0.02     0.02  -0.03  -0.01
     2   6    -0.01   0.02  -0.07     0.04  -0.01  -0.00    -0.03   0.01   0.06
     3  46     0.02  -0.03   0.05    -0.03   0.01  -0.03     0.03   0.01   0.00
     4   6    -0.03  -0.03  -0.08    -0.00   0.02   0.04    -0.05  -0.03  -0.04
     5   1    -0.04   0.04   0.05    -0.01  -0.02  -0.02     0.09  -0.01  -0.03
     6   1    -0.02  -0.01  -0.00    -0.01  -0.02  -0.02     0.07  -0.02  -0.04
     7   1    -0.02  -0.00  -0.03    -0.02  -0.00   0.02     0.03   0.02   0.00
     8   6    -0.03   0.02  -0.07     0.01  -0.03   0.02    -0.03   0.05  -0.00
     9   8    -0.01  -0.03  -0.06    -0.00   0.01  -0.01    -0.00  -0.00   0.06
    10   6    -0.07   0.06   0.01    -0.02   0.03   0.01    -0.07  -0.00  -0.02
    11   8    -0.12   0.01  -0.05    -0.02   0.03   0.03    -0.06  -0.02   0.01
    12   6    -0.01  -0.05   0.01     0.03  -0.04   0.01    -0.05  -0.05  -0.04
    13   6     0.04  -0.01  -0.02     0.07  -0.01   0.02    -0.03  -0.03  -0.03
    14   6     0.00   0.07  -0.01     0.04   0.04   0.01    -0.05   0.01   0.01
    15   1    -0.00  -0.11   0.00     0.03  -0.09   0.01    -0.05  -0.06  -0.02
    16   1     0.10  -0.02  -0.05     0.10  -0.02  -0.01     0.01  -0.04  -0.05
    17   1     0.04   0.12  -0.02     0.06   0.09   0.02    -0.03   0.03  -0.00
    18   1    -0.16   0.02   0.05    -0.05   0.01   0.06    -0.07  -0.03   0.02
    19   6    -0.08   0.01   0.08    -0.02  -0.02  -0.02    -0.08  -0.05  -0.06
    20   6     0.01   0.02  -0.04     0.05  -0.04   0.03    -0.06   0.03   0.01
    21   8    -0.05   0.07  -0.06     0.04   0.02  -0.04     0.00  -0.06   0.07
    22   6     0.01  -0.03  -0.03    -0.03   0.00   0.01    -0.02   0.06   0.09
    23   6     0.01  -0.02  -0.02    -0.02  -0.00  -0.00     0.01   0.03   0.06
    24   6    -0.04   0.02   0.04    -0.02  -0.01  -0.01     0.07  -0.01  -0.02
    25   6    -0.03   0.01   0.01    -0.01  -0.02  -0.01     0.05   0.01  -0.01
    26   6    -0.02   0.00  -0.01    -0.02  -0.00   0.01     0.04   0.02   0.01
    27   1     0.01  -0.04  -0.04    -0.03   0.01   0.02    -0.04   0.07   0.11
    28   7     0.01   0.05  -0.04     0.01  -0.09   0.04    -0.03   0.10  -0.01
    29   1     0.00   0.02  -0.05     0.08  -0.00   0.05    -0.10  -0.02  -0.03
    30   1    -0.16  -0.12  -0.13    -0.00   0.00   0.06    -0.10  -0.07  -0.07
    31   1     0.11  -0.09  -0.12    -0.01   0.01   0.05     0.01  -0.09  -0.05
    32   1     0.03  -0.04  -0.04    -0.02  -0.01  -0.02    -0.02   0.05   0.10
    33   7     0.04   0.02  -0.04     0.02   0.01   0.03     0.02   0.03  -0.02
    34   6     0.02  -0.02   0.01     0.03   0.01   0.06     0.01   0.02  -0.01
    35   6     0.06   0.04  -0.02     0.03  -0.07   0.01     0.01   0.03  -0.03
    36   1     0.00   0.11  -0.15     0.02   0.28  -0.35    -0.01   0.20  -0.26
    37   1     0.23  -0.09   0.12     0.46  -0.05   0.33     0.27  -0.02   0.15
    38   1    -0.18  -0.12   0.11    -0.40  -0.23   0.24    -0.26  -0.14   0.08
    39   1    -0.02   0.12  -0.01     0.03  -0.03  -0.05    -0.01   0.06  -0.05
    40   1     0.06  -0.04  -0.07     0.04  -0.14  -0.05    -0.00  -0.00  -0.04
    41   1     0.15   0.06   0.06     0.03  -0.11   0.09     0.04   0.03  -0.01
    42   6    -0.02   0.02   0.04    -0.01   0.01  -0.01     0.05  -0.04  -0.05
    43   6     0.07  -0.02  -0.01    -0.00  -0.01  -0.03    -0.11   0.01   0.01
    44   6     0.05   0.01  -0.02    -0.01   0.01   0.00    -0.06  -0.06   0.01
    45   6    -0.03   0.03   0.02     0.00   0.01   0.01     0.03  -0.07   0.01
    46   6    -0.03  -0.03   0.00     0.02   0.01  -0.02     0.03   0.03   0.03
    47   6     0.02  -0.09  -0.03     0.01   0.01  -0.02    -0.03   0.09   0.01
    48   6     0.06  -0.07  -0.01    -0.00   0.01  -0.03    -0.09   0.07  -0.01
    49   1    -0.15   0.05  -0.04    -0.07   0.03  -0.04     0.29  -0.08   0.08
    50   1    -0.06   0.03   0.19    -0.02   0.06   0.04     0.10  -0.10  -0.33
    51   1     0.05   0.04  -0.01    -0.03   0.01   0.03    -0.06  -0.14  -0.02
    52   1    -0.08   0.10   0.05    -0.00   0.02   0.04     0.09  -0.14  -0.01
    53   1    -0.09  -0.01   0.03     0.03   0.00  -0.02     0.10   0.03   0.03
    54   1     0.01  -0.12  -0.00     0.01   0.03  -0.01     0.00   0.12  -0.04
    55   1     0.03  -0.03   0.02    -0.00   0.01  -0.00    -0.06   0.04  -0.03
    56   8    -0.02  -0.01  -0.05     0.01  -0.01   0.00    -0.02   0.02  -0.01
    57   6     0.09   0.01  -0.07    -0.01   0.01   0.02     0.06  -0.03  -0.05
    58   6     0.03   0.00   0.01     0.00   0.00   0.00     0.01  -0.00   0.00
    59   6     0.03  -0.06   0.10    -0.02   0.01  -0.01     0.08  -0.01   0.02
    60   6     0.00   0.05   0.10     0.01  -0.00  -0.01     0.00   0.01   0.02
    61   1     0.17   0.02  -0.08    -0.03   0.01   0.01     0.13  -0.03  -0.03
    62   1     0.17   0.02  -0.07    -0.02   0.01   0.02     0.10  -0.04  -0.08
    63   1     0.02  -0.00  -0.18     0.00   0.02   0.03     0.01  -0.03  -0.12
    64   1     0.00   0.01   0.19    -0.03  -0.00  -0.02     0.07   0.01   0.04
    65   1     0.04  -0.15   0.10    -0.02  -0.00  -0.01     0.11   0.01   0.07
    66   1     0.03  -0.10   0.10    -0.02   0.03  -0.00     0.11  -0.04  -0.03
    67   1    -0.03  -0.03   0.20    -0.00   0.00  -0.03    -0.03  -0.02   0.04
    68   1    -0.01   0.15   0.12     0.02  -0.01   0.00     0.01   0.05   0.04
    69   1    -0.00   0.09   0.10     0.03  -0.01  -0.03     0.02  -0.00   0.01
                     34                     35                     36
                      A                      A                      A
 Frequencies --    321.1035               333.1548               340.6222
 Red. masses --      5.2868                 4.6257                 3.2231
 Frc consts  --      0.3212                 0.3025                 0.2203
 IR Inten    --      0.0000                 0.0000                 0.0000
  Atom  AN      X      Y      Z        X      Y      Z        X      Y      Z
     1  26     0.12  -0.04   0.04    -0.00   0.02   0.05    -0.01  -0.00   0.01
     2   6    -0.03  -0.01   0.00    -0.04  -0.01   0.09    -0.04  -0.00   0.08
     3  46     0.01  -0.01   0.03     0.02   0.02  -0.04     0.01   0.02  -0.02
     4   6    -0.04  -0.03  -0.05     0.04   0.04   0.06     0.01   0.01   0.03
     5   1     0.05  -0.07  -0.15    -0.06  -0.01  -0.02    -0.01  -0.00  -0.01
     6   1     0.00  -0.12  -0.16    -0.07  -0.01  -0.01    -0.02   0.01   0.01
     7   1    -0.05  -0.03  -0.10    -0.06  -0.02  -0.01    -0.01   0.00   0.00
     8   6     0.01  -0.04  -0.01    -0.04   0.07   0.00    -0.03  -0.04  -0.02
     9   8     0.00  -0.01   0.00     0.02   0.02   0.08     0.00   0.01   0.08
    10   6    -0.04   0.04   0.07     0.03   0.05   0.06     0.00   0.01   0.00
    11   8     0.04  -0.03  -0.03    -0.02   0.00   0.01    -0.03  -0.01  -0.02
    12   6    -0.07   0.09  -0.09     0.06  -0.01  -0.00     0.02  -0.00   0.02
    13   6    -0.13   0.09   0.08     0.09   0.03   0.06     0.03   0.01   0.03
    14   6    -0.11   0.05   0.15     0.07   0.06   0.05     0.02   0.02   0.00
    15   1    -0.08   0.13  -0.17     0.07  -0.06  -0.07     0.02  -0.02   0.02
    16   1    -0.17   0.11   0.12     0.10   0.02   0.02     0.03   0.01   0.02
    17   1    -0.13  -0.00   0.06     0.09   0.10   0.06     0.03   0.03   0.01
    18   1     0.11   0.02  -0.09    -0.04  -0.03  -0.00    -0.02   0.00  -0.03
    19   6    -0.01   0.04  -0.07     0.03   0.02  -0.00     0.00  -0.00  -0.02
    20   6    -0.03   0.00  -0.02    -0.08   0.02  -0.00    -0.06   0.02   0.01
    21   8    -0.04  -0.02   0.03    -0.01  -0.08   0.11    -0.02  -0.07   0.10
    22   6    -0.15   0.04   0.06    -0.06  -0.02  -0.03     0.01  -0.01  -0.03
    23   6    -0.09  -0.01  -0.02    -0.05  -0.02  -0.05     0.01  -0.01  -0.03
    24   6     0.00  -0.07  -0.14    -0.08  -0.01  -0.01    -0.01   0.00  -0.01
    25   6     0.01  -0.09  -0.19    -0.06  -0.02  -0.02    -0.01   0.00   0.00
    26   6    -0.04  -0.04  -0.10    -0.08  -0.01   0.00    -0.02   0.01   0.01
    27   1    -0.22   0.09   0.15    -0.04  -0.03  -0.05     0.02  -0.01  -0.04
    28   7    -0.01  -0.08  -0.02    -0.05   0.09  -0.01    -0.02   0.04  -0.02
    29   1    -0.02   0.02   0.02    -0.09  -0.01  -0.05    -0.08   0.00   0.00
    30   1    -0.22  -0.13  -0.18     0.06   0.02   0.10     0.05   0.03   0.07
    31   1     0.16  -0.10  -0.14     0.01   0.10   0.04    -0.04   0.05   0.04
    32   1    -0.10  -0.00  -0.02     0.01  -0.06  -0.12     0.01  -0.01  -0.04
    33   7    -0.03   0.04   0.01    -0.00  -0.04   0.02     0.00  -0.02   0.00
    34   6    -0.04   0.08  -0.04    -0.04  -0.06   0.02    -0.02  -0.03   0.01
    35   6     0.02   0.02   0.04    -0.03  -0.05  -0.01    -0.01  -0.03  -0.01
    36   1    -0.05   0.13  -0.10    -0.05  -0.14   0.16    -0.02  -0.05   0.05
    37   1    -0.01   0.13   0.00    -0.16  -0.09  -0.07    -0.03  -0.06  -0.01
    38   1    -0.06   0.02  -0.07     0.07   0.01  -0.01    -0.00  -0.01   0.02
    39   1    -0.05   0.09   0.04     0.02  -0.10  -0.02     0.01  -0.05  -0.02
    40   1     0.05  -0.06  -0.04    -0.04  -0.00   0.03    -0.02  -0.00   0.01
    41   1     0.09   0.01   0.15    -0.10  -0.07  -0.05    -0.05  -0.03  -0.04
    42   6    -0.03   0.02  -0.02    -0.02  -0.02  -0.05    -0.00  -0.01  -0.00
    43   6     0.09   0.01  -0.04     0.03  -0.09  -0.12     0.01  -0.01  -0.01
    44   6     0.06   0.05   0.00    -0.02  -0.04  -0.02     0.00   0.00  -0.01
    45   6     0.01   0.07   0.02    -0.05   0.03   0.08    -0.01   0.01   0.00
    46   6     0.03  -0.00  -0.03     0.02  -0.04  -0.05    -0.01  -0.00  -0.01
    47   6     0.04  -0.03  -0.02     0.05  -0.08  -0.11     0.00  -0.02  -0.01
    48   6     0.06  -0.01  -0.00     0.02  -0.07  -0.11     0.01  -0.01  -0.00
    49   1    -0.14   0.06  -0.09    -0.00   0.08  -0.09     0.03   0.02   0.01
    50   1    -0.07   0.01   0.12    -0.03  -0.05  -0.03    -0.01  -0.05  -0.03
    51   1     0.05   0.09   0.03    -0.07  -0.00   0.06     0.00   0.01  -0.01
    52   1    -0.04   0.13   0.06    -0.13   0.13   0.24    -0.02   0.02   0.01
    53   1    -0.01  -0.01  -0.03     0.00  -0.02  -0.01    -0.02  -0.00  -0.00
    54   1     0.03  -0.06   0.01     0.03  -0.03  -0.06     0.00  -0.02   0.00
    55   1     0.04  -0.01   0.06    -0.02  -0.01  -0.01     0.00  -0.00   0.00
    56   8     0.00  -0.00  -0.00    -0.03   0.08   0.01    -0.02  -0.14  -0.04
    57   6    -0.02   0.01   0.01     0.04  -0.11  -0.04     0.01   0.18  -0.05
    58   6    -0.01   0.00  -0.00    -0.01   0.01   0.01     0.01  -0.03  -0.01
    59   6    -0.03  -0.00   0.00     0.15   0.01   0.01    -0.12  -0.04  -0.00
    60   6     0.01   0.01  -0.00    -0.08  -0.01  -0.00     0.20   0.05   0.05
    61   1    -0.04   0.02   0.00     0.18  -0.14   0.02    -0.11   0.25  -0.15
    62   1    -0.02   0.02   0.01     0.01  -0.16  -0.11     0.19   0.28   0.05
    63   1    -0.01   0.02   0.02     0.01  -0.16  -0.10    -0.03   0.26  -0.09
    64   1    -0.02   0.00   0.01     0.17   0.02   0.02    -0.16  -0.03   0.02
    65   1    -0.05  -0.01  -0.03     0.21   0.11   0.11    -0.18  -0.16  -0.09
    66   1    -0.05  -0.00   0.03     0.22  -0.08  -0.09    -0.20   0.03   0.10
    67   1     0.03   0.01  -0.00    -0.10  -0.02  -0.01     0.23   0.02   0.09
    68   1     0.02  -0.01  -0.01    -0.12   0.03  -0.05     0.31  -0.03   0.20
    69   1     0.01   0.03  -0.00    -0.11  -0.08   0.04     0.28   0.23  -0.07
                     37                     38                     39
                      A                      A                      A
 Frequencies --    353.0053               373.8651               379.0613
 Red. masses --      4.7378                 5.0774                 3.0469
 Frc consts  --      0.3479                 0.4181                 0.2579
 IR Inten    --      0.0000                 0.0000                 0.0000
  Atom  AN      X      Y      Z        X      Y      Z        X      Y      Z
     1  26     0.01   0.02   0.01    -0.02   0.04  -0.02     0.01  -0.02  -0.02
     2   6     0.05   0.05  -0.08    -0.03  -0.01   0.05     0.03   0.02   0.02
     3  46    -0.02  -0.03   0.03    -0.00   0.00  -0.04    -0.02  -0.00   0.01
     4   6     0.03  -0.00  -0.00     0.00  -0.05  -0.03     0.07   0.05   0.10
     5   1    -0.02  -0.01   0.04    -0.05   0.04   0.14     0.05  -0.06  -0.04
     6   1    -0.00  -0.04  -0.03     0.03  -0.01   0.01     0.02  -0.01  -0.03
     7   1    -0.03  -0.02   0.01     0.02  -0.01   0.05    -0.03   0.02   0.09
     8   6     0.04   0.04   0.06    -0.01  -0.02  -0.02    -0.02   0.00  -0.01
     9   8    -0.01  -0.03  -0.06     0.01   0.01   0.04    -0.08  -0.02   0.03
    10   6     0.01   0.02   0.03     0.06  -0.11  -0.01     0.02   0.02  -0.05
    11   8     0.02  -0.03   0.09     0.03   0.01  -0.03    -0.01  -0.00  -0.04
    12   6     0.01  -0.02  -0.09     0.02  -0.04  -0.07    -0.00   0.04  -0.05
    13   6     0.02  -0.01  -0.05    -0.02  -0.12  -0.18    -0.01   0.04  -0.03
    14   6     0.01   0.02   0.02     0.01  -0.15  -0.09    -0.01   0.03  -0.01
    15   1     0.02  -0.04  -0.17     0.02  -0.01  -0.11    -0.00   0.05  -0.06
    16   1     0.03  -0.03  -0.11    -0.04  -0.12  -0.23    -0.01   0.04  -0.03
    17   1     0.02   0.03   0.02    -0.02  -0.21  -0.12    -0.01   0.02  -0.01
    18   1    -0.02   0.02   0.10    -0.02   0.01  -0.04     0.13  -0.03  -0.08
    19   6     0.01   0.01   0.03     0.07  -0.04   0.01     0.00   0.04  -0.01
    20   6     0.04   0.06  -0.01    -0.03   0.00  -0.00     0.06   0.01   0.04
    21   8     0.06   0.07  -0.12    -0.03  -0.05   0.07     0.07   0.05  -0.05
    22   6    -0.09   0.02   0.10    -0.10   0.08   0.18    -0.07   0.03   0.11
    23   6    -0.06  -0.00   0.07    -0.08   0.06   0.19    -0.01  -0.03   0.02
    24   6    -0.04  -0.01   0.04    -0.05   0.03   0.14     0.02  -0.04  -0.02
    25   6    -0.02  -0.03  -0.01    -0.01   0.00   0.07     0.01  -0.03  -0.01
    26   6    -0.03  -0.02   0.01    -0.00   0.01   0.07    -0.00  -0.01   0.03
    27   1    -0.11   0.03   0.11    -0.13   0.08   0.22    -0.11   0.06   0.16
    28   7     0.01   0.20   0.00    -0.02  -0.05  -0.01     0.02  -0.03   0.03
    29   1     0.02   0.02  -0.08    -0.03   0.01   0.01     0.07   0.03   0.05
    30   1    -0.03  -0.04  -0.03    -0.03   0.00  -0.12     0.24   0.10   0.25
    31   1     0.08  -0.02  -0.02     0.04  -0.10  -0.03    -0.13   0.13   0.19
    32   1    -0.03  -0.02   0.03    -0.07   0.06   0.18    -0.01  -0.02   0.02
    33   7     0.03   0.00   0.01    -0.01   0.04   0.04     0.08  -0.03  -0.00
    34   6     0.00   0.01  -0.03     0.02   0.12  -0.04     0.01  -0.08   0.00
    35   6    -0.01   0.05  -0.00    -0.01   0.04   0.04    -0.01   0.04  -0.05
    36   1    -0.01  -0.02   0.05     0.03   0.19  -0.18    -0.02  -0.11   0.13
    37   1    -0.09   0.04  -0.08     0.08   0.20   0.03    -0.09  -0.11  -0.08
    38   1     0.09   0.03  -0.09    -0.03   0.01  -0.09     0.09  -0.03  -0.02
    39   1    -0.01   0.06  -0.01    -0.05   0.10   0.02     0.04   0.01  -0.08
    40   1    -0.05   0.06   0.03    -0.02  -0.02   0.00    -0.11   0.10   0.06
    41   1    -0.01   0.08  -0.05     0.05   0.06   0.08    -0.07   0.08  -0.19
    42   6     0.05   0.01  -0.04    -0.02   0.01   0.01     0.03   0.03   0.01
    43   6    -0.06  -0.07  -0.11     0.14  -0.02  -0.03    -0.02  -0.00  -0.02
    44   6    -0.05  -0.10  -0.01     0.10   0.04  -0.00    -0.01  -0.02  -0.00
    45   6    -0.02  -0.03   0.11    -0.00   0.08   0.05     0.01  -0.00   0.03
    46   6     0.05  -0.04   0.01     0.03  -0.04  -0.04     0.02  -0.01   0.01
    47   6     0.03  -0.03  -0.11     0.04  -0.06  -0.02     0.01  -0.00  -0.01
    48   6    -0.05  -0.04  -0.11     0.06  -0.01   0.04    -0.02  -0.01  -0.02
    49   1     0.13   0.06  -0.02    -0.15   0.08  -0.08     0.03   0.05   0.00
    50   1     0.07   0.03  -0.14    -0.06  -0.01   0.19     0.04   0.07  -0.00
    51   1    -0.10  -0.15   0.05     0.09   0.09   0.02    -0.02  -0.04   0.01
    52   1    -0.05   0.01   0.26    -0.09   0.19   0.12     0.01   0.00   0.05
    53   1     0.09  -0.01   0.05    -0.00  -0.06  -0.06     0.03  -0.00   0.02
    54   1     0.04   0.04  -0.10     0.01  -0.08  -0.00     0.02   0.02  -0.02
    55   1    -0.08   0.01  -0.04     0.01   0.02   0.12    -0.04   0.00  -0.00
    56   8     0.04  -0.06   0.08    -0.01   0.00  -0.01    -0.02   0.00  -0.09
    57   6     0.01   0.09   0.04    -0.01  -0.01  -0.02    -0.07  -0.02  -0.03
    58   6     0.02  -0.03   0.04    -0.01   0.00  -0.01    -0.02   0.01  -0.09
    59   6    -0.08   0.06  -0.09     0.01  -0.02   0.01     0.04  -0.10   0.06
    60   6     0.07  -0.08  -0.04    -0.00   0.02   0.01     0.00   0.11   0.05
    61   1    -0.08   0.13  -0.03    -0.00  -0.01  -0.01    -0.09  -0.04  -0.01
    62   1     0.09   0.14   0.10    -0.02  -0.01  -0.02    -0.13  -0.04  -0.05
    63   1     0.01   0.13   0.04    -0.01  -0.01  -0.02    -0.03  -0.02   0.02
    64   1    -0.15  -0.05  -0.23     0.03   0.01   0.04     0.10   0.03   0.24
    65   1    -0.10   0.09  -0.10     0.02  -0.02   0.02     0.03  -0.18   0.05
    66   1    -0.11   0.23  -0.08     0.02  -0.06   0.01     0.04  -0.27   0.09
    67   1     0.04  -0.01  -0.14     0.02   0.01   0.03     0.07   0.01   0.20
    68   1     0.12  -0.15   0.02    -0.00   0.02   0.01    -0.01   0.16   0.05
    69   1     0.13  -0.11  -0.10    -0.01   0.05   0.01    -0.04   0.27   0.07
                     40                     41                     42
                      A                      A                      A
 Frequencies --    396.7642               415.5877               423.3331
 Red. masses --      3.2626                 3.9021                 3.4615
 Frc consts  --      0.3026                 0.3971                 0.3655
 IR Inten    --      0.0000                 0.0000                 0.0000
  Atom  AN      X      Y      Z        X      Y      Z        X      Y      Z
     1  26     0.01   0.02   0.04     0.03   0.03   0.04     0.01  -0.01  -0.02
     2   6     0.03   0.03   0.03     0.01  -0.04  -0.00     0.04  -0.02   0.00
     3  46    -0.01  -0.00  -0.02    -0.01   0.01  -0.01     0.01   0.01  -0.01
     4   6    -0.01  -0.07  -0.09     0.07  -0.04   0.12     0.00  -0.02   0.03
     5   1    -0.03   0.03   0.02    -0.05   0.04   0.03     0.04  -0.02  -0.03
     6   1    -0.02  -0.00   0.01    -0.08   0.03   0.02     0.09  -0.03  -0.10
     7   1     0.00  -0.02  -0.08    -0.02  -0.00  -0.01     0.11  -0.05  -0.09
     8   6     0.00   0.02   0.00    -0.02  -0.01   0.01    -0.10  -0.00   0.05
     9   8    -0.06  -0.01   0.05     0.02   0.02  -0.02    -0.02   0.01  -0.01
    10   6     0.05  -0.05   0.09    -0.01  -0.00   0.13    -0.01  -0.04  -0.02
    11   8     0.05  -0.01  -0.01    -0.03   0.02   0.01    -0.03   0.00   0.01
    12   6     0.03  -0.00   0.05    -0.01  -0.11  -0.10    -0.03   0.05   0.20
    13   6    -0.01  -0.04   0.06    -0.03  -0.10  -0.03    -0.05   0.00   0.06
    14   6     0.01  -0.09   0.04    -0.05  -0.04   0.09    -0.03  -0.05  -0.04
    15   1     0.02   0.03   0.01    -0.01  -0.10  -0.15    -0.04   0.07   0.27
    16   1    -0.07  -0.03   0.05    -0.00  -0.11  -0.07    -0.09   0.02   0.12
    17   1    -0.00  -0.12   0.04    -0.04  -0.02   0.10    -0.04  -0.09  -0.12
    18   1     0.09  -0.01  -0.06    -0.04  -0.06   0.04     0.10  -0.02  -0.05
    19   6     0.07  -0.01   0.05    -0.01  -0.07  -0.01    -0.03   0.01   0.09
    20   6     0.04   0.03   0.03     0.01  -0.05   0.01     0.03  -0.05   0.01
    21   8     0.08   0.04  -0.03    -0.02  -0.01   0.01     0.05   0.05  -0.06
    22   6     0.05  -0.05  -0.10     0.02  -0.07  -0.12     0.02   0.01  -0.00
    23   6     0.01   0.00  -0.04    -0.04   0.00  -0.01     0.00   0.02   0.03
    24   6    -0.02   0.02   0.01    -0.05   0.02   0.02     0.04  -0.01  -0.02
    25   6    -0.01   0.01  -0.01    -0.04  -0.00  -0.03     0.04  -0.02  -0.04
    26   6    -0.01   0.00  -0.03    -0.05  -0.01  -0.04     0.08  -0.04  -0.07
    27   1     0.09  -0.08  -0.15     0.05  -0.12  -0.17     0.01   0.02   0.01
    28   7     0.01   0.04   0.01    -0.01  -0.04   0.02    -0.09   0.00   0.03
    29   1     0.03   0.02   0.01     0.03  -0.04  -0.00     0.07  -0.04  -0.08
    30   1    -0.20  -0.09  -0.29     0.06  -0.10   0.17     0.05   0.00   0.06
    31   1     0.22  -0.15  -0.19     0.04  -0.02   0.13    -0.06  -0.02   0.07
    32   1     0.03  -0.01  -0.05    -0.03  -0.01  -0.01    -0.02   0.03   0.06
    33   7    -0.06   0.03   0.04     0.15  -0.05   0.02     0.03  -0.01   0.01
    34   6     0.00   0.12  -0.04     0.07  -0.02  -0.10     0.02   0.01  -0.02
    35   6    -0.01  -0.01   0.07    -0.03   0.20  -0.06    -0.01   0.04  -0.00
    36   1     0.03   0.15  -0.16     0.02   0.07  -0.12     0.02   0.03  -0.05
    37   1     0.03   0.23   0.03     0.04   0.05  -0.09     0.02   0.04  -0.01
    38   1    -0.01   0.05  -0.09     0.08  -0.11  -0.20     0.02  -0.02  -0.05
    39   1    -0.07   0.05   0.09    -0.07   0.27  -0.10    -0.03   0.06  -0.01
    40   1     0.04  -0.07  -0.01    -0.27   0.22   0.13    -0.07   0.05   0.04
    41   1     0.06  -0.01   0.17     0.01   0.36  -0.29     0.00   0.08  -0.05
    42   6     0.02   0.02  -0.00    -0.01  -0.03   0.01    -0.03  -0.02  -0.03
    43   6    -0.07  -0.02  -0.02    -0.01   0.03   0.06     0.05  -0.06  -0.09
    44   6    -0.05  -0.06  -0.00     0.01   0.02   0.01    -0.01   0.00   0.02
    45   6    -0.01  -0.05   0.02     0.02  -0.01  -0.04    -0.03   0.02   0.03
    46   6     0.00  -0.01   0.02    -0.01   0.05   0.01     0.02  -0.04  -0.06
    47   6    -0.01   0.01  -0.04    -0.00   0.03   0.01    -0.03   0.02   0.03
    48   6    -0.04  -0.01  -0.05     0.02   0.04   0.01    -0.00   0.01   0.01
    49   1     0.10   0.02   0.04     0.00  -0.07   0.04    -0.16   0.06  -0.13
    50   1     0.05   0.04  -0.10     0.00  -0.02  -0.00    -0.05   0.03   0.13
    51   1    -0.06  -0.09   0.01     0.04   0.01  -0.03    -0.04   0.05   0.08
    52   1     0.01  -0.07   0.05     0.05  -0.05  -0.10    -0.07   0.07   0.10
    53   1     0.03   0.01   0.05     0.00   0.05   0.02     0.05  -0.07  -0.11
    54   1     0.00   0.04  -0.05    -0.01  -0.03  -0.01    -0.05   0.04   0.07
    55   1    -0.01  -0.02  -0.05     0.05   0.01  -0.04    -0.03   0.04   0.05
    56   8     0.00  -0.00  -0.05    -0.02  -0.00   0.01    -0.10  -0.01   0.06
    57   6    -0.08  -0.01  -0.03     0.01  -0.00  -0.01    -0.00   0.00  -0.10
    58   6    -0.03  -0.00  -0.09    -0.01   0.00   0.01    -0.10  -0.01   0.06
    59   6     0.03  -0.09   0.02     0.01   0.01   0.01     0.07   0.05   0.01
    60   6     0.01   0.09   0.03     0.01  -0.01  -0.01     0.09  -0.02  -0.01
    61   1    -0.14  -0.02  -0.02     0.04  -0.00  -0.01     0.13   0.01  -0.11
    62   1    -0.14  -0.01  -0.02     0.03  -0.00  -0.02     0.13   0.01  -0.11
    63   1    -0.03   0.00   0.05    -0.01  -0.01  -0.04    -0.12  -0.01  -0.27
    64   1     0.08   0.01   0.16     0.01   0.01  -0.00     0.13   0.02  -0.05
    65   1     0.03  -0.14   0.02     0.02   0.03   0.02     0.12   0.22   0.10
    66   1     0.04  -0.23   0.04     0.02   0.01  -0.01     0.14  -0.03  -0.10
    67   1     0.08   0.01   0.16     0.01   0.01  -0.03     0.12   0.05  -0.09
    68   1     0.01   0.12   0.05     0.02  -0.03   0.01     0.19  -0.18   0.10
    69   1    -0.02   0.24   0.04     0.02  -0.01  -0.02     0.16   0.05  -0.11
                     43                     44                     45
                      A                      A                      A
 Frequencies --    434.9028               439.4655               445.7531
 Red. masses --      3.4521                 5.0832                 4.1900
 Frc consts  --      0.3847                 0.5784                 0.4905
 IR Inten    --      0.0000                 0.0000                 0.0000
  Atom  AN      X      Y      Z        X      Y      Z        X      Y      Z
     1  26     0.00  -0.00  -0.01     0.02   0.01  -0.00    -0.00  -0.01  -0.00
     2   6    -0.03  -0.02   0.01    -0.02  -0.06  -0.04    -0.01  -0.08  -0.07
     3  46    -0.02   0.01  -0.01    -0.00   0.01  -0.03     0.01  -0.01   0.01
     4   6    -0.01  -0.01   0.05     0.00  -0.03   0.00    -0.01   0.02  -0.02
     5   1     0.01   0.01   0.01     0.16  -0.18  -0.18    -0.05   0.05   0.05
     6   1     0.07  -0.02  -0.10     0.06  -0.09  -0.04    -0.03   0.03   0.03
     7   1     0.12  -0.06  -0.11    -0.10   0.04   0.15     0.00   0.00  -0.02
     8   6     0.09   0.06  -0.01     0.00   0.03   0.05     0.02   0.08   0.10
     9   8     0.01   0.01   0.00     0.10   0.03  -0.07     0.09   0.03  -0.11
    10   6    -0.03  -0.02  -0.01     0.00   0.00   0.06    -0.00   0.01  -0.03
    11   8    -0.06  -0.01   0.04    -0.11   0.01   0.08     0.05  -0.02   0.14
    12   6    -0.04   0.01   0.17     0.04   0.08   0.04    -0.01  -0.02  -0.06
    13   6    -0.03  -0.00   0.06    -0.01  -0.01  -0.06     0.01   0.01   0.00
    14   6    -0.02  -0.03  -0.02     0.00  -0.05  -0.03    -0.00   0.03   0.01
    15   1    -0.04   0.01   0.22     0.03   0.08   0.05    -0.01  -0.03  -0.05
    16   1    -0.04   0.01   0.11    -0.06  -0.02  -0.16     0.03   0.01   0.02
    17   1    -0.02  -0.04  -0.08    -0.01  -0.08  -0.10     0.00   0.04   0.04
    18   1    -0.10  -0.01   0.15    -0.00   0.02   0.19    -0.03  -0.02   0.10
    19   6    -0.04  -0.02   0.04     0.01   0.14   0.23     0.00  -0.04  -0.09
    20   6    -0.00  -0.01   0.01    -0.01  -0.06   0.01     0.00  -0.09   0.01
    21   8    -0.05  -0.03   0.05    -0.07  -0.03   0.01    -0.10  -0.02  -0.01
    22   6     0.03   0.01  -0.03    -0.07  -0.02   0.13     0.01   0.01  -0.02
    23   6    -0.03   0.04   0.06     0.12  -0.15  -0.14    -0.03   0.04   0.04
    24   6     0.02   0.00  -0.00     0.06  -0.09  -0.08    -0.02   0.03   0.02
    25   6     0.03  -0.01  -0.04     0.03  -0.05  -0.00    -0.01   0.02   0.01
    26   6     0.07  -0.04  -0.09    -0.02  -0.01   0.09    -0.00   0.01  -0.01
    27   1     0.03  -0.00  -0.04    -0.11   0.02   0.19     0.02   0.00  -0.04
    28   7     0.08   0.07  -0.01     0.00   0.02   0.04    -0.02   0.06   0.05
    29   1    -0.02  -0.02   0.01    -0.01  -0.06   0.00     0.02  -0.10  -0.05
    30   1     0.06   0.01   0.11    -0.06  -0.06  -0.04    -0.01   0.03  -0.02
    31   1    -0.10   0.02   0.09     0.07  -0.04  -0.04    -0.02   0.01  -0.01
    32   1    -0.05   0.05   0.08     0.15  -0.18  -0.20    -0.04   0.05   0.05
    33   7     0.03  -0.02  -0.01    -0.02  -0.01   0.02    -0.01   0.02  -0.01
    34   6     0.03  -0.01  -0.02     0.02   0.03  -0.02    -0.03  -0.01   0.03
    35   6    -0.01   0.06  -0.01    -0.02   0.02   0.03     0.01  -0.04  -0.01
    36   1     0.03   0.01  -0.06     0.04   0.03  -0.07    -0.04  -0.02   0.07
    37   1     0.06   0.01   0.00     0.02   0.09   0.00    -0.04  -0.06   0.00
    38   1     0.01  -0.03  -0.02     0.03   0.01  -0.05    -0.03   0.02   0.05
    39   1    -0.03   0.08  -0.01    -0.06   0.05   0.04     0.05  -0.07  -0.02
    40   1    -0.07   0.06   0.03    -0.04   0.01   0.03     0.05  -0.03  -0.03
    41   1     0.02   0.11  -0.06     0.02   0.05   0.02    -0.03  -0.08   0.02
    42   6    -0.00  -0.01  -0.02    -0.00  -0.05   0.05    -0.01  -0.07   0.02
    43   6     0.04  -0.06  -0.09    -0.07   0.04   0.11     0.04  -0.04   0.00
    44   6    -0.00  -0.01  -0.00     0.01  -0.04  -0.10    -0.01   0.03  -0.01
    45   6    -0.03   0.02   0.05    -0.06   0.04   0.01    -0.02   0.03  -0.03
    46   6     0.03  -0.03  -0.06    -0.03   0.07  -0.03     0.00   0.05  -0.05
    47   6    -0.01   0.02   0.01     0.06  -0.02  -0.11     0.01   0.04   0.02
    48   6    -0.01   0.01  -0.01    -0.02   0.07   0.07     0.04   0.03   0.01
    49   1    -0.04   0.07  -0.08     0.09  -0.15   0.13    -0.06  -0.06  -0.01
    50   1    -0.02  -0.01   0.04     0.03  -0.06  -0.08    -0.02  -0.07   0.08
    51   1    -0.04   0.02   0.05     0.11  -0.11  -0.26     0.00   0.09  -0.01
    52   1    -0.07   0.08   0.14    -0.05   0.03   0.05    -0.01   0.02  -0.01
    53   1     0.06  -0.05  -0.10    -0.03   0.08  -0.01     0.00   0.03  -0.07
    54   1    -0.03   0.04   0.05     0.09  -0.07  -0.18    -0.02   0.00   0.04
    55   1    -0.02   0.03   0.03    -0.01   0.07   0.07     0.03   0.04  -0.02
    56   8     0.11   0.03  -0.07     0.01  -0.00  -0.01     0.02   0.10   0.05
    57   6     0.03   0.02   0.11    -0.00   0.00   0.00    -0.14   0.04  -0.07
    58   6     0.13  -0.01  -0.07     0.01  -0.00  -0.02    -0.08  -0.11  -0.09
    59   6    -0.06  -0.06  -0.03     0.01  -0.01  -0.00     0.08  -0.13  -0.09
    60   6    -0.08   0.01   0.03     0.01   0.01   0.00     0.05   0.03   0.09
    61   1    -0.13   0.02   0.09    -0.02   0.00   0.00    -0.31   0.09  -0.16
    62   1    -0.09   0.03   0.14    -0.02   0.00   0.01    -0.09   0.12   0.04
    63   1     0.15   0.04   0.28     0.01   0.01   0.02    -0.09   0.10   0.01
    64   1    -0.14  -0.05   0.01     0.00  -0.00   0.02     0.16  -0.11  -0.08
    65   1    -0.12  -0.24  -0.13     0.02  -0.04   0.00     0.14   0.00   0.00
    66   1    -0.14   0.05   0.08     0.01  -0.02  -0.00     0.16  -0.26  -0.18
    67   1    -0.14  -0.09   0.13     0.00  -0.01   0.03     0.14  -0.10   0.29
    68   1    -0.19   0.22  -0.07     0.01   0.04   0.01     0.10   0.06   0.18
    69   1    -0.15  -0.07   0.13     0.01   0.02  -0.00     0.05   0.30   0.04
                     46                     47                     48
                      A                      A                      A
 Frequencies --    453.8011               467.8380               473.9017
 Red. masses --      3.5676                 5.0466                 3.7990
 Frc consts  --      0.4329                 0.6508                 0.5027
 IR Inten    --      0.0000                 0.0000                 0.0000
  Atom  AN      X      Y      Z        X      Y      Z        X      Y      Z
     1  26     0.00   0.00   0.00    -0.01   0.00  -0.00     0.01   0.01   0.01
     2   6     0.02   0.02   0.05    -0.07   0.11  -0.10    -0.03   0.08  -0.05
     3  46    -0.00   0.00  -0.00     0.00   0.01  -0.01     0.00   0.00   0.01
     4   6     0.01  -0.01   0.01    -0.01  -0.01   0.02    -0.06   0.08   0.02
     5   1     0.02  -0.03  -0.04     0.03  -0.05  -0.07    -0.04   0.04   0.07
     6   1     0.00  -0.01   0.00     0.02  -0.03  -0.04    -0.02   0.05   0.01
     7   1    -0.03   0.01   0.04    -0.03   0.02   0.04     0.09  -0.07  -0.11
     8   6    -0.03   0.07  -0.07     0.02  -0.03   0.06     0.00  -0.06   0.00
     9   8    -0.07  -0.01   0.06     0.14  -0.03  -0.06     0.06  -0.02  -0.02
    10   6     0.01  -0.00   0.01    -0.01  -0.01   0.03     0.00  -0.02   0.01
    11   8    -0.02  -0.01  -0.09    -0.05   0.05   0.09     0.04   0.02  -0.00
    12   6     0.01   0.01  -0.01     0.01   0.01   0.03    -0.02  -0.02   0.04
    13   6    -0.00  -0.00  -0.01     0.01  -0.02  -0.02    -0.03  -0.02   0.02
    14   6     0.00  -0.01  -0.00     0.01  -0.03  -0.01    -0.02  -0.03   0.01
    15   1     0.01   0.03  -0.01     0.01   0.01   0.01    -0.02  -0.03   0.04
    16   1    -0.01  -0.01  -0.03     0.01  -0.02  -0.02    -0.06  -0.02   0.02
    17   1    -0.00  -0.02  -0.01     0.01  -0.03  -0.06    -0.02  -0.04   0.02
    18   1     0.03  -0.05  -0.09    -0.07   0.03   0.17    -0.05   0.03  -0.00
    19   6     0.01   0.02   0.04    -0.01   0.04   0.10     0.01  -0.04  -0.02
    20   6     0.02   0.01  -0.00    -0.13   0.18  -0.03    -0.07   0.12  -0.02
    21   8     0.06   0.03  -0.00    -0.00  -0.08  -0.03     0.02  -0.04  -0.02
    22   6    -0.01  -0.01   0.02    -0.03   0.01   0.04     0.03  -0.02  -0.06
    23   6     0.02  -0.03  -0.03     0.01  -0.03  -0.03    -0.03   0.03   0.04
    24   6     0.01  -0.02  -0.01     0.01  -0.02  -0.03    -0.02   0.02   0.04
    25   6    -0.00  -0.01   0.00     0.00  -0.01  -0.01    -0.00   0.00  -0.01
    26   6    -0.01   0.00   0.02    -0.01   0.00   0.02     0.04  -0.04  -0.08
    27   1    -0.02  -0.00   0.03    -0.04   0.04   0.06     0.04  -0.04  -0.08
    28   7    -0.02  -0.08  -0.02    -0.02  -0.09   0.02    -0.01  -0.11  -0.00
    29   1     0.04   0.02  -0.01    -0.19   0.19   0.19    -0.11   0.14   0.14
    30   1     0.00  -0.01  -0.00     0.01  -0.02   0.05     0.10   0.13   0.17
    31   1     0.02  -0.00  -0.00    -0.03   0.02   0.02    -0.23   0.22   0.05
    32   1     0.02  -0.03  -0.03    -0.00  -0.03   0.01    -0.01   0.02  -0.02
    33   7     0.00  -0.01   0.00    -0.01  -0.03  -0.01    -0.04   0.01  -0.10
    34   6     0.01   0.00  -0.01     0.03  -0.01  -0.02     0.03  -0.04   0.02
    35   6    -0.00   0.01   0.01    -0.01   0.04   0.02     0.04   0.04  -0.03
    36   1     0.01   0.01  -0.03     0.06  -0.01  -0.07     0.09  -0.10   0.00
    37   1     0.01   0.03   0.00     0.06   0.03   0.01     0.13  -0.13   0.06
    38   1     0.01  -0.01  -0.02     0.02  -0.01  -0.01    -0.04   0.04   0.18
    39   1    -0.02   0.02   0.01    -0.06   0.06   0.05    -0.01   0.04   0.05
    40   1    -0.01   0.01   0.01    -0.03   0.04   0.03     0.10   0.04  -0.07
    41   1     0.01   0.03  -0.00     0.04   0.08  -0.01     0.08   0.04   0.01
    42   6    -0.00   0.02  -0.01    -0.01   0.11  -0.10    -0.00   0.07  -0.01
    43   6    -0.01   0.02   0.01     0.03   0.04  -0.09    -0.07   0.09   0.06
    44   6    -0.00   0.00   0.01    -0.00   0.07   0.15     0.08  -0.09  -0.10
    45   6     0.02  -0.02  -0.01     0.12  -0.10  -0.07    -0.04   0.05   0.13
    46   6    -0.01  -0.00   0.03    -0.02  -0.08   0.14     0.02  -0.07  -0.00
    47   6    -0.01  -0.00   0.01    -0.08  -0.02   0.11     0.05  -0.10  -0.12
    48   6    -0.00  -0.01  -0.00     0.04  -0.15  -0.14    -0.10   0.05   0.11
    49   1    -0.02  -0.00  -0.01     0.11   0.17  -0.06     0.15  -0.00   0.10
    50   1    -0.00   0.04  -0.00    -0.01  -0.01  -0.18     0.03   0.01  -0.19
    51   1    -0.00  -0.01   0.01    -0.13   0.11   0.33     0.16  -0.24  -0.24
    52   1     0.03  -0.03  -0.04     0.14  -0.13  -0.23    -0.10   0.12   0.20
    53   1    -0.01   0.00   0.03    -0.07  -0.04   0.20     0.04  -0.08  -0.03
    54   1     0.00   0.00  -0.01    -0.07   0.06   0.13     0.08  -0.09  -0.16
    55   1     0.00  -0.02  -0.00     0.02  -0.14  -0.06    -0.05   0.01   0.10
    56   8    -0.05   0.19  -0.01     0.02   0.02   0.02    -0.00   0.04   0.03
    57   6     0.04   0.09   0.02    -0.04   0.00  -0.02    -0.04   0.00  -0.02
    58   6     0.04  -0.17   0.05    -0.02  -0.02  -0.04    -0.03  -0.02  -0.01
    59   6     0.00  -0.06  -0.14     0.03  -0.04  -0.02     0.02  -0.02  -0.02
    60   6    -0.02  -0.15   0.16     0.02   0.02   0.01     0.01  -0.00   0.02
    61   1    -0.13   0.20  -0.15    -0.08   0.00  -0.02    -0.06   0.02  -0.04
    62   1     0.25   0.24   0.18    -0.06   0.01  -0.00    -0.01   0.02  -0.00
    63   1     0.01   0.17  -0.03    -0.02   0.01   0.02    -0.04   0.02  -0.02
    64   1    -0.01  -0.23  -0.38     0.04  -0.01   0.01     0.05  -0.02  -0.03
    65   1     0.00   0.11  -0.12     0.05  -0.02   0.01     0.04   0.04   0.01
    66   1     0.01   0.11  -0.18     0.05  -0.08  -0.04     0.05  -0.05  -0.05
    67   1    -0.05  -0.25   0.28     0.03  -0.01   0.06     0.03  -0.02   0.04
    68   1    -0.09   0.00   0.11     0.03   0.03   0.04     0.03  -0.02   0.04
    69   1    -0.07  -0.12   0.21     0.02   0.09  -0.01     0.02   0.06  -0.00
                     49                     50                     51
                      A                      A                      A
 Frequencies --    488.2349               501.2076               509.6934
 Red. masses --      2.8240                 4.7943                 2.9930
 Frc consts  --      0.3966                 0.7096                 0.4581
 IR Inten    --      0.0000                 0.0000                 0.0000
  Atom  AN      X      Y      Z        X      Y      Z        X      Y      Z
     1  26    -0.02  -0.00  -0.02     0.00  -0.01   0.00     0.03   0.01   0.04
     2   6    -0.02   0.04  -0.03     0.00   0.03   0.00     0.00  -0.00  -0.00
     3  46    -0.01   0.00   0.00     0.00  -0.00   0.00    -0.01   0.00  -0.01
     4   6     0.12  -0.12  -0.01     0.01  -0.01  -0.01     0.00   0.06  -0.02
     5   1    -0.00   0.04   0.05     0.07  -0.07  -0.10     0.01  -0.04  -0.05
     6   1     0.06  -0.05  -0.04    -0.04   0.00   0.11    -0.00  -0.00  -0.00
     7   1     0.02  -0.01  -0.05    -0.13   0.09   0.16    -0.02  -0.01  -0.01
     8   6    -0.00  -0.03   0.01     0.01  -0.00   0.02    -0.01   0.02   0.00
     9   8     0.04  -0.01  -0.02    -0.01  -0.01   0.01     0.00   0.00  -0.00
    10   6    -0.02   0.03  -0.05    -0.01   0.05   0.05     0.03  -0.02   0.04
    11   8    -0.02   0.02   0.01    -0.01   0.00   0.03    -0.02   0.00   0.00
    12   6    -0.01  -0.00   0.05     0.01  -0.01  -0.13    -0.03  -0.01   0.03
    13   6     0.03   0.04   0.05     0.00  -0.02  -0.10    -0.07  -0.07  -0.05
    14   6     0.01   0.06  -0.01    -0.02   0.03   0.01    -0.05  -0.09  -0.02
    15   1     0.00  -0.05   0.09     0.01   0.03  -0.08    -0.04   0.04   0.00
    16   1     0.05   0.04   0.08     0.05  -0.04  -0.15    -0.09  -0.08  -0.07
    17   1     0.03   0.11   0.00    -0.01   0.05   0.08    -0.08  -0.17  -0.09
    18   1    -0.02  -0.03   0.01    -0.02   0.02   0.05     0.01  -0.04   0.02
    19   6    -0.04  -0.02  -0.07     0.01   0.04   0.00     0.02  -0.02   0.09
    20   6    -0.04   0.05   0.00    -0.02   0.03  -0.02     0.01  -0.00   0.01
    21   8     0.00  -0.02  -0.01     0.02   0.00  -0.01     0.00   0.00  -0.01
    22   6     0.02   0.02   0.00     0.07  -0.07  -0.07     0.01  -0.01  -0.02
    23   6     0.01   0.02   0.02     0.07  -0.05  -0.09    -0.02   0.01   0.01
    24   6     0.02   0.02   0.02     0.05  -0.03  -0.06    -0.00  -0.01  -0.01
    25   6     0.02   0.01   0.01     0.00   0.00   0.04     0.00  -0.02  -0.01
    26   6     0.03   0.00  -0.02    -0.06   0.04   0.10    -0.01  -0.00   0.01
    27   1     0.01   0.02   0.01     0.06  -0.06  -0.07     0.02  -0.02  -0.04
    28   7    -0.01  -0.07   0.01    -0.01  -0.00  -0.01    -0.00  -0.00   0.01
    29   1    -0.05   0.06   0.09    -0.02   0.04   0.01     0.01   0.00   0.00
    30   1    -0.11  -0.18  -0.21    -0.09  -0.07  -0.07    -0.04   0.05  -0.06
    31   1     0.33  -0.37  -0.00     0.13  -0.04  -0.07     0.05   0.00  -0.02
    32   1     0.02   0.02   0.02    -0.00  -0.01   0.00    -0.01   0.01  -0.01
    33   7     0.14   0.01   0.17     0.01   0.01   0.01     0.10   0.17  -0.01
    34   6    -0.08   0.04  -0.02    -0.02   0.00   0.00    -0.12   0.02   0.11
    35   6    -0.03  -0.05  -0.00     0.00  -0.01  -0.01     0.11  -0.05  -0.17
    36   1    -0.23   0.18   0.10    -0.03   0.01   0.03    -0.27   0.05   0.37
    37   1    -0.26   0.10  -0.12    -0.04  -0.01  -0.02    -0.20  -0.27  -0.06
    38   1     0.02  -0.10  -0.27    -0.00  -0.01  -0.02    -0.13   0.06   0.16
    39   1     0.11  -0.06  -0.20     0.02  -0.02  -0.03     0.30  -0.14  -0.35
    40   1    -0.18  -0.06   0.09    -0.01  -0.01  -0.00     0.12  -0.05  -0.18
    41   1    -0.17  -0.09  -0.10    -0.02  -0.02  -0.02    -0.12  -0.23  -0.13
    42   6    -0.00   0.03  -0.00    -0.03   0.03  -0.11     0.00   0.00  -0.01
    43   6    -0.03   0.04   0.03     0.10  -0.04  -0.14     0.00   0.00  -0.00
    44   6     0.02  -0.02  -0.04     0.09  -0.04   0.02     0.00   0.00   0.03
    45   6    -0.01   0.03   0.03    -0.05   0.03   0.14     0.01  -0.03  -0.01
    46   6     0.00  -0.02   0.00     0.05  -0.16  -0.07    -0.01   0.00   0.02
    47   6     0.03  -0.05  -0.04    -0.17   0.09   0.17    -0.01   0.01  -0.02
    48   6    -0.03  -0.00   0.03    -0.13   0.13   0.19     0.02  -0.00  -0.03
    49   1     0.06  -0.00   0.05    -0.16   0.18  -0.22     0.01   0.00  -0.00
    50   1     0.01   0.00  -0.08    -0.07   0.03   0.09     0.00   0.00  -0.02
    51   1     0.04  -0.08  -0.09     0.07  -0.07   0.03    -0.01   0.01   0.04
    52   1    -0.02   0.05   0.05    -0.13   0.13   0.17     0.02  -0.04  -0.03
    53   1    -0.02  -0.03  -0.00     0.21  -0.29  -0.30     0.01   0.02   0.04
    54   1     0.04  -0.02  -0.04    -0.12   0.08   0.07    -0.02  -0.01  -0.02
    55   1    -0.03  -0.01   0.02    -0.03   0.02   0.12     0.03  -0.01  -0.00
    56   8     0.00   0.02   0.00     0.02  -0.00   0.00    -0.00  -0.01  -0.02
    57   6    -0.00   0.00   0.00    -0.00  -0.00   0.00     0.02   0.00   0.01
    58   6     0.00  -0.01  -0.00     0.01   0.00  -0.02     0.02   0.00  -0.00
    59   6     0.00  -0.01  -0.01     0.00  -0.01  -0.00    -0.00   0.00   0.00
    60   6    -0.00  -0.00   0.01    -0.00   0.01  -0.00    -0.00  -0.00  -0.00
    61   1    -0.01   0.01  -0.01    -0.02  -0.00   0.01     0.02   0.00   0.01
    62   1     0.01   0.01   0.01    -0.03  -0.00   0.00     0.01  -0.00   0.01
    63   1     0.00   0.01   0.00     0.02  -0.00   0.03     0.02   0.00   0.01
    64   1     0.01  -0.01  -0.02    -0.00   0.00   0.02    -0.02   0.00   0.00
    65   1     0.01   0.00  -0.00    -0.00  -0.03  -0.01    -0.01  -0.02  -0.01
    66   1     0.01  -0.00  -0.01    -0.00  -0.02   0.01    -0.02   0.02   0.02
    67   1    -0.00  -0.02   0.02    -0.00   0.00   0.01    -0.02  -0.00  -0.00
    68   1    -0.00   0.01   0.01    -0.00   0.03  -0.01    -0.01   0.02  -0.01
    69   1    -0.00   0.00   0.01    -0.00   0.02  -0.00    -0.01  -0.02   0.01
                     52                     53                     54
                      A                      A                      A
 Frequencies --    553.8220               561.8427               570.8440
 Red. masses --      4.3041                 4.4566                 5.9694
 Frc consts  --      0.7778                 0.8289                 1.1461
 IR Inten    --      0.0000                 0.0000                 0.0000
  Atom  AN      X      Y      Z        X      Y      Z        X      Y      Z
     1  26     0.06   0.05  -0.05     0.01  -0.01   0.02     0.04   0.00  -0.00
     2   6    -0.01  -0.00  -0.01    -0.03   0.01  -0.04    -0.05   0.24  -0.02
     3  46     0.00  -0.00   0.00     0.00   0.00   0.00     0.00  -0.00   0.01
     4   6    -0.01  -0.03  -0.04    -0.01  -0.01  -0.01     0.00  -0.00   0.00
     5   1    -0.16   0.11   0.13    -0.10   0.12   0.14    -0.02  -0.02  -0.01
     6   1    -0.26   0.15   0.33     0.16  -0.05  -0.20    -0.06   0.02   0.07
     7   1     0.02  -0.03  -0.15    -0.07   0.06   0.12    -0.11   0.07   0.11
     8   6    -0.02   0.05   0.02    -0.06   0.10   0.03    -0.02  -0.06   0.03
     9   8     0.02   0.00  -0.01     0.06   0.00  -0.04     0.09  -0.02   0.07
    10   6     0.03  -0.15  -0.17     0.00  -0.05  -0.12    -0.01   0.00  -0.04
    11   8    -0.04   0.01   0.02    -0.08   0.01  -0.01     0.01   0.02   0.01
    12   6     0.03  -0.04  -0.01     0.06  -0.05  -0.23    -0.02   0.02   0.04
    13   6     0.02  -0.03   0.09    -0.01   0.04   0.24    -0.01   0.01  -0.05
    14   6    -0.00  -0.05   0.22     0.01  -0.11  -0.14    -0.01   0.01  -0.03
    15   1     0.03  -0.05   0.01     0.06  -0.01  -0.25    -0.02   0.03   0.09
    16   1    -0.07   0.01   0.22    -0.15   0.10   0.42     0.02   0.00  -0.04
    17   1    -0.01  -0.02   0.43     0.01  -0.13  -0.24    -0.02  -0.01  -0.04
    18   1     0.07  -0.07   0.00     0.26  -0.14  -0.06     0.01   0.03  -0.02
    19   6    -0.01  -0.05   0.01     0.01   0.06   0.05    -0.02  -0.02  -0.04
    20   6    -0.01  -0.01   0.01    -0.00   0.02   0.06    -0.20   0.05   0.00
    21   8    -0.00  -0.00  -0.01    -0.02  -0.02  -0.04     0.19  -0.01  -0.14
    22   6    -0.09   0.03   0.10     0.04  -0.02  -0.04    -0.00  -0.02  -0.02
    23   6     0.07  -0.11  -0.14    -0.02   0.05   0.02    -0.03   0.00   0.02
    24   6    -0.10   0.03   0.04    -0.03   0.07   0.08    -0.01  -0.02  -0.01
    25   6    -0.11   0.10   0.11     0.11  -0.05  -0.12    -0.04   0.00   0.03
    26   6     0.04  -0.01  -0.09    -0.03   0.04   0.09    -0.06   0.03   0.05
    27   1    -0.14   0.05   0.14     0.05   0.00  -0.04    -0.00  -0.00  -0.01
    28   7    -0.02  -0.00   0.02    -0.02  -0.03   0.07    -0.07  -0.05  -0.02
    29   1    -0.01  -0.00   0.01    -0.02   0.02   0.10    -0.43  -0.11   0.13
    30   1     0.17   0.15  -0.00     0.10   0.05   0.05     0.02   0.01   0.01
    31   1    -0.19  -0.07   0.10    -0.13  -0.01   0.07    -0.02  -0.00   0.02
    32   1     0.05  -0.09  -0.15    -0.05   0.06   0.08    -0.01  -0.01   0.01
    33   7     0.01   0.03   0.00    -0.02   0.00   0.00    -0.00  -0.01   0.00
    34   6    -0.01   0.02   0.01     0.00   0.01   0.01     0.01  -0.01  -0.01
    35   6     0.02   0.00  -0.02    -0.01  -0.01   0.01    -0.00   0.00   0.01
    36   1    -0.03   0.04   0.03     0.02   0.00  -0.01     0.01  -0.01  -0.02
    37   1    -0.02  -0.01  -0.00     0.00   0.03   0.01     0.01   0.01  -0.00
    38   1    -0.02   0.01   0.01     0.01   0.01   0.01     0.01  -0.01  -0.01
    39   1     0.03  -0.00  -0.04    -0.01  -0.01   0.02    -0.01   0.00   0.02
    40   1     0.02  -0.01  -0.03     0.01  -0.01   0.00    -0.01   0.00   0.01
    41   1    -0.01  -0.03   0.00    -0.00  -0.01   0.03     0.01   0.01  -0.00
    42   6    -0.01  -0.00  -0.02     0.02   0.02   0.03    -0.06  -0.15   0.13
    43   6     0.01  -0.00  -0.03    -0.01  -0.02  -0.02     0.06  -0.17   0.06
    44   6    -0.00   0.01   0.01    -0.03  -0.01  -0.03    -0.06  -0.07   0.01
    45   6     0.00   0.00   0.00    -0.01   0.03   0.01    -0.15  -0.07  -0.03
    46   6     0.00  -0.01  -0.00     0.02   0.00  -0.03    -0.02   0.14  -0.14
    47   6    -0.03   0.02   0.04     0.01   0.01   0.04     0.02   0.11  -0.00
    48   6    -0.02   0.02   0.03    -0.03  -0.00   0.01     0.15   0.08  -0.01
    49   1    -0.02   0.03  -0.04     0.04   0.05   0.03    -0.10  -0.11   0.09
    50   1    -0.02  -0.00   0.00     0.02   0.01   0.00    -0.09  -0.25   0.21
    51   1    -0.00   0.00   0.01    -0.03  -0.01  -0.02    -0.02   0.11  -0.00
    52   1     0.00   0.00  -0.01    -0.00   0.02   0.06    -0.11  -0.11   0.10
    53   1     0.02  -0.03  -0.04     0.01  -0.02  -0.06     0.07   0.17  -0.10
    54   1    -0.01   0.01   0.01     0.01   0.02   0.06    -0.06  -0.05   0.08
    55   1    -0.01   0.00   0.04    -0.01  -0.00  -0.04     0.10   0.13  -0.04
    56   8    -0.02  -0.02  -0.03    -0.06  -0.03  -0.07     0.01   0.01  -0.02
    57   6     0.03   0.00   0.01     0.05   0.01   0.02     0.03   0.00   0.02
    58   6     0.03   0.00  -0.00     0.04   0.01   0.01     0.05   0.00  -0.03
    59   6    -0.00   0.00   0.00    -0.01   0.01   0.01    -0.00  -0.02  -0.02
    60   6    -0.00  -0.00  -0.00    -0.01  -0.02   0.01    -0.01   0.01  -0.01
    61   1     0.03   0.00   0.01     0.08   0.01   0.02    -0.00   0.00   0.02
    62   1     0.03   0.00   0.01     0.08   0.01   0.01    -0.00   0.00   0.03
    63   1     0.03   0.00   0.01     0.03   0.00  -0.01     0.07   0.01   0.07
    64   1    -0.02   0.00   0.01    -0.04   0.00  -0.00    -0.03  -0.01   0.00
    65   1    -0.02  -0.03  -0.02    -0.03  -0.03  -0.03    -0.02  -0.08  -0.05
    66   1    -0.02   0.02   0.02    -0.04   0.06   0.04    -0.03   0.01   0.02
    67   1    -0.02  -0.00  -0.00    -0.03  -0.01  -0.01    -0.03  -0.02   0.02
    68   1    -0.02   0.02  -0.02    -0.04   0.02  -0.03    -0.05   0.08  -0.04
    69   1    -0.01  -0.03   0.01    -0.02  -0.07   0.03    -0.03  -0.02   0.03
                     55                     56                     57
                      A                      A                      A
 Frequencies --    583.5966               590.2927               597.6392
 Red. masses --      5.8024                 4.7859                 5.7682
 Frc consts  --      1.1643                 0.9825                 1.2139
 IR Inten    --      0.0000                 0.0000                 0.0000
  Atom  AN      X      Y      Z        X      Y      Z        X      Y      Z
     1  26     0.12   0.08   0.00     0.06   0.01  -0.01     0.02   0.09  -0.03
     2   6     0.06  -0.05   0.04    -0.05  -0.04  -0.07    -0.04   0.06  -0.04
     3  46     0.01  -0.01   0.01     0.00  -0.00  -0.00    -0.01  -0.01  -0.01
     4   6    -0.06  -0.04   0.01     0.05   0.01  -0.02    -0.09  -0.02   0.03
     5   1    -0.08  -0.04   0.04     0.06  -0.13  -0.13     0.03  -0.07  -0.05
     6   1    -0.02  -0.03  -0.00    -0.18   0.07   0.22     0.05  -0.07  -0.04
     7   1    -0.25   0.16   0.34    -0.15   0.09   0.16    -0.10   0.05   0.17
     8   6     0.05  -0.03   0.01    -0.07   0.11  -0.01     0.07  -0.17  -0.10
     9   8    -0.07   0.01   0.02     0.06  -0.00  -0.09    -0.00  -0.03  -0.01
    10   6    -0.08  -0.01  -0.14     0.04   0.01  -0.04    -0.06  -0.02   0.06
    11   8     0.01   0.00   0.05    -0.03  -0.02  -0.06     0.05   0.02  -0.09
    12   6    -0.04   0.00   0.11    -0.03   0.04   0.12    -0.01  -0.05   0.01
    13   6    -0.03   0.05   0.08    -0.03   0.01  -0.11    -0.00  -0.01   0.09
    14   6    -0.01  -0.05  -0.23    -0.01   0.03   0.00    -0.01  -0.06  -0.05
    15   1    -0.04  -0.05   0.17    -0.04   0.09   0.15    -0.01  -0.06   0.09
    16   1    -0.07   0.06   0.12     0.02  -0.01  -0.15    -0.02   0.02   0.22
    17   1    -0.01  -0.07  -0.32    -0.05  -0.02   0.06     0.00  -0.04  -0.04
    18   1    -0.15   0.04   0.09     0.26  -0.11  -0.23    -0.26   0.13   0.04
    19   6    -0.08  -0.04  -0.13    -0.00  -0.04  -0.08    -0.02  -0.05  -0.04
    20   6     0.01  -0.04  -0.08     0.09   0.06   0.13     0.06   0.08   0.03
    21   8     0.01   0.04   0.03    -0.12  -0.05   0.02    -0.06  -0.05   0.08
    22   6    -0.01  -0.06  -0.02     0.03  -0.04  -0.08    -0.03  -0.02   0.04
    23   6    -0.00  -0.03  -0.01    -0.09   0.04   0.09     0.06  -0.07  -0.05
    24   6    -0.06  -0.03   0.05     0.03  -0.09  -0.08     0.02  -0.04  -0.01
    25   6    -0.04  -0.05   0.03    -0.10   0.02   0.11     0.02  -0.06  -0.01
    26   6    -0.16   0.07   0.17    -0.10   0.04   0.06    -0.04  -0.00   0.07
    27   1    -0.04  -0.08  -0.01     0.05  -0.08  -0.11    -0.04  -0.02   0.05
    28   7    -0.02   0.03  -0.06     0.06  -0.04   0.12     0.15   0.03  -0.04
    29   1     0.10  -0.00  -0.17     0.09   0.09   0.23    -0.03   0.04   0.14
    30   1     0.02  -0.02   0.08     0.08   0.06  -0.05    -0.11  -0.08   0.06
    31   1    -0.18  -0.09   0.11     0.05   0.03  -0.04    -0.08  -0.05   0.04
    32   1     0.03  -0.06  -0.08    -0.07   0.03   0.05     0.04  -0.07  -0.01
    33   7     0.01  -0.02   0.02    -0.04  -0.02   0.01     0.03   0.03  -0.01
    34   6     0.01  -0.01  -0.02     0.01   0.00  -0.01    -0.01  -0.00   0.01
    35   6    -0.02   0.00   0.01    -0.03  -0.02   0.04     0.03   0.02  -0.05
    36   1     0.00   0.01  -0.03     0.04  -0.01  -0.05    -0.04   0.02   0.05
    37   1     0.01   0.01  -0.01     0.02   0.06   0.02    -0.01  -0.07  -0.02
    38   1     0.01  -0.04  -0.04     0.02   0.01  -0.02    -0.03  -0.00   0.03
    39   1    -0.02   0.01   0.00    -0.05  -0.02   0.08     0.05   0.02  -0.09
    40   1    -0.05   0.01   0.04     0.01  -0.02   0.02    -0.02   0.02  -0.02
    41   1    -0.01   0.03  -0.03     0.01  -0.01   0.06    -0.01   0.02  -0.08
    42   6    -0.06  -0.00  -0.12     0.10   0.10   0.09     0.09   0.04   0.14
    43   6    -0.01   0.10   0.02    -0.01  -0.02  -0.03    -0.03  -0.14  -0.05
    44   6     0.08   0.00   0.07    -0.00  -0.05   0.00    -0.17  -0.01  -0.11
    45   6    -0.00  -0.07   0.00    -0.03  -0.04   0.04     0.01   0.08  -0.00
    46   6    -0.06  -0.05   0.06     0.01  -0.02  -0.02     0.08   0.06  -0.06
    47   6    -0.05  -0.04  -0.12    -0.04   0.04  -0.03     0.07   0.05   0.18
    48   6     0.02   0.04  -0.01     0.01   0.01  -0.06    -0.06  -0.08   0.01
    49   1    -0.03  -0.07  -0.09     0.20   0.15   0.12     0.04   0.11   0.08
    50   1    -0.05   0.00  -0.15     0.13   0.12  -0.03     0.09   0.09   0.17
    51   1     0.10  -0.04   0.03    -0.03  -0.02   0.05    -0.21   0.01  -0.03
    52   1    -0.03  -0.03  -0.11    -0.05  -0.01   0.10     0.07   0.01   0.16
    53   1    -0.01  -0.01   0.12     0.07   0.01   0.02    -0.02  -0.00  -0.14
    54   1    -0.05  -0.03  -0.08    -0.06   0.04   0.01     0.10   0.08   0.12
    55   1     0.07  -0.04   0.07     0.01   0.00  -0.02    -0.07  -0.02  -0.05
    56   8     0.05   0.01   0.05    -0.08  -0.02  -0.09     0.04   0.06   0.07
    57   6    -0.03  -0.00  -0.01     0.03   0.00   0.01    -0.08  -0.01  -0.04
    58   6    -0.01   0.00  -0.02    -0.00  -0.00   0.04    -0.09  -0.02   0.04
    59   6     0.01  -0.02  -0.01    -0.01   0.03   0.02     0.00   0.02   0.02
    60   6     0.00   0.02  -0.01    -0.00  -0.04   0.02     0.01  -0.02   0.02
    61   1    -0.06  -0.01  -0.00     0.10   0.01   0.00    -0.06  -0.00  -0.05
    62   1    -0.06  -0.01  -0.00     0.10   0.01  -0.00    -0.04   0.00  -0.04
    63   1     0.01  -0.00   0.04    -0.03   0.00  -0.08    -0.11  -0.01  -0.09
    64   1     0.02  -0.00   0.01    -0.02   0.01  -0.01     0.07  -0.00  -0.03
    65   1     0.02  -0.01   0.00    -0.03   0.04   0.01     0.05   0.17   0.09
    66   1     0.02  -0.04  -0.02    -0.02   0.06   0.03     0.07  -0.04  -0.07
    67   1     0.01   0.01   0.00    -0.01  -0.01  -0.02     0.04   0.01  -0.01
    68   1     0.02   0.01   0.01    -0.01  -0.05   0.00     0.07  -0.12   0.08
    69   1     0.01   0.05  -0.02    -0.00  -0.07   0.02     0.04   0.05  -0.04
                     58                     59                     60
                      A                      A                      A
 Frequencies --    611.5111               626.8968               636.9131
 Red. masses --      5.8935                 5.4763                 7.7930
 Frc consts  --      1.2985                 1.2680                 1.8626
 IR Inten    --      0.0000                 0.0000                 0.0000
  Atom  AN      X      Y      Z        X      Y      Z        X      Y      Z
     1  26     0.01   0.05  -0.04    -0.05   0.05  -0.10    -0.10   0.12  -0.05
     2   6     0.02  -0.01   0.03     0.01  -0.00   0.02    -0.00   0.02  -0.02
     3  46     0.01  -0.00   0.01     0.00  -0.00  -0.01     0.00  -0.01   0.01
     4   6     0.03   0.03  -0.00    -0.01  -0.02  -0.02     0.01   0.07   0.04
     5   1     0.13  -0.17  -0.17     0.20  -0.13  -0.19     0.10  -0.13  -0.13
     6   1    -0.08   0.01   0.13    -0.02  -0.06   0.09     0.18  -0.13  -0.17
     7   1    -0.10   0.05   0.15    -0.20   0.15   0.32     0.05  -0.07   0.05
     8   6    -0.05   0.11   0.07     0.03  -0.07  -0.01    -0.03   0.26  -0.02
     9   8     0.01   0.02   0.02    -0.02   0.00   0.02     0.02  -0.01  -0.02
    10   6     0.04   0.01   0.07     0.02  -0.08  -0.07     0.06   0.04   0.25
    11   8     0.00  -0.01   0.07    -0.02   0.02  -0.00     0.07  -0.07   0.02
    12   6    -0.02  -0.02   0.04     0.05  -0.05  -0.04    -0.03  -0.09   0.03
    13   6    -0.03  -0.01  -0.02     0.03  -0.01   0.14    -0.02   0.03   0.18
    14   6    -0.01  -0.01  -0.01    -0.02   0.02   0.26     0.00  -0.05  -0.03
    15   1    -0.03   0.03   0.09     0.05  -0.06  -0.07    -0.03  -0.08   0.05
    16   1     0.00   0.01   0.10     0.00  -0.01   0.17    -0.03   0.02   0.18
    17   1    -0.05  -0.05   0.08    -0.00   0.08   0.41    -0.03  -0.09   0.01
    18   1     0.09  -0.08  -0.05    -0.07   0.03   0.13    -0.07  -0.14  -0.14
    19   6     0.02  -0.06  -0.05     0.02   0.03   0.17     0.07  -0.16  -0.24
    20   6    -0.09  -0.06  -0.04    -0.00  -0.01  -0.04    -0.02   0.00   0.04
    21   8     0.07   0.03  -0.07     0.01   0.01   0.01     0.00  -0.01  -0.01
    22   6     0.02  -0.04  -0.05     0.06  -0.06  -0.08    -0.08   0.03   0.11
    23   6    -0.05   0.02   0.08    -0.13   0.08   0.19     0.12  -0.08  -0.07
    24   6     0.07  -0.09  -0.08     0.14  -0.09  -0.14     0.09  -0.05  -0.05
    25   6    -0.04  -0.02   0.08     0.06  -0.08  -0.04     0.08  -0.10  -0.04
    26   6    -0.06  -0.00   0.05    -0.07   0.03   0.13     0.05  -0.09   0.00
    27   1     0.01  -0.06  -0.06     0.07  -0.04  -0.08    -0.12   0.08   0.18
    28   7    -0.14  -0.01   0.00     0.02   0.02  -0.04    -0.03  -0.08   0.05
    29   1    -0.05  -0.06  -0.12     0.00  -0.01  -0.06    -0.04   0.00   0.10
    30   1    -0.01   0.01  -0.03     0.09   0.06   0.01    -0.14  -0.06  -0.01
    31   1     0.09   0.08  -0.07    -0.10  -0.02   0.04     0.19   0.15  -0.13
    32   1    -0.02   0.01   0.05    -0.10   0.05   0.21     0.10  -0.10   0.03
    33   7    -0.02  -0.00  -0.02    -0.01   0.02  -0.00    -0.02   0.01  -0.04
    34   6     0.00  -0.00  -0.00    -0.01   0.02   0.01     0.00  -0.00   0.00
    35   6     0.00  -0.00  -0.00     0.01  -0.01  -0.01     0.02   0.02  -0.03
    36   1     0.02  -0.02  -0.01    -0.02   0.02   0.02     0.01  -0.02   0.01
    37   1     0.02  -0.01   0.01    -0.02  -0.00   0.00     0.03  -0.05   0.01
    38   1    -0.00   0.02   0.02    -0.01   0.02   0.02    -0.02   0.03   0.06
    39   1    -0.01  -0.01   0.03     0.02  -0.01  -0.02     0.01   0.01  -0.00
    40   1     0.03   0.00  -0.02     0.02  -0.00  -0.02     0.04   0.02  -0.04
    41   1     0.02   0.00   0.01     0.00  -0.01  -0.01     0.03   0.01  -0.02
    42   6    -0.09  -0.05  -0.07    -0.01  -0.01  -0.00     0.01  -0.00   0.01
    43   6    -0.08   0.00  -0.01     0.02   0.04   0.04     0.07   0.02   0.01
    44   6    -0.12   0.10  -0.14     0.07  -0.01   0.04     0.10  -0.02   0.09
    45   6     0.16   0.20  -0.05    -0.03  -0.04   0.01    -0.06  -0.09  -0.00
    46   6     0.08   0.01   0.05    -0.02  -0.01  -0.00    -0.06  -0.01   0.00
    47   6     0.16  -0.12   0.15    -0.02  -0.01  -0.09    -0.07   0.03  -0.08
    48   6    -0.13  -0.16   0.07     0.05   0.03  -0.03     0.05   0.08  -0.00
    49   1    -0.11  -0.08  -0.07    -0.00  -0.06   0.02     0.02   0.02   0.00
    50   1    -0.10  -0.06  -0.04    -0.01  -0.03  -0.01    -0.00  -0.03   0.01
    51   1    -0.14  -0.03  -0.14     0.08   0.02   0.03     0.11   0.06   0.08
    52   1     0.22   0.12  -0.02    -0.06   0.01  -0.01    -0.11  -0.03  -0.06
    53   1    -0.20  -0.08  -0.07     0.01   0.04   0.07     0.05   0.04   0.06
    54   1     0.21  -0.03   0.05    -0.07  -0.04   0.03    -0.09   0.00  -0.02
    55   1    -0.14  -0.09  -0.02    -0.01   0.09  -0.04     0.01   0.09   0.00
    56   8    -0.02  -0.05  -0.04     0.03   0.02   0.03    -0.03  -0.08  -0.05
    57   6     0.06   0.01   0.03    -0.02  -0.00  -0.01     0.02   0.00   0.01
    58   6     0.08   0.01  -0.04    -0.02  -0.00   0.00     0.01   0.01   0.00
    59   6    -0.00  -0.03  -0.02     0.00   0.00   0.00    -0.01   0.00   0.00
    60   6    -0.00   0.03  -0.02     0.00  -0.00   0.00    -0.00   0.00  -0.00
    61   1     0.03  -0.00   0.04    -0.03  -0.00  -0.01     0.04  -0.00   0.02
    62   1     0.02  -0.00   0.03    -0.03  -0.00  -0.01     0.02  -0.01  -0.00
    63   1     0.10   0.01   0.09    -0.02  -0.00  -0.00     0.01  -0.00  -0.01
    64   1    -0.05  -0.00   0.02     0.02  -0.00  -0.01    -0.03   0.02   0.03
    65   1    -0.04  -0.14  -0.08     0.02   0.03   0.02    -0.02  -0.05  -0.02
    66   1    -0.05   0.02   0.05     0.02  -0.02  -0.02    -0.03   0.02   0.04
    67   1    -0.03  -0.00   0.01     0.01   0.00   0.00    -0.01   0.02  -0.02
    68   1    -0.05   0.11  -0.07     0.02  -0.02   0.02    -0.01   0.00  -0.02
    69   1    -0.03  -0.02   0.02     0.01   0.02  -0.01    -0.00  -0.02   0.00
                     61                     62                     63
                      A                      A                      A
 Frequencies --    645.9813               658.6349               670.4018
 Red. masses --      6.6888                 6.0213                 4.4033
 Frc consts  --      1.6445                 1.5390                 1.1660
 IR Inten    --      0.0000                 0.0000                 0.0000
  Atom  AN      X      Y      Z        X      Y      Z        X      Y      Z
     1  26     0.02  -0.03   0.01    -0.00   0.02   0.06     0.05  -0.10  -0.13
     2   6    -0.03   0.12   0.00    -0.00   0.02   0.00     0.00  -0.01   0.01
     3  46    -0.01   0.00  -0.00    -0.00   0.00  -0.00    -0.00   0.01  -0.01
     4   6    -0.00  -0.02  -0.00     0.01  -0.01  -0.01    -0.06   0.01   0.06
     5   1    -0.03   0.04   0.04     0.18  -0.24  -0.37    -0.26   0.21   0.28
     6   1    -0.04   0.03   0.04    -0.12   0.12   0.22    -0.14   0.12   0.22
     7   1    -0.04   0.03   0.03     0.17  -0.18  -0.25    -0.21   0.17   0.22
     8   6     0.19   0.47  -0.14     0.03  -0.04  -0.00     0.00  -0.00   0.00
     9   8    -0.02  -0.03   0.06    -0.01  -0.01   0.01    -0.00   0.00   0.00
    10   6    -0.02  -0.01  -0.06    -0.00   0.01  -0.02    -0.03   0.06   0.28
    11   8    -0.06  -0.12  -0.00    -0.05   0.02  -0.01    -0.01   0.00  -0.00
    12   6     0.01   0.02   0.01    -0.01  -0.05  -0.19     0.06   0.02   0.01
    13   6     0.00  -0.00  -0.04     0.00   0.08   0.17     0.01   0.04   0.11
    14   6    -0.01   0.02   0.02     0.05  -0.07  -0.23     0.03  -0.03  -0.09
    15   1     0.01   0.00  -0.03     0.00  -0.09  -0.20     0.05   0.02   0.01
    16   1     0.01  -0.00  -0.04     0.02   0.04   0.03    -0.11   0.11   0.33
    17   1     0.00   0.03  -0.01    -0.01  -0.15  -0.13     0.03   0.03   0.18
    18   1    -0.23  -0.20   0.24     0.01  -0.05   0.10     0.00   0.00   0.03
    19   6    -0.02   0.04   0.07    -0.04   0.03   0.06     0.04   0.03   0.06
    20   6    -0.02  -0.01  -0.05     0.00  -0.00  -0.02     0.01   0.00  -0.01
    21   8     0.05  -0.02   0.02     0.01   0.00   0.01    -0.00   0.00   0.00
    22   6     0.02  -0.01  -0.03    -0.03   0.01   0.01    -0.04   0.04  -0.01
    23   6    -0.03   0.02   0.02    -0.07   0.03   0.07    -0.03   0.03   0.02
    24   6    -0.02   0.01   0.01     0.14  -0.12  -0.23    -0.05   0.03   0.07
    25   6    -0.01   0.02   0.00    -0.16   0.15   0.29    -0.05   0.08   0.11
    26   6    -0.01   0.02   0.00     0.09  -0.13  -0.16    -0.03   0.02   0.00
    27   1     0.02  -0.00  -0.02     0.01   0.02  -0.02    -0.08   0.06   0.04
    28   7     0.15  -0.15  -0.07     0.03   0.01  -0.03    -0.00  -0.00  -0.00
    29   1    -0.12  -0.04   0.12    -0.01  -0.02  -0.02     0.02   0.01  -0.02
    30   1     0.03   0.01   0.01     0.00   0.02  -0.04    -0.29  -0.16  -0.04
    31   1    -0.04  -0.05   0.04     0.03  -0.03  -0.00     0.22   0.03  -0.13
    32   1    -0.02   0.02  -0.00    -0.03  -0.01   0.07    -0.08   0.07   0.10
    33   7     0.01  -0.00   0.01     0.02  -0.01   0.02     0.01   0.01  -0.01
    34   6    -0.00  -0.00  -0.00     0.01  -0.01  -0.00    -0.00  -0.01   0.00
    35   6    -0.00  -0.00   0.00    -0.00   0.00   0.01     0.03   0.02  -0.04
    36   1    -0.02   0.02  -0.00    -0.00   0.01  -0.01    -0.01  -0.02   0.03
    37   1    -0.00   0.00  -0.00    -0.00   0.01  -0.01     0.01  -0.05  -0.01
    38   1    -0.00  -0.02  -0.02     0.01  -0.02  -0.03    -0.01   0.01   0.03
    39   1     0.01   0.00  -0.02    -0.01   0.02  -0.00     0.03   0.02  -0.05
    40   1    -0.01  -0.00   0.01    -0.02  -0.01   0.01    -0.01   0.03  -0.01
    41   1    -0.01  -0.00  -0.01    -0.01   0.00   0.01     0.02   0.03  -0.08
    42   6    -0.04  -0.04  -0.03     0.00  -0.01   0.00    -0.00   0.00  -0.00
    43   6    -0.02  -0.01   0.02     0.02   0.00   0.01    -0.01   0.02   0.02
    44   6    -0.03   0.00  -0.02     0.02  -0.00   0.02     0.02  -0.02  -0.00
    45   6     0.00   0.02  -0.01    -0.02  -0.02  -0.00    -0.02  -0.01   0.01
    46   6     0.01   0.02  -0.01    -0.01   0.01  -0.00    -0.00  -0.01  -0.02
    47   6     0.03  -0.01   0.02    -0.01   0.00  -0.03    -0.01   0.01  -0.01
    48   6    -0.00  -0.01   0.02     0.01   0.03   0.00     0.02   0.00  -0.03
    49   1    -0.11  -0.08  -0.05    -0.03  -0.03  -0.01     0.02  -0.02   0.02
    50   1    -0.05  -0.01   0.05    -0.01  -0.01   0.03     0.00   0.00  -0.03
    51   1    -0.01  -0.02  -0.05     0.03   0.02   0.02     0.03  -0.01  -0.01
    52   1     0.03  -0.01  -0.00    -0.03  -0.01  -0.01    -0.03   0.00   0.01
    53   1    -0.02   0.00  -0.03     0.01   0.03   0.02     0.01  -0.00  -0.00
    54   1     0.04  -0.02   0.00    -0.02  -0.01   0.02    -0.02   0.02   0.03
    55   1     0.02  -0.03  -0.00     0.01   0.02   0.00     0.02  -0.00   0.01
    56   8     0.09  -0.12   0.08     0.02   0.01   0.02     0.00   0.00   0.00
    57   6    -0.13  -0.01  -0.07    -0.02  -0.00  -0.01    -0.00  -0.00  -0.00
    58   6    -0.13  -0.01   0.06    -0.02  -0.00   0.01    -0.00  -0.00   0.00
    59   6    -0.01   0.06   0.05     0.00   0.01   0.01     0.00   0.00   0.00
    60   6     0.01  -0.03   0.03     0.00  -0.01   0.01     0.00  -0.00   0.00
    61   1    -0.08  -0.02  -0.05    -0.02  -0.00  -0.01    -0.00  -0.00  -0.00
    62   1    -0.11  -0.02  -0.09    -0.02  -0.00  -0.01    -0.00   0.00  -0.00
    63   1    -0.17  -0.02  -0.12    -0.02  -0.00  -0.01    -0.00   0.00  -0.00
    64   1     0.05   0.06   0.04     0.02   0.00  -0.00     0.00   0.00  -0.00
    65   1     0.05   0.19   0.14     0.01   0.04   0.02     0.00   0.00   0.00
    66   1     0.06  -0.04  -0.04     0.02  -0.01  -0.02     0.00  -0.00  -0.00
    67   1     0.09   0.06  -0.07     0.01   0.00   0.00     0.00   0.00   0.00
    68   1     0.13  -0.24   0.14     0.02  -0.03   0.02     0.00  -0.00   0.00
    69   1     0.10   0.06  -0.09     0.01   0.01  -0.01     0.00  -0.00  -0.00
                     64                     65                     66
                      A                      A                      A
 Frequencies --    684.4993               696.8058               711.2532
 Red. masses --      6.4229                 4.2986                 7.5454
 Frc consts  --      1.7731                 1.2297                 2.2489
 IR Inten    --      0.0000                 0.0000                 0.0000
  Atom  AN      X      Y      Z        X      Y      Z        X      Y      Z
     1  26     0.01  -0.02  -0.02     0.01  -0.00  -0.02     0.00  -0.01  -0.00
     2   6    -0.06   0.07  -0.02    -0.01   0.00   0.02     0.19   0.10  -0.16
     3  46    -0.00   0.00  -0.00    -0.00   0.00  -0.00     0.01   0.01  -0.01
     4   6     0.08   0.04  -0.01     0.28   0.15  -0.06     0.06   0.02  -0.01
     5   1    -0.04   0.03   0.06    -0.05   0.00   0.04     0.00   0.00   0.00
     6   1    -0.03   0.04   0.07    -0.06   0.06   0.07    -0.03   0.02   0.04
     7   1    -0.05   0.02   0.06    -0.01   0.01   0.01     0.04  -0.02  -0.01
     8   6     0.01  -0.05  -0.01     0.05  -0.07   0.00    -0.04   0.06   0.08
     9   8     0.03  -0.01   0.01    -0.01   0.00   0.02    -0.18  -0.13  -0.12
    10   6     0.03   0.04   0.01     0.13   0.11  -0.02     0.02   0.02  -0.01
    11   8    -0.03   0.02  -0.03    -0.11   0.05  -0.01    -0.02   0.02   0.11
    12   6    -0.00  -0.03  -0.00    -0.08  -0.14   0.00     0.00  -0.02  -0.00
    13   6    -0.03  -0.02   0.02    -0.09  -0.07   0.05    -0.02  -0.03  -0.01
    14   6    -0.04   0.02  -0.01    -0.13   0.05  -0.03    -0.03   0.01   0.00
    15   1    -0.01  -0.01   0.05    -0.10  -0.01   0.10    -0.00   0.00   0.00
    16   1    -0.04  -0.00   0.08     0.04  -0.06   0.20    -0.00  -0.01   0.10
    17   1    -0.05   0.01   0.04    -0.20  -0.10  -0.15    -0.04  -0.01  -0.02
    18   1     0.07  -0.03  -0.00     0.08  -0.17   0.15     0.03  -0.16   0.12
    19   6     0.01  -0.02   0.01    -0.02  -0.11   0.05    -0.01   0.01   0.03
    20   6     0.02  -0.02   0.05     0.00  -0.02  -0.02     0.10   0.17  -0.22
    21   8    -0.00  -0.03  -0.01     0.01   0.00  -0.00    -0.03   0.02   0.31
    22   6    -0.00  -0.01  -0.03    -0.03   0.02   0.02     0.01  -0.01  -0.01
    23   6     0.00   0.02   0.01     0.03  -0.01  -0.03    -0.01   0.01   0.01
    24   6    -0.00   0.01   0.04    -0.02   0.01   0.05    -0.00   0.00   0.00
    25   6     0.02  -0.00   0.01     0.01  -0.02  -0.02    -0.00   0.00   0.00
    26   6    -0.01  -0.01   0.01    -0.01   0.00   0.00    -0.00   0.01   0.00
    27   1    -0.01  -0.01  -0.02    -0.06   0.03   0.05    -0.06   0.02   0.06
    28   7     0.07   0.04   0.03     0.06   0.04  -0.03    -0.19  -0.15  -0.06
    29   1    -0.08  -0.07   0.13    -0.00  -0.02  -0.03     0.16   0.17  -0.33
    30   1     0.04   0.03  -0.05     0.21   0.16  -0.16     0.06   0.04  -0.02
    31   1     0.14   0.07  -0.07     0.40   0.26  -0.21     0.06   0.05  -0.04
    32   1     0.03   0.02  -0.05     0.00   0.01   0.01    -0.01   0.01   0.00
    33   7    -0.02  -0.01  -0.00    -0.06  -0.02  -0.01    -0.01  -0.01  -0.00
    34   6     0.00   0.00  -0.00     0.01   0.00  -0.00     0.00  -0.00  -0.00
    35   6    -0.01  -0.01   0.02    -0.04  -0.04   0.07    -0.01  -0.01   0.02
    36   1     0.02  -0.02  -0.01     0.07  -0.04  -0.05     0.02  -0.01  -0.02
    37   1     0.00   0.02   0.01     0.02   0.06   0.02     0.01   0.01   0.00
    38   1     0.01   0.01   0.00     0.03   0.03   0.00     0.00  -0.00  -0.00
    39   1    -0.02  -0.02   0.04    -0.07  -0.07   0.15    -0.02  -0.01   0.03
    40   1     0.02  -0.01  -0.00     0.09  -0.03  -0.01     0.02  -0.00  -0.00
    41   1     0.00  -0.02   0.04     0.01  -0.06   0.15     0.00  -0.01   0.03
    42   6     0.04  -0.02  -0.05    -0.02  -0.02  -0.01     0.11   0.07   0.03
    43   6     0.11  -0.15  -0.18    -0.03   0.04   0.04     0.01  -0.09   0.01
    44   6    -0.11   0.10   0.13     0.03  -0.01  -0.02    -0.10  -0.06   0.01
    45   6     0.08  -0.10  -0.15    -0.01   0.03   0.03    -0.08  -0.09  -0.01
    46   6    -0.08   0.11   0.16     0.02  -0.02  -0.03    -0.00   0.09  -0.04
    47   6     0.13  -0.14  -0.23    -0.03   0.04   0.06     0.08   0.01   0.02
    48   6    -0.19   0.17   0.28     0.04  -0.03  -0.06     0.02   0.02   0.06
    49   1    -0.17   0.20  -0.24    -0.01  -0.07   0.01    -0.11  -0.02  -0.04
    50   1    -0.02   0.03   0.23    -0.02  -0.01  -0.04     0.08   0.14   0.22
    51   1    -0.14   0.13   0.18     0.05  -0.04  -0.05    -0.10   0.02   0.03
    52   1     0.06  -0.08  -0.08     0.01   0.01  -0.02    -0.02  -0.15   0.13
    53   1    -0.10   0.13   0.20     0.03  -0.04  -0.06     0.03   0.11  -0.00
    54   1     0.10  -0.07  -0.14    -0.03  -0.03   0.03     0.04  -0.08   0.05
    55   1    -0.08   0.06   0.12     0.01  -0.00  -0.03    -0.01   0.06   0.01
    56   8     0.00   0.02  -0.02     0.04   0.03   0.02    -0.02  -0.04   0.05
    57   6    -0.02  -0.00  -0.01    -0.03  -0.00  -0.02     0.06   0.01   0.03
    58   6    -0.02  -0.00   0.02    -0.03  -0.00   0.01     0.05   0.01  -0.04
    59   6    -0.00   0.02   0.02    -0.00   0.02   0.02     0.01  -0.05  -0.04
    60   6     0.00  -0.02   0.02     0.00  -0.02   0.01    -0.00   0.06  -0.04
    61   1    -0.00   0.00  -0.01    -0.03  -0.00  -0.02     0.02  -0.00   0.04
    62   1     0.01   0.00  -0.01    -0.03  -0.00  -0.01     0.00  -0.00   0.03
    63   1    -0.04  -0.00  -0.04    -0.04  -0.00  -0.03     0.10   0.01   0.10
    64   1     0.01   0.01  -0.01     0.03   0.01  -0.00    -0.01  -0.03  -0.01
    65   1     0.01   0.05   0.03     0.02   0.07   0.04    -0.01  -0.13  -0.08
    66   1     0.01   0.01  -0.01     0.02  -0.00  -0.02    -0.02  -0.04  -0.01
    67   1     0.01  -0.01   0.01     0.01  -0.01   0.00    -0.01   0.03  -0.02
    68   1     0.01  -0.04   0.02     0.03  -0.05   0.04    -0.02   0.11  -0.06
    69   1     0.01  -0.01   0.00     0.02   0.01  -0.01    -0.02   0.04  -0.02
                     67                     68                     69
                      A                      A                      A
 Frequencies --    749.7553               754.1066               775.6734
 Red. masses --      4.3604                 1.9866                 2.0481
 Frc consts  --      1.4442                 0.6656                 0.7260
 IR Inten    --      0.0000                 0.0000                 0.0000
  Atom  AN      X      Y      Z        X      Y      Z        X      Y      Z
     1  26    -0.01   0.00   0.01     0.00   0.00   0.02     0.01  -0.01  -0.01
     2   6    -0.04   0.31  -0.15     0.00  -0.02   0.01    -0.01  -0.01   0.01
     3  46     0.00  -0.00  -0.00     0.00  -0.00  -0.00     0.00   0.00  -0.00
     4   6    -0.02  -0.02   0.00     0.00  -0.01  -0.01    -0.01  -0.01  -0.00
     5   1     0.02  -0.02  -0.02    -0.13   0.04   0.00     0.27  -0.40  -0.26
     6   1     0.02   0.01  -0.03     0.15   0.05  -0.08    -0.11   0.14  -0.01
     7   1    -0.08   0.05   0.12    -0.47   0.28   0.70     0.09  -0.00   0.08
     8   6    -0.02  -0.05   0.06    -0.01   0.01  -0.00    -0.01   0.01  -0.01
     9   8    -0.03  -0.11  -0.02     0.00   0.01   0.00     0.01   0.01   0.01
    10   6     0.01  -0.03   0.03    -0.01   0.01  -0.04     0.01  -0.02  -0.00
    11   8    -0.04   0.02   0.03     0.02  -0.00  -0.00     0.02  -0.01  -0.00
    12   6     0.03   0.04   0.03     0.01  -0.00   0.01    -0.05  -0.02  -0.02
    13   6     0.01   0.02  -0.01    -0.00  -0.03  -0.02     0.00   0.07   0.06
    14   6     0.04  -0.03   0.02    -0.03   0.02   0.02     0.02   0.01   0.02
    15   1     0.03   0.02  -0.04     0.01   0.01  -0.01    -0.04  -0.04  -0.01
    16   1    -0.06   0.01  -0.10     0.03  -0.04  -0.05     0.12  -0.04  -0.33
    17   1     0.04  -0.03   0.05    -0.01   0.02  -0.09    -0.02  -0.08  -0.07
    18   1     0.26  -0.03  -0.07    -0.05  -0.00   0.01    -0.06   0.02   0.01
    19   6     0.01   0.01  -0.07     0.01   0.01   0.01    -0.00  -0.01   0.06
    20   6     0.11  -0.15   0.01    -0.00   0.01   0.00     0.01   0.01   0.00
    21   8     0.03  -0.04   0.13    -0.00   0.00  -0.01    -0.01  -0.01  -0.01
    22   6    -0.00   0.00  -0.02    -0.09   0.04  -0.07    -0.05   0.09  -0.04
    23   6     0.00   0.01   0.00     0.04   0.06  -0.04     0.11   0.07   0.02
    24   6     0.00   0.01   0.01     0.02   0.06   0.00    -0.01  -0.07   0.14
    25   6     0.01  -0.01  -0.00     0.07   0.01   0.07    -0.07  -0.05  -0.03
    26   6    -0.00  -0.03  -0.01     0.01  -0.20  -0.07    -0.04   0.01  -0.04
    27   1    -0.04   0.06   0.04    -0.05   0.10  -0.07     0.05  -0.16  -0.26
    28   7     0.06   0.09   0.06    -0.01  -0.01  -0.00    -0.01  -0.01  -0.00
    29   1    -0.13  -0.29   0.12     0.01   0.01  -0.01     0.00   0.01  -0.00
    30   1     0.00   0.00   0.01     0.04   0.01   0.01     0.00   0.01  -0.00
    31   1    -0.04  -0.01   0.01    -0.03  -0.02   0.01    -0.02  -0.02   0.01
    32   1     0.01   0.00   0.01     0.04   0.01   0.14     0.05   0.13   0.01
    33   7    -0.00   0.00  -0.01    -0.01  -0.00   0.00     0.00   0.00   0.00
    34   6    -0.01   0.01   0.00    -0.00   0.00   0.00     0.00  -0.00  -0.00
    35   6     0.00   0.00  -0.01    -0.00  -0.01   0.00     0.00  -0.00  -0.00
    36   1    -0.00   0.00   0.00     0.00   0.00  -0.01    -0.01   0.01   0.00
    37   1    -0.00   0.01   0.01    -0.00   0.01   0.00    -0.00  -0.00  -0.00
    38   1    -0.01   0.02   0.02    -0.00  -0.00  -0.01     0.00  -0.01  -0.01
    39   1     0.00   0.01  -0.01    -0.01  -0.00   0.01     0.01  -0.00  -0.01
    40   1     0.00   0.00  -0.01     0.00  -0.01  -0.00    -0.01  -0.00   0.01
    41   1     0.01   0.01  -0.01     0.02   0.01  -0.01     0.00   0.00  -0.01
    42   6    -0.03  -0.11  -0.07     0.00   0.01   0.01     0.03   0.01  -0.00
    43   6    -0.04   0.07   0.04    -0.00  -0.00   0.00     0.01  -0.01  -0.01
    44   6     0.04   0.04  -0.00    -0.00  -0.00  -0.01    -0.02   0.01   0.03
    45   6     0.03   0.07   0.03     0.00  -0.00  -0.00    -0.03   0.01   0.03
    46   6    -0.00  -0.05   0.03     0.00  -0.00  -0.00    -0.01   0.02   0.02
    47   6    -0.05   0.00  -0.02    -0.00   0.00   0.00     0.00   0.00   0.01
    48   6    -0.00  -0.02  -0.07     0.00  -0.00  -0.00     0.00  -0.00  -0.00
    49   1    -0.31  -0.18  -0.17     0.02   0.00   0.02    -0.04   0.05  -0.05
    50   1    -0.06   0.09   0.23     0.01  -0.00  -0.01     0.01   0.03   0.08
    51   1     0.15  -0.15  -0.20    -0.02   0.02   0.03     0.12  -0.14  -0.20
    52   1     0.12  -0.03  -0.25    -0.01   0.02   0.03     0.12  -0.17  -0.23
    53   1     0.06  -0.15  -0.14    -0.01   0.02   0.03     0.13  -0.14  -0.24
    54   1     0.01   0.03  -0.11    -0.00   0.03   0.01     0.05  -0.06  -0.10
    55   1     0.01  -0.05  -0.06     0.00  -0.00   0.03     0.02  -0.02  -0.07
    56   8    -0.03   0.03  -0.07    -0.00  -0.00   0.00    -0.01  -0.01   0.02
    57   6    -0.01  -0.00  -0.00     0.01   0.00   0.00     0.01   0.00   0.01
    58   6    -0.01  -0.00   0.01     0.00   0.00  -0.00     0.00   0.00  -0.00
    59   6    -0.00   0.03   0.02     0.00  -0.01  -0.00     0.00  -0.02  -0.01
    60   6     0.00  -0.03   0.02    -0.00   0.01  -0.00    -0.00   0.02  -0.01
    61   1     0.02   0.01  -0.01     0.00   0.00   0.00     0.01   0.00   0.01
    62   1     0.03   0.01  -0.00     0.00   0.00   0.00     0.01   0.00   0.01
    63   1    -0.04  -0.00  -0.05     0.01   0.00   0.01     0.02   0.00   0.01
    64   1    -0.00   0.02   0.01    -0.00  -0.00  -0.00    -0.00  -0.01  -0.01
    65   1    -0.01   0.04   0.02    -0.00  -0.01  -0.01     0.00  -0.02  -0.01
    66   1    -0.00   0.03   0.02    -0.00  -0.00  -0.00     0.00  -0.01  -0.01
    67   1    -0.00  -0.04   0.02    -0.00   0.01  -0.00    -0.00   0.02  -0.01
    68   1    -0.01  -0.02   0.01    -0.00   0.01  -0.01    -0.00   0.02  -0.01
    69   1    -0.00  -0.04   0.03    -0.00   0.00  -0.00    -0.00   0.02  -0.01
                     70                     71                     72
                      A                      A                      A
 Frequencies --    781.8315               786.5625               790.8844
 Red. masses --      1.5580                 3.0404                 1.8088
 Frc consts  --      0.5611                 1.1083                 0.6666
 IR Inten    --      0.0000                 0.0000                 0.0000
  Atom  AN      X      Y      Z        X      Y      Z        X      Y      Z
     1  26     0.00  -0.00  -0.00     0.02  -0.01  -0.02     0.01  -0.00  -0.01
     2   6     0.01   0.04  -0.02    -0.05   0.08  -0.01     0.00  -0.01   0.00
     3  46    -0.00   0.00  -0.00    -0.00   0.00  -0.01    -0.00  -0.00   0.00
     4   6    -0.01  -0.00  -0.00     0.01   0.02   0.00    -0.01   0.00   0.01
     5   1     0.06  -0.17  -0.08    -0.09   0.09   0.03    -0.06  -0.07  -0.05
     6   1    -0.08   0.09   0.04     0.28  -0.18  -0.30     0.27  -0.11  -0.31
     7   1     0.15  -0.09  -0.07     0.03  -0.07  -0.16     0.26  -0.28  -0.29
     8   6    -0.00   0.00  -0.00    -0.04   0.04  -0.06     0.00  -0.00   0.00
     9   8    -0.01  -0.01  -0.01     0.02  -0.01   0.02    -0.00   0.00  -0.00
    10   6    -0.01   0.00  -0.01    -0.01   0.03  -0.03    -0.03   0.03  -0.02
    11   8     0.00  -0.00   0.00     0.09  -0.04  -0.03     0.01  -0.00   0.01
    12   6     0.01  -0.00  -0.01    -0.04  -0.05  -0.01     0.10   0.01   0.02
    13   6    -0.00  -0.02  -0.00    -0.01  -0.00   0.06    -0.01  -0.11  -0.02
    14   6    -0.01   0.00  -0.01    -0.05   0.06   0.03    -0.07   0.03   0.04
    15   1     0.01   0.02   0.00    -0.04  -0.04   0.02     0.09   0.04  -0.12
    16   1     0.01  -0.00   0.06     0.12  -0.08  -0.19    -0.12   0.01   0.41
    17   1    -0.00   0.02   0.03    -0.05  -0.04  -0.41     0.01   0.09  -0.24
    18   1     0.01   0.03  -0.01    -0.32   0.12  -0.01     0.01   0.05  -0.02
    19   6     0.00   0.01   0.01     0.01  -0.02   0.10     0.02   0.05  -0.03
    20   6    -0.00  -0.03   0.00     0.04  -0.06   0.04    -0.00   0.01   0.00
    21   8     0.01  -0.00   0.02    -0.01  -0.03  -0.00    -0.00   0.00  -0.00
    22   6    -0.04   0.05  -0.03     0.01  -0.04   0.02    -0.09   0.03  -0.02
    23   6     0.09   0.04  -0.01    -0.06  -0.04  -0.01     0.02   0.03  -0.01
    24   6     0.01  -0.05   0.06    -0.03   0.04  -0.03     0.03  -0.01  -0.00
    25   6    -0.03  -0.03  -0.01     0.00   0.05   0.08    -0.00   0.01   0.10
    26   6    -0.03   0.01  -0.00    -0.01   0.02   0.04    -0.06  -0.02   0.05
    27   1     0.02  -0.09  -0.15     0.06   0.02   0.01     0.16  -0.13  -0.32
    28   7    -0.00   0.00   0.00    -0.03  -0.01   0.01     0.01   0.00   0.01
    29   1    -0.03  -0.06   0.01    -0.06  -0.13   0.05     0.01   0.02   0.01
    30   1    -0.00   0.01  -0.00    -0.03  -0.03   0.01    -0.02  -0.03   0.02
    31   1    -0.01  -0.01   0.01     0.03   0.01  -0.00    -0.02  -0.00   0.01
    32   1    -0.04   0.12   0.16     0.01  -0.09  -0.08     0.03  -0.00   0.08
    33   7     0.00   0.00   0.00     0.01   0.00   0.00     0.00   0.00  -0.00
    34   6     0.00  -0.00  -0.00     0.00  -0.01  -0.01    -0.00  -0.00  -0.00
    35   6    -0.00  -0.00   0.00    -0.01  -0.00   0.01    -0.00   0.01   0.00
    36   1    -0.00   0.00   0.00     0.00  -0.00  -0.01     0.00  -0.01   0.00
    37   1    -0.00  -0.00  -0.00     0.01  -0.01  -0.01     0.00   0.00   0.00
    38   1     0.00  -0.00  -0.00     0.00  -0.01  -0.01     0.00   0.00   0.00
    39   1     0.00   0.00  -0.00    -0.01   0.00   0.01     0.00   0.01  -0.00
    40   1    -0.01  -0.00   0.00    -0.01  -0.01   0.01     0.00  -0.01  -0.00
    41   1    -0.00  -0.00   0.00    -0.02  -0.01   0.02    -0.02  -0.01   0.02
    42   6    -0.02  -0.02   0.04     0.05  -0.02   0.07    -0.01   0.01  -0.03
    43   6    -0.01   0.02   0.01    -0.01   0.01  -0.01     0.00   0.00   0.00
    44   6     0.04  -0.01  -0.05     0.01   0.03  -0.01    -0.00  -0.00   0.02
    45   6     0.06  -0.00  -0.05     0.06   0.04   0.00    -0.03  -0.01   0.02
    46   6     0.02  -0.05  -0.02     0.01  -0.05   0.03    -0.01   0.02  -0.00
    47   6    -0.04   0.01  -0.02    -0.06   0.02  -0.04     0.02  -0.01   0.01
    48   6    -0.03   0.02   0.00    -0.04   0.01  -0.03     0.02  -0.01  -0.00
    49   1     0.03  -0.10   0.09    -0.06  -0.02   0.02    -0.00   0.02  -0.03
    50   1    -0.00  -0.04  -0.04     0.04   0.05   0.17    -0.01   0.00  -0.02
    51   1    -0.19   0.24   0.33    -0.01  -0.00   0.01     0.07  -0.07  -0.10
    52   1    -0.20   0.32   0.36     0.02   0.08  -0.03     0.05  -0.10  -0.11
    53   1    -0.19   0.21   0.39     0.01  -0.04   0.04     0.05  -0.05  -0.11
    54   1    -0.09   0.12   0.11    -0.03   0.10  -0.07     0.01  -0.04   0.02
    55   1    -0.04   0.03   0.05    -0.01  -0.02  -0.01     0.01   0.01  -0.03
    56   8    -0.00   0.00   0.00    -0.05  -0.02   0.11     0.00   0.00  -0.03
    57   6     0.00   0.00   0.00     0.08   0.01   0.05    -0.01  -0.00  -0.01
    58   6     0.00   0.00  -0.00     0.00   0.00   0.00    -0.00  -0.00   0.00
    59   6     0.00  -0.00  -0.00     0.01  -0.10  -0.07    -0.00   0.02   0.01
    60   6    -0.00   0.00  -0.00    -0.02   0.11  -0.07     0.00  -0.02   0.01
    61   1     0.00   0.00   0.00     0.06   0.00   0.06    -0.01   0.00  -0.01
    62   1     0.00  -0.00   0.00     0.06   0.01   0.05    -0.01  -0.00  -0.01
    63   1     0.00  -0.00   0.00     0.09   0.01   0.07    -0.02  -0.00  -0.02
    64   1     0.00  -0.00  -0.00     0.01  -0.10  -0.08    -0.01   0.02   0.02
    65   1     0.00  -0.00  -0.00     0.01  -0.10  -0.07    -0.00   0.01   0.01
    66   1     0.00  -0.00  -0.00     0.01  -0.11  -0.07    -0.01   0.02   0.02
    67   1     0.00   0.00   0.00    -0.01   0.12  -0.09     0.00  -0.02   0.02
    68   1    -0.00   0.00  -0.00    -0.01   0.09  -0.07    -0.00  -0.01   0.01
    69   1    -0.00   0.00  -0.00    -0.01   0.11  -0.07     0.00  -0.03   0.02
                     73                     74                     75
                      A                      A                      A
 Frequencies --    793.9295               804.3693               807.8624
 Red. masses --      1.9140                 2.9589                 1.9992
 Frc consts  --      0.7108                 1.1279                 0.7687
 IR Inten    --      0.0000                 0.0000                 0.0000
  Atom  AN      X      Y      Z        X      Y      Z        X      Y      Z
     1  26    -0.01   0.01   0.02     0.00   0.01  -0.00     0.01   0.00   0.01
     2   6    -0.04   0.02   0.01     0.04   0.01  -0.02     0.01   0.01  -0.01
     3  46     0.00  -0.00   0.00     0.00   0.00  -0.01    -0.00   0.00  -0.01
     4   6     0.00   0.00  -0.01    -0.01   0.01  -0.00     0.00   0.01  -0.00
     5   1    -0.10   0.15   0.19    -0.01   0.05   0.10    -0.24   0.26   0.24
     6   1    -0.34   0.19   0.44    -0.29   0.15   0.29     0.03  -0.02   0.08
     7   1     0.04  -0.03  -0.01    -0.03   0.09   0.08     0.10  -0.16  -0.15
     8   6    -0.01   0.02  -0.02    -0.03   0.00  -0.03    -0.01   0.00  -0.01
     9   8     0.02   0.00   0.02    -0.01  -0.01  -0.02    -0.01  -0.01  -0.01
    10   6    -0.03   0.03  -0.02    -0.05   0.06  -0.06     0.01  -0.01  -0.02
    11   8    -0.01  -0.01  -0.04     0.19  -0.03   0.06     0.07  -0.01   0.04
    12   6     0.06   0.01   0.03     0.04  -0.04   0.03    -0.12  -0.04  -0.04
    13   6    -0.01  -0.08  -0.03    -0.02  -0.08   0.06    -0.00   0.08  -0.03
    14   6    -0.03  -0.01  -0.09    -0.11   0.07  -0.05     0.05  -0.00  -0.04
    15   1     0.06  -0.02  -0.13     0.05  -0.08  -0.33    -0.12   0.01   0.37
    16   1    -0.11   0.02   0.31     0.13  -0.13  -0.03     0.05   0.06  -0.04
    17   1     0.01   0.18   0.42    -0.08   0.09  -0.22     0.03   0.06   0.42
    18   1    -0.04   0.02  -0.03    -0.40   0.10   0.08    -0.14   0.07   0.03
    19   6    -0.01   0.04  -0.01     0.03   0.02   0.09    -0.01  -0.04   0.09
    20   6     0.03  -0.02   0.01    -0.03  -0.01   0.03    -0.00  -0.00  -0.00
    21   8    -0.01  -0.01  -0.02     0.00   0.00   0.03    -0.00  -0.00   0.02
    22   6    -0.03   0.03   0.01     0.05  -0.01   0.02    -0.09   0.03   0.01
    23   6     0.03   0.02   0.01     0.01  -0.01   0.01    -0.01   0.00  -0.02
    24   6     0.05  -0.04  -0.03     0.01  -0.04  -0.00     0.04   0.03  -0.05
    25   6     0.02  -0.05  -0.07    -0.05  -0.01  -0.04     0.08  -0.02   0.01
    26   6     0.00  -0.01  -0.01     0.03   0.03  -0.03    -0.04  -0.03   0.05
    27   1     0.04  -0.05  -0.09    -0.19   0.10   0.28     0.27  -0.16  -0.40
    28   7    -0.00  -0.00   0.00    -0.01   0.01   0.03    -0.01  -0.00   0.01
    29   1    -0.00  -0.03   0.02    -0.04  -0.01   0.07    -0.02  -0.01   0.00
    30   1     0.00   0.03  -0.03    -0.04  -0.01  -0.02    -0.01   0.01  -0.02
    31   1     0.01  -0.01  -0.00     0.00  -0.04   0.01     0.02  -0.00  -0.00
    32   1    -0.01   0.04   0.07    -0.05   0.06   0.01     0.06  -0.08   0.01
    33   7     0.01  -0.00   0.01     0.02  -0.00   0.01     0.01   0.00   0.01
    34   6     0.00  -0.01  -0.01     0.01  -0.02  -0.01     0.01  -0.01  -0.01
    35   6    -0.01  -0.00   0.01    -0.02  -0.01   0.02    -0.01   0.00   0.01
    36   1     0.00  -0.00  -0.00    -0.00   0.00  -0.01    -0.00  -0.00  -0.01
    37   1     0.00  -0.00  -0.00     0.01  -0.02  -0.01     0.01  -0.02  -0.01
    38   1     0.01  -0.02  -0.01     0.01  -0.03  -0.03     0.01  -0.02  -0.02
    39   1    -0.00  -0.00   0.00    -0.00  -0.00  -0.00    -0.00   0.01  -0.01
    40   1    -0.01  -0.01   0.01    -0.03  -0.01   0.03    -0.02  -0.01   0.01
    41   1    -0.01  -0.00   0.01    -0.02  -0.00   0.00    -0.02  -0.01   0.02
    42   6     0.03   0.00   0.01    -0.03  -0.01   0.00    -0.00  -0.00   0.01
    43   6    -0.00   0.01  -0.00     0.00  -0.01  -0.01     0.00  -0.00  -0.00
    44   6    -0.00   0.01   0.01    -0.00   0.01   0.00     0.00   0.01   0.00
    45   6    -0.01   0.01   0.02     0.00   0.01   0.00     0.01   0.01   0.00
    46   6    -0.01  -0.00   0.01    -0.00  -0.00   0.01    -0.00  -0.00   0.00
    47   6    -0.01   0.00  -0.01    -0.00  -0.00   0.00    -0.00   0.00  -0.00
    48   6    -0.00  -0.00  -0.02     0.00   0.00  -0.00    -0.00  -0.00  -0.01
    49   1    -0.04   0.02  -0.03     0.04   0.02   0.02    -0.00  -0.00   0.00
    50   1     0.02   0.05   0.08    -0.02  -0.05  -0.07    -0.00  -0.01   0.01
    51   1     0.06  -0.08  -0.10     0.02  -0.02  -0.03     0.01  -0.02  -0.02
    52   1     0.06  -0.07  -0.12     0.02  -0.02  -0.05     0.02  -0.01  -0.03
    53   1     0.06  -0.07  -0.09     0.01  -0.04  -0.04     0.01  -0.01  -0.02
    54   1     0.00   0.02  -0.02     0.02   0.04  -0.02    -0.01  -0.02   0.00
    55   1     0.01  -0.01  -0.02     0.03  -0.03   0.04    -0.01   0.01  -0.03
    56   8    -0.01  -0.01   0.09    -0.03   0.00  -0.14    -0.01   0.00  -0.06
    57   6     0.04   0.00   0.03    -0.03  -0.00  -0.02    -0.02  -0.00  -0.01
    58   6    -0.00  -0.00   0.00     0.00   0.00  -0.00     0.00   0.00  -0.00
    59   6     0.00  -0.07  -0.05    -0.00   0.06   0.04    -0.00   0.04   0.02
    60   6    -0.01   0.07  -0.04     0.01  -0.06   0.04     0.01  -0.04   0.02
    61   1     0.03   0.00   0.03     0.01   0.00  -0.02    -0.00   0.00  -0.01
    62   1     0.03   0.01   0.03     0.01  -0.00  -0.02    -0.01  -0.00  -0.02
    63   1     0.06   0.01   0.05    -0.07  -0.01  -0.08    -0.03  -0.00  -0.03
    64   1     0.02  -0.07  -0.06    -0.04   0.07   0.06    -0.02   0.04   0.03
    65   1     0.01  -0.04  -0.03    -0.03   0.00   0.00    -0.01   0.01   0.00
    66   1     0.02  -0.08  -0.06    -0.04   0.10   0.08    -0.02   0.05   0.05
    67   1     0.00   0.09  -0.06    -0.02  -0.09   0.06    -0.01  -0.05   0.04
    68   1     0.00   0.04  -0.04    -0.02  -0.01   0.01    -0.01  -0.01   0.01
    69   1    -0.00   0.08  -0.06    -0.01  -0.11   0.08    -0.00  -0.05   0.04
                     76                     77                     78
                      A                      A                      A
 Frequencies --    821.1744               827.6424               838.5821
 Red. masses --      1.9921                 1.7211                 2.3224
 Frc consts  --      0.7915                 0.6946                 0.9622
 IR Inten    --      0.0000                 0.0000                 0.0000
  Atom  AN      X      Y      Z        X      Y      Z        X      Y      Z
     1  26    -0.00   0.01   0.01    -0.00   0.01   0.01    -0.00   0.00   0.01
     2   6    -0.00   0.02  -0.01    -0.01  -0.02   0.02    -0.13   0.03   0.05
     3  46    -0.00   0.00  -0.01     0.00  -0.00   0.00     0.00  -0.00   0.00
     4   6    -0.01  -0.00   0.00    -0.00  -0.01  -0.00     0.00   0.00   0.00
     5   1    -0.13   0.04   0.13    -0.40   0.29   0.42     0.19  -0.18  -0.19
     6   1     0.04  -0.01  -0.15     0.01   0.04  -0.10     0.04  -0.07  -0.09
     7   1     0.06  -0.00   0.03     0.10  -0.05  -0.01    -0.09   0.10   0.06
     8   6    -0.02   0.01  -0.02     0.01  -0.01   0.02    -0.01   0.00   0.01
     9   8     0.00  -0.01  -0.01     0.00   0.01   0.01     0.03   0.02   0.07
    10   6     0.01  -0.01  -0.01     0.02  -0.02   0.01    -0.01   0.01  -0.01
    11   8     0.03  -0.01  -0.01    -0.03   0.02   0.00     0.04   0.00   0.06
    12   6    -0.06  -0.03  -0.07    -0.01   0.01   0.01    -0.00  -0.01  -0.04
    13   6     0.01   0.02  -0.06     0.01   0.04  -0.02     0.00  -0.04  -0.04
    14   6     0.03   0.02   0.03     0.03   0.00   0.04     0.00   0.00  -0.01
    15   1    -0.07   0.07   0.46     0.00  -0.04  -0.10    -0.02   0.07   0.38
    16   1    -0.02   0.13   0.37    -0.05   0.04  -0.05    -0.09   0.09   0.42
    17   1     0.03  -0.03  -0.13     0.01  -0.11  -0.30     0.03   0.09   0.12
    18   1    -0.07   0.12  -0.05     0.06  -0.15   0.05    -0.11  -0.00   0.09
    19   6     0.00  -0.02   0.05    -0.01  -0.02  -0.01    -0.00   0.02   0.00
    20   6     0.02  -0.02   0.04    -0.01   0.01  -0.03     0.10  -0.01  -0.08
    21   8    -0.00  -0.01   0.01    -0.00   0.00  -0.02    -0.04  -0.04  -0.08
    22   6     0.03  -0.00  -0.05     0.01   0.01  -0.03     0.03  -0.01   0.00
    23   6     0.06   0.02  -0.00     0.07   0.01  -0.01    -0.01  -0.01   0.01
    24   6     0.02  -0.06   0.00     0.05  -0.08  -0.04    -0.03  -0.00   0.03
    25   6    -0.06  -0.01   0.01    -0.05  -0.02   0.00    -0.03   0.01  -0.00
    26   6    -0.02   0.01  -0.02    -0.03   0.01   0.00     0.02   0.02  -0.03
    27   1    -0.30   0.15   0.32    -0.17   0.06   0.15    -0.05   0.05   0.10
    28   7     0.04   0.03   0.04    -0.04  -0.02  -0.03    -0.07  -0.03  -0.04
    29   1     0.05   0.04   0.12    -0.03  -0.03  -0.10     0.07  -0.06  -0.19
    30   1    -0.01  -0.01   0.01     0.03   0.01   0.02    -0.01  -0.02   0.00
    31   1    -0.02  -0.01   0.01    -0.03   0.00   0.01     0.01  -0.00  -0.00
    32   1    -0.14   0.16   0.22    -0.20   0.21   0.31     0.02  -0.01  -0.06
    33   7     0.00  -0.00   0.00    -0.00   0.00  -0.00     0.00   0.00   0.00
    34   6    -0.00   0.00   0.00    -0.00   0.01   0.00     0.00  -0.00  -0.00
    35   6    -0.00  -0.00   0.00     0.01   0.00  -0.01    -0.00  -0.00   0.00
    36   1    -0.00   0.01   0.00    -0.00   0.01   0.00    -0.00  -0.00  -0.00
    37   1    -0.00  -0.00  -0.00    -0.00   0.00   0.00     0.00  -0.00  -0.00
    38   1    -0.00  -0.00  -0.00    -0.00   0.00   0.00     0.00  -0.00  -0.00
    39   1     0.00   0.00  -0.01     0.00   0.00  -0.00    -0.00  -0.01   0.01
    40   1    -0.01  -0.00   0.01     0.01   0.00  -0.01    -0.00   0.00   0.00
    41   1    -0.00   0.00  -0.01     0.01   0.00  -0.01     0.00   0.00  -0.00
    42   6    -0.06   0.02  -0.11     0.06  -0.01   0.08     0.13   0.02   0.00
    43   6    -0.01   0.02   0.02     0.00  -0.02  -0.02    -0.03   0.03   0.03
    44   6    -0.00  -0.02   0.01    -0.02   0.02  -0.01    -0.01  -0.01  -0.00
    45   6    -0.05  -0.04   0.00     0.03   0.04   0.01    -0.00  -0.02   0.01
    46   6    -0.01   0.04  -0.03    -0.00  -0.02   0.04     0.01  -0.01  -0.01
    47   6     0.07  -0.03   0.03    -0.04   0.01  -0.06    -0.01   0.01  -0.03
    48   6     0.04  -0.02   0.02    -0.03   0.01  -0.03    -0.02  -0.00  -0.03
    49   1     0.01   0.04  -0.08    -0.03  -0.02   0.04    -0.22  -0.04  -0.14
    50   1    -0.04   0.04  -0.17     0.04  -0.02   0.16     0.08   0.22   0.35
    51   1     0.03  -0.01  -0.02     0.02  -0.06  -0.07    -0.01  -0.02  -0.00
    52   1    -0.02  -0.07   0.03     0.07  -0.01  -0.09    -0.02   0.01   0.05
    53   1    -0.04   0.05   0.00     0.06  -0.08  -0.07     0.00   0.05   0.10
    54   1     0.00  -0.08   0.14    -0.02   0.12  -0.04    -0.03   0.04   0.03
    55   1     0.02   0.01   0.06     0.01  -0.04  -0.01    -0.03   0.01  -0.01
    56   8    -0.02  -0.00   0.01     0.02   0.00  -0.00     0.00  -0.00  -0.03
    57   6     0.03   0.00   0.03    -0.02  -0.00  -0.02    -0.02  -0.00  -0.03
    58   6    -0.02  -0.00   0.02     0.02   0.00  -0.01     0.03   0.00  -0.02
    59   6    -0.00  -0.04  -0.02     0.00   0.03   0.02     0.01   0.04   0.02
    60   6    -0.01   0.04  -0.02     0.01  -0.03   0.01     0.02  -0.05   0.02
    61   1     0.06   0.01   0.02    -0.05  -0.01  -0.02    -0.05  -0.01  -0.02
    62   1     0.06   0.01   0.03    -0.05  -0.00  -0.02    -0.06  -0.01  -0.03
    63   1     0.00   0.00  -0.01     0.00  -0.00   0.01    -0.00  -0.00   0.01
    64   1     0.01  -0.05  -0.04    -0.01   0.04   0.03    -0.02   0.06   0.06
    65   1     0.00  -0.01  -0.01    -0.00   0.00   0.01    -0.01  -0.02  -0.01
    66   1     0.01  -0.04  -0.04    -0.01   0.03   0.03    -0.02   0.07   0.06
    67   1    -0.00   0.06  -0.04     0.00  -0.04   0.03    -0.01  -0.08   0.06
    68   1     0.00   0.01  -0.01    -0.00  -0.00   0.01    -0.01   0.02   0.00
    69   1    -0.00   0.05  -0.04     0.00  -0.03   0.02    -0.01  -0.06   0.05
                     79                     80                     81
                      A                      A                      A
 Frequencies --    842.3877               850.3588               867.2396
 Red. masses --      1.8965                 1.4749                 1.3041
 Frc consts  --      0.7929                 0.6284                 0.5779
 IR Inten    --      0.0000                 0.0000                 0.0000
  Atom  AN      X      Y      Z        X      Y      Z        X      Y      Z
     1  26     0.00  -0.00   0.01     0.01  -0.00  -0.01    -0.00   0.00  -0.00
     2   6     0.09  -0.03  -0.02    -0.03  -0.00   0.02    -0.00   0.00  -0.00
     3  46     0.00   0.00  -0.00    -0.00  -0.00   0.00     0.00   0.00   0.00
     4   6     0.01   0.01   0.00    -0.01   0.02   0.00    -0.03  -0.01  -0.00
     5   1     0.19  -0.20  -0.24     0.01  -0.07  -0.13    -0.05   0.04   0.02
     6   1     0.10  -0.10  -0.11     0.06  -0.02   0.05    -0.20   0.19   0.29
     7   1    -0.00   0.00  -0.01     0.18  -0.25  -0.26     0.05  -0.06  -0.04
     8   6     0.01   0.01  -0.01    -0.00   0.00   0.00    -0.00   0.02   0.01
     9   8    -0.02  -0.01  -0.04     0.01   0.01   0.02    -0.00  -0.00  -0.00
    10   6    -0.01   0.01  -0.01    -0.00   0.00  -0.02    -0.01   0.02   0.01
    11   8    -0.00  -0.01  -0.02    -0.01  -0.00   0.00    -0.04  -0.02  -0.01
    12   6    -0.00  -0.01  -0.04    -0.00   0.00   0.03     0.05  -0.02  -0.05
    13   6    -0.00  -0.03  -0.02    -0.02   0.01   0.04     0.01  -0.03   0.04
    14   6     0.01  -0.01  -0.03    -0.01  -0.01  -0.03    -0.04   0.01   0.02
    15   1    -0.02   0.08   0.40    -0.00  -0.00  -0.19     0.01   0.18   0.54
    16   1    -0.10   0.06   0.29     0.10  -0.10  -0.35     0.08  -0.11  -0.22
    17   1     0.05   0.15   0.33    -0.01   0.07   0.34    -0.05  -0.09  -0.34
    18   1    -0.02   0.10  -0.04     0.03   0.09  -0.03     0.16   0.41  -0.22
    19   6    -0.01   0.02   0.01     0.01  -0.00   0.00     0.03   0.02  -0.03
    20   6    -0.09   0.00   0.04     0.02   0.00  -0.01     0.00   0.00   0.00
    21   8     0.03   0.03   0.04    -0.01  -0.01  -0.02     0.00   0.00  -0.00
    22   6     0.02  -0.02  -0.03    -0.02  -0.03  -0.08    -0.01  -0.00   0.01
    23   6    -0.00   0.01  -0.01     0.01   0.03  -0.04    -0.01   0.00   0.00
    24   6    -0.03   0.02   0.03     0.00   0.06   0.01     0.01   0.02  -0.01
    25   6    -0.00   0.01   0.02     0.07  -0.02   0.04     0.02  -0.01  -0.01
    26   6    -0.00   0.00  -0.01    -0.06  -0.04   0.05     0.00  -0.02   0.02
    27   1    -0.21   0.14   0.24    -0.36   0.29   0.38     0.02   0.01  -0.01
    28   7    -0.01  -0.01  -0.01    -0.01  -0.00  -0.00    -0.01  -0.01   0.00
    29   1    -0.12  -0.03   0.04     0.04   0.01  -0.03     0.01   0.00  -0.01
    30   1    -0.00  -0.02   0.00    -0.04   0.01  -0.02    -0.02   0.03  -0.02
    31   1     0.02   0.01  -0.01     0.00  -0.00   0.00    -0.02  -0.03   0.01
    32   1    -0.03   0.02   0.04    -0.09   0.06   0.25     0.03  -0.03  -0.01
    33   7    -0.00  -0.00  -0.00     0.01   0.01   0.00     0.01   0.00   0.01
    34   6    -0.00  -0.00  -0.00     0.01  -0.02  -0.01     0.00  -0.01  -0.01
    35   6    -0.00  -0.00   0.00    -0.00   0.01   0.01     0.00   0.00   0.00
    36   1     0.00  -0.00  -0.00     0.00  -0.01  -0.00    -0.01  -0.01   0.00
    37   1     0.00   0.00   0.00     0.01  -0.02  -0.01     0.00  -0.01  -0.01
    38   1     0.00   0.01   0.00     0.01  -0.02  -0.01     0.01  -0.01  -0.01
    39   1    -0.00  -0.00   0.01     0.00   0.01  -0.01     0.01   0.01  -0.02
    40   1     0.01   0.00  -0.01    -0.02  -0.02   0.01    -0.02  -0.01   0.01
    41   1     0.00  -0.00   0.01    -0.03  -0.02   0.03    -0.01   0.00  -0.01
    42   6    -0.02  -0.03   0.12     0.02   0.01  -0.03     0.01   0.00  -0.00
    43   6     0.02  -0.04  -0.05    -0.01   0.01   0.01    -0.00  -0.00   0.00
    44   6     0.01   0.04   0.01    -0.02  -0.01  -0.00    -0.00   0.00   0.00
    45   6     0.05   0.06   0.02    -0.01  -0.01   0.00    -0.00  -0.00   0.00
    46   6    -0.01  -0.02   0.05     0.01   0.01  -0.01    -0.00  -0.00  -0.00
    47   6    -0.06   0.01  -0.07     0.01  -0.00   0.01     0.00  -0.00  -0.01
    48   6    -0.03   0.01  -0.04     0.01  -0.01  -0.00     0.01  -0.01  -0.01
    49   1     0.14   0.01   0.17    -0.05   0.00  -0.05    -0.01   0.00  -0.01
    50   1    -0.00  -0.18  -0.05     0.01   0.06   0.04     0.00   0.01   0.01
    51   1     0.06  -0.07  -0.08    -0.01  -0.01  -0.01     0.01  -0.02  -0.02
    52   1     0.10  -0.00  -0.19     0.01  -0.03   0.03     0.01  -0.01  -0.01
    53   1     0.11  -0.14  -0.15    -0.01   0.03   0.02    -0.01   0.00   0.01
    54   1    -0.06   0.06  -0.03     0.01  -0.00   0.01     0.01   0.02  -0.02
    55   1    -0.04   0.01   0.01     0.01  -0.00   0.06    -0.01  -0.00   0.02
    56   8     0.01  -0.00   0.01     0.00   0.00   0.00     0.02  -0.00   0.04
    57   6    -0.01  -0.00  -0.01    -0.00  -0.00  -0.00    -0.01  -0.00  -0.03
    58   6     0.01   0.00  -0.01     0.00   0.00  -0.00     0.03   0.00  -0.02
    59   6     0.00   0.01   0.00     0.00   0.00   0.00     0.01   0.02   0.01
    60   6     0.00  -0.01   0.00     0.00  -0.00   0.00     0.01  -0.02   0.01
    61   1    -0.03  -0.00  -0.01    -0.01  -0.00  -0.00    -0.07  -0.01  -0.01
    62   1    -0.03  -0.00  -0.01    -0.01  -0.00  -0.00    -0.09  -0.01  -0.03
    63   1     0.01   0.00   0.02     0.00   0.00   0.01     0.04   0.00   0.06
    64   1    -0.00   0.01   0.01    -0.00   0.01   0.01    -0.01   0.04   0.04
    65   1    -0.00  -0.00   0.00    -0.00  -0.00  -0.00    -0.00  -0.02  -0.01
    66   1    -0.00   0.01   0.01    -0.00   0.01   0.01    -0.01   0.03   0.03
    67   1     0.00  -0.01   0.01    -0.00  -0.01   0.01     0.01  -0.05   0.04
    68   1     0.00  -0.00   0.01    -0.00   0.00  -0.00    -0.00   0.02   0.01
    69   1     0.00  -0.00   0.00    -0.00  -0.01   0.01    -0.00  -0.01   0.02
                     82                     83                     84
                      A                      A                      A
 Frequencies --    877.6900               887.3346               889.8392
 Red. masses --      1.4539                 2.2226                 1.3013
 Frc consts  --      0.6599                 1.0311                 0.6071
 IR Inten    --      0.0000                 0.0000                 0.0000
  Atom  AN      X      Y      Z        X      Y      Z        X      Y      Z
     1  26     0.00   0.00   0.00    -0.00  -0.00  -0.00     0.00   0.00   0.00
     2   6     0.00   0.01  -0.01     0.00   0.02  -0.01     0.00  -0.00  -0.00
     3  46     0.00   0.00  -0.00    -0.00   0.00  -0.00    -0.00   0.00  -0.00
     4   6     0.03  -0.00   0.01    -0.09   0.11  -0.03    -0.02   0.03  -0.00
     5   1    -0.01   0.05   0.09     0.01  -0.10  -0.12     0.12  -0.09  -0.19
     6   1     0.13  -0.15  -0.22    -0.06   0.13   0.12    -0.04  -0.03   0.10
     7   1    -0.07   0.10   0.10    -0.02  -0.04  -0.03    -0.13   0.07  -0.00
     8   6    -0.02   0.02   0.00    -0.03  -0.00  -0.01     0.00   0.00   0.00
     9   8     0.00  -0.01  -0.01     0.00  -0.01  -0.01    -0.00   0.00  -0.00
    10   6     0.00  -0.00  -0.02     0.02  -0.02  -0.01     0.01  -0.00  -0.00
    11   8    -0.02  -0.03  -0.03    -0.01   0.01  -0.06    -0.00  -0.00   0.01
    12   6    -0.04  -0.02   0.03    -0.03   0.01   0.01    -0.01   0.00   0.01
    13   6    -0.01  -0.00  -0.00     0.01   0.04  -0.06     0.01   0.01  -0.01
    14   6     0.01   0.00  -0.03     0.05  -0.00   0.04     0.01  -0.00   0.01
    15   1    -0.03  -0.03  -0.38    -0.01  -0.10  -0.21    -0.01   0.01  -0.08
    16   1     0.04   0.00   0.07    -0.10   0.14   0.31     0.07   0.02   0.08
    17   1     0.05   0.12   0.20    -0.04  -0.23  -0.21    -0.04  -0.09  -0.06
    18   1     0.12   0.63  -0.29    -0.11  -0.31   0.06     0.03   0.09  -0.03
    19   6    -0.01  -0.04   0.04     0.00  -0.03   0.02    -0.00  -0.02  -0.00
    20   6     0.01  -0.01   0.02     0.01  -0.03   0.04    -0.01   0.01  -0.01
    21   8    -0.00  -0.00   0.01     0.00  -0.00   0.01     0.00   0.00   0.00
    22   6     0.01   0.01   0.01    -0.00  -0.00  -0.02     0.01  -0.02   0.05
    23   6     0.01  -0.01   0.01    -0.01   0.02   0.01     0.00  -0.05  -0.05
    24   6    -0.00  -0.03   0.00    -0.00   0.02   0.01    -0.05   0.05  -0.02
    25   6    -0.04   0.01   0.00     0.04  -0.01  -0.00     0.02   0.02  -0.01
    26   6     0.01   0.02  -0.03    -0.01  -0.02   0.01     0.03   0.01   0.01
    27   1     0.03  -0.07  -0.04    -0.04   0.08   0.06     0.21  -0.09  -0.16
    28   7    -0.02  -0.00   0.02    -0.03   0.01   0.01     0.00  -0.00  -0.00
    29   1     0.01  -0.00   0.03     0.01  -0.02   0.04    -0.01   0.00   0.00
    30   1     0.00  -0.05   0.02    -0.20   0.10  -0.17    -0.06   0.02  -0.05
    31   1     0.03   0.02  -0.01     0.07  -0.01  -0.06     0.03  -0.00  -0.02
    32   1    -0.03   0.04  -0.02     0.16  -0.11  -0.16    -0.44   0.23   0.56
    33   7    -0.01  -0.01  -0.01     0.06   0.06   0.05     0.02   0.01   0.01
    34   6    -0.01   0.01   0.01     0.07  -0.10  -0.07     0.02  -0.03  -0.02
    35   6     0.00  -0.00  -0.01    -0.04  -0.02   0.08    -0.01  -0.01   0.02
    36   1     0.00  -0.01   0.01    -0.00  -0.02  -0.01     0.00  -0.01  -0.00
    37   1    -0.00   0.02   0.01     0.06  -0.18  -0.10     0.02  -0.05  -0.03
    38   1     0.00   0.03   0.01     0.02  -0.14  -0.08     0.01  -0.03  -0.02
    39   1    -0.00  -0.01   0.02     0.01   0.03  -0.07     0.00   0.01  -0.02
    40   1     0.02   0.01  -0.02    -0.15  -0.08   0.10    -0.04  -0.02   0.03
    41   1     0.01   0.01  -0.00    -0.10  -0.05   0.05    -0.02  -0.01   0.01
    42   6    -0.00   0.01  -0.02    -0.02   0.01   0.00     0.00  -0.00  -0.00
    43   6    -0.00   0.01   0.00    -0.00   0.01  -0.01     0.00  -0.01  -0.00
    44   6     0.00  -0.00   0.00     0.01  -0.00  -0.00    -0.02   0.02   0.03
    45   6    -0.01  -0.01  -0.00    -0.00  -0.00  -0.00    -0.00   0.01   0.01
    46   6     0.00   0.01  -0.01    -0.01   0.00   0.01     0.02  -0.02  -0.03
    47   6     0.01  -0.00   0.01    -0.00   0.00   0.01     0.02  -0.02  -0.03
    48   6    -0.00   0.00   0.01    -0.00   0.01   0.00     0.00   0.01   0.00
    49   1    -0.00   0.02  -0.02     0.05   0.03   0.03    -0.01   0.00  -0.01
    50   1    -0.00   0.02  -0.01    -0.00   0.00  -0.07    -0.00  -0.01   0.02
    51   1     0.00   0.00   0.00    -0.02   0.03   0.05     0.12  -0.15  -0.21
    52   1    -0.01  -0.01   0.01    -0.02   0.01  -0.00     0.05  -0.05  -0.06
    53   1    -0.01   0.02   0.01     0.02  -0.03  -0.05    -0.09   0.10   0.17
    54   1    -0.00  -0.02   0.03     0.01  -0.02   0.00    -0.08   0.05   0.16
    55   1     0.01   0.00  -0.01    -0.00   0.01   0.00     0.02  -0.01  -0.04
    56   8     0.02  -0.00   0.07    -0.00  -0.01   0.08     0.00   0.00  -0.01
    57   6    -0.03  -0.00  -0.05    -0.02  -0.00  -0.06     0.00  -0.00   0.01
    58   6     0.06   0.01  -0.04     0.07   0.01  -0.05    -0.01  -0.00   0.01
    59   6     0.02   0.04   0.01     0.02   0.04   0.01    -0.00  -0.01  -0.00
    60   6     0.02  -0.04   0.01     0.02  -0.03   0.01    -0.00   0.01  -0.00
    61   1    -0.14  -0.02  -0.03    -0.14  -0.03  -0.03     0.02   0.00   0.00
    62   1    -0.16  -0.02  -0.05    -0.17  -0.01  -0.05     0.03   0.00   0.01
    63   1     0.09   0.01   0.11     0.10   0.01   0.12    -0.02  -0.00  -0.02
    64   1    -0.03   0.07   0.07    -0.02   0.07   0.06     0.00  -0.01  -0.01
    65   1    -0.01  -0.07  -0.03    -0.01  -0.07  -0.04     0.00   0.01   0.01
    66   1    -0.03   0.06   0.07    -0.02   0.06   0.07     0.00  -0.01  -0.01
    67   1     0.00  -0.08   0.06    -0.01  -0.09   0.07     0.00   0.02  -0.01
    68   1    -0.02   0.04  -0.02    -0.02   0.07  -0.02     0.00  -0.01   0.00
    69   1    -0.01  -0.05   0.05    -0.01  -0.05   0.05     0.00   0.01  -0.01
                     85                     86                     87
                      A                      A                      A
 Frequencies --    894.1690               897.2731               909.4915
 Red. masses --      1.8997                 1.3312                 1.6382
 Frc consts  --      0.8949                 0.6314                 0.7984
 IR Inten    --      0.0000                 0.0000                 0.0000
  Atom  AN      X      Y      Z        X      Y      Z        X      Y      Z
     1  26    -0.00   0.00   0.00    -0.00  -0.00  -0.00     0.00  -0.00  -0.00
     2   6    -0.00  -0.02   0.01     0.01  -0.02   0.00    -0.00   0.00   0.00
     3  46    -0.00   0.00  -0.00    -0.00   0.00  -0.00     0.00   0.00  -0.00
     4   6    -0.05   0.08  -0.01    -0.00   0.00  -0.00     0.04  -0.09  -0.00
     5   1    -0.04   0.01   0.04    -0.06   0.02   0.06     0.01  -0.13  -0.21
     6   1     0.02   0.01  -0.06     0.01   0.03  -0.03    -0.18   0.21   0.32
     7   1    -0.04   0.04   0.05     0.05  -0.03   0.01     0.08  -0.12  -0.10
     8   6     0.04   0.00   0.02     0.00  -0.00   0.00     0.00   0.00  -0.00
     9   8    -0.00   0.01   0.01    -0.00   0.00  -0.01     0.00   0.00   0.00
    10   6     0.01  -0.01  -0.02     0.00  -0.00   0.00     0.00  -0.00   0.04
    11   8    -0.02  -0.01   0.06    -0.00  -0.00  -0.00     0.01  -0.01   0.01
    12   6    -0.01  -0.01   0.01    -0.00  -0.00  -0.00    -0.05  -0.01   0.02
    13   6     0.00  -0.00  -0.01    -0.00   0.00  -0.00     0.03   0.05  -0.06
    14   6     0.02  -0.01   0.02     0.01   0.00   0.00     0.05   0.04   0.01
    15   1    -0.02   0.03  -0.16    -0.00  -0.01  -0.05    -0.03  -0.14  -0.29
    16   1    -0.05   0.03   0.11    -0.02   0.01   0.02     0.02   0.16   0.41
    17   1     0.01  -0.04  -0.04     0.01   0.00  -0.01    -0.05  -0.20  -0.32
    18   1     0.26   0.59  -0.17     0.02   0.03  -0.01     0.02   0.25  -0.05
    19   6     0.00  -0.03   0.01    -0.00  -0.00   0.00    -0.03  -0.03   0.03
    20   6    -0.01   0.03  -0.05    -0.02   0.01   0.00    -0.00  -0.00  -0.01
    21   8     0.00   0.00  -0.01     0.00   0.01   0.00    -0.00  -0.00  -0.00
    22   6     0.01   0.01  -0.01    -0.00   0.01  -0.03    -0.02  -0.01  -0.02
    23   6    -0.00   0.01   0.02    -0.00   0.03   0.02    -0.02   0.00  -0.01
    24   6     0.01  -0.02   0.01     0.02  -0.02   0.01    -0.01   0.06   0.00
    25   6    -0.01  -0.01  -0.00    -0.00  -0.01   0.00     0.06  -0.01   0.00
    26   6     0.00  -0.00  -0.01    -0.01  -0.01  -0.00    -0.02  -0.03   0.03
    27   1    -0.05   0.02   0.04    -0.10   0.04   0.07    -0.04   0.11   0.07
    28   7     0.02  -0.02  -0.02     0.00  -0.00  -0.00    -0.00  -0.01  -0.01
    29   1    -0.02   0.01  -0.07    -0.04  -0.00   0.01    -0.01  -0.01  -0.01
    30   1    -0.16   0.04  -0.11    -0.00   0.00  -0.01     0.18   0.01   0.08
    31   1     0.08  -0.00  -0.05     0.00  -0.00  -0.00    -0.09  -0.02   0.05
    32   1     0.13  -0.06  -0.19     0.24  -0.14  -0.28     0.10  -0.13   0.01
    33   7     0.04   0.04   0.03     0.00   0.00   0.00    -0.03  -0.04  -0.02
    34   6     0.04  -0.07  -0.05     0.00  -0.00  -0.00    -0.04   0.06   0.05
    35   6    -0.03  -0.01   0.04    -0.00  -0.00   0.00     0.03   0.02  -0.04
    36   1    -0.00  -0.03   0.00    -0.00   0.00   0.00    -0.00   0.03   0.00
    37   1     0.04  -0.12  -0.06     0.00  -0.00  -0.00    -0.04   0.13   0.07
    38   1     0.03  -0.07  -0.05     0.00  -0.00  -0.00    -0.01   0.06   0.02
    39   1     0.01   0.01  -0.04     0.00   0.00  -0.00    -0.01   0.00   0.03
    40   1    -0.09  -0.05   0.06    -0.00  -0.00   0.00     0.07   0.03  -0.05
    41   1    -0.06  -0.03   0.03    -0.00  -0.00  -0.00     0.06   0.03  -0.04
    42   6     0.02  -0.02   0.02     0.01  -0.01   0.00     0.01  -0.00   0.02
    43   6     0.00  -0.00   0.01     0.00  -0.01  -0.01    -0.00   0.00  -0.01
    44   6     0.01  -0.01  -0.02    -0.04   0.06   0.07     0.00  -0.00  -0.00
    45   6     0.01   0.01  -0.01     0.00   0.01   0.02     0.00   0.01   0.00
    46   6    -0.01   0.01   0.03     0.04  -0.06  -0.09    -0.00  -0.00   0.01
    47   6    -0.02   0.01  -0.01    -0.02   0.02   0.01    -0.01   0.00  -0.01
    48   6    -0.01   0.01  -0.01    -0.01   0.00   0.01    -0.01   0.01  -0.00
    49   1    -0.05  -0.06   0.00    -0.02   0.03  -0.03     0.00  -0.01   0.02
    50   1     0.01  -0.02   0.08    -0.00  -0.02   0.06     0.01   0.00   0.02
    51   1    -0.07   0.08   0.11     0.24  -0.28  -0.40    -0.01   0.01   0.02
    52   1    -0.01   0.04   0.02     0.04  -0.04  -0.07     0.01  -0.00  -0.03
    53   1     0.08  -0.09  -0.13    -0.27   0.32   0.53     0.04  -0.04  -0.04
    54   1     0.01   0.02  -0.05    -0.01   0.03  -0.00    -0.04   0.03   0.07
    55   1    -0.01   0.00   0.00    -0.01   0.00   0.01    -0.01   0.01   0.01
    56   8     0.03   0.01  -0.09     0.00   0.00  -0.01     0.00   0.00  -0.01
    57   6     0.02  -0.00   0.07     0.00  -0.00   0.01    -0.00  -0.00   0.01
    58   6    -0.08  -0.01   0.06    -0.01  -0.00   0.01    -0.01  -0.00   0.01
    59   6    -0.02  -0.04  -0.01    -0.00  -0.00  -0.00    -0.00  -0.00  -0.00
    60   6    -0.03   0.04  -0.01    -0.00   0.00  -0.00    -0.00   0.00   0.00
    61   1     0.16   0.03   0.03     0.01   0.00   0.00     0.02   0.00   0.00
    62   1     0.20   0.02   0.06     0.02   0.00   0.01     0.02   0.00   0.00
    63   1    -0.12  -0.01  -0.14    -0.01   0.00  -0.01    -0.02  -0.00  -0.02
    64   1     0.03  -0.08  -0.07     0.00  -0.01  -0.01    -0.00  -0.00  -0.00
    65   1     0.02   0.09   0.05     0.00   0.01   0.01     0.00  -0.00   0.00
    66   1     0.03  -0.08  -0.08     0.00  -0.01  -0.01    -0.00  -0.01  -0.00
    67   1     0.01   0.11  -0.09     0.00   0.01  -0.01    -0.00   0.01  -0.01
    68   1     0.03  -0.09   0.03     0.00  -0.01   0.00    -0.00  -0.01  -0.00
    69   1     0.02   0.06  -0.06     0.00   0.01  -0.01     0.00  -0.01  -0.00
                     88                     89                     90
                      A                      A                      A
 Frequencies --    926.9800               952.5361               953.2012
 Red. masses --      1.2556                 1.5396                 1.5776
 Frc consts  --      0.6357                 0.8230                 0.8445
 IR Inten    --      0.0000                 0.0000                 0.0000
  Atom  AN      X      Y      Z        X      Y      Z        X      Y      Z
     1  26    -0.00   0.00   0.00     0.00  -0.00  -0.00     0.00  -0.00  -0.00
     2   6     0.00  -0.00   0.00     0.00  -0.00  -0.00    -0.00   0.00  -0.00
     3  46    -0.00   0.00  -0.00     0.00   0.00  -0.00     0.00   0.00  -0.00
     4   6     0.00  -0.00   0.00    -0.01  -0.01  -0.02    -0.01  -0.02  -0.03
     5   1     0.00  -0.00  -0.01     0.00   0.00  -0.00     0.01   0.00   0.00
     6   1    -0.00   0.00   0.01     0.00  -0.00  -0.01     0.01  -0.01  -0.01
     7   1     0.00  -0.00  -0.00     0.00   0.00   0.00     0.00   0.00   0.00
     8   6    -0.00   0.00  -0.00    -0.00   0.00  -0.00    -0.01  -0.00  -0.00
     9   8    -0.00   0.00  -0.00    -0.00  -0.00  -0.00     0.00  -0.00   0.00
    10   6    -0.00   0.00   0.00     0.00   0.01   0.01     0.01   0.01   0.02
    11   8     0.00  -0.00  -0.00    -0.00  -0.00  -0.00    -0.00   0.00  -0.00
    12   6    -0.00  -0.00   0.00    -0.00  -0.00   0.00    -0.00  -0.00   0.00
    13   6     0.00   0.00  -0.00    -0.00  -0.00  -0.00    -0.00   0.00  -0.00
    14   6     0.00   0.00   0.00    -0.00   0.01  -0.01    -0.01   0.01  -0.01
    15   1     0.00  -0.00  -0.00    -0.01   0.02  -0.02    -0.01   0.01  -0.02
    16   1    -0.01   0.01   0.01     0.02  -0.00   0.02     0.03  -0.00   0.02
    17   1     0.00  -0.00  -0.00     0.00   0.02   0.01    -0.00   0.03   0.02
    18   1    -0.00   0.00  -0.00    -0.00  -0.00  -0.01    -0.02  -0.03  -0.00
    19   6    -0.00  -0.00   0.00     0.01  -0.01   0.00     0.02  -0.01   0.01
    20   6    -0.00   0.00   0.00    -0.01   0.00   0.00     0.00  -0.00   0.00
    21   8     0.00   0.00   0.00     0.00   0.00   0.00    -0.00  -0.00  -0.00
    22   6    -0.00   0.00  -0.00     0.00   0.00   0.00     0.00   0.00   0.00
    23   6    -0.00   0.00   0.00    -0.00  -0.00  -0.00    -0.00  -0.00  -0.00
    24   6    -0.00   0.00  -0.00    -0.00   0.00   0.00    -0.00  -0.00   0.00
    25   6     0.00  -0.00   0.00    -0.00   0.00   0.00    -0.00   0.00   0.00
    26   6    -0.00  -0.00   0.00     0.00   0.00  -0.00     0.00   0.00  -0.00
    27   1    -0.00   0.01   0.00     0.00  -0.00   0.00     0.00   0.00   0.00
    28   7     0.00   0.00   0.00    -0.00  -0.00   0.00    -0.01   0.00   0.00
    29   1    -0.00   0.00   0.01    -0.01  -0.00   0.01     0.01  -0.00  -0.01
    30   1     0.00   0.00   0.00     0.05   0.01   0.03     0.07   0.02   0.04
    31   1    -0.00   0.00   0.00    -0.06   0.01   0.01    -0.10   0.02   0.02
    32   1    -0.00  -0.00   0.01    -0.00  -0.00  -0.00    -0.00  -0.00  -0.00
    33   7    -0.00  -0.00  -0.00     0.01   0.00   0.00     0.01   0.00   0.00
    34   6    -0.00   0.00   0.00     0.00  -0.00   0.00     0.00  -0.00   0.00
    35   6     0.00   0.00  -0.00    -0.00  -0.00   0.01    -0.01  -0.00   0.01
    36   1     0.00   0.00  -0.00    -0.01   0.02   0.00    -0.01   0.02   0.00
    37   1    -0.00   0.00   0.00    -0.01   0.01  -0.00    -0.01   0.01  -0.00
    38   1    -0.00   0.00   0.00     0.00  -0.02  -0.02     0.00  -0.03  -0.03
    39   1    -0.00   0.00   0.00     0.00   0.00  -0.01     0.01   0.00  -0.01
    40   1     0.00   0.00  -0.00    -0.01  -0.01   0.00    -0.01  -0.01   0.01
    41   1     0.00   0.00  -0.00    -0.01  -0.01   0.01    -0.02  -0.01   0.01
    42   6    -0.00  -0.00  -0.00     0.01  -0.00  -0.00    -0.00   0.00   0.00
    43   6    -0.01   0.01   0.01    -0.00   0.00   0.00     0.00  -0.00  -0.00
    44   6    -0.04   0.04   0.05     0.00  -0.00  -0.00     0.00   0.00   0.00
    45   6     0.05  -0.06  -0.09    -0.00  -0.00  -0.00    -0.00  -0.00   0.00
    46   6    -0.02   0.02   0.04    -0.00   0.00   0.00    -0.00   0.00   0.00
    47   6    -0.01   0.01   0.02     0.00  -0.00  -0.00     0.00  -0.00  -0.00
    48   6     0.02  -0.01  -0.02    -0.00  -0.00  -0.00     0.00   0.00   0.00
    49   1    -0.00  -0.01  -0.00    -0.02   0.01  -0.02     0.01   0.00   0.01
    50   1    -0.00   0.00   0.01     0.00   0.00   0.03     0.00   0.00  -0.01
    51   1     0.24  -0.27  -0.39    -0.00   0.00   0.00     0.01  -0.00  -0.01
    52   1    -0.31   0.39   0.58    -0.00   0.00   0.00    -0.00   0.00   0.00
    53   1     0.14  -0.16  -0.25     0.01  -0.00  -0.00     0.00  -0.00  -0.00
    54   1     0.01  -0.01  -0.02    -0.00   0.00   0.01    -0.01  -0.00   0.01
    55   1     0.01  -0.01  -0.02    -0.00  -0.00  -0.00    -0.00   0.00  -0.00
    56   8    -0.00  -0.00   0.00     0.00  -0.02  -0.01     0.01   0.01  -0.02
    57   6    -0.00  -0.00  -0.00     0.06  -0.08  -0.00     0.13   0.04   0.01
    58   6     0.00   0.00  -0.00    -0.01  -0.09  -0.03    -0.07   0.03  -0.06
    59   6     0.00   0.00  -0.00    -0.07   0.06   0.10    -0.06   0.03  -0.03
    60   6     0.00   0.00   0.00     0.02   0.04  -0.09    -0.07  -0.08   0.04
    61   1    -0.00   0.00  -0.00    -0.37   0.06  -0.23     0.01  -0.06   0.14
    62   1    -0.00   0.00   0.00     0.23   0.15   0.26    -0.19  -0.03  -0.03
    63   1    -0.00   0.00   0.00     0.14   0.14   0.15     0.36   0.00   0.34
    64   1    -0.00   0.00   0.00     0.12  -0.01  -0.06     0.08   0.21   0.21
    65   1    -0.00  -0.00  -0.00     0.05   0.47   0.29     0.07   0.05   0.12
    66   1    -0.00   0.00   0.00     0.10  -0.05  -0.13     0.07  -0.32  -0.15
    67   1    -0.00   0.00  -0.00    -0.01  -0.14   0.15     0.14  -0.03   0.05
    68   1    -0.00   0.00  -0.00    -0.08   0.30  -0.12     0.17  -0.38   0.28
    69   1    -0.00  -0.00   0.00    -0.08   0.14   0.01     0.07   0.24  -0.17
                     91                     92                     93
                      A                      A                      A
 Frequencies --    955.9019               960.0274               966.2121
 Red. masses --      1.9225                 2.1548                 1.2074
 Frc consts  --      1.0350                 1.1701                 0.6641
 IR Inten    --      0.0000                 0.0000                 0.0000
  Atom  AN      X      Y      Z        X      Y      Z        X      Y      Z
     1  26    -0.00   0.00   0.00     0.00  -0.00   0.00    -0.00   0.00   0.00
     2   6    -0.00   0.01  -0.00     0.08  -0.09  -0.00    -0.00   0.00   0.00
     3  46     0.00  -0.00   0.00    -0.00  -0.00  -0.00    -0.00  -0.00  -0.00
     4   6     0.06   0.08   0.18     0.00   0.00   0.01    -0.00  -0.00   0.00
     5   1    -0.03  -0.02  -0.02     0.01  -0.01  -0.02    -0.00  -0.00  -0.00
     6   1    -0.05   0.02   0.09    -0.01  -0.00   0.03    -0.00  -0.00   0.00
     7   1    -0.01  -0.01  -0.03     0.01  -0.00   0.01    -0.00  -0.00  -0.00
     8   6    -0.00   0.00  -0.01    -0.00  -0.00  -0.01     0.00   0.00  -0.00
     9   8     0.00  -0.00   0.00    -0.01   0.00  -0.04     0.00   0.00   0.00
    10   6    -0.03  -0.04  -0.11    -0.00   0.00  -0.01     0.00  -0.00  -0.00
    11   8     0.02  -0.01   0.01     0.01  -0.00  -0.03     0.00  -0.00   0.00
    12   6     0.02   0.01  -0.00    -0.00  -0.00   0.00    -0.00   0.00   0.00
    13   6     0.02   0.00  -0.00     0.00   0.00  -0.00    -0.00   0.00  -0.00
    14   6     0.03  -0.05   0.04     0.00   0.00   0.00     0.00   0.00  -0.00
    15   1     0.04  -0.10   0.03     0.00  -0.03   0.01    -0.00   0.00  -0.02
    16   1    -0.12   0.02  -0.05    -0.04   0.02   0.03     0.01   0.00   0.00
    17   1    -0.01  -0.15  -0.08    -0.00  -0.01  -0.02    -0.00   0.00  -0.00
    18   1    -0.06   0.05   0.02    -0.06  -0.05  -0.02     0.01   0.01   0.00
    19   6    -0.06   0.03  -0.01    -0.00   0.00   0.01     0.00  -0.00   0.00
    20   6     0.01  -0.01   0.00    -0.13   0.07   0.06     0.00   0.00  -0.00
    21   8    -0.00  -0.00  -0.00     0.02   0.03   0.02    -0.00  -0.00  -0.00
    22   6    -0.00  -0.00  -0.01    -0.00  -0.00   0.00     0.00   0.00  -0.00
    23   6     0.01   0.01   0.01    -0.00  -0.00  -0.00     0.00   0.00   0.00
    24   6     0.00   0.00  -0.00    -0.00   0.01  -0.00     0.00   0.00   0.00
    25   6     0.01  -0.00  -0.00     0.01   0.00   0.00    -0.00  -0.00   0.00
    26   6    -0.01  -0.00   0.00     0.00  -0.00   0.00    -0.00   0.00  -0.00
    27   1    -0.01   0.00  -0.00    -0.02  -0.05  -0.01     0.00   0.00   0.00
    28   7    -0.00   0.00  -0.00     0.04   0.02   0.04     0.00  -0.00  -0.00
    29   1     0.02   0.00  -0.01    -0.35  -0.06   0.27     0.01   0.00  -0.01
    30   1    -0.46  -0.15  -0.24    -0.02  -0.01  -0.01    -0.01  -0.00  -0.00
    31   1     0.56  -0.13  -0.07     0.03  -0.01  -0.00     0.00  -0.00   0.00
    32   1     0.01   0.00   0.02    -0.03   0.03   0.02     0.00  -0.00  -0.00
    33   7    -0.06  -0.03  -0.02    -0.00  -0.00  -0.00    -0.00  -0.00   0.00
    34   6    -0.03   0.01  -0.02    -0.00   0.00   0.00    -0.00   0.00  -0.00
    35   6     0.04   0.01  -0.06     0.00  -0.00  -0.00     0.00   0.00  -0.00
    36   1     0.09  -0.15  -0.02     0.00  -0.00  -0.00     0.00  -0.00  -0.00
    37   1     0.07  -0.05   0.03     0.00  -0.00   0.00     0.00   0.00   0.00
    38   1    -0.03   0.19   0.17    -0.00   0.01   0.01    -0.00   0.00   0.00
    39   1    -0.04  -0.00   0.07    -0.00   0.00   0.00    -0.00   0.00   0.00
    40   1     0.07   0.07  -0.03     0.00   0.00   0.00    -0.00   0.00   0.00
    41   1     0.12   0.08  -0.08     0.01   0.01  -0.01     0.00   0.00  -0.00
    42   6    -0.01   0.01   0.00     0.15  -0.08  -0.10    -0.00   0.00   0.00
    43   6     0.00  -0.00  -0.00    -0.04   0.07   0.08     0.00  -0.00  -0.00
    44   6    -0.00   0.00   0.00    -0.01  -0.02  -0.04    -0.00   0.00   0.00
    45   6    -0.00  -0.00  -0.00    -0.00  -0.01  -0.01     0.00   0.00   0.00
    46   6     0.00  -0.00  -0.00     0.01  -0.00   0.01     0.00  -0.00   0.00
    47   6     0.00   0.00   0.01    -0.01   0.01  -0.01    -0.00  -0.00  -0.00
    48   6     0.00   0.00   0.00    -0.01  -0.01  -0.02     0.00   0.00   0.00
    49   1     0.02   0.01   0.02    -0.39   0.10  -0.41     0.01  -0.01   0.01
    50   1     0.00   0.00  -0.03    -0.00   0.02   0.55    -0.00  -0.00  -0.01
    51   1     0.00   0.00  -0.01    -0.10   0.06   0.11     0.00  -0.01  -0.01
    52   1    -0.00  -0.00  -0.00    -0.02   0.01   0.08     0.00   0.00  -0.00
    53   1    -0.01   0.00   0.01     0.03   0.01   0.02     0.00  -0.00  -0.00
    54   1     0.03   0.01  -0.04     0.03   0.02  -0.07    -0.00   0.00   0.01
    55   1     0.01  -0.00   0.01     0.01  -0.02  -0.04     0.00   0.00   0.00
    56   8    -0.01  -0.00  -0.00    -0.01   0.00   0.01    -0.00  -0.00  -0.00
    57   6     0.04  -0.00   0.00     0.00   0.01  -0.01     0.00   0.06   0.00
    58   6    -0.01  -0.01  -0.02     0.00   0.01  -0.00    -0.00  -0.02  -0.00
    59   6    -0.02   0.02   0.01     0.00  -0.00  -0.00     0.03  -0.02   0.07
    60   6    -0.01  -0.01  -0.00    -0.00  -0.01   0.00    -0.03  -0.03  -0.07
    61   1    -0.06  -0.00  -0.01     0.01  -0.01   0.02     0.25  -0.07   0.20
    62   1    -0.01   0.01   0.03    -0.06  -0.02  -0.03    -0.23  -0.12  -0.19
    63   1     0.10   0.02   0.10     0.03  -0.01   0.03     0.03  -0.11   0.02
    64   1     0.03   0.05   0.05    -0.01  -0.01  -0.00    -0.04  -0.29  -0.31
    65   1     0.02   0.07   0.06    -0.00  -0.02  -0.02    -0.07   0.17  -0.03
    66   1     0.03  -0.07  -0.04    -0.00   0.01   0.01    -0.05   0.36   0.10
    67   1     0.03  -0.03   0.03     0.01  -0.01   0.01     0.13  -0.26   0.29
    68   1     0.02  -0.03   0.04     0.01  -0.02   0.02     0.05   0.10   0.11
    69   1     0.00   0.06  -0.03     0.00   0.02  -0.01    -0.04   0.44  -0.13
                     94                     95                     96
                      A                      A                      A
 Frequencies --    990.2282               994.1384              1024.7308
 Red. masses --      2.8286                 3.3793                 4.3143
 Frc consts  --      1.6341                 1.9677                 2.6692
 IR Inten    --      0.0000                 0.0000                 0.0000
  Atom  AN      X      Y      Z        X      Y      Z        X      Y      Z
     1  26    -0.01   0.00   0.00    -0.00  -0.00  -0.01    -0.00  -0.00  -0.00
     2   6    -0.01  -0.01   0.01    -0.01  -0.01   0.01     0.02   0.05  -0.03
     3  46    -0.00  -0.00  -0.00    -0.00  -0.00   0.00     0.00   0.00   0.00
     4   6    -0.10  -0.01   0.06     0.10   0.01  -0.06     0.01  -0.01   0.01
     5   1     0.01  -0.01  -0.02    -0.01  -0.01  -0.00     0.05   0.02   0.01
     6   1    -0.01  -0.08   0.01     0.02   0.08  -0.05     0.00  -0.00  -0.01
     7   1     0.04   0.01   0.01     0.00  -0.01   0.02     0.04  -0.01   0.03
     8   6    -0.00  -0.01   0.02    -0.01   0.01  -0.03     0.00   0.00   0.03
     9   8    -0.00   0.00   0.00     0.00   0.00   0.01     0.01  -0.02  -0.03
    10   6     0.06  -0.00  -0.06    -0.06  -0.00   0.06     0.00   0.00  -0.00
    11   8    -0.04   0.02  -0.01     0.05  -0.02   0.02    -0.03  -0.01  -0.07
    12   6    -0.02  -0.01  -0.01     0.03   0.01  -0.00     0.00  -0.00  -0.00
    13   6    -0.02   0.01  -0.01     0.02  -0.00   0.01    -0.00   0.01  -0.00
    14   6    -0.05   0.09  -0.04     0.04  -0.09   0.04    -0.01   0.00  -0.00
    15   1    -0.07   0.28  -0.07     0.08  -0.30   0.08     0.01  -0.08   0.02
    16   1     0.35  -0.01   0.15    -0.35   0.03  -0.11    -0.01   0.01   0.01
    17   1    -0.05   0.09   0.05     0.06  -0.07  -0.02    -0.01   0.01   0.01
    18   1     0.11  -0.24  -0.05    -0.09   0.24   0.04    -0.12  -0.07  -0.09
    19   6     0.15  -0.07   0.03    -0.14   0.08  -0.04     0.01   0.01   0.01
    20   6     0.03   0.07  -0.03     0.04   0.07  -0.02    -0.07  -0.20   0.14
    21   8    -0.00   0.00  -0.00    -0.01  -0.01  -0.01     0.01  -0.00   0.01
    22   6    -0.00   0.01   0.01    -0.00   0.00   0.00    -0.01   0.00   0.01
    23   6     0.01  -0.00   0.00    -0.00   0.01   0.00    -0.00  -0.00  -0.00
    24   6     0.00   0.00  -0.00     0.00  -0.01   0.00     0.00   0.00  -0.00
    25   6    -0.01  -0.00  -0.00     0.00   0.00  -0.00    -0.00   0.00   0.00
    26   6     0.01   0.01  -0.01    -0.00  -0.01   0.01     0.00  -0.00   0.00
    27   1     0.00   0.00  -0.01     0.00   0.00  -0.01    -0.01  -0.03  -0.01
    28   7     0.04   0.00   0.03     0.04  -0.00   0.03    -0.20   0.01  -0.06
    29   1     0.08   0.12   0.00     0.11   0.14   0.06    -0.05  -0.23  -0.07
    30   1    -0.27  -0.10  -0.06     0.25   0.09   0.06    -0.00  -0.02   0.01
    31   1     0.03  -0.17   0.06    -0.02   0.16  -0.06     0.00  -0.01   0.01
    32   1     0.15  -0.14  -0.05    -0.03   0.04  -0.01    -0.03   0.03  -0.02
    33   7    -0.02  -0.05   0.01     0.02   0.05  -0.01    -0.00   0.00  -0.01
    34   6    -0.02   0.02   0.01     0.02  -0.02  -0.02     0.00   0.01  -0.01
    35   6     0.05  -0.01  -0.04    -0.05   0.01   0.04    -0.01  -0.01  -0.00
    36   1     0.03  -0.04  -0.02    -0.03   0.04   0.02    -0.01   0.00   0.02
    37   1    -0.00   0.06   0.04     0.00  -0.06  -0.04     0.02  -0.06  -0.02
    38   1    -0.01   0.06   0.05     0.01  -0.06  -0.05    -0.02   0.03   0.04
    39   1    -0.02   0.06  -0.03     0.03  -0.06   0.02    -0.03  -0.01   0.04
    40   1    -0.10   0.01   0.08     0.09  -0.02  -0.08     0.02   0.02  -0.00
    41   1     0.12   0.12  -0.18    -0.12  -0.12   0.18     0.02   0.01  -0.00
    42   6    -0.03  -0.03  -0.05    -0.04  -0.02  -0.06     0.07   0.15   0.00
    43   6     0.00  -0.05   0.04     0.02  -0.07   0.05    -0.01   0.05   0.01
    44   6    -0.12   0.00  -0.07    -0.16  -0.00  -0.10    -0.11  -0.00  -0.07
    45   6     0.06   0.05   0.02     0.07   0.05   0.01    -0.02  -0.03   0.01
    46   6    -0.00  -0.08   0.07     0.01  -0.12   0.07     0.01  -0.08   0.05
    47   6    -0.05  -0.01  -0.06    -0.07   0.00  -0.02     0.01  -0.01   0.03
    48   6     0.13   0.09   0.02     0.18   0.12   0.03     0.12   0.08   0.02
    49   1    -0.05  -0.11  -0.02    -0.02  -0.06  -0.03     0.13   0.53  -0.12
    50   1    -0.02  -0.01  -0.04    -0.03  -0.00  -0.08     0.07   0.20  -0.01
    51   1    -0.13  -0.06  -0.05    -0.18  -0.03  -0.05    -0.13  -0.02  -0.04
    52   1     0.10  -0.02   0.02     0.11  -0.03   0.05     0.02  -0.08   0.09
    53   1     0.04  -0.11   0.00    -0.03  -0.09   0.11     0.02  -0.06   0.08
    54   1    -0.24  -0.09   0.27    -0.08  -0.28  -0.07    -0.01  -0.23   0.00
    55   1     0.10   0.10   0.05     0.16   0.11   0.03     0.09   0.10   0.04
    56   8    -0.01  -0.00   0.02    -0.06  -0.00   0.01     0.23   0.01  -0.06
    57   6    -0.00  -0.00  -0.01     0.01  -0.00  -0.01    -0.03  -0.01   0.03
    58   6     0.01   0.00  -0.00     0.01  -0.00  -0.02    -0.04  -0.01   0.04
    59   6     0.00  -0.00  -0.01     0.00   0.01  -0.00    -0.01  -0.02   0.03
    60   6     0.01   0.00   0.00     0.00  -0.01  -0.00    -0.03   0.02   0.02
    61   1    -0.01  -0.00  -0.00    -0.04  -0.01  -0.01     0.05   0.02  -0.01
    62   1    -0.01  -0.00  -0.00    -0.03   0.00   0.00     0.10   0.01   0.03
    63   1     0.01   0.00   0.01     0.06   0.01   0.05    -0.14  -0.01  -0.13
    64   1     0.00   0.01   0.01    -0.01   0.03   0.03     0.01  -0.10  -0.10
    65   1     0.00  -0.02  -0.01     0.00  -0.03  -0.01    -0.00   0.12   0.05
    66   1     0.00  -0.01  -0.00    -0.01  -0.00   0.02     0.01   0.04  -0.02
    67   1    -0.01   0.01  -0.01     0.01  -0.03   0.03     0.01   0.11  -0.09
    68   1    -0.00   0.01  -0.01    -0.01   0.03  -0.01     0.04  -0.15   0.06
    69   1     0.00  -0.03   0.01    -0.01   0.01   0.00     0.03   0.02  -0.05
                     97                     98                     99
                      A                      A                      A
 Frequencies --   1028.7269              1033.5325              1036.2118
 Red. masses --      1.4485                 1.3685                 1.6245
 Frc consts  --      0.9032                 0.8613                 1.0277
 IR Inten    --      0.0000                 0.0000                 0.0000
  Atom  AN      X      Y      Z        X      Y      Z        X      Y      Z
     1  26    -0.00   0.00   0.00    -0.00   0.00   0.00    -0.00   0.00   0.00
     2   6     0.00  -0.00  -0.00     0.00  -0.00   0.00    -0.00   0.00  -0.00
     3  46     0.00  -0.00  -0.00    -0.00  -0.00  -0.00     0.00   0.00  -0.00
     4   6     0.02  -0.04   0.05    -0.00   0.00  -0.00    -0.05   0.09  -0.05
     5   1    -0.14  -0.07  -0.03    -0.00  -0.00  -0.00     0.10   0.02   0.02
     6   1    -0.01  -0.09   0.07     0.00  -0.00   0.00     0.02   0.05  -0.03
     7   1    -0.32   0.06  -0.23    -0.01   0.00  -0.01    -0.02  -0.02  -0.03
     8   6    -0.00  -0.00   0.00     0.00  -0.00   0.00     0.00   0.00  -0.00
     9   8    -0.00  -0.00  -0.00    -0.00   0.00  -0.00    -0.00  -0.00   0.00
    10   6     0.00  -0.00  -0.01     0.00   0.00  -0.00     0.01   0.01  -0.02
    11   8    -0.01   0.00  -0.00    -0.00   0.00  -0.00     0.00  -0.00   0.01
    12   6    -0.00  -0.00  -0.00     0.00  -0.00   0.00     0.01  -0.01   0.00
    13   6     0.00   0.00  -0.00    -0.00   0.00  -0.00    -0.01   0.00  -0.00
    14   6    -0.01   0.01  -0.01    -0.00   0.00  -0.00     0.01  -0.00   0.01
    15   1    -0.01   0.05  -0.01     0.00  -0.00  -0.01     0.02  -0.08   0.03
    16   1     0.10  -0.01   0.02     0.00   0.00   0.00    -0.24   0.03  -0.03
    17   1    -0.02  -0.01  -0.01    -0.00  -0.00   0.00     0.01   0.01   0.01
    18   1     0.01  -0.05  -0.01     0.00  -0.01   0.01    -0.01   0.04   0.00
    19   6     0.02  -0.01   0.00     0.00  -0.00   0.00     0.00  -0.01   0.01
    20   6    -0.00  -0.00   0.00     0.00   0.00  -0.00    -0.00  -0.01   0.00
    21   8     0.00   0.00   0.00     0.00   0.00   0.00     0.00  -0.00   0.00
    22   6     0.01   0.00   0.01     0.00  -0.00   0.00     0.00  -0.01   0.01
    23   6     0.02   0.03   0.00     0.00   0.00   0.00    -0.01  -0.00  -0.01
    24   6    -0.00  -0.02   0.01    -0.00  -0.00   0.00     0.00  -0.00   0.01
    25   6     0.02  -0.01   0.01     0.00  -0.00   0.00     0.01   0.00   0.00
    26   6    -0.00   0.01  -0.02    -0.00   0.00  -0.00    -0.01  -0.01   0.01
    27   1     0.00  -0.02   0.01    -0.00  -0.00   0.00     0.02   0.01   0.00
    28   7    -0.00   0.00   0.00     0.00  -0.00   0.00     0.00  -0.00  -0.00
    29   1     0.00  -0.00  -0.00     0.00   0.00   0.00     0.00  -0.01  -0.01
    30   1    -0.03  -0.08   0.04    -0.01  -0.00  -0.00    -0.07   0.05  -0.05
    31   1    -0.01  -0.09   0.08    -0.00   0.00  -0.00     0.02   0.16  -0.12
    32   1     0.03   0.04  -0.06    -0.00   0.00  -0.00    -0.14   0.15  -0.05
    33   7    -0.05   0.06   0.02    -0.00  -0.00   0.00    -0.01  -0.09   0.06
    34   6     0.01  -0.10  -0.01    -0.00  -0.00   0.00    -0.03  -0.04   0.10
    35   6    -0.01   0.11  -0.04     0.00   0.00  -0.00     0.09   0.02  -0.05
    36   1     0.10  -0.10  -0.18     0.00  -0.00  -0.01     0.05   0.04  -0.19
    37   1    -0.03   0.22   0.09    -0.01   0.02   0.01    -0.17   0.52   0.22
    38   1     0.12  -0.12  -0.16     0.01  -0.01  -0.01     0.18  -0.24  -0.32
    39   1     0.20  -0.09  -0.11     0.01   0.00  -0.01     0.07   0.07  -0.13
    40   1     0.32   0.03  -0.31     0.00  -0.00  -0.00    -0.08  -0.03   0.04
    41   1    -0.27  -0.30   0.35    -0.00  -0.00  -0.00     0.06   0.07  -0.15
    42   6     0.00  -0.00  -0.00    -0.00  -0.00  -0.00    -0.00   0.01   0.00
    43   6    -0.00   0.00   0.00    -0.00  -0.00   0.00     0.01  -0.00  -0.00
    44   6    -0.00   0.00  -0.00     0.00  -0.00   0.00    -0.01   0.00  -0.01
    45   6     0.00   0.00   0.00    -0.00   0.00  -0.00    -0.01  -0.01  -0.01
    46   6    -0.00   0.00   0.00    -0.00   0.00  -0.00     0.00  -0.03   0.01
    47   6     0.00  -0.00  -0.00    -0.00   0.00   0.00     0.00   0.01   0.03
    48   6     0.00  -0.00   0.00    -0.00  -0.00  -0.00     0.01   0.02  -0.01
    49   1    -0.00   0.00  -0.00    -0.00  -0.01  -0.00     0.02   0.02   0.01
    50   1     0.00   0.00   0.00    -0.00  -0.00   0.00     0.00  -0.00  -0.01
    51   1    -0.00  -0.00  -0.00     0.00   0.00   0.00    -0.01   0.04  -0.01
    52   1     0.00  -0.00  -0.00    -0.00   0.00  -0.00    -0.03   0.01  -0.01
    53   1     0.01  -0.01  -0.01    -0.00   0.00  -0.00    -0.04   0.00   0.06
    54   1    -0.03   0.03   0.05     0.00   0.00  -0.00     0.16  -0.04  -0.27
    55   1    -0.01   0.01   0.02    -0.00  -0.00  -0.00     0.02   0.00  -0.03
    56   8     0.01  -0.00  -0.00    -0.00   0.02   0.01    -0.01  -0.00   0.00
    57   6    -0.00   0.00   0.00     0.00  -0.08   0.03     0.00   0.00   0.00
    58   6    -0.00   0.00   0.00    -0.00  -0.06  -0.02     0.00   0.00  -0.00
    59   6    -0.00  -0.00   0.00     0.09   0.07  -0.00    -0.00  -0.00  -0.00
    60   6     0.00   0.00   0.00    -0.09   0.01  -0.03     0.01  -0.00  -0.00
    61   1     0.01  -0.00   0.00    -0.18   0.06  -0.19     0.02  -0.00   0.01
    62   1    -0.00  -0.00  -0.00     0.32   0.11   0.21    -0.01  -0.01  -0.01
    63   1    -0.00  -0.00  -0.00    -0.08   0.09  -0.08    -0.00  -0.01  -0.00
    64   1     0.00  -0.01  -0.01    -0.14   0.13   0.15     0.01   0.00   0.00
    65   1     0.00   0.01   0.01    -0.06  -0.36  -0.22     0.00   0.01   0.01
    66   1     0.00  -0.00  -0.01    -0.12   0.25   0.27     0.01  -0.02  -0.01
    67   1    -0.00   0.00  -0.01     0.12   0.02   0.02    -0.00  -0.01   0.01
    68   1    -0.00  -0.00  -0.00     0.13  -0.23   0.20    -0.01   0.02  -0.01
    69   1     0.00  -0.01   0.00     0.04   0.37  -0.23    -0.00  -0.01   0.01
                    100                    101                    102
                      A                      A                      A
 Frequencies --   1037.3782              1047.1722              1051.6097
 Red. masses --      1.3929                 1.3426                 1.2892
 Frc consts  --      0.8832                 0.8674                 0.8400
 IR Inten    --      0.0000                 0.0000                 0.0000
  Atom  AN      X      Y      Z        X      Y      Z        X      Y      Z
     1  26     0.00   0.00   0.00     0.00  -0.00  -0.00     0.00   0.00  -0.00
     2   6    -0.00  -0.00   0.00     0.00   0.00  -0.00    -0.00  -0.00   0.00
     3  46     0.00   0.00  -0.00     0.00  -0.00   0.00     0.00   0.00  -0.00
     4   6    -0.00   0.00  -0.00     0.00   0.04  -0.02     0.01  -0.03   0.03
     5   1     0.01  -0.00  -0.00    -0.06   0.04   0.01     0.48   0.21   0.14
     6   1    -0.00  -0.00   0.00    -0.00   0.01  -0.07    -0.05   0.15  -0.08
     7   1    -0.01  -0.00  -0.01     0.33  -0.01   0.29     0.43  -0.11   0.34
     8   6    -0.01  -0.00   0.00     0.01   0.00  -0.01    -0.00  -0.00   0.00
     9   8     0.00   0.00   0.00     0.00  -0.00  -0.00    -0.00   0.00  -0.00
    10   6    -0.00   0.00  -0.00    -0.02  -0.02   0.01     0.01  -0.01  -0.00
    11   8     0.01   0.00   0.01     0.01  -0.00   0.00    -0.01   0.00  -0.00
    12   6     0.00  -0.00   0.00    -0.00   0.02  -0.00    -0.01  -0.00   0.00
    13   6    -0.00   0.00  -0.00     0.01  -0.02   0.01    -0.01   0.01  -0.00
    14   6    -0.00   0.00   0.00     0.00  -0.05   0.01     0.00   0.02  -0.01
    15   1     0.00  -0.02   0.01    -0.01   0.04  -0.03    -0.01   0.03  -0.02
    16   1    -0.03   0.01  -0.00     0.25  -0.07  -0.04    -0.10   0.03   0.04
    17   1     0.00   0.00  -0.00    -0.04  -0.12   0.04     0.08   0.15  -0.06
    18   1    -0.01  -0.02  -0.03    -0.02   0.03   0.06     0.02  -0.03  -0.02
    19   6     0.00  -0.00   0.00    -0.05   0.04  -0.02     0.03  -0.03   0.01
    20   6     0.01   0.02  -0.01    -0.01  -0.02   0.01     0.00   0.01  -0.01
    21   8    -0.00  -0.00  -0.00     0.00  -0.00  -0.00    -0.00   0.00  -0.00
    22   6     0.00  -0.00   0.00    -0.01   0.01  -0.02    -0.01   0.01  -0.02
    23   6    -0.00   0.00  -0.00    -0.00  -0.02   0.01    -0.04  -0.05  -0.01
    24   6     0.00  -0.00   0.00    -0.01   0.02  -0.02     0.01   0.03   0.00
    25   6     0.00  -0.00   0.00    -0.03   0.01  -0.02    -0.06   0.02  -0.03
    26   6    -0.00  -0.00  -0.00     0.02   0.02   0.01    -0.00  -0.04   0.03
    27   1     0.01   0.01   0.00    -0.04  -0.02  -0.02     0.16   0.30  -0.01
    28   7    -0.00   0.00   0.01    -0.01   0.00  -0.01     0.01   0.00   0.00
    29   1     0.02   0.02  -0.02    -0.03  -0.03   0.03     0.01   0.01  -0.01
    30   1    -0.00  -0.00   0.00    -0.01   0.01  -0.01    -0.02  -0.01  -0.01
    31   1    -0.00   0.00  -0.00     0.07   0.10  -0.09     0.04  -0.12   0.05
    32   1    -0.01   0.01  -0.00     0.22  -0.29   0.15    -0.06  -0.07   0.11
    33   7     0.00  -0.00  -0.00    -0.01  -0.01   0.03    -0.03   0.04   0.01
    34   6    -0.00   0.00   0.00     0.00  -0.04   0.03     0.01  -0.04  -0.03
    35   6     0.00  -0.00  -0.00     0.01   0.01  -0.02    -0.01   0.03  -0.01
    36   1     0.00   0.00  -0.00     0.00   0.03  -0.07     0.04  -0.05  -0.04
    37   1    -0.00   0.01   0.00    -0.07   0.18   0.07     0.02  -0.01  -0.00
    38   1     0.00  -0.00  -0.00     0.08  -0.15  -0.17     0.02  -0.01  -0.01
    39   1    -0.00   0.00  -0.00     0.04  -0.03  -0.02     0.07  -0.06  -0.01
    40   1    -0.00  -0.00   0.00     0.05   0.01  -0.05     0.15   0.01  -0.13
    41   1     0.00   0.00  -0.00     0.00  -0.01   0.01    -0.07  -0.09   0.12
    42   6    -0.01  -0.01  -0.00     0.01   0.02  -0.00    -0.00  -0.01   0.00
    43   6     0.00  -0.01   0.00    -0.02   0.01   0.00     0.00  -0.00  -0.00
    44   6     0.01  -0.00   0.00     0.01  -0.01   0.01    -0.00   0.00  -0.00
    45   6     0.00   0.00  -0.00     0.04   0.01   0.02    -0.01  -0.01  -0.01
    46   6    -0.00   0.00  -0.00    -0.01   0.05  -0.02     0.00  -0.02   0.01
    47   6    -0.00   0.00   0.00    -0.01  -0.02  -0.04     0.01   0.01   0.01
    48   6    -0.01  -0.00  -0.00    -0.01  -0.02   0.02    -0.00   0.01  -0.00
    49   1    -0.01  -0.05   0.01    -0.00   0.05  -0.02    -0.01  -0.03   0.01
    50   1    -0.01  -0.01  -0.00     0.01   0.04   0.01    -0.00  -0.01   0.00
    51   1     0.01   0.01   0.01    -0.01  -0.10   0.02     0.01   0.04  -0.00
    52   1    -0.00   0.01  -0.01     0.09  -0.05   0.06    -0.04   0.02  -0.03
    53   1    -0.01   0.00   0.00     0.07   0.01  -0.09    -0.03  -0.01   0.03
    54   1     0.02   0.01  -0.03    -0.31  -0.04   0.48     0.11   0.01  -0.17
    55   1    -0.00  -0.01  -0.01    -0.03  -0.00   0.05     0.03  -0.02  -0.07
    56   8     0.00   0.01  -0.04    -0.01   0.00  -0.00     0.00   0.00   0.00
    57   6     0.02  -0.02  -0.10     0.00  -0.00  -0.00    -0.00  -0.00   0.00
    58   6     0.03  -0.01   0.05     0.00  -0.00   0.00     0.00  -0.00  -0.00
    59   6     0.03  -0.05   0.06     0.00  -0.00   0.00     0.00   0.00  -0.00
    60   6    -0.05   0.07   0.06    -0.00   0.00   0.00    -0.00  -0.00  -0.00
    61   1    -0.34  -0.04  -0.10    -0.02  -0.00  -0.00    -0.00   0.00  -0.00
    62   1    -0.22   0.02   0.00    -0.01   0.00  -0.00     0.00   0.00   0.00
    63   1     0.27   0.05   0.28     0.02   0.00   0.02    -0.00   0.00  -0.00
    64   1    -0.02  -0.28  -0.28    -0.00  -0.01  -0.01    -0.00   0.00   0.00
    65   1    -0.05   0.13  -0.02    -0.00   0.01  -0.00    -0.00  -0.00  -0.00
    66   1    -0.03   0.27   0.07    -0.00   0.01   0.00    -0.00   0.00   0.00
    67   1    -0.02   0.36  -0.32    -0.00   0.01  -0.01     0.00  -0.00   0.00
    68   1     0.07  -0.32   0.07     0.00  -0.01   0.00     0.00   0.00   0.00
    69   1     0.09  -0.12  -0.07     0.00  -0.01  -0.00    -0.00   0.00  -0.00
                    103                    104                    105
                      A                      A                      A
 Frequencies --   1066.9033              1068.4560              1080.8225
 Red. masses --      1.3663                 2.7721                 1.3787
 Frc consts  --      0.9164                 1.8646                 0.9489
 IR Inten    --      0.0000                 0.0000                 0.0000
  Atom  AN      X      Y      Z        X      Y      Z        X      Y      Z
     1  26     0.00   0.00  -0.00     0.00  -0.00   0.00     0.00   0.00  -0.00
     2   6    -0.00  -0.00  -0.00    -0.02   0.01  -0.00    -0.00  -0.01   0.00
     3  46     0.00  -0.00  -0.00     0.00   0.00  -0.00     0.00  -0.00  -0.00
     4   6     0.01   0.00  -0.01     0.00   0.01  -0.00     0.01   0.02  -0.01
     5   1     0.04  -0.01   0.06    -0.01   0.01  -0.03    -0.14  -0.08  -0.03
     6   1     0.02   0.35  -0.12    -0.03  -0.26   0.10     0.01   0.11  -0.09
     7   1    -0.26  -0.02  -0.21     0.11   0.02   0.09    -0.15   0.01  -0.13
     8   6    -0.02   0.00   0.00    -0.08   0.01   0.03    -0.01   0.00   0.00
     9   8     0.00  -0.00  -0.00     0.01   0.00   0.00    -0.00  -0.00  -0.01
    10   6    -0.01  -0.02   0.01    -0.02   0.02  -0.02    -0.01  -0.02   0.01
    11   8     0.01  -0.00  -0.02     0.00  -0.01  -0.09     0.01  -0.00  -0.01
    12   6    -0.02   0.01  -0.00     0.01  -0.01   0.00    -0.02   0.02  -0.01
    13   6    -0.01  -0.01   0.01     0.01   0.01  -0.01     0.01  -0.03   0.01
    14   6     0.01  -0.01   0.00    -0.01  -0.00   0.00     0.01  -0.03   0.01
    15   1    -0.02   0.00  -0.02     0.05  -0.22   0.05    -0.04   0.13  -0.02
    16   1    -0.01  -0.02  -0.03    -0.14   0.04  -0.01     0.20  -0.07   0.00
    17   1     0.15   0.23  -0.06    -0.09  -0.15   0.01     0.06   0.06   0.02
    18   1    -0.08  -0.02  -0.02    -0.25  -0.11  -0.29    -0.04  -0.02   0.00
    19   6    -0.01   0.01  -0.00    -0.00   0.01   0.02    -0.04   0.02  -0.01
    20   6     0.01   0.03   0.01     0.08   0.14   0.02    -0.00   0.01   0.00
    21   8    -0.00  -0.00   0.00    -0.02  -0.01  -0.01     0.00   0.00   0.00
    22   6     0.02   0.01   0.01    -0.01   0.00  -0.01     0.02   0.02  -0.00
    23   6    -0.01  -0.01  -0.01     0.01  -0.00   0.01    -0.00  -0.01   0.01
    24   6     0.01  -0.05   0.03    -0.01   0.03  -0.01    -0.00  -0.03   0.01
    25   6     0.00   0.01  -0.01    -0.01  -0.01   0.00    -0.02  -0.00  -0.02
    26   6    -0.03  -0.03   0.01     0.02   0.03  -0.01    -0.01   0.00  -0.00
    27   1     0.31   0.44   0.01    -0.10  -0.13  -0.01     0.26   0.37  -0.01
    28   7    -0.03   0.00   0.02    -0.08   0.01   0.11    -0.01   0.00   0.01
    29   1     0.05   0.05  -0.01     0.24   0.23  -0.07     0.02   0.03   0.01
    30   1     0.06   0.16  -0.12    -0.05  -0.15   0.11     0.02   0.03  -0.01
    31   1     0.03  -0.03   0.01     0.01   0.09  -0.05     0.03   0.08  -0.05
    32   1    -0.08   0.08  -0.10     0.09  -0.13   0.16     0.17  -0.23   0.15
    33   7    -0.00  -0.01   0.01     0.01  -0.01  -0.01     0.01  -0.01  -0.00
    34   6    -0.02   0.00  -0.01     0.01   0.01   0.03     0.01   0.01   0.01
    35   6     0.03   0.00   0.01    -0.02  -0.00  -0.00     0.00  -0.01  -0.00
    36   1     0.07  -0.09  -0.04    -0.05   0.10   0.02    -0.03   0.05   0.02
    37   1     0.03   0.03   0.04    -0.05   0.04  -0.00    -0.02   0.00  -0.01
    38   1    -0.00   0.10   0.07     0.02  -0.11  -0.10     0.00  -0.05  -0.04
    39   1     0.02   0.06  -0.08    -0.02  -0.04   0.07    -0.03   0.01   0.03
    40   1    -0.09  -0.04   0.06     0.06   0.03  -0.04    -0.01   0.01   0.02
    41   1    -0.00   0.02  -0.06     0.01  -0.01   0.04     0.03   0.02  -0.02
    42   6    -0.00  -0.02  -0.01    -0.05  -0.12  -0.04    -0.01  -0.01  -0.01
    43   6    -0.01  -0.01   0.00    -0.00  -0.05   0.02     0.02   0.00   0.01
    44   6     0.02  -0.02   0.02     0.04  -0.01   0.03    -0.02   0.02  -0.03
    45   6     0.06   0.03   0.01     0.03   0.03  -0.01    -0.08  -0.03  -0.01
    46   6    -0.01   0.06  -0.04    -0.01   0.02  -0.02     0.01  -0.07   0.06
    47   6    -0.04  -0.01  -0.02    -0.02   0.01  -0.01     0.06  -0.00   0.01
    48   6    -0.01  -0.02   0.01    -0.03  -0.02  -0.00     0.00   0.02  -0.00
    49   1    -0.03  -0.04  -0.01    -0.11  -0.31   0.02    -0.02  -0.07   0.01
    50   1    -0.01  -0.01   0.03    -0.05  -0.09   0.02    -0.00   0.02   0.00
    51   1    -0.03  -0.12   0.07     0.04   0.01   0.03     0.07   0.20  -0.12
    52   1     0.10  -0.02   0.08    -0.00   0.07  -0.04    -0.14   0.04  -0.12
    53   1    -0.00   0.06  -0.05    -0.07   0.01  -0.03     0.04  -0.09   0.02
    54   1    -0.20  -0.27   0.17     0.05   0.09  -0.11     0.11   0.58   0.08
    55   1    -0.00  -0.04  -0.02    -0.01  -0.04  -0.03     0.00   0.03  -0.05
    56   8     0.05  -0.00  -0.00     0.20  -0.00  -0.01     0.02  -0.00  -0.00
    57   6    -0.01  -0.00   0.01    -0.02  -0.00   0.03    -0.00  -0.00   0.00
    58   6    -0.01  -0.00   0.00    -0.03  -0.00   0.01    -0.00  -0.00   0.00
    59   6    -0.00  -0.00   0.00    -0.01  -0.00   0.00    -0.00  -0.00   0.00
    60   6    -0.00  -0.00  -0.00    -0.00  -0.00  -0.00    -0.00   0.00   0.00
    61   1     0.02   0.00   0.00     0.08   0.01   0.02     0.00   0.00   0.00
    62   1     0.02  -0.00   0.00     0.07  -0.01   0.01     0.00   0.00   0.00
    63   1    -0.03  -0.00  -0.03    -0.12  -0.02  -0.11    -0.01  -0.00  -0.00
    64   1     0.00  -0.00  -0.00     0.01  -0.00   0.00    -0.00  -0.00  -0.00
    65   1     0.00   0.01   0.01     0.01   0.05   0.04     0.00   0.00   0.00
    66   1     0.00  -0.01  -0.00     0.01  -0.03  -0.02     0.00  -0.00  -0.00
    67   1    -0.00  -0.00   0.00    -0.00  -0.01   0.02    -0.00   0.00  -0.00
    68   1     0.00  -0.01   0.00     0.01  -0.01   0.01     0.00  -0.00   0.00
    69   1    -0.00   0.01  -0.00    -0.00   0.02  -0.00    -0.00  -0.00   0.00
                    106                    107                    108
                      A                      A                      A
 Frequencies --   1083.8707              1090.8475              1097.2741
 Red. masses --      1.2429                 1.2112                 1.1435
 Frc consts  --      0.8603                 0.8492                 0.8112
 IR Inten    --      0.0000                 0.0000                 0.0000
  Atom  AN      X      Y      Z        X      Y      Z        X      Y      Z
     1  26    -0.00   0.00   0.00     0.00   0.00  -0.00     0.00  -0.00  -0.00
     2   6     0.00  -0.00   0.00    -0.00   0.00  -0.00    -0.00   0.00  -0.00
     3  46     0.00  -0.00  -0.00     0.00  -0.00   0.00     0.00   0.00  -0.00
     4   6    -0.02   0.01   0.02     0.01  -0.00   0.01     0.01   0.01  -0.00
     5   1     0.04   0.00   0.03    -0.09  -0.05  -0.04    -0.19  -0.11  -0.14
     6   1    -0.01   0.02   0.02     0.08   0.42  -0.15    -0.05  -0.04   0.11
     7   1    -0.13  -0.01  -0.13     0.19  -0.06   0.15     0.03   0.04   0.02
     8   6     0.01  -0.00  -0.00    -0.01   0.00   0.00    -0.00  -0.00  -0.00
     9   8    -0.00  -0.00  -0.00     0.00   0.00   0.00     0.00  -0.00   0.00
    10   6    -0.00  -0.00  -0.02    -0.01  -0.02   0.02    -0.00  -0.03   0.02
    11   8    -0.00   0.00   0.01     0.00  -0.00  -0.01    -0.00   0.00   0.00
    12   6     0.01  -0.00   0.00    -0.03   0.02  -0.00    -0.04   0.01  -0.01
    13   6    -0.00   0.00  -0.00     0.00  -0.02   0.01    -0.02  -0.02   0.02
    14   6     0.00   0.01   0.00     0.00  -0.01  -0.00     0.03  -0.00   0.00
    15   1    -0.00   0.04  -0.00    -0.05   0.09  -0.04    -0.06   0.14  -0.05
    16   1    -0.06   0.01  -0.01     0.26  -0.05   0.07    -0.31   0.00  -0.09
    17   1     0.02   0.02  -0.02     0.05   0.08   0.04     0.39   0.59  -0.25
    18   1     0.03   0.00  -0.00    -0.04  -0.03  -0.01    -0.00  -0.03   0.00
    19   6     0.02  -0.01   0.00    -0.02   0.02  -0.01     0.01  -0.03   0.01
    20   6    -0.01  -0.01  -0.00     0.02   0.02   0.00     0.00  -0.00   0.00
    21   8     0.00   0.00   0.00    -0.01  -0.00  -0.00    -0.00  -0.00  -0.00
    22   6     0.00   0.00   0.00     0.01  -0.03   0.03    -0.00  -0.00  -0.00
    23   6     0.00  -0.00  -0.00    -0.02   0.01  -0.02     0.01   0.00   0.01
    24   6     0.01  -0.01   0.01    -0.00  -0.00  -0.00    -0.03   0.02  -0.02
    25   6     0.00  -0.00   0.00     0.04   0.03   0.00     0.01  -0.01   0.01
    26   6    -0.01  -0.01  -0.00    -0.00  -0.02   0.02     0.02   0.03  -0.00
    27   1     0.12   0.18   0.00    -0.19  -0.35   0.02    -0.14  -0.20   0.00
    28   7     0.01   0.00  -0.01    -0.01   0.00   0.02    -0.00   0.00  -0.00
    29   1    -0.02  -0.02   0.00     0.03   0.03  -0.00     0.01   0.00  -0.00
    30   1    -0.08  -0.08   0.03     0.04   0.16  -0.12     0.05   0.15  -0.11
    31   1     0.02   0.03  -0.02     0.05  -0.09   0.03     0.01  -0.04   0.03
    32   1    -0.02   0.03  -0.02    -0.24   0.34  -0.36     0.13  -0.19   0.23
    33   7    -0.01  -0.00   0.01    -0.03   0.01   0.03    -0.02   0.01   0.03
    34   6     0.08   0.01   0.04     0.02  -0.02  -0.01     0.01  -0.02  -0.01
    35   6    -0.05  -0.02  -0.07     0.00  -0.00  -0.03     0.01  -0.00  -0.02
    36   1    -0.26   0.36   0.19    -0.03   0.03   0.02     0.00  -0.01  -0.00
    37   1    -0.12  -0.14  -0.15    -0.01  -0.04  -0.03     0.01  -0.02  -0.01
    38   1    -0.01  -0.35  -0.24     0.00  -0.07  -0.05     0.00  -0.02  -0.01
    39   1    -0.21  -0.12   0.38    -0.04  -0.03   0.09    -0.02  -0.00   0.03
    40   1     0.26   0.19  -0.13     0.10   0.05  -0.06     0.03   0.02  -0.01
    41   1     0.19   0.09   0.03     0.08   0.04  -0.02     0.05   0.04  -0.04
    42   6     0.00   0.01   0.00    -0.01  -0.02  -0.00    -0.00   0.00  -0.00
    43   6    -0.00   0.00  -0.00     0.00  -0.00   0.00     0.00  -0.00   0.00
    44   6     0.00  -0.01   0.01     0.00   0.01  -0.00     0.00  -0.00   0.00
    45   6     0.02   0.01   0.00    -0.02  -0.00  -0.00     0.00   0.00   0.00
    46   6    -0.00   0.02  -0.01     0.00  -0.02   0.01    -0.00   0.00  -0.00
    47   6    -0.02  -0.00  -0.00     0.02  -0.00  -0.00    -0.00  -0.00   0.00
    48   6     0.00  -0.00   0.00    -0.00   0.00  -0.01     0.00  -0.00   0.01
    49   1     0.01   0.03  -0.00    -0.02  -0.06   0.01     0.01   0.02  -0.01
    50   1     0.00   0.01   0.00    -0.01  -0.02  -0.00    -0.00  -0.00  -0.01
    51   1    -0.02  -0.05   0.03     0.03   0.05  -0.03    -0.00  -0.00   0.01
    52   1     0.04  -0.02   0.04    -0.05   0.03  -0.06     0.01  -0.01   0.02
    53   1    -0.01   0.02  -0.01     0.02  -0.02  -0.00    -0.02   0.00  -0.00
    54   1    -0.04  -0.14  -0.00    -0.00   0.14   0.07     0.02  -0.01  -0.05
    55   1     0.01  -0.02  -0.01    -0.04   0.05   0.03     0.01  -0.00  -0.02
    56   8    -0.02   0.00   0.00     0.02  -0.00  -0.00     0.00   0.00   0.00
    57   6     0.00   0.00  -0.00    -0.00  -0.00   0.00    -0.00  -0.00   0.00
    58   6     0.00   0.00  -0.00    -0.00  -0.00   0.00    -0.00   0.00  -0.00
    59   6     0.00   0.00  -0.00    -0.00  -0.00   0.00    -0.00  -0.00   0.00
    60   6     0.00  -0.00  -0.00    -0.00   0.00   0.00    -0.00  -0.00   0.00
    61   1    -0.00  -0.00  -0.00     0.00   0.00   0.00    -0.00   0.00  -0.00
    62   1    -0.00   0.00  -0.00     0.01   0.00   0.00     0.00   0.00   0.00
    63   1     0.01   0.00   0.01    -0.01  -0.00  -0.01    -0.00   0.00  -0.00
    64   1    -0.00   0.00   0.00     0.00  -0.00  -0.00     0.00  -0.00  -0.00
    65   1    -0.00  -0.01  -0.00     0.00   0.01   0.00    -0.00   0.00  -0.00
    66   1    -0.00   0.00   0.00     0.00   0.00  -0.00     0.00   0.00  -0.00
    67   1     0.00  -0.00   0.00    -0.00   0.00  -0.00    -0.00   0.00  -0.00
    68   1    -0.00   0.00  -0.00     0.00  -0.01   0.00     0.00  -0.00   0.00
    69   1    -0.00  -0.00   0.00    -0.00   0.00   0.00    -0.00   0.00   0.00
                    109                    110                    111
                      A                      A                      A
 Frequencies --   1119.9116              1132.7803              1141.5932
 Red. masses --      1.2166                 1.4277                 1.3844
 Frc consts  --      0.8990                 1.0794                 1.0630
 IR Inten    --      0.0000                 0.0000                 0.0000
  Atom  AN      X      Y      Z        X      Y      Z        X      Y      Z
     1  26    -0.00   0.00  -0.00    -0.00   0.00   0.00    -0.00   0.00  -0.00
     2   6     0.00  -0.00  -0.00     0.00   0.00  -0.00    -0.00   0.01  -0.00
     3  46    -0.00  -0.00   0.00     0.00  -0.00   0.00    -0.00   0.00  -0.00
     4   6     0.01   0.02   0.00    -0.01  -0.01   0.02    -0.00  -0.00   0.00
     5   1     0.47   0.23   0.18    -0.31  -0.18  -0.16    -0.06  -0.04  -0.04
     6   1    -0.08  -0.29   0.23    -0.01   0.36  -0.08     0.01   0.11  -0.03
     7   1    -0.11  -0.02  -0.10     0.14  -0.02   0.14     0.04  -0.00   0.04
     8   6    -0.00  -0.00  -0.00    -0.00  -0.00  -0.00    -0.01   0.00   0.00
     9   8     0.00   0.00   0.00    -0.00   0.00   0.00    -0.00  -0.00   0.00
    10   6    -0.02  -0.03  -0.01    -0.03   0.01  -0.04    -0.00   0.01  -0.01
    11   8     0.00  -0.00  -0.00    -0.00   0.00   0.01    -0.00   0.00   0.00
    12   6    -0.04   0.03  -0.01    -0.00   0.01   0.00     0.01  -0.01   0.00
    13   6     0.00  -0.02   0.01     0.01  -0.01   0.01    -0.01   0.01  -0.00
    14   6     0.04  -0.03   0.02     0.03  -0.00   0.01    -0.00   0.01  -0.00
    15   1    -0.07   0.21  -0.07    -0.06   0.33  -0.06     0.02  -0.07   0.01
    16   1     0.10  -0.04   0.03    -0.12   0.00  -0.02    -0.19   0.03  -0.05
    17   1     0.19   0.19  -0.22     0.06   0.05   0.03     0.00   0.02   0.01
    18   1    -0.01  -0.03   0.04    -0.00  -0.06  -0.02    -0.03  -0.04  -0.11
    19   6    -0.02   0.00  -0.00     0.02  -0.05   0.01     0.02  -0.02   0.01
    20   6     0.00   0.00   0.00    -0.01  -0.01  -0.01    -0.02  -0.02  -0.03
    21   8    -0.00  -0.00  -0.00     0.00   0.00  -0.00     0.00  -0.00  -0.00
    22   6    -0.02   0.01  -0.02     0.02  -0.02   0.03     0.01  -0.00   0.01
    23   6     0.00   0.02  -0.02    -0.01  -0.01   0.01    -0.00  -0.01  -0.00
    24   6     0.02   0.01   0.01    -0.00   0.00  -0.01    -0.00  -0.00  -0.00
    25   6     0.01  -0.02   0.02     0.01   0.03  -0.02     0.00   0.01  -0.00
    26   6    -0.01  -0.02   0.01    -0.01  -0.01   0.00     0.00  -0.00   0.00
    27   1    -0.11  -0.10  -0.01     0.05   0.01   0.02     0.02  -0.01  -0.01
    28   7    -0.00   0.00   0.00     0.00  -0.00  -0.00     0.02   0.00   0.03
    29   1     0.00   0.01   0.01    -0.00  -0.01  -0.02     0.04   0.02  -0.04
    30   1    -0.04  -0.13   0.09    -0.14  -0.36   0.24    -0.03  -0.05   0.03
    31   1     0.06   0.20  -0.13     0.14   0.22  -0.21     0.02  -0.00  -0.01
    32   1    -0.09   0.18  -0.23    -0.04   0.04  -0.02    -0.02   0.02  -0.02
    33   7     0.03  -0.02  -0.04     0.06  -0.03  -0.09     0.01  -0.00  -0.01
    34   6    -0.00   0.02   0.03    -0.01   0.04   0.04    -0.00   0.01   0.01
    35   6    -0.01   0.01   0.03    -0.05   0.02   0.06    -0.01   0.00   0.01
    36   1    -0.03   0.06   0.02    -0.03   0.07   0.01     0.00   0.00  -0.00
    37   1    -0.03   0.02   0.00    -0.04   0.06   0.02    -0.01   0.01   0.01
    38   1     0.00  -0.03  -0.03     0.01  -0.01  -0.03     0.00   0.00  -0.00
    39   1     0.04   0.02  -0.06     0.10  -0.02  -0.11     0.01  -0.01  -0.00
    40   1    -0.06  -0.05   0.02    -0.03  -0.08  -0.02     0.01  -0.00  -0.01
    41   1    -0.08  -0.06   0.05    -0.18  -0.14   0.16    -0.02  -0.02   0.03
    42   6    -0.00  -0.00  -0.00     0.00   0.01   0.00    -0.01   0.01  -0.01
    43   6    -0.00   0.00   0.00    -0.00  -0.00  -0.00     0.04   0.02   0.01
    44   6    -0.00   0.01  -0.01     0.01  -0.01   0.01    -0.03   0.06  -0.06
    45   6    -0.01  -0.00   0.00     0.02   0.01   0.00    -0.04  -0.03   0.01
    46   6     0.00  -0.00   0.01    -0.01   0.00  -0.01     0.06   0.02   0.02
    47   6     0.00  -0.00  -0.02    -0.00  -0.00   0.00    -0.05  -0.00  -0.03
    48   6     0.00  -0.01   0.00     0.01   0.01   0.00    -0.03  -0.08   0.03
    49   1    -0.01  -0.01   0.00     0.01   0.05  -0.01     0.01  -0.03   0.02
    50   1     0.00   0.00  -0.00    -0.00  -0.02   0.01    -0.02  -0.05  -0.02
    51   1     0.02   0.03  -0.03    -0.04  -0.08   0.05     0.11   0.32  -0.18
    52   1    -0.01  -0.00  -0.02     0.02   0.00   0.02     0.06  -0.15   0.13
    53   1     0.09   0.00   0.00    -0.14  -0.02  -0.04     0.73   0.21   0.24
    54   1    -0.09   0.12   0.20     0.03  -0.05  -0.07    -0.12  -0.07   0.07
    55   1    -0.03   0.02   0.06     0.04  -0.03  -0.08    -0.03  -0.09   0.09
    56   8     0.00  -0.00  -0.00     0.00   0.00   0.00     0.01   0.00   0.00
    57   6     0.00  -0.00  -0.00     0.00  -0.00  -0.00     0.00   0.00  -0.00
    58   6    -0.00   0.00   0.00    -0.00   0.00   0.00    -0.00  -0.00   0.00
    59   6     0.00  -0.00   0.00     0.00  -0.00  -0.00     0.00   0.00  -0.00
    60   6     0.00   0.00   0.00     0.00  -0.00  -0.00     0.00  -0.00  -0.00
    61   1    -0.00   0.00  -0.00    -0.00  -0.00  -0.00    -0.00  -0.00   0.00
    62   1     0.00   0.00   0.00    -0.00   0.00   0.00    -0.00   0.00   0.00
    63   1     0.00   0.00   0.00     0.00   0.00   0.00     0.00  -0.00   0.00
    64   1    -0.00  -0.00  -0.00    -0.00   0.00   0.00    -0.00   0.00   0.00
    65   1    -0.00  -0.00  -0.00    -0.00  -0.01  -0.00    -0.00  -0.01  -0.00
    66   1    -0.00   0.00   0.00    -0.00   0.00   0.00    -0.00  -0.00   0.00
    67   1    -0.00   0.00  -0.00    -0.00  -0.00   0.00    -0.00  -0.01   0.00
    68   1     0.00  -0.00   0.00     0.00   0.00   0.00    -0.00   0.01  -0.00
    69   1    -0.00  -0.00   0.00    -0.00   0.00   0.00    -0.00   0.00   0.00
                    112                    113                    114
                      A                      A                      A
 Frequencies --   1154.3261              1162.1841              1163.9067
 Red. masses --      1.2190                 1.3768                 1.1456
 Frc consts  --      0.9570                 1.0956                 0.9144
 IR Inten    --      0.0000                 0.0000                 0.0000
  Atom  AN      X      Y      Z        X      Y      Z        X      Y      Z
     1  26    -0.00   0.00  -0.00    -0.00   0.00  -0.00     0.00  -0.00  -0.00
     2   6    -0.01   0.03  -0.01     0.00  -0.01   0.00     0.00  -0.00   0.00
     3  46     0.00   0.00  -0.00     0.00   0.00  -0.00    -0.00   0.00  -0.00
     4   6     0.00   0.00  -0.01    -0.00   0.02  -0.03    -0.00   0.00  -0.01
     5   1     0.04   0.01   0.01     0.02   0.01   0.02     0.10   0.02   0.01
     6   1     0.01  -0.04  -0.00     0.01  -0.06   0.02     0.02   0.09  -0.04
     7   1    -0.00  -0.00  -0.01    -0.00   0.00  -0.01    -0.01  -0.01  -0.01
     8   6     0.01  -0.00  -0.01     0.01  -0.00  -0.01    -0.01  -0.00   0.00
     9   8     0.00  -0.00  -0.00     0.00   0.00  -0.00    -0.00   0.00   0.00
    10   6    -0.01   0.02   0.01    -0.03   0.04   0.01    -0.00   0.02  -0.00
    11   8     0.00  -0.00   0.00     0.01  -0.00  -0.00    -0.00   0.00   0.01
    12   6     0.01  -0.00  -0.00     0.02  -0.00  -0.00     0.02  -0.02  -0.01
    13   6     0.01  -0.01   0.00     0.02  -0.02   0.01    -0.01   0.02  -0.01
    14   6     0.02   0.01   0.00     0.05   0.00   0.01    -0.01   0.01  -0.00
    15   1    -0.04   0.25  -0.04    -0.07   0.54  -0.10     0.04  -0.15   0.01
    16   1    -0.03  -0.00   0.02    -0.18  -0.00  -0.05    -0.34   0.04  -0.11
    17   1    -0.05  -0.11   0.04    -0.07  -0.20   0.05    -0.01   0.00   0.02
    18   1     0.02   0.03   0.13    -0.01   0.02   0.17    -0.01  -0.04  -0.11
    19   6    -0.02  -0.02   0.00    -0.03  -0.05   0.01     0.02  -0.03   0.01
    20   6     0.00   0.00   0.05     0.03   0.02   0.04    -0.01  -0.02  -0.02
    21   8    -0.00  -0.01  -0.00    -0.00   0.00   0.00     0.00   0.00   0.00
    22   6    -0.00   0.00  -0.00    -0.01   0.00  -0.01     0.01  -0.00   0.00
    23   6    -0.00  -0.00   0.00    -0.00  -0.00   0.00    -0.01   0.00  -0.01
    24   6     0.00  -0.00   0.00     0.00  -0.00   0.00     0.00  -0.01   0.00
    25   6     0.00  -0.00   0.00     0.01  -0.00   0.00     0.00   0.00   0.00
    26   6    -0.00  -0.00  -0.00    -0.00   0.00  -0.00     0.00  -0.01   0.01
    27   1     0.01   0.01  -0.01    -0.00   0.03   0.00     0.01  -0.04  -0.02
    28   7    -0.00  -0.01  -0.02    -0.04   0.01  -0.03     0.01   0.00   0.01
    29   1     0.37   0.20  -0.27    -0.12  -0.03   0.23    -0.06  -0.03   0.06
    30   1     0.02   0.03  -0.02     0.02   0.01   0.00    -0.01  -0.01   0.01
    31   1    -0.04  -0.05   0.05    -0.08  -0.14   0.12    -0.03  -0.07   0.05
    32   1    -0.01   0.01  -0.01    -0.02   0.02  -0.02    -0.02   0.04  -0.10
    33   7     0.00   0.00   0.01     0.07   0.01   0.02     0.02  -0.00   0.00
    34   6    -0.01  -0.01  -0.01    -0.05  -0.01  -0.01    -0.01  -0.00   0.00
    35   6    -0.00  -0.01  -0.01    -0.05  -0.03  -0.03    -0.02  -0.01  -0.01
    36   1     0.03  -0.04  -0.02     0.13  -0.17  -0.11     0.03  -0.04  -0.03
    37   1     0.01   0.02   0.02     0.05   0.14   0.12     0.01   0.04   0.03
    38   1     0.01   0.03   0.02     0.04   0.16   0.08     0.01   0.04   0.02
    39   1    -0.03  -0.01   0.05    -0.13  -0.08   0.24    -0.03  -0.03   0.07
    40   1     0.03   0.03  -0.01     0.15   0.12  -0.06     0.05   0.03  -0.02
    41   1     0.04   0.02  -0.01     0.13   0.06   0.03     0.03   0.01   0.02
    42   6    -0.01  -0.05  -0.01    -0.01   0.00  -0.01     0.00   0.03  -0.01
    43   6     0.01  -0.00   0.07    -0.01  -0.03  -0.01     0.03   0.01   0.02
    44   6    -0.00  -0.01  -0.01     0.01   0.01   0.00    -0.01  -0.01   0.01
    45   6     0.02   0.01  -0.00     0.00   0.00   0.00     0.01  -0.00   0.02
    46   6    -0.01   0.01  -0.01     0.00  -0.00   0.00    -0.02   0.02  -0.01
    47   6    -0.04   0.00  -0.03     0.00   0.00  -0.00    -0.01  -0.02  -0.03
    48   6    -0.01  -0.03   0.01     0.00  -0.00   0.01     0.02  -0.02   0.00
    49   1     0.13   0.56  -0.18    -0.06  -0.23   0.06    -0.01  -0.08   0.03
    50   1    -0.09  -0.36   0.08     0.04   0.21  -0.06     0.01   0.07  -0.02
    51   1    -0.02   0.00   0.02     0.04   0.08  -0.03     0.03   0.03  -0.05
    52   1     0.07  -0.06   0.10    -0.04   0.05  -0.06     0.24  -0.26   0.28
    53   1    -0.02   0.02  -0.01     0.09   0.02   0.03    -0.33  -0.11  -0.17
    54   1     0.04   0.23  -0.10    -0.02  -0.10   0.00    -0.06   0.52   0.20
    55   1     0.04  -0.08  -0.05     0.01  -0.01  -0.06    -0.08   0.08   0.25
    56   8    -0.02  -0.00   0.00     0.01  -0.00  -0.00     0.01   0.00   0.00
    57   6    -0.00   0.00   0.00    -0.00  -0.00   0.00     0.00   0.00  -0.00
    58   6     0.01   0.00  -0.00     0.00   0.00  -0.00    -0.00  -0.00   0.00
    59   6    -0.00  -0.00   0.00    -0.00  -0.00   0.00     0.00   0.00  -0.00
    60   6    -0.00   0.00   0.00    -0.00   0.00   0.00     0.00  -0.00  -0.00
    61   1     0.00   0.00  -0.00     0.00   0.00  -0.00    -0.00  -0.00   0.00
    62   1     0.00  -0.00  -0.00     0.01   0.00   0.00    -0.01   0.00   0.00
    63   1    -0.00  -0.00  -0.00    -0.01   0.00  -0.01     0.00   0.00   0.01
    64   1     0.00  -0.00  -0.00     0.00  -0.01  -0.01    -0.00   0.00   0.00
    65   1     0.00   0.00   0.00    -0.00   0.01   0.00    -0.00  -0.01  -0.00
    66   1     0.00  -0.00  -0.00     0.00   0.00  -0.00    -0.00   0.00   0.00
    67   1     0.00   0.00  -0.00    -0.00   0.01  -0.01    -0.00  -0.00   0.00
    68   1     0.00  -0.01   0.01     0.01  -0.01   0.01    -0.00   0.01  -0.01
    69   1     0.00  -0.00  -0.00    -0.00  -0.00   0.00    -0.00   0.00   0.00
                    115                    116                    117
                      A                      A                      A
 Frequencies --   1171.5848              1175.9070              1182.3053
 Red. masses --      1.9407                 1.5116                 1.3672
 Frc consts  --      1.5695                 1.2315                 1.1260
 IR Inten    --      0.0000                 0.0000                 0.0000
  Atom  AN      X      Y      Z        X      Y      Z        X      Y      Z
     1  26     0.00   0.00  -0.00    -0.00   0.00  -0.00     0.00   0.00  -0.00
     2   6     0.00   0.01   0.00     0.00  -0.00   0.00    -0.00  -0.00  -0.00
     3  46    -0.00  -0.00  -0.00     0.00  -0.00  -0.00    -0.00  -0.00   0.00
     4   6    -0.01   0.04  -0.03     0.03  -0.01   0.00    -0.02   0.02  -0.00
     5   1     0.00   0.01   0.01    -0.01   0.00   0.00    -0.09  -0.04  -0.04
     6   1    -0.01  -0.03   0.04     0.00  -0.14   0.03    -0.03  -0.06   0.05
     7   1    -0.02   0.00  -0.02     0.01  -0.00   0.00     0.04  -0.00   0.04
     8   6    -0.04  -0.00   0.01    -0.04   0.00  -0.00     0.03   0.00   0.01
     9   8    -0.00   0.00   0.01    -0.00   0.00   0.00     0.00  -0.00  -0.00
    10   6    -0.01  -0.01   0.01    -0.02   0.01   0.01     0.02  -0.04   0.01
    11   8     0.00   0.00   0.00     0.01   0.00   0.00    -0.01  -0.00  -0.01
    12   6    -0.03   0.02  -0.00    -0.00   0.02  -0.00    -0.05   0.02   0.00
    13   6    -0.01  -0.01   0.00     0.03  -0.03   0.01    -0.01  -0.01  -0.00
    14   6    -0.00  -0.03   0.01     0.03  -0.00   0.00    -0.01  -0.02   0.00
    15   1    -0.00  -0.14   0.02    -0.08   0.47  -0.07    -0.01  -0.23   0.04
    16   1     0.19  -0.03   0.04     0.17  -0.03   0.09     0.43  -0.04   0.17
    17   1     0.07   0.08  -0.05    -0.07  -0.17   0.04     0.09   0.15  -0.06
    18   1    -0.10  -0.13  -0.36    -0.12  -0.09  -0.19     0.08   0.06   0.17
    19   6     0.01   0.03   0.00    -0.06   0.00   0.00     0.03   0.06  -0.02
    20   6    -0.06  -0.04  -0.11    -0.03  -0.03  -0.07     0.02   0.01   0.04
    21   8     0.00  -0.00  -0.01     0.00   0.00  -0.00    -0.00   0.00   0.00
    22   6    -0.01   0.00  -0.00    -0.01   0.00  -0.01    -0.00  -0.01   0.00
    23   6     0.00   0.00   0.00     0.00  -0.00   0.01     0.00  -0.00   0.01
    24   6     0.00  -0.00   0.00     0.00   0.00   0.00     0.01   0.01  -0.00
    25   6     0.00  -0.00   0.00     0.00  -0.00   0.00    -0.00   0.01  -0.01
    26   6    -0.00   0.00  -0.00    -0.01   0.01  -0.01    -0.01   0.00  -0.01
    27   1    -0.02   0.01   0.01    -0.01   0.03   0.01     0.04   0.04  -0.00
    28   7     0.08  -0.01   0.09     0.03   0.01   0.06    -0.03   0.00  -0.03
    29   1     0.03  -0.05  -0.31    -0.09  -0.07  -0.03    -0.00   0.02   0.11
    30   1    -0.02  -0.01   0.01     0.07   0.10  -0.05    -0.04  -0.05   0.03
    31   1    -0.03  -0.06   0.05    -0.02   0.01   0.01     0.02   0.05  -0.04
    32   1     0.01  -0.00  -0.00    -0.01   0.01   0.02    -0.02   0.01   0.04
    33   7     0.12   0.00   0.00    -0.07   0.01   0.02     0.06  -0.00  -0.01
    34   6    -0.07  -0.01   0.01     0.03  -0.01  -0.01    -0.03   0.00   0.01
    35   6    -0.08  -0.03  -0.03     0.05   0.01   0.00    -0.04  -0.01  -0.00
    36   1     0.15  -0.17  -0.14    -0.05   0.05   0.05     0.05  -0.06  -0.05
    37   1     0.04   0.20   0.15    -0.01  -0.09  -0.07     0.01   0.08   0.06
    38   1     0.06   0.18   0.08    -0.03  -0.07  -0.03     0.03   0.07   0.02
    39   1    -0.15  -0.12   0.29     0.05   0.06  -0.12    -0.05  -0.06   0.11
    40   1     0.20   0.14  -0.08    -0.09  -0.05   0.05     0.08   0.05  -0.04
    41   1     0.13   0.04   0.08    -0.01   0.02  -0.08     0.03  -0.00   0.06
    42   6     0.03   0.03   0.03     0.01   0.05   0.01    -0.01  -0.01  -0.01
    43   6     0.00   0.05  -0.03     0.04   0.02  -0.01     0.03  -0.00   0.01
    44   6    -0.01  -0.01  -0.00    -0.01   0.00  -0.01    -0.00   0.01  -0.01
    45   6    -0.02  -0.01  -0.01     0.01  -0.01   0.01     0.02  -0.01   0.01
    46   6     0.00  -0.01   0.00    -0.01   0.01  -0.02    -0.00   0.01  -0.01
    47   6     0.03  -0.00   0.02    -0.04  -0.00  -0.00    -0.05   0.00  -0.00
    48   6    -0.00   0.03  -0.01    -0.00   0.00   0.01    -0.01  -0.01   0.00
    49   1     0.04   0.13  -0.01    -0.02  -0.16   0.07    -0.01  -0.10   0.03
    50   1    -0.03  -0.23   0.07     0.01   0.03  -0.02     0.01   0.07  -0.03
    51   1    -0.11  -0.19   0.07     0.01   0.07  -0.02     0.10   0.23  -0.08
    52   1    -0.08   0.06  -0.07     0.22  -0.26   0.32     0.24  -0.28   0.33
    53   1    -0.02  -0.01   0.01    -0.15  -0.01  -0.03    -0.12  -0.00  -0.02
    54   1     0.00  -0.13   0.03     0.11  -0.07  -0.27     0.15  -0.05  -0.34
    55   1     0.05  -0.02  -0.10     0.13  -0.16  -0.16     0.03  -0.08  -0.00
    56   8     0.02   0.00   0.00     0.04   0.00  -0.00    -0.02  -0.00   0.00
    57   6     0.01   0.00  -0.01     0.01   0.00  -0.01    -0.01  -0.00   0.01
    58   6    -0.03  -0.01   0.03    -0.04  -0.00   0.03     0.04   0.00  -0.03
    59   6     0.01   0.00  -0.01     0.01   0.00  -0.01    -0.01  -0.00   0.01
    60   6     0.01   0.00  -0.01     0.01   0.00  -0.01    -0.01  -0.00   0.01
    61   1    -0.03  -0.01   0.01    -0.04  -0.01   0.01     0.03   0.01  -0.01
    62   1    -0.04   0.00   0.00    -0.04   0.01   0.01     0.04  -0.00  -0.00
    63   1     0.05   0.00   0.05     0.05   0.00   0.05    -0.05  -0.01  -0.05
    64   1    -0.03   0.02   0.03    -0.03   0.02   0.02     0.03  -0.02  -0.02
    65   1    -0.01  -0.07  -0.04    -0.01  -0.06  -0.04     0.01   0.06   0.04
    66   1    -0.02   0.00   0.03    -0.02   0.01   0.03     0.02  -0.01  -0.03
    67   1    -0.02  -0.03   0.03    -0.02  -0.03   0.02     0.02   0.03  -0.02
    68   1    -0.02   0.07  -0.03    -0.02   0.06  -0.03     0.02  -0.06   0.03
    69   1    -0.02  -0.00   0.03    -0.02  -0.01   0.03     0.02   0.01  -0.03
                    118                    119                    120
                      A                      A                      A
 Frequencies --   1198.7708              1199.5797              1216.2232
 Red. masses --      2.3323                 1.2800                 1.2859
 Frc consts  --      1.9747                 1.0852                 1.1207
 IR Inten    --      0.0000                 0.0000                 0.0000
  Atom  AN      X      Y      Z        X      Y      Z        X      Y      Z
     1  26    -0.00   0.00  -0.00     0.00   0.00   0.00     0.00  -0.00  -0.00
     2   6     0.01   0.01  -0.00     0.00   0.00  -0.00    -0.00   0.00  -0.00
     3  46    -0.00  -0.00  -0.00    -0.00   0.00   0.00    -0.00  -0.00   0.00
     4   6     0.01  -0.00  -0.00    -0.01   0.00   0.01    -0.00  -0.00   0.00
     5   1    -0.02  -0.01  -0.01     0.32   0.16   0.13    -0.03  -0.02  -0.01
     6   1    -0.00  -0.06   0.02     0.06   0.47  -0.22    -0.01  -0.02  -0.00
     7   1     0.02  -0.00   0.01    -0.26   0.03  -0.21     0.02   0.01   0.02
     8   6    -0.02   0.00   0.00    -0.00   0.00   0.00     0.00   0.00   0.01
     9   8    -0.00   0.00   0.01    -0.00   0.00   0.00     0.00  -0.00  -0.00
    10   6    -0.01   0.01   0.00    -0.00   0.00  -0.00     0.01  -0.00   0.00
    11   8     0.01  -0.01  -0.03     0.00  -0.00  -0.00     0.01  -0.01  -0.04
    12   6     0.00  -0.00  -0.00     0.00  -0.00   0.00    -0.01  -0.01  -0.00
    13   6     0.01  -0.01   0.00     0.00  -0.00  -0.00     0.00  -0.01   0.00
    14   6     0.01   0.00   0.00     0.00   0.00  -0.00     0.01   0.01   0.00
    15   1    -0.02   0.14  -0.03    -0.01   0.07  -0.01    -0.04   0.12  -0.04
    16   1    -0.09  -0.00  -0.03     0.08  -0.00   0.04     0.02  -0.01   0.02
    17   1    -0.02  -0.06   0.01    -0.05  -0.08   0.06     0.00  -0.02   0.00
    18   1    -0.09   0.01   0.00    -0.01  -0.00   0.01     0.06   0.11   0.38
    19   6    -0.01  -0.01   0.01    -0.00   0.00  -0.00     0.00   0.01  -0.02
    20   6    -0.04  -0.03  -0.07     0.00   0.00  -0.01     0.01   0.01   0.01
    21   8    -0.00  -0.00  -0.00    -0.00  -0.00  -0.00     0.00  -0.00   0.00
    22   6    -0.00  -0.00  -0.00     0.03   0.05  -0.01     0.00  -0.01   0.00
    23   6     0.00  -0.00   0.00    -0.03   0.03  -0.04     0.00   0.00  -0.00
    24   6     0.00   0.00   0.00    -0.05  -0.03  -0.02     0.00  -0.00   0.00
    25   6     0.00   0.00  -0.00    -0.01  -0.05   0.03    -0.01   0.00  -0.01
    26   6    -0.01   0.00  -0.01     0.06  -0.01   0.05     0.01   0.00  -0.00
    27   1     0.01   0.03   0.00    -0.24  -0.33   0.01     0.09   0.03  -0.04
    28   7     0.03   0.00   0.08    -0.00  -0.00   0.00    -0.02   0.00   0.03
    29   1     0.02  -0.01  -0.15    -0.02  -0.02   0.00     0.03   0.01  -0.04
    30   1     0.02   0.02  -0.01    -0.01   0.05  -0.04    -0.00  -0.01   0.01
    31   1    -0.02  -0.02   0.02     0.04  -0.04  -0.00     0.00  -0.00   0.00
    32   1    -0.02   0.03  -0.05     0.16  -0.27   0.31     0.01  -0.02   0.05
    33   7    -0.02   0.01   0.01     0.02  -0.03  -0.03    -0.00   0.00  -0.00
    34   6     0.00  -0.00  -0.00    -0.00   0.02   0.01     0.00  -0.00   0.00
    35   6     0.01  -0.00  -0.00    -0.01   0.01   0.01     0.00  -0.00   0.00
    36   1    -0.01   0.01   0.00    -0.02   0.03   0.02    -0.01   0.00   0.01
    37   1     0.00  -0.01  -0.01    -0.01  -0.00  -0.00    -0.00   0.00   0.00
    38   1    -0.00  -0.01  -0.01    -0.01  -0.01  -0.00     0.00  -0.01  -0.01
    39   1     0.00   0.01  -0.01     0.00  -0.01   0.01     0.00  -0.00  -0.00
    40   1    -0.02  -0.00   0.01     0.02  -0.00  -0.03    -0.00  -0.00   0.00
    41   1     0.01   0.01  -0.02    -0.04  -0.04   0.05     0.00   0.00  -0.00
    42   6     0.02   0.03   0.01    -0.00  -0.00   0.00     0.00  -0.01   0.01
    43   6     0.02   0.03  -0.02     0.00   0.00  -0.00     0.05   0.09  -0.05
    44   6    -0.01  -0.00  -0.00    -0.00   0.00  -0.00    -0.04   0.00  -0.01
    45   6    -0.01  -0.01  -0.00     0.00  -0.00  -0.00    -0.03  -0.01  -0.01
    46   6     0.00  -0.00   0.00    -0.00  -0.00  -0.00     0.00   0.01   0.00
    47   6     0.01  -0.01   0.01    -0.01   0.00   0.00    -0.01  -0.02   0.02
    48   6     0.00   0.01  -0.00    -0.00   0.00  -0.00     0.02  -0.01  -0.02
    49   1    -0.03  -0.13   0.04    -0.00  -0.01   0.00    -0.04  -0.21   0.07
    50   1    -0.01  -0.08   0.03    -0.00  -0.01  -0.01    -0.05  -0.23   0.08
    51   1    -0.08  -0.15   0.05     0.00   0.02  -0.00    -0.21  -0.38   0.12
    52   1    -0.01  -0.00  -0.01     0.03  -0.03   0.04     0.03  -0.08   0.03
    53   1     0.01  -0.00   0.00    -0.00   0.01   0.01     0.11   0.04   0.04
    54   1    -0.02   0.01   0.06     0.06  -0.08  -0.13     0.09  -0.01  -0.15
    55   1     0.02  -0.02  -0.03     0.00  -0.01   0.01    -0.23   0.25   0.54
    56   8    -0.02  -0.00   0.03     0.00  -0.00   0.00     0.01   0.00  -0.01
    57   6    -0.07  -0.01   0.06    -0.00  -0.00   0.00     0.01   0.00  -0.00
    58   6     0.21   0.03  -0.15     0.01   0.00  -0.01    -0.03  -0.01   0.01
    59   6    -0.07  -0.02   0.05    -0.00  -0.00   0.00     0.01   0.00  -0.00
    60   6    -0.08  -0.00   0.05    -0.00  -0.00   0.00     0.01   0.00  -0.00
    61   1     0.17   0.07  -0.05     0.01   0.00  -0.00    -0.01  -0.01   0.01
    62   1     0.20  -0.03  -0.03     0.01  -0.00  -0.00    -0.02   0.00   0.00
    63   1    -0.29  -0.03  -0.28    -0.02  -0.00  -0.02     0.03   0.00   0.03
    64   1     0.15  -0.07  -0.10     0.01  -0.00  -0.01    -0.02   0.00   0.01
    65   1     0.04   0.35   0.21     0.00   0.02   0.01    -0.01  -0.03  -0.02
    66   1     0.09  -0.05  -0.18     0.01  -0.00  -0.01    -0.01   0.02   0.03
    67   1     0.11   0.15  -0.10     0.01   0.01  -0.01    -0.02  -0.01   0.00
    68   1     0.12  -0.35   0.18     0.01  -0.02   0.01    -0.01   0.04  -0.02
    69   1     0.10   0.05  -0.15     0.01   0.00  -0.01    -0.01  -0.02   0.02
                    121                    122                    123
                      A                      A                      A
 Frequencies --   1219.2069              1224.5885              1238.1513
 Red. masses --      1.4556                 1.7900                 1.2086
 Frc consts  --      1.2748                 1.5815                 1.0917
 IR Inten    --      0.0000                 0.0000                 0.0000
  Atom  AN      X      Y      Z        X      Y      Z        X      Y      Z
     1  26    -0.00  -0.00   0.00    -0.00  -0.00  -0.00     0.00  -0.00  -0.00
     2   6    -0.00   0.02  -0.01     0.01  -0.03   0.02     0.01   0.00   0.00
     3  46    -0.00   0.00  -0.00     0.00   0.00  -0.00    -0.00  -0.00   0.00
     4   6    -0.01  -0.00   0.00     0.01  -0.00  -0.00     0.01  -0.01  -0.00
     5   1    -0.01   0.01   0.02    -0.01  -0.00   0.00    -0.02  -0.01   0.01
     6   1     0.00   0.01   0.01    -0.00  -0.02   0.01    -0.01  -0.02   0.01
     7   1     0.00   0.01   0.00    -0.00   0.00  -0.00     0.01   0.01   0.01
     8   6     0.01   0.00   0.01    -0.02  -0.00  -0.01    -0.02  -0.00  -0.01
     9   8     0.00  -0.00  -0.00     0.00   0.01   0.01    -0.00   0.00   0.00
    10   6     0.00   0.01  -0.01    -0.01   0.00  -0.00    -0.02   0.00  -0.00
    11   8     0.01  -0.01  -0.04    -0.00   0.01   0.04     0.00   0.01   0.03
    12   6     0.02  -0.02   0.01     0.01   0.00  -0.00    -0.01  -0.00  -0.00
    13   6    -0.01   0.01  -0.00     0.00   0.00   0.00     0.01  -0.01   0.00
    14   6     0.00   0.01  -0.00     0.00  -0.00   0.00     0.02  -0.01   0.00
    15   1     0.01   0.02   0.01     0.00   0.03   0.00    -0.04   0.13  -0.07
    16   1    -0.14   0.01  -0.09    -0.03   0.00  -0.03     0.07  -0.01   0.03
    17   1    -0.01  -0.01  -0.00    -0.00  -0.01  -0.00     0.00  -0.04  -0.01
    18   1     0.04   0.12   0.31    -0.03  -0.08  -0.24    -0.06  -0.10  -0.24
    19   6     0.01  -0.01  -0.01    -0.01  -0.01   0.01    -0.01   0.01  -0.00
    20   6    -0.04   0.02   0.02     0.16   0.08  -0.01    -0.02  -0.00  -0.02
    21   8    -0.00  -0.00   0.00    -0.02  -0.01  -0.01    -0.00  -0.00  -0.00
    22   6    -0.00   0.00  -0.00    -0.00   0.00  -0.00     0.00  -0.02  -0.00
    23   6     0.00  -0.00  -0.00     0.00  -0.00   0.00     0.01   0.00  -0.01
    24   6     0.00  -0.01   0.00     0.00  -0.00   0.00     0.00  -0.00   0.00
    25   6     0.01  -0.00   0.01     0.00   0.00   0.00    -0.01   0.00  -0.01
    26   6     0.00   0.01  -0.00    -0.00   0.00  -0.00     0.01   0.00   0.00
    27   1    -0.03  -0.00   0.01     0.01   0.04   0.01     0.09   0.05  -0.04
    28   7     0.01  -0.01   0.04    -0.02  -0.01  -0.04     0.03  -0.01   0.00
    29   1     0.18   0.06  -0.34    -0.50  -0.37   0.23    -0.00  -0.01  -0.06
    30   1    -0.01  -0.01   0.00     0.01  -0.01   0.01     0.01  -0.02   0.03
    31   1     0.00  -0.03   0.01    -0.00   0.02  -0.01     0.01   0.05  -0.03
    32   1     0.01  -0.01  -0.03     0.01  -0.00  -0.02     0.01  -0.02   0.08
    33   7    -0.00  -0.00  -0.01    -0.01   0.01   0.01    -0.01   0.02   0.01
    34   6     0.00   0.00   0.00     0.00  -0.00  -0.00    -0.00  -0.01  -0.01
    35   6    -0.00   0.00   0.00     0.00  -0.00  -0.00     0.01  -0.01  -0.00
    36   1    -0.01   0.01   0.01     0.01  -0.01  -0.01     0.01  -0.01  -0.01
    37   1    -0.00  -0.00  -0.00     0.00   0.00   0.00     0.00   0.01   0.01
    38   1    -0.00  -0.01  -0.01     0.00   0.00   0.00     0.01   0.01   0.00
    39   1     0.01   0.00  -0.01    -0.01   0.01  -0.00    -0.02   0.01   0.00
    40   1    -0.00  -0.01  -0.00    -0.01   0.00   0.01    -0.02   0.01   0.02
    41   1    -0.01  -0.01   0.00     0.01   0.01  -0.01     0.02   0.02  -0.03
    42   6     0.02  -0.05   0.03    -0.06  -0.08   0.04     0.01  -0.01  -0.00
    43   6    -0.03   0.05  -0.06     0.01   0.10  -0.04    -0.06  -0.06   0.02
    44   6     0.01   0.02  -0.01    -0.01   0.02  -0.02     0.02  -0.00   0.02
    45   6    -0.03  -0.04   0.01    -0.04  -0.02  -0.00     0.03   0.00   0.01
    46   6     0.03  -0.04   0.04     0.02  -0.01   0.02     0.00  -0.00   0.01
    47   6     0.06  -0.01   0.03     0.03  -0.02   0.02    -0.00   0.03   0.00
    48   6    -0.04   0.07  -0.06    -0.02   0.03  -0.03     0.00  -0.01  -0.03
    49   1    -0.04  -0.08   0.01     0.12   0.38  -0.05     0.03   0.21  -0.07
    50   1    -0.00  -0.05   0.08    -0.10  -0.39  -0.01     0.03   0.14  -0.03
    51   1     0.20   0.41  -0.17    -0.02   0.01  -0.02     0.18   0.31  -0.11
    52   1     0.09  -0.18   0.17     0.08  -0.16   0.16    -0.02   0.06  -0.08
    53   1    -0.26  -0.13  -0.07    -0.03  -0.03   0.00    -0.09  -0.03  -0.03
    54   1    -0.15  -0.35   0.28    -0.05  -0.12   0.11     0.04  -0.21  -0.14
    55   1    -0.03   0.07  -0.14     0.00   0.00  -0.00    -0.31   0.34   0.57
    56   8    -0.01   0.00  -0.00     0.01  -0.00   0.01     0.00  -0.00   0.01
    57   6     0.01   0.00  -0.00    -0.01  -0.00   0.00    -0.01  -0.01  -0.00
    58   6    -0.01  -0.00   0.01     0.03   0.01  -0.00     0.02   0.02   0.01
    59   6     0.00   0.00  -0.00    -0.01  -0.00   0.00    -0.01  -0.01  -0.00
    60   6     0.01   0.00  -0.00    -0.01  -0.00   0.00    -0.01  -0.01  -0.00
    61   1    -0.01  -0.01   0.01    -0.00   0.01  -0.01    -0.02   0.01  -0.02
    62   1    -0.01   0.00   0.00     0.02   0.00   0.00     0.01   0.01   0.01
    63   1     0.02  -0.00   0.02    -0.03   0.00  -0.03    -0.02   0.01  -0.02
    64   1    -0.01   0.00   0.01     0.02  -0.01  -0.01     0.02  -0.01  -0.01
    65   1    -0.00  -0.02  -0.01     0.01   0.03   0.02     0.01   0.01   0.01
    66   1    -0.01   0.01   0.01     0.01  -0.01  -0.02     0.01  -0.02  -0.02
    67   1    -0.01  -0.00   0.00     0.02   0.01  -0.00     0.02  -0.01   0.02
    68   1    -0.01   0.02  -0.01     0.01  -0.03   0.02     0.02  -0.02   0.03
    69   1    -0.00  -0.01   0.01     0.01   0.02  -0.02    -0.00   0.03  -0.01
                    124                    125                    126
                      A                      A                      A
 Frequencies --   1245.9548              1246.8856              1249.9646
 Red. masses --      1.9399                 2.3967                 1.6541
 Frc consts  --      1.7743                 2.1954                 1.5227
 IR Inten    --      0.0000                 0.0000                 0.0000
  Atom  AN      X      Y      Z        X      Y      Z        X      Y      Z
     1  26    -0.00   0.00   0.00     0.00  -0.00  -0.00    -0.00   0.00   0.00
     2   6     0.00   0.02  -0.01    -0.01  -0.01   0.01    -0.00  -0.01   0.01
     3  46     0.00   0.00  -0.00     0.00   0.00   0.00    -0.00  -0.00  -0.00
     4   6    -0.00  -0.04  -0.01     0.00   0.04   0.01    -0.02  -0.06  -0.01
     5   1     0.03   0.01   0.01    -0.02  -0.01  -0.01     0.03   0.01   0.00
     6   1     0.00   0.06  -0.01     0.00  -0.06   0.01    -0.00   0.09  -0.02
     7   1    -0.03  -0.00  -0.04     0.03   0.01   0.04    -0.04  -0.02  -0.06
     8   6     0.02  -0.01  -0.03    -0.01   0.01   0.02    -0.00   0.01   0.03
     9   8     0.00  -0.00   0.00    -0.00  -0.00  -0.00    -0.00   0.00  -0.00
    10   6    -0.01  -0.01  -0.01     0.01   0.01   0.01     0.00  -0.02  -0.02
    11   8    -0.01   0.01   0.06     0.01  -0.01  -0.04     0.00  -0.01  -0.06
    12   6     0.01   0.01  -0.00    -0.01  -0.01   0.00     0.01  -0.01   0.00
    13   6     0.01   0.01  -0.00    -0.01  -0.01   0.00     0.00   0.01  -0.01
    14   6    -0.01  -0.00  -0.00     0.01  -0.00   0.00    -0.01   0.02  -0.01
    15   1     0.02   0.01   0.01    -0.01  -0.04   0.01     0.01  -0.01   0.01
    16   1     0.01   0.01  -0.00    -0.01  -0.01  -0.00    -0.03   0.02   0.00
    17   1    -0.01   0.01  -0.00     0.01  -0.00   0.00    -0.02   0.02   0.01
    18   1    -0.04  -0.11  -0.35     0.03   0.11   0.27     0.04   0.11   0.34
    19   6    -0.00  -0.01   0.01     0.00   0.01  -0.01     0.01  -0.01  -0.00
    20   6    -0.03  -0.01   0.08     0.02   0.01  -0.05     0.02   0.01  -0.06
    21   8    -0.00  -0.00  -0.00     0.00   0.00   0.00     0.00   0.00   0.00
    22   6     0.00   0.00  -0.00    -0.00  -0.00  -0.00     0.01   0.00   0.01
    23   6    -0.00   0.00  -0.01     0.00  -0.01   0.01    -0.00   0.01  -0.01
    24   6    -0.00  -0.00  -0.00     0.00   0.00   0.00    -0.00   0.00  -0.00
    25   6     0.00  -0.01   0.00    -0.00   0.00  -0.00    -0.00  -0.01   0.00
    26   6     0.00  -0.00   0.00    -0.00   0.00  -0.00     0.00  -0.01   0.01
    27   1    -0.03  -0.03   0.01     0.01   0.02  -0.00    -0.02  -0.03   0.01
    28   7    -0.00   0.00  -0.08     0.00  -0.00   0.05     0.00  -0.00   0.07
    29   1     0.33   0.30   0.09    -0.19  -0.18  -0.06    -0.23  -0.23  -0.11
    30   1     0.04  -0.12   0.14    -0.04   0.12  -0.14     0.04  -0.18   0.22
    31   1     0.03   0.35  -0.24    -0.04  -0.35   0.24     0.06   0.54  -0.37
    32   1     0.01  -0.02   0.00    -0.01   0.01  -0.02     0.01  -0.01   0.01
    33   7    -0.01   0.03   0.07     0.01  -0.04  -0.07    -0.01   0.05   0.11
    34   6    -0.01  -0.02  -0.04     0.01   0.02   0.04    -0.01  -0.02  -0.05
    35   6     0.01  -0.01  -0.03    -0.01   0.01   0.03     0.02  -0.01  -0.04
    36   1     0.04  -0.07  -0.01    -0.04   0.07   0.01     0.05  -0.10   0.00
    37   1     0.05  -0.03   0.00    -0.05   0.03  -0.01     0.08  -0.05   0.01
    38   1    -0.01   0.08   0.07     0.01  -0.08  -0.07    -0.02   0.12   0.10
    39   1    -0.04   0.01   0.04     0.05  -0.02  -0.04    -0.06   0.02   0.07
    40   1     0.02   0.05   0.02    -0.01  -0.05  -0.02     0.04   0.08   0.01
    41   1     0.06   0.04  -0.03    -0.07  -0.04   0.04     0.10   0.06  -0.05
    42   6     0.02  -0.03   0.01    -0.01   0.02  -0.01    -0.01   0.02  -0.01
    43   6     0.03   0.05  -0.04    -0.01  -0.03   0.02    -0.02  -0.04   0.02
    44   6    -0.01   0.00  -0.01     0.01  -0.00   0.00     0.01  -0.00   0.00
    45   6    -0.03  -0.01  -0.01     0.01   0.01   0.00     0.02   0.00   0.01
    46   6     0.01  -0.00   0.01    -0.01   0.00  -0.00    -0.01   0.00  -0.01
    47   6     0.01  -0.02   0.01    -0.01   0.01  -0.01    -0.01   0.01  -0.01
    48   6    -0.01   0.02  -0.02     0.01  -0.01   0.01     0.01  -0.02   0.02
    49   1    -0.07  -0.28   0.07     0.04   0.14  -0.03     0.04   0.16  -0.04
    50   1    -0.01  -0.05   0.10     0.00   0.02  -0.06     0.00   0.03  -0.07
    51   1    -0.08  -0.13   0.04     0.03   0.05  -0.01     0.03   0.06  -0.01
    52   1     0.03  -0.08   0.06    -0.02   0.04  -0.03    -0.02   0.05  -0.03
    53   1     0.00  -0.01   0.01     0.01   0.00  -0.00     0.01   0.01  -0.00
    54   1    -0.01  -0.05   0.04     0.00   0.06  -0.01     0.00   0.07  -0.01
    55   1     0.02  -0.02  -0.03     0.02  -0.02  -0.05     0.03  -0.03  -0.07
    56   8    -0.01  -0.01  -0.00     0.01  -0.02   0.00     0.01  -0.00   0.00
    57   6    -0.00  -0.05  -0.01     0.02  -0.09   0.00     0.02  -0.01   0.01
    58   6     0.02   0.17   0.04    -0.06   0.27  -0.01    -0.05   0.02  -0.05
    59   6    -0.00  -0.05  -0.01     0.02  -0.08   0.00     0.02  -0.01   0.02
    60   6    -0.01  -0.05  -0.01     0.02  -0.09   0.01     0.02  -0.01   0.02
    61   1    -0.16   0.04  -0.14    -0.20   0.06  -0.20     0.02   0.01  -0.00
    62   1     0.08   0.07   0.12     0.19   0.12   0.21     0.06   0.02   0.03
    63   1    -0.01   0.11  -0.01     0.01   0.18   0.02     0.02   0.02   0.02
    64   1     0.02  -0.11  -0.11    -0.02  -0.22  -0.22    -0.03  -0.05  -0.04
    65   1    -0.01  -0.00  -0.03    -0.06   0.01  -0.09    -0.03   0.01  -0.04
    66   1     0.03  -0.03  -0.07     0.03   0.08  -0.05    -0.01   0.09   0.03
    67   1     0.06  -0.13   0.13     0.03  -0.20   0.18    -0.03  -0.00  -0.00
    68   1     0.04   0.02   0.09     0.03   0.02   0.08    -0.01  -0.01  -0.03
    69   1    -0.03   0.09   0.00    -0.05   0.01   0.07     0.00  -0.08   0.04
                    127                    128                    129
                      A                      A                      A
 Frequencies --   1254.0346              1258.2052              1269.9751
 Red. masses --      2.6198                 2.7819                 5.1284
 Frc consts  --      2.4274                 2.5947                 4.8733
 IR Inten    --      0.0000                 0.0000                 0.0000
  Atom  AN      X      Y      Z        X      Y      Z        X      Y      Z
     1  26    -0.00   0.00   0.00     0.00   0.00   0.00    -0.01   0.01   0.02
     2   6    -0.00  -0.00  -0.00    -0.01  -0.01   0.01     0.01   0.00   0.00
     3  46     0.00  -0.00   0.00     0.00  -0.00   0.00     0.00  -0.00   0.00
     4   6     0.07  -0.07   0.07    -0.01  -0.01   0.01    -0.02  -0.03   0.01
     5   1     0.04   0.01   0.02     0.01   0.00  -0.01     0.02  -0.16   0.23
     6   1     0.00   0.11  -0.01    -0.00   0.02  -0.01     0.19   0.14   0.22
     7   1    -0.05   0.00  -0.07    -0.01  -0.01  -0.01     0.15   0.30   0.08
     8   6     0.01   0.00   0.00    -0.03  -0.00  -0.01    -0.00   0.00   0.01
     9   8     0.00  -0.00  -0.00     0.00  -0.00  -0.01    -0.00   0.00   0.01
    10   6    -0.02   0.01  -0.01     0.01  -0.01  -0.00     0.01   0.02  -0.02
    11   8    -0.00  -0.00  -0.00     0.01  -0.01  -0.02    -0.00  -0.00  -0.01
    12   6    -0.01  -0.00   0.00     0.00  -0.01   0.00    -0.04  -0.03   0.01
    13   6     0.00   0.00  -0.00    -0.00   0.01  -0.00    -0.01  -0.03   0.01
    14   6     0.01  -0.01   0.01    -0.01   0.01  -0.00     0.03   0.01   0.00
    15   1    -0.01  -0.03   0.00     0.01  -0.03   0.01    -0.04  -0.06  -0.02
    16   1     0.01   0.00   0.01    -0.01   0.01   0.00    -0.03  -0.04  -0.04
    17   1     0.02   0.01  -0.01    -0.00   0.02   0.00     0.00  -0.05  -0.06
    18   1     0.02   0.01   0.03     0.09   0.10   0.33     0.03  -0.00   0.04
    19   6     0.02   0.00  -0.00     0.00  -0.00  -0.01     0.03   0.05  -0.02
    20   6    -0.00  -0.00   0.00     0.01   0.01  -0.02     0.00  -0.02  -0.04
    21   8     0.00   0.00   0.00     0.01   0.01   0.00    -0.00  -0.00  -0.00
    22   6    -0.00   0.01  -0.00     0.00  -0.00   0.00    -0.15   0.10  -0.19
    23   6    -0.01   0.00  -0.01     0.00   0.00   0.00    -0.18  -0.19  -0.05
    24   6    -0.00  -0.01   0.00    -0.00   0.01  -0.00     0.04  -0.22   0.13
    25   6     0.01  -0.01   0.01    -0.00  -0.00  -0.00     0.25   0.03   0.11
    26   6     0.01   0.00   0.00    -0.00  -0.01   0.00     0.10   0.23  -0.09
    27   1    -0.04  -0.03   0.01    -0.01  -0.02   0.00    -0.20   0.19  -0.14
    28   7    -0.00   0.00  -0.00    -0.01  -0.00   0.05    -0.01   0.01   0.00
    29   1     0.01   0.01   0.01    -0.15  -0.18  -0.16     0.02   0.08   0.22
    30   1    -0.04  -0.19   0.10    -0.00  -0.03   0.03    -0.02  -0.03   0.03
    31   1     0.01  -0.07   0.08     0.01   0.07  -0.05     0.04   0.07  -0.08
    32   1     0.00  -0.03   0.02     0.00   0.00  -0.00    -0.29  -0.14   0.03
    33   7    -0.04   0.24  -0.14    -0.00   0.02   0.01    -0.00  -0.01   0.01
    34   6    -0.01  -0.11   0.05    -0.00  -0.01  -0.00     0.00   0.01  -0.01
    35   6     0.01  -0.13   0.05     0.00  -0.01  -0.00    -0.01   0.01   0.00
    36   1     0.06   0.02  -0.24     0.01  -0.01  -0.01    -0.02   0.01   0.03
    37   1    -0.13   0.36   0.14     0.01   0.01   0.01     0.00  -0.03  -0.02
    38   1     0.21  -0.15  -0.24     0.01   0.01   0.00    -0.02   0.01   0.02
    39   1    -0.23   0.16   0.06    -0.02   0.01   0.02     0.07  -0.03  -0.06
    40   1    -0.26   0.02   0.30    -0.00   0.01   0.01     0.02  -0.01  -0.03
    41   1     0.18   0.22  -0.31     0.02   0.02  -0.02    -0.02  -0.02   0.04
    42   6     0.00   0.00  -0.00    -0.01   0.02  -0.01     0.00   0.02  -0.00
    43   6     0.01   0.00   0.00    -0.01  -0.02   0.01     0.02  -0.01   0.03
    44   6    -0.00  -0.00  -0.00     0.00  -0.00   0.00    -0.01  -0.02   0.01
    45   6    -0.00   0.00  -0.00     0.01   0.00   0.00    -0.00   0.01  -0.01
    46   6    -0.00  -0.00  -0.00    -0.01   0.00  -0.01     0.02   0.01   0.01
    47   6    -0.00  -0.00  -0.00    -0.01   0.00  -0.01    -0.01  -0.01  -0.00
    48   6    -0.00   0.00   0.00     0.01  -0.01   0.02    -0.01   0.00  -0.02
    49   1    -0.00  -0.02   0.01     0.02   0.05  -0.01     0.02   0.05  -0.01
    50   1    -0.00  -0.00   0.00     0.00   0.04  -0.04    -0.02  -0.08  -0.00
    51   1    -0.01  -0.02   0.01    -0.00  -0.01   0.01     0.01   0.01  -0.01
    52   1     0.00  -0.00   0.01    -0.01   0.02  -0.01    -0.02   0.04  -0.04
    53   1     0.01   0.00   0.00     0.03   0.01   0.00    -0.03  -0.01  -0.01
    54   1     0.00   0.02   0.00     0.01   0.08  -0.01     0.02   0.03  -0.04
    55   1     0.04  -0.04  -0.08     0.04  -0.04  -0.07    -0.04   0.04  -0.01
    56   8    -0.00  -0.00   0.00     0.01   0.00  -0.05     0.00   0.00  -0.00
    57   6     0.00  -0.00   0.00    -0.06  -0.01  -0.08    -0.00   0.00  -0.00
    58   6    -0.01   0.00  -0.01     0.19   0.02   0.29     0.01  -0.00   0.02
    59   6     0.00  -0.00   0.00    -0.06  -0.00  -0.08    -0.00   0.00  -0.00
    60   6     0.00  -0.00   0.00    -0.06  -0.01  -0.08    -0.00   0.00  -0.00
    61   1     0.01   0.00   0.00    -0.22  -0.03  -0.06    -0.01  -0.00  -0.00
    62   1     0.01   0.00   0.01    -0.22  -0.02  -0.06    -0.01  -0.00  -0.01
    63   1     0.01   0.00   0.01    -0.04  -0.01  -0.04    -0.00  -0.00  -0.00
    64   1    -0.01  -0.01  -0.01     0.11   0.14   0.13     0.00   0.01   0.01
    65   1    -0.01   0.00  -0.01     0.11  -0.11   0.11     0.01  -0.01   0.00
    66   1    -0.00   0.02   0.01     0.05  -0.37  -0.14     0.00  -0.02  -0.00
    67   1    -0.01   0.00  -0.00     0.15  -0.08   0.12     0.00  -0.00   0.00
    68   1    -0.00   0.00  -0.01     0.06   0.09   0.14     0.00   0.01   0.00
    69   1     0.00  -0.02   0.01    -0.04   0.39  -0.14    -0.00   0.02  -0.01
                    130                    131                    132
                      A                      A                      A
 Frequencies --   1281.3464              1299.3049              1307.5217
 Red. masses --      1.4120                 2.8493                10.9772
 Frc consts  --      1.3659                 2.8340                11.0571
 IR Inten    --      0.0000                 0.0000                 0.0000
  Atom  AN      X      Y      Z        X      Y      Z        X      Y      Z
     1  26     0.00  -0.00  -0.00    -0.00   0.00   0.01     0.00  -0.00  -0.00
     2   6     0.02   0.00   0.00     0.02   0.01  -0.00     0.59   0.19  -0.13
     3  46     0.00   0.00  -0.00    -0.00   0.00  -0.00     0.00   0.00   0.00
     4   6    -0.01  -0.01   0.01    -0.04  -0.05   0.08    -0.00   0.01  -0.01
     5   1    -0.01   0.02  -0.01    -0.00  -0.02   0.00    -0.01  -0.01  -0.00
     6   1    -0.02  -0.01  -0.01     0.06  -0.14   0.00    -0.01   0.01   0.00
     7   1    -0.01  -0.02  -0.01     0.03   0.02   0.03    -0.04  -0.00  -0.02
     8   6    -0.02   0.01   0.02    -0.02  -0.00  -0.02     0.06   0.00   0.04
     9   8    -0.01   0.01   0.03    -0.00   0.00   0.01    -0.03   0.09   0.31
    10   6     0.01  -0.01  -0.00     0.03  -0.12   0.04     0.03   0.00  -0.00
    11   8     0.00  -0.01  -0.02     0.01  -0.00   0.01    -0.02  -0.00  -0.03
    12   6     0.01  -0.01   0.00     0.18   0.07  -0.04    -0.02  -0.03   0.01
    13   6    -0.00   0.01  -0.00     0.01   0.11  -0.03    -0.01  -0.02   0.00
    14   6    -0.00   0.01  -0.00    -0.13   0.04  -0.04     0.02   0.01   0.00
    15   1     0.01   0.01   0.01     0.18   0.13   0.05    -0.03  -0.01  -0.01
    16   1    -0.01   0.01  -0.01     0.17   0.11   0.02    -0.03  -0.02  -0.01
    17   1    -0.00   0.01   0.00    -0.09   0.15  -0.01     0.01  -0.01   0.00
    18   1     0.05   0.04   0.17    -0.04   0.03   0.02     0.14  -0.03   0.01
    19   6    -0.00  -0.00  -0.00    -0.13  -0.15   0.04     0.01   0.04  -0.01
    20   6     0.00  -0.07  -0.13    -0.01   0.00   0.00    -0.03   0.02   0.04
    21   8    -0.01  -0.01  -0.01    -0.01  -0.01  -0.01    -0.38  -0.23  -0.21
    22   6     0.01  -0.01   0.02    -0.01   0.01  -0.03     0.01   0.00   0.01
    23   6     0.02   0.02   0.00     0.00  -0.03   0.01    -0.00   0.00   0.00
    24   6    -0.00   0.02  -0.01    -0.01  -0.01   0.01     0.00  -0.00   0.00
    25   6    -0.02  -0.00  -0.01     0.03   0.00   0.01    -0.00   0.00  -0.00
    26   6    -0.01  -0.02   0.01    -0.00   0.02  -0.01    -0.01  -0.01  -0.00
    27   1     0.01  -0.01   0.02     0.00   0.05  -0.03     0.06   0.07  -0.00
    28   7    -0.03   0.03   0.02     0.00  -0.00   0.01     0.00  -0.00   0.01
    29   1     0.17   0.37   0.75    -0.00  -0.01  -0.04    -0.15  -0.17  -0.17
    30   1     0.00   0.01  -0.01     0.14   0.55  -0.39    -0.04  -0.09   0.05
    31   1     0.01   0.02  -0.02     0.21   0.23  -0.24    -0.04  -0.04   0.04
    32   1     0.03   0.01  -0.00    -0.04   0.02  -0.02     0.00  -0.01   0.01
    33   7     0.00   0.00  -0.00     0.07   0.01  -0.07    -0.02   0.00   0.00
    34   6    -0.00  -0.00   0.00    -0.01  -0.00   0.04     0.01  -0.00  -0.00
    35   6    -0.00  -0.00  -0.00    -0.04  -0.01   0.02     0.00  -0.00   0.00
    36   1     0.00   0.00   0.00    -0.00   0.04  -0.06    -0.01   0.01   0.01
    37   1    -0.00   0.01   0.00    -0.03   0.10   0.05    -0.02   0.01  -0.01
    38   1     0.00  -0.00  -0.00     0.07  -0.01  -0.06    -0.02  -0.01   0.01
    39   1    -0.01   0.00   0.00     0.00  -0.03   0.01     0.00   0.04  -0.06
    40   1     0.00   0.00   0.00     0.06  -0.01  -0.05     0.00   0.03   0.03
    41   1     0.00   0.00  -0.00    -0.01  -0.00   0.03     0.01   0.00   0.00
    42   6     0.02   0.03   0.01     0.00  -0.00   0.00    -0.01   0.00  -0.01
    43   6     0.01  -0.01   0.02    -0.01  -0.00  -0.01    -0.04  -0.02  -0.01
    44   6    -0.01  -0.02   0.01     0.00   0.01  -0.00     0.02   0.04  -0.02
    45   6    -0.00   0.00  -0.00     0.00  -0.01   0.01     0.02  -0.02   0.02
    46   6     0.03  -0.00   0.01    -0.01  -0.00  -0.00    -0.05  -0.02  -0.02
    47   6     0.00   0.01  -0.00     0.00   0.01  -0.00     0.01   0.03  -0.01
    48   6    -0.03   0.01  -0.03     0.01  -0.01   0.00     0.04  -0.03   0.05
    49   1     0.04   0.11  -0.02    -0.01  -0.00  -0.00    -0.10  -0.12  -0.02
    50   1    -0.06  -0.32   0.09     0.00   0.02  -0.00     0.01   0.07  -0.04
    51   1     0.06   0.12  -0.05    -0.01  -0.01   0.01    -0.03  -0.05   0.03
    52   1    -0.03   0.04  -0.04     0.01  -0.01   0.01     0.02  -0.02   0.03
    53   1    -0.10  -0.04  -0.03     0.00   0.00   0.00     0.07   0.01   0.01
    54   1    -0.05  -0.10   0.05     0.04  -0.01  -0.06     0.04   0.13  -0.03
    55   1    -0.05   0.04  -0.06    -0.04   0.04   0.09     0.01   0.02  -0.09
    56   8     0.02   0.00  -0.01     0.01  -0.00   0.00    -0.03   0.00  -0.01
    57   6    -0.00  -0.00  -0.00     0.00  -0.00   0.00     0.00  -0.00  -0.01
    58   6     0.00  -0.00   0.02    -0.00   0.00  -0.01    -0.01   0.00   0.03
    59   6    -0.00   0.00  -0.00     0.00  -0.00   0.00     0.00   0.00  -0.01
    60   6    -0.00  -0.00  -0.00     0.00   0.00   0.00     0.00  -0.00  -0.01
    61   1    -0.01  -0.00  -0.00     0.01   0.00   0.00    -0.01  -0.01  -0.00
    62   1    -0.01  -0.00  -0.00     0.01   0.00   0.00    -0.01   0.01   0.00
    63   1    -0.00  -0.00  -0.00    -0.01   0.00  -0.01     0.04   0.01   0.04
    64   1     0.00   0.01   0.00    -0.00  -0.01  -0.00    -0.01   0.01   0.00
    65   1     0.00  -0.01   0.00    -0.00   0.01  -0.00     0.00  -0.04  -0.01
    66   1     0.00  -0.02  -0.00     0.00   0.01  -0.00    -0.00  -0.02   0.01
    67   1     0.01  -0.00   0.01     0.00   0.00   0.00    -0.00  -0.01   0.01
    68   1     0.00   0.01   0.00    -0.00  -0.01  -0.00    -0.01   0.04  -0.00
    69   1    -0.00   0.02  -0.01     0.00  -0.02  -0.00    -0.01   0.02   0.01
                    133                    134                    135
                      A                      A                      A
 Frequencies --   1324.5688              1332.2138              1346.2029
 Red. masses --      4.1432                 2.1945                 1.7443
 Frc consts  --      4.2829                 2.2948                 1.8624
 IR Inten    --      0.0000                 0.0000                 0.0000
  Atom  AN      X      Y      Z        X      Y      Z        X      Y      Z
     1  26    -0.00   0.00   0.00     0.01  -0.00  -0.01    -0.00   0.00  -0.00
     2   6    -0.03  -0.01   0.01    -0.01  -0.00   0.00     0.02   0.01   0.00
     3  46    -0.00   0.00  -0.00    -0.00  -0.00   0.00    -0.00   0.00  -0.00
     4   6     0.03   0.03  -0.03    -0.08  -0.11   0.10     0.00   0.00  -0.00
     5   1     0.01  -0.02   0.01    -0.02   0.02  -0.01    -0.00  -0.00  -0.00
     6   1     0.01   0.05   0.02     0.01  -0.11  -0.03    -0.00   0.00  -0.00
     7   1     0.01   0.02  -0.00     0.02  -0.00   0.03    -0.00  -0.00  -0.00
     8   6    -0.02   0.00   0.00     0.01  -0.00   0.01    -0.01   0.00   0.01
     9   8     0.00  -0.00  -0.01     0.00  -0.00  -0.00    -0.00   0.00   0.01
    10   6    -0.01   0.01   0.00     0.02   0.01  -0.02     0.01  -0.00   0.00
    11   8     0.00  -0.00  -0.01    -0.00   0.00   0.00     0.00  -0.00  -0.01
    12   6     0.02   0.02  -0.01    -0.11  -0.10   0.03     0.01   0.01  -0.00
    13   6    -0.00   0.02  -0.01     0.01  -0.07   0.02     0.00   0.00   0.00
    14   6    -0.01  -0.03   0.01     0.07   0.08  -0.01    -0.00   0.00  -0.00
    15   1     0.03  -0.05  -0.02    -0.14   0.04  -0.07     0.01   0.01   0.02
    16   1     0.06   0.01   0.01    -0.28  -0.06  -0.06    -0.00  -0.00  -0.01
    17   1     0.03   0.05  -0.01    -0.09  -0.20   0.06    -0.00   0.01   0.00
    18   1     0.00   0.03   0.06    -0.01  -0.04  -0.09     0.00   0.02   0.05
    19   6    -0.00  -0.03   0.01     0.05   0.15  -0.03    -0.01  -0.01   0.00
    20   6    -0.02  -0.01  -0.08    -0.00   0.00  -0.01    -0.04   0.00  -0.06
    21   8     0.02   0.01   0.01     0.01   0.00   0.00    -0.01  -0.01  -0.01
    22   6    -0.01   0.00  -0.01     0.01  -0.01   0.02     0.00   0.00   0.00
    23   6    -0.01  -0.01  -0.00     0.01   0.01   0.01     0.00  -0.00  -0.00
    24   6    -0.00  -0.02   0.01     0.00   0.03  -0.01     0.00   0.00   0.00
    25   6     0.02   0.01   0.01    -0.02  -0.02   0.00    -0.00  -0.00  -0.00
    26   6     0.01   0.01  -0.00    -0.01  -0.00  -0.01    -0.00  -0.00   0.00
    27   1    -0.02   0.01  -0.00     0.02   0.01   0.02    -0.00  -0.00   0.00
    28   7    -0.00   0.01   0.02     0.00  -0.00  -0.01     0.00   0.00   0.02
    29   1     0.18   0.28   0.30     0.03   0.04   0.04     0.09   0.15   0.12
    30   1    -0.05  -0.17   0.11     0.15   0.54  -0.36    -0.01  -0.03   0.02
    31   1    -0.07  -0.09   0.10     0.18   0.29  -0.29    -0.01  -0.01   0.01
    32   1    -0.04   0.01   0.03     0.01   0.02  -0.01     0.01  -0.01  -0.01
    33   7    -0.02  -0.00   0.02     0.05   0.00  -0.04    -0.00   0.00   0.00
    34   6     0.00   0.00  -0.01    -0.01  -0.00   0.02     0.00   0.00  -0.00
    35   6     0.01   0.00  -0.01    -0.03  -0.00   0.01     0.00  -0.00  -0.00
    36   1     0.00  -0.01   0.01    -0.01   0.04  -0.03     0.00  -0.00   0.00
    37   1     0.01  -0.02  -0.01    -0.02   0.05   0.02    -0.00  -0.00  -0.00
    38   1    -0.01  -0.00   0.01     0.04   0.01  -0.02    -0.00  -0.00   0.00
    39   1    -0.00   0.01  -0.00     0.02  -0.02  -0.01    -0.00   0.00  -0.00
    40   1    -0.02   0.00   0.02     0.09  -0.00  -0.07    -0.00   0.00   0.00
    41   1     0.00  -0.00  -0.01     0.00   0.01   0.01     0.00   0.00  -0.00
    42   6     0.01  -0.12   0.08    -0.00  -0.03   0.01    -0.02  -0.14   0.06
    43   6    -0.17   0.01  -0.12    -0.02   0.01  -0.02     0.05   0.05  -0.00
    44   6     0.10   0.21  -0.10     0.02   0.03  -0.02    -0.00  -0.05   0.03
    45   6     0.04  -0.11   0.10     0.00  -0.02   0.01    -0.04   0.06  -0.06
    46   6    -0.21  -0.09  -0.05    -0.03  -0.01  -0.01     0.04   0.02   0.01
    47   6     0.11   0.12  -0.01     0.02   0.01   0.00    -0.03  -0.09   0.04
    48   6     0.10  -0.07   0.11     0.02  -0.01   0.02    -0.02   0.05  -0.04
    49   1     0.01   0.22  -0.06     0.01   0.05  -0.01     0.11   0.36  -0.07
    50   1     0.09   0.24  -0.02     0.03   0.09  -0.02     0.20   0.76  -0.20
    51   1    -0.16  -0.24   0.13    -0.04  -0.06   0.03    -0.04  -0.15   0.06
    52   1     0.14  -0.23   0.24     0.02  -0.04   0.04     0.07  -0.08   0.09
    53   1     0.19   0.01   0.05     0.03  -0.00   0.01     0.14   0.06   0.06
    54   1     0.11   0.04  -0.03    -0.01   0.06   0.05     0.01   0.06   0.01
    55   1    -0.00   0.13  -0.07     0.02   0.01  -0.07     0.03  -0.03   0.01
    56   8     0.01  -0.00   0.00    -0.00   0.00  -0.00     0.00  -0.00  -0.00
    57   6    -0.00  -0.00   0.00    -0.00   0.00  -0.00    -0.00  -0.00  -0.00
    58   6     0.00   0.00  -0.00     0.00  -0.00   0.00     0.00   0.00   0.00
    59   6    -0.00  -0.00   0.00    -0.00   0.00  -0.00    -0.00  -0.00  -0.00
    60   6    -0.00  -0.00   0.00     0.00  -0.00  -0.00    -0.00  -0.00  -0.00
    61   1     0.00   0.00  -0.00     0.00   0.00  -0.00     0.01  -0.00   0.00
    62   1    -0.00  -0.00  -0.00    -0.00  -0.00  -0.00    -0.00   0.00   0.00
    63   1    -0.01   0.00  -0.00     0.00   0.00   0.00     0.00   0.01   0.00
    64   1     0.00  -0.00  -0.00     0.00   0.00   0.00     0.00   0.00   0.00
    65   1    -0.00   0.01   0.00     0.00   0.00   0.00     0.00   0.00   0.00
    66   1     0.00  -0.00  -0.00    -0.00   0.00   0.00    -0.00   0.00  -0.00
    67   1     0.00   0.00   0.00    -0.01   0.00  -0.00     0.00   0.00  -0.00
    68   1     0.00  -0.00   0.00     0.00  -0.00   0.00    -0.00   0.00   0.00
    69   1     0.00  -0.00  -0.00    -0.00   0.01   0.00    -0.00   0.01  -0.00
                    136                    137                    138
                      A                      A                      A
 Frequencies --   1376.6769              1391.5692              1395.6763
 Red. masses --      5.4128                 1.4311                 1.3603
 Frc consts  --      6.0441                 1.6328                 1.5611
 IR Inten    --      0.0000                 0.0000                 0.0000
  Atom  AN      X      Y      Z        X      Y      Z        X      Y      Z
     1  26    -0.00  -0.00  -0.01    -0.00   0.00  -0.00    -0.00  -0.00  -0.00
     2   6    -0.01  -0.00   0.00    -0.01  -0.00   0.00     0.00   0.00   0.00
     3  46     0.00  -0.00   0.00     0.00   0.00  -0.00     0.00   0.00   0.00
     4   6    -0.08  -0.01   0.00    -0.00  -0.00   0.00     0.00   0.00  -0.00
     5   1     0.03   0.04  -0.01     0.01   0.00   0.00     0.00  -0.00  -0.01
     6   1     0.02   0.13   0.04     0.00  -0.01   0.00     0.00   0.01  -0.01
     7   1     0.02  -0.04   0.02    -0.00  -0.01  -0.00     0.00   0.00  -0.00
     8   6    -0.07  -0.00  -0.06     0.07   0.00   0.05    -0.02  -0.00  -0.01
     9   8     0.00  -0.00  -0.01     0.00  -0.00  -0.00    -0.00   0.00   0.00
    10   6     0.40  -0.11   0.04     0.01   0.00   0.00    -0.00  -0.01   0.00
    11   8     0.02  -0.00   0.04    -0.00  -0.00  -0.03     0.00   0.00   0.00
    12   6    -0.02   0.10  -0.04    -0.02   0.05  -0.01     0.01  -0.03   0.01
    13   6    -0.05  -0.18   0.08     0.02  -0.03   0.01    -0.01   0.02  -0.01
    14   6     0.07   0.21  -0.07    -0.00   0.01  -0.01     0.00  -0.00   0.00
    15   1     0.00  -0.11   0.04    -0.00  -0.04   0.01    -0.00   0.04  -0.01
    16   1    -0.20  -0.20  -0.06    -0.04  -0.03  -0.00     0.02   0.02   0.01
    17   1    -0.06  -0.02   0.01    -0.03  -0.02   0.01     0.01   0.02  -0.00
    18   1    -0.02   0.02  -0.05    -0.11  -0.00  -0.09     0.02   0.00   0.03
    19   6    -0.27   0.05  -0.01    -0.01  -0.02   0.01     0.00   0.02  -0.00
    20   6    -0.00   0.00   0.01     0.01   0.00  -0.01    -0.00   0.00  -0.00
    21   8     0.00   0.00   0.00     0.00   0.00   0.00    -0.00  -0.00  -0.00
    22   6     0.05   0.05   0.00     0.00   0.01  -0.01     0.01   0.01   0.00
    23   6     0.01  -0.04   0.02     0.01  -0.01   0.01    -0.00  -0.01   0.00
    24   6    -0.04   0.02  -0.02    -0.01  -0.01  -0.01     0.00   0.01  -0.00
    25   6     0.04  -0.02   0.02     0.01   0.01  -0.00     0.00  -0.01   0.01
    26   6    -0.07  -0.02  -0.02    -0.00  -0.01   0.01    -0.01   0.00  -0.01
    27   1    -0.01  -0.05   0.00    -0.01  -0.00  -0.00     0.01  -0.01  -0.01
    28   7     0.02  -0.00  -0.01    -0.02   0.00   0.01     0.00   0.00  -0.00
    29   1     0.01   0.00  -0.01     0.00   0.00   0.01     0.01   0.02   0.01
    30   1    -0.23  -0.48   0.31    -0.00  -0.00   0.00    -0.01  -0.01   0.00
    31   1    -0.08  -0.17   0.10    -0.00  -0.00  -0.00    -0.01   0.00   0.01
    32   1    -0.02   0.00   0.00     0.00   0.00  -0.00    -0.01   0.00  -0.00
    33   7     0.00   0.03  -0.00     0.00   0.00  -0.00    -0.00   0.00   0.00
    34   6    -0.00  -0.00  -0.00    -0.00   0.00   0.00    -0.00   0.00   0.00
    35   6     0.00  -0.00  -0.01     0.00   0.00  -0.00    -0.00  -0.00   0.00
    36   1     0.02  -0.01  -0.04     0.01  -0.00  -0.01     0.02  -0.02  -0.01
    37   1    -0.01   0.00  -0.00     0.01  -0.02   0.00     0.01  -0.02  -0.00
    38   1     0.01   0.00  -0.00     0.02  -0.00  -0.02     0.00  -0.02  -0.02
    39   1    -0.04   0.00   0.05    -0.00   0.00   0.01     0.00   0.00  -0.01
    40   1    -0.06   0.03   0.06    -0.00  -0.00  -0.00     0.01   0.00  -0.00
    41   1     0.00  -0.03   0.04    -0.00  -0.00  -0.00     0.01   0.01  -0.01
    42   6     0.00   0.00   0.00    -0.00  -0.00   0.00    -0.01  -0.02   0.01
    43   6    -0.01   0.00  -0.01    -0.00   0.00  -0.00     0.02   0.03  -0.02
    44   6     0.00   0.00  -0.00    -0.00   0.00  -0.00    -0.03  -0.00  -0.02
    45   6     0.00  -0.01   0.01     0.00  -0.01   0.01     0.00  -0.04   0.03
    46   6    -0.00   0.00  -0.00     0.00   0.00   0.00     0.04   0.02   0.01
    47   6     0.00   0.00   0.00    -0.00   0.00  -0.00    -0.01   0.03  -0.02
    48   6     0.00   0.00   0.00     0.00  -0.00   0.00     0.01  -0.03   0.02
    49   1    -0.02  -0.02  -0.00     0.00   0.01  -0.00     0.00   0.02  -0.00
    50   1    -0.00  -0.03   0.00    -0.00  -0.01   0.00     0.02   0.07  -0.02
    51   1     0.01   0.02  -0.01     0.00   0.01  -0.01    -0.02   0.03  -0.03
    52   1    -0.01   0.01  -0.01    -0.01   0.01  -0.02    -0.10   0.08  -0.11
    53   1    -0.00   0.00  -0.00    -0.02  -0.00  -0.01    -0.16  -0.04  -0.06
    54   1    -0.01  -0.03   0.02    -0.00  -0.02  -0.00    -0.02  -0.02  -0.01
    55   1    -0.02   0.02   0.03     0.01  -0.02   0.04     0.10  -0.18   0.12
    56   8     0.03  -0.00   0.01    -0.03   0.00  -0.01     0.01  -0.00   0.00
    57   6     0.01   0.00   0.01    -0.09  -0.01  -0.07     0.02  -0.00   0.01
    58   6    -0.00   0.00  -0.01     0.01   0.01   0.03    -0.01   0.01  -0.01
    59   6     0.00   0.01   0.01     0.00  -0.06  -0.05     0.01  -0.07  -0.04
    60   6     0.00  -0.01   0.01    -0.01   0.02  -0.03     0.01  -0.08   0.05
    61   1    -0.05   0.01  -0.02     0.39  -0.08   0.14    -0.09   0.02  -0.04
    62   1    -0.04  -0.02  -0.02     0.37   0.16   0.14    -0.10  -0.03  -0.02
    63   1    -0.04  -0.00  -0.06     0.26   0.04   0.39    -0.07   0.02  -0.10
    64   1    -0.01  -0.03  -0.04     0.00   0.17   0.26    -0.02   0.18   0.28
    65   1    -0.03  -0.03  -0.03     0.10   0.27   0.14     0.06   0.31   0.10
    66   1     0.03  -0.03  -0.03    -0.14   0.24   0.15    -0.13   0.29   0.12
    67   1    -0.00   0.02  -0.02     0.02  -0.07   0.10    -0.01   0.24  -0.33
    68   1    -0.03   0.01  -0.04     0.07  -0.07   0.08    -0.18   0.32  -0.13
    69   1     0.02   0.02  -0.03    -0.04  -0.10   0.05     0.06   0.36  -0.11
                    139                    140                    141
                      A                      A                      A
 Frequencies --   1396.4508              1399.7045              1401.0109
 Red. masses --      1.8039                 2.4722                 1.4118
 Frc consts  --      2.0726                 2.8537                 1.6327
 IR Inten    --      0.0000                 0.0000                 0.0000
  Atom  AN      X      Y      Z        X      Y      Z        X      Y      Z
     1  26     0.00   0.00   0.00    -0.00   0.00  -0.00    -0.00  -0.00   0.00
     2   6    -0.00  -0.00  -0.00     0.00   0.00   0.00     0.00  -0.00   0.00
     3  46    -0.00  -0.00  -0.00     0.00   0.00  -0.00    -0.00  -0.00   0.00
     4   6    -0.01  -0.01   0.01    -0.01  -0.02   0.01     0.01   0.01  -0.00
     5   1    -0.00  -0.00   0.03    -0.00  -0.03   0.02    -0.01   0.01  -0.01
     6   1    -0.01  -0.04   0.01    -0.01  -0.09   0.02     0.00   0.03  -0.01
     7   1    -0.01  -0.00  -0.00    -0.04  -0.05  -0.02     0.02   0.02   0.03
     8   6     0.01  -0.00   0.00     0.08   0.00   0.06    -0.05  -0.00  -0.04
     9   8     0.00  -0.00   0.00    -0.00  -0.00  -0.00    -0.00   0.00   0.00
    10   6    -0.00   0.03  -0.01    -0.01   0.04  -0.01     0.00  -0.02   0.00
    11   8    -0.00   0.00   0.00    -0.01  -0.00  -0.04     0.01   0.00   0.02
    12   6    -0.02   0.07  -0.01    -0.08   0.15  -0.04     0.03  -0.07   0.02
    13   6     0.04  -0.04   0.01     0.12  -0.08   0.04    -0.05   0.04  -0.02
    14   6    -0.00  -0.00  -0.00    -0.03  -0.00  -0.01     0.01  -0.00   0.01
    15   1    -0.00  -0.08   0.02    -0.03  -0.17   0.02     0.01   0.07  -0.01
    16   1    -0.03  -0.04  -0.03    -0.12  -0.06  -0.01     0.05   0.03   0.01
    17   1    -0.03  -0.04   0.01    -0.07  -0.07   0.04     0.04   0.04  -0.02
    18   1    -0.00  -0.01  -0.01    -0.09  -0.00  -0.04     0.06   0.00   0.04
    19   6     0.00  -0.04   0.01     0.01  -0.08   0.02    -0.01   0.04  -0.01
    20   6     0.01  -0.00   0.01     0.00   0.00  -0.01    -0.00  -0.00   0.01
    21   8     0.00   0.00   0.00    -0.00   0.00  -0.00    -0.00  -0.00   0.00
    22   6    -0.02  -0.02  -0.01    -0.02   0.01  -0.04     0.01   0.00   0.01
    23   6     0.01   0.02  -0.01     0.03  -0.01   0.04    -0.01  -0.00  -0.01
    24   6    -0.01  -0.02   0.00    -0.05  -0.06  -0.01     0.02   0.02   0.00
    25   6    -0.00   0.03  -0.02     0.01   0.11  -0.06    -0.01  -0.04   0.02
    26   6     0.02  -0.01   0.02     0.05  -0.05   0.08    -0.01   0.02  -0.02
    27   1    -0.02   0.02   0.02    -0.05  -0.01  -0.03     0.01  -0.00   0.01
    28   7     0.00  -0.00  -0.00    -0.02   0.00   0.01     0.01  -0.00  -0.01
    29   1    -0.02  -0.03  -0.03     0.01   0.02   0.03    -0.00  -0.00  -0.01
    30   1     0.02   0.04  -0.01     0.02   0.09  -0.08    -0.04  -0.02  -0.03
    31   1     0.03  -0.00  -0.02     0.00   0.03  -0.02    -0.04   0.01   0.02
    32   1     0.03  -0.01   0.01     0.01   0.02  -0.00    -0.01  -0.00  -0.00
    33   7     0.00  -0.00  -0.00     0.01  -0.01  -0.01     0.00  -0.01  -0.01
    34   6     0.01  -0.01  -0.01     0.04  -0.06  -0.03     0.06  -0.08  -0.05
    35   6     0.00   0.00  -0.00     0.02   0.01  -0.02     0.02   0.01  -0.03
    36   1    -0.05   0.06   0.03    -0.24   0.25   0.13    -0.31   0.32   0.17
    37   1    -0.02   0.07   0.01    -0.13   0.35   0.04    -0.20   0.48   0.04
    38   1    -0.01   0.04   0.06    -0.09   0.19   0.30    -0.15   0.24   0.43
    39   1    -0.01  -0.00   0.02    -0.06  -0.04   0.15    -0.05  -0.07   0.17
    40   1    -0.02  -0.01   0.01    -0.14  -0.04   0.06    -0.19  -0.05   0.09
    41   1    -0.01  -0.02   0.01    -0.07  -0.10   0.09    -0.06  -0.12   0.13
    42   6     0.01   0.05  -0.02    -0.01  -0.02   0.01     0.00   0.00  -0.00
    43   6    -0.04  -0.07   0.04     0.01   0.04  -0.02     0.00  -0.01   0.01
    44   6     0.06  -0.00   0.04    -0.03  -0.00  -0.02     0.00   0.00   0.00
    45   6    -0.01   0.08  -0.06     0.01  -0.04   0.03    -0.00   0.00  -0.00
    46   6    -0.08  -0.04  -0.02     0.04   0.02   0.00    -0.00  -0.00   0.00
    47   6     0.02  -0.07   0.05    -0.01   0.03  -0.02     0.00  -0.00   0.00
    48   6    -0.01   0.07  -0.05     0.01  -0.03   0.02    -0.00   0.00  -0.00
    49   1    -0.02  -0.04  -0.00     0.02   0.02   0.01    -0.01  -0.00  -0.01
    50   1    -0.04  -0.15   0.04     0.01   0.05  -0.01     0.00   0.00  -0.01
    51   1     0.04  -0.05   0.06    -0.01   0.05  -0.04    -0.00  -0.01   0.01
    52   1     0.20  -0.17   0.22    -0.10   0.09  -0.12     0.01  -0.01   0.02
    53   1     0.34   0.08   0.13    -0.15  -0.03  -0.06     0.01   0.00   0.01
    54   1     0.05   0.04   0.02    -0.03  -0.07  -0.02     0.00   0.02   0.00
    55   1    -0.21   0.40  -0.27     0.10  -0.19   0.17    -0.01   0.02  -0.04
    56   8    -0.00   0.00  -0.00    -0.03   0.00  -0.01     0.02  -0.00   0.01
    57   6     0.02  -0.00   0.01     0.04   0.00   0.02    -0.03  -0.00  -0.01
    58   6    -0.00   0.01  -0.00    -0.00  -0.00   0.00     0.00   0.00  -0.00
    59   6     0.01  -0.04  -0.03    -0.00   0.02   0.01     0.00  -0.01  -0.00
    60   6     0.01  -0.05   0.03     0.00  -0.01   0.00    -0.00   0.00   0.00
    61   1    -0.08   0.02  -0.04    -0.17   0.03  -0.06     0.11  -0.02   0.04
    62   1    -0.09  -0.03  -0.02    -0.16  -0.07  -0.06     0.11   0.04   0.04
    63   1    -0.05   0.01  -0.08    -0.10  -0.01  -0.15     0.06   0.01   0.10
    64   1    -0.01   0.11   0.17     0.01  -0.05  -0.09    -0.01   0.02   0.04
    65   1     0.04   0.19   0.07    -0.01  -0.10  -0.03     0.00   0.04   0.01
    66   1    -0.08   0.17   0.08     0.04  -0.09  -0.04    -0.02   0.04   0.01
    67   1    -0.01   0.14  -0.19    -0.00   0.02  -0.03     0.00  -0.01   0.01
    68   1    -0.11   0.19  -0.08    -0.00   0.03   0.00    -0.00  -0.01  -0.01
    69   1     0.04   0.21  -0.07    -0.01   0.03   0.00     0.01  -0.02  -0.01
                    142                    143                    144
                      A                      A                      A
 Frequencies --   1411.2588              1416.4129              1423.7817
 Red. masses --      2.7234                 1.6182                 1.3186
 Frc consts  --      3.1958                 1.9127                 1.5749
 IR Inten    --      0.0000                 0.0000                 0.0000
  Atom  AN      X      Y      Z        X      Y      Z        X      Y      Z
     1  26    -0.00  -0.00  -0.00    -0.00   0.00  -0.00    -0.00   0.00  -0.00
     2   6    -0.01  -0.00   0.00    -0.00  -0.00   0.00     0.00   0.00   0.00
     3  46     0.00   0.00  -0.00     0.00   0.00  -0.00     0.00  -0.00   0.00
     4   6     0.02   0.00  -0.00     0.01  -0.01   0.00     0.02  -0.01   0.01
     5   1     0.05   0.07  -0.03     0.03   0.04  -0.01     0.03   0.01   0.02
     6   1     0.06   0.13  -0.02     0.04   0.06  -0.01     0.01   0.01   0.02
     7   1     0.10   0.04   0.07     0.05   0.02   0.04     0.02  -0.01   0.00
     8   6     0.15   0.00   0.11     0.04  -0.00   0.02    -0.06  -0.00  -0.04
     9   8     0.00  -0.00  -0.00     0.00  -0.00  -0.00    -0.00   0.00   0.00
    10   6    -0.04  -0.00  -0.00    -0.04   0.03  -0.01    -0.01   0.03  -0.01
    11   8    -0.01  -0.01  -0.06    -0.00  -0.00  -0.02     0.00   0.00   0.02
    12   6     0.03   0.03  -0.02    -0.01   0.06  -0.02    -0.01   0.04  -0.01
    13   6    -0.04  -0.02   0.01    -0.00  -0.03   0.01     0.00  -0.02   0.01
    14   6     0.04   0.01   0.00     0.02  -0.00   0.00     0.01  -0.01   0.01
    15   1     0.04  -0.02   0.02     0.02  -0.09   0.02     0.01  -0.09   0.02
    16   1     0.05  -0.03   0.01     0.02  -0.04   0.01     0.02  -0.03   0.01
    17   1     0.00  -0.05  -0.00    -0.01  -0.05   0.01     0.01  -0.02   0.00
    18   1    -0.25  -0.00  -0.19    -0.04   0.00  -0.02     0.13   0.01   0.11
    19   6    -0.01  -0.03   0.02     0.01  -0.04   0.02     0.01  -0.03   0.00
    20   6     0.01   0.00  -0.01     0.00   0.00  -0.00    -0.00   0.00   0.01
    21   8     0.00   0.00   0.00     0.00   0.00   0.00    -0.00  -0.00  -0.00
    22   6     0.07   0.04   0.05     0.04   0.02   0.03     0.01   0.00   0.01
    23   6    -0.00  -0.03   0.00     0.00  -0.02   0.00     0.01   0.01   0.00
    24   6     0.01   0.07  -0.02    -0.00   0.03  -0.01    -0.02  -0.02  -0.01
    25   6     0.03  -0.15   0.09     0.02  -0.08   0.05     0.02   0.01   0.00
    26   6    -0.12   0.06  -0.13    -0.07   0.03  -0.07    -0.02  -0.01  -0.01
    27   1     0.08  -0.01   0.02     0.04  -0.00   0.01     0.01  -0.01   0.01
    28   7    -0.03   0.00   0.02    -0.01   0.00   0.01     0.02  -0.00  -0.01
    29   1     0.00  -0.00   0.01     0.00  -0.00   0.00     0.00   0.00  -0.00
    30   1    -0.02   0.01  -0.05    -0.01   0.04  -0.06    -0.15  -0.04  -0.15
    31   1    -0.05   0.04   0.02    -0.04   0.04   0.00    -0.19   0.12   0.05
    32   1    -0.02  -0.01   0.00    -0.00  -0.00   0.01     0.02  -0.01   0.02
    33   7    -0.00  -0.00  -0.00    -0.00  -0.00   0.00     0.00  -0.01   0.01
    34   6     0.01  -0.02  -0.01     0.00  -0.01  -0.00     0.02  -0.02  -0.01
    35   6    -0.00   0.00   0.00    -0.01  -0.00   0.01    -0.05  -0.04   0.07
    36   1    -0.08   0.08   0.03    -0.03   0.03   0.02    -0.06   0.07   0.03
    37   1    -0.01   0.07   0.02    -0.01   0.03   0.01    -0.13   0.14  -0.04
    38   1     0.01   0.06   0.07    -0.00   0.02   0.03    -0.11   0.06   0.18
    39   1     0.03  -0.03  -0.00     0.04   0.01  -0.07     0.12   0.16  -0.44
    40   1    -0.01  -0.03  -0.02     0.08  -0.00  -0.05     0.48   0.12  -0.23
    41   1     0.01   0.01  -0.01     0.02   0.05  -0.05     0.12   0.25  -0.28
    42   6    -0.00   0.00  -0.01     0.00  -0.00   0.00     0.00  -0.00   0.00
    43   6    -0.01  -0.01  -0.00    -0.00   0.00  -0.00     0.01   0.00  -0.00
    44   6     0.00  -0.00   0.00    -0.00  -0.00   0.00    -0.00  -0.00  -0.00
    45   6     0.00   0.01  -0.00     0.00  -0.00   0.00     0.00  -0.00   0.00
    46   6    -0.01  -0.00  -0.00    -0.00   0.00  -0.00     0.01   0.00   0.00
    47   6     0.00  -0.00   0.00    -0.00  -0.00   0.00    -0.00   0.00  -0.00
    48   6     0.00   0.01  -0.00     0.00   0.00  -0.00    -0.00  -0.00   0.00
    49   1     0.06   0.00   0.03     0.00   0.00   0.00    -0.01  -0.00  -0.01
    50   1    -0.01  -0.01   0.06    -0.00  -0.01   0.00     0.01   0.01  -0.01
    51   1     0.01   0.00   0.00     0.00   0.01  -0.00    -0.00   0.00  -0.00
    52   1     0.01  -0.01   0.01     0.00   0.00  -0.00    -0.01   0.01  -0.01
    53   1     0.03   0.01   0.01     0.01   0.00   0.00    -0.02  -0.00  -0.01
    54   1     0.01   0.00  -0.01     0.01  -0.01  -0.01    -0.00  -0.01  -0.01
    55   1    -0.02   0.03   0.05    -0.01   0.02   0.03    -0.00  -0.01  -0.00
    56   8    -0.06   0.00  -0.02    -0.01   0.00  -0.01     0.02  -0.00   0.01
    57   6     0.08   0.01   0.04    -0.05  -0.01  -0.03     0.00   0.00   0.00
    58   6    -0.01  -0.00   0.01     0.00   0.00  -0.00    -0.00   0.00  -0.00
    59   6     0.01  -0.03  -0.03    -0.01   0.06   0.04     0.00  -0.02  -0.01
    60   6    -0.00   0.04  -0.04     0.01  -0.07   0.05    -0.00   0.02  -0.01
    61   1    -0.35   0.06  -0.11     0.24  -0.03   0.07    -0.02   0.00  -0.00
    62   1    -0.32  -0.13  -0.11     0.22   0.08   0.07    -0.02  -0.00  -0.00
    63   1    -0.19  -0.03  -0.30     0.15   0.03   0.23    -0.02  -0.00  -0.03
    64   1    -0.01   0.09   0.14     0.04  -0.17  -0.27    -0.02   0.04   0.07
    65   1     0.07   0.14   0.09    -0.07  -0.29  -0.10     0.00   0.08   0.01
    66   1    -0.09   0.12   0.10     0.13  -0.25  -0.14    -0.03   0.07   0.03
    67   1    -0.01  -0.13   0.17     0.02   0.22  -0.30     0.00  -0.06   0.09
    68   1     0.12  -0.16   0.11    -0.16   0.30  -0.11     0.03  -0.08   0.00
    69   1    -0.07  -0.17   0.10     0.06   0.32  -0.11     0.00  -0.09   0.01
                    145                    146                    147
                      A                      A                      A
 Frequencies --   1428.9297              1430.9515              1442.7760
 Red. masses --      5.7378                 2.4058                 2.0389
 Frc consts  --      6.9027                 2.9024                 2.5006
 IR Inten    --      0.0000                 0.0000                 0.0000
  Atom  AN      X      Y      Z        X      Y      Z        X      Y      Z
     1  26     0.00  -0.00  -0.00     0.00  -0.00   0.00     0.00  -0.00   0.00
     2   6     0.01   0.00  -0.00    -0.02  -0.00   0.01     0.00   0.00  -0.00
     3  46    -0.00   0.00  -0.00     0.00   0.00   0.00    -0.00  -0.00   0.00
     4   6    -0.05  -0.02   0.01     0.03   0.03  -0.01     0.07   0.00   0.00
     5   1    -0.18  -0.04  -0.12    -0.06  -0.06  -0.02    -0.04  -0.01  -0.04
     6   1    -0.09   0.15  -0.22    -0.05   0.02  -0.03     0.01   0.08  -0.05
     7   1    -0.14   0.23  -0.11    -0.08   0.02  -0.06     0.00   0.03   0.01
     8   6    -0.04   0.00  -0.02     0.14  -0.00   0.10    -0.05   0.00  -0.03
     9   8    -0.00   0.00   0.00     0.00  -0.00  -0.01    -0.00   0.00   0.00
    10   6     0.03   0.07  -0.02     0.07  -0.10   0.03    -0.01  -0.06   0.02
    11   8     0.00   0.00   0.01    -0.00  -0.01  -0.05    -0.00   0.00   0.02
    12   6    -0.03   0.16  -0.04     0.03  -0.11   0.03    -0.07   0.02  -0.00
    13   6    -0.00  -0.08   0.03    -0.01   0.05  -0.02     0.16  -0.00   0.01
    14   6     0.05   0.00   0.01    -0.03   0.04  -0.02    -0.10  -0.00  -0.02
    15   1     0.04  -0.23   0.06    -0.03   0.23  -0.04    -0.07   0.04  -0.03
    16   1     0.03  -0.10  -0.01    -0.05   0.07  -0.02    -0.17   0.05  -0.02
    17   1     0.01  -0.08   0.03    -0.01   0.08  -0.01    -0.10   0.02   0.02
    18   1     0.07   0.01   0.08    -0.33   0.00  -0.26     0.12  -0.01   0.09
    19   6    -0.03  -0.10   0.02    -0.06   0.07  -0.01     0.03   0.02  -0.01
    20   6    -0.00   0.00   0.00     0.01   0.00  -0.01    -0.00  -0.00   0.00
    21   8    -0.00  -0.00  -0.00     0.01   0.00   0.00    -0.00  -0.00  -0.00
    22   6    -0.18  -0.18  -0.02    -0.06  -0.04  -0.03     0.01   0.03  -0.00
    23   6    -0.08   0.06  -0.10    -0.02   0.02  -0.03    -0.02  -0.03  -0.00
    24   6     0.26   0.19   0.09     0.05   0.01   0.03     0.05   0.05   0.01
    25   6    -0.19  -0.23   0.05    -0.05   0.03  -0.04    -0.02  -0.07   0.03
    26   6     0.22   0.13   0.04     0.10  -0.01   0.07    -0.01   0.02  -0.02
    27   1     0.06   0.15  -0.05    -0.04   0.01  -0.02     0.00  -0.02  -0.02
    28   7     0.01  -0.00  -0.00    -0.04   0.01   0.02     0.01  -0.00  -0.01
    29   1    -0.00   0.00  -0.00     0.00  -0.00   0.01     0.02   0.02   0.02
    30   1     0.17   0.09   0.14    -0.25  -0.19  -0.10    -0.34  -0.09  -0.34
    31   1     0.21  -0.13  -0.07    -0.26   0.09   0.11    -0.42   0.27   0.12
    32   1    -0.12   0.11  -0.13    -0.03   0.02  -0.03    -0.05   0.00  -0.03
    33   7    -0.01  -0.00  -0.00     0.00  -0.01   0.01     0.01   0.00   0.00
    34   6     0.00  -0.00  -0.00     0.01  -0.02  -0.01    -0.00   0.02   0.02
    35   6    -0.01  -0.01   0.00    -0.03  -0.02   0.04     0.01   0.02  -0.02
    36   1    -0.02   0.01   0.02    -0.08   0.11  -0.01     0.11  -0.07  -0.11
    37   1    -0.01   0.04   0.00    -0.07   0.09  -0.01    -0.07  -0.08  -0.08
    38   1    -0.02   0.00   0.02    -0.02   0.09   0.12    -0.03  -0.06  -0.02
    39   1     0.03   0.03  -0.09     0.06   0.11  -0.27     0.04  -0.13   0.14
    40   1     0.05   0.07   0.01     0.28   0.09  -0.11    -0.17  -0.08   0.05
    41   1     0.04   0.02   0.01     0.07   0.14  -0.15     0.03  -0.04   0.11
    42   6    -0.01  -0.01   0.00     0.00   0.00  -0.00     0.02   0.00   0.02
    43   6     0.03   0.02   0.00    -0.02  -0.01  -0.01    -0.06   0.02  -0.05
    44   6    -0.02   0.01  -0.02     0.01  -0.01   0.01    -0.01  -0.04   0.02
    45   6     0.00  -0.03   0.02     0.00   0.01  -0.01     0.04   0.02   0.01
    46   6     0.03   0.01   0.01    -0.01  -0.00  -0.01    -0.03   0.02  -0.03
    47   6    -0.01   0.03  -0.02     0.00  -0.01   0.01    -0.01  -0.06   0.03
    48   6     0.00  -0.03   0.02     0.01   0.01  -0.01     0.04   0.04   0.00
    49   1     0.02   0.02   0.01     0.03  -0.00   0.02    -0.10  -0.03  -0.04
    50   1     0.01   0.07  -0.01    -0.02  -0.04   0.05    -0.00  -0.13  -0.04
    51   1    -0.03  -0.01  -0.01     0.02   0.02  -0.00     0.09   0.16  -0.06
    52   1    -0.06   0.04  -0.06     0.02  -0.01   0.02     0.01   0.05  -0.03
    53   1    -0.11  -0.03  -0.04     0.05   0.01   0.01     0.13   0.06   0.03
    54   1    -0.04  -0.04   0.02     0.00   0.04   0.02     0.04   0.08  -0.01
    55   1    -0.02  -0.00  -0.07     0.04  -0.03   0.01     0.15  -0.16   0.14
    56   8     0.01  -0.00   0.00    -0.05   0.00  -0.02     0.02  -0.00   0.01
    57   6     0.00  -0.00   0.00     0.00   0.00  -0.00    -0.00   0.00   0.00
    58   6    -0.00   0.00  -0.00     0.00  -0.00   0.01    -0.00   0.00  -0.00
    59   6     0.00  -0.01  -0.00    -0.01   0.02   0.01     0.00  -0.01  -0.00
    60   6    -0.00   0.01  -0.00     0.00  -0.03   0.01    -0.00   0.01  -0.00
    61   1    -0.01  -0.00  -0.00    -0.00   0.00  -0.01     0.00  -0.00   0.00
    62   1    -0.01   0.00   0.00     0.00  -0.01  -0.01     0.01   0.00   0.00
    63   1    -0.01   0.00  -0.01     0.02  -0.01   0.02    -0.00  -0.01  -0.00
    64   1    -0.01   0.02   0.03     0.03  -0.06  -0.10    -0.01   0.02   0.03
    65   1    -0.00   0.04   0.00     0.01  -0.12   0.00    -0.01   0.03  -0.01
    66   1    -0.01   0.03   0.01     0.03  -0.10  -0.02    -0.00   0.02  -0.00
    67   1     0.00  -0.04   0.05    -0.00   0.09  -0.13    -0.00  -0.02   0.03
    68   1     0.01  -0.05  -0.00    -0.02   0.13   0.03     0.00  -0.03  -0.01
    69   1     0.01  -0.05  -0.00    -0.03   0.13   0.01     0.01  -0.03  -0.00
                    148                    149                    150
                      A                      A                      A
 Frequencies --   1446.4058              1447.4051              1452.8342
 Red. masses --      3.5518                 1.5809                 3.1140
 Frc consts  --      4.3781                 1.9513                 3.8726
 IR Inten    --      0.0000                 0.0000                 0.0000
  Atom  AN      X      Y      Z        X      Y      Z        X      Y      Z
     1  26     0.00  -0.00   0.00     0.00  -0.00   0.00    -0.01   0.00  -0.01
     2   6     0.00  -0.00   0.00    -0.00  -0.00   0.00    -0.00   0.00  -0.00
     3  46    -0.00  -0.00  -0.00    -0.00  -0.00   0.00     0.00   0.00  -0.00
     4   6     0.02   0.02  -0.01    -0.05   0.05  -0.03    -0.03  -0.01   0.01
     5   1     0.19   0.05   0.14     0.01   0.03  -0.01     0.10  -0.05   0.12
     6   1     0.07   0.04   0.07     0.02   0.01  -0.01     0.02  -0.13   0.09
     7   1     0.19   0.06   0.16    -0.01   0.01  -0.03     0.12  -0.01   0.11
     8   6     0.00  -0.00   0.00    -0.00   0.00  -0.00     0.01   0.00   0.01
     9   8    -0.00   0.00  -0.00     0.00  -0.00  -0.00     0.00   0.00   0.00
    10   6     0.03  -0.07   0.02     0.00  -0.06   0.02     0.02   0.03  -0.01
    11   8     0.00   0.00   0.00    -0.00   0.00   0.00     0.00  -0.00  -0.00
    12   6    -0.06   0.00   0.01    -0.04  -0.02   0.01     0.02   0.01  -0.01
    13   6     0.17   0.01  -0.00     0.13   0.02  -0.00    -0.08  -0.01  -0.00
    14   6    -0.12   0.01  -0.02    -0.10  -0.01  -0.01     0.05   0.00   0.01
    15   1    -0.07   0.09  -0.05    -0.06   0.10  -0.04     0.03  -0.04   0.04
    16   1    -0.16   0.06  -0.03    -0.12   0.06  -0.02     0.07  -0.03   0.01
    17   1    -0.10   0.05  -0.01    -0.07   0.05   0.00     0.05  -0.01  -0.00
    18   1    -0.01  -0.01  -0.02     0.01  -0.01  -0.00    -0.03   0.01  -0.00
    19   6    -0.01   0.03  -0.01     0.01   0.03  -0.01    -0.02  -0.02   0.00
    20   6    -0.00   0.00   0.00     0.00  -0.00   0.00     0.00   0.00  -0.00
    21   8    -0.00  -0.00  -0.00     0.00   0.00   0.00     0.00   0.00   0.00
    22   6    -0.02  -0.18   0.10     0.01   0.02  -0.00     0.00  -0.12   0.10
    23   6    -0.01   0.20  -0.11     0.01  -0.02   0.02    -0.07   0.17  -0.14
    24   6    -0.04  -0.09   0.01    -0.01   0.02  -0.01     0.02  -0.10   0.06
    25   6     0.07  -0.00   0.04     0.01  -0.04   0.03     0.05   0.07  -0.01
    26   6    -0.05   0.06  -0.09    -0.02   0.01  -0.03    -0.04   0.01  -0.04
    27   1     0.19   0.07   0.08     0.01   0.01  -0.01     0.13  -0.04   0.05
    28   7     0.00  -0.00   0.00     0.00   0.00  -0.00    -0.01   0.00   0.00
    29   1    -0.03  -0.03  -0.02     0.01   0.01   0.01     0.04   0.04   0.03
    30   1    -0.10  -0.09  -0.03     0.35   0.02   0.43     0.13   0.07   0.09
    31   1    -0.09   0.02   0.05     0.47  -0.34  -0.09     0.14  -0.08  -0.05
    32   1     0.18  -0.07   0.16    -0.01   0.02  -0.02     0.15  -0.14   0.17
    33   7     0.00   0.00  -0.00    -0.01  -0.00  -0.00    -0.00  -0.00  -0.00
    34   6    -0.00  -0.00   0.01     0.01  -0.01  -0.02    -0.01  -0.01  -0.00
    35   6    -0.00   0.01  -0.01    -0.01  -0.03   0.02    -0.00   0.01   0.01
    36   1     0.01   0.02  -0.05    -0.05  -0.04   0.15    -0.09   0.11   0.01
    37   1    -0.03  -0.02  -0.03    -0.01   0.15   0.04     0.10  -0.02   0.06
    38   1     0.01   0.01   0.01    -0.12  -0.05   0.07     0.14   0.10  -0.03
    39   1     0.09  -0.13   0.05    -0.05   0.18  -0.20     0.04  -0.06   0.04
    40   1    -0.10  -0.08   0.01     0.19   0.18  -0.00    -0.01  -0.09  -0.06
    41   1     0.07   0.02   0.06    -0.01   0.03  -0.06     0.00   0.04  -0.05
    42   6    -0.03  -0.00  -0.04     0.01   0.00   0.01     0.03  -0.01   0.04
    43   6     0.09  -0.02   0.07    -0.03   0.01  -0.02    -0.09   0.06  -0.10
    44   6     0.01   0.06  -0.04    -0.00  -0.02   0.01    -0.04  -0.09   0.03
    45   6    -0.05  -0.03  -0.01     0.02   0.01   0.00     0.08   0.01   0.04
    46   6     0.05  -0.02   0.04    -0.02   0.01  -0.01    -0.05   0.05  -0.06
    47   6     0.00   0.08  -0.05    -0.00  -0.03   0.01    -0.03  -0.10   0.05
    48   6    -0.06  -0.06   0.00     0.02   0.02   0.00     0.08   0.05   0.02
    49   1     0.19   0.04   0.08    -0.04  -0.01  -0.02    -0.17  -0.04  -0.07
    50   1    -0.00   0.20   0.10    -0.00  -0.05  -0.01     0.00  -0.18  -0.08
    51   1    -0.13  -0.21   0.08     0.04   0.07  -0.02     0.16   0.32  -0.13
    52   1    -0.03  -0.06   0.03     0.01   0.02  -0.01    -0.03   0.14  -0.11
    53   1    -0.19  -0.09  -0.04     0.06   0.03   0.01     0.17   0.11   0.02
    54   1    -0.08  -0.17   0.04     0.02   0.04  -0.01     0.07   0.20  -0.03
    55   1    -0.18   0.17  -0.25     0.06  -0.07   0.07     0.26  -0.26   0.11
    56   8    -0.00   0.00   0.00     0.00  -0.00   0.00    -0.00  -0.00  -0.00
    57   6    -0.00   0.00  -0.00    -0.00   0.00   0.00     0.00   0.00  -0.00
    58   6     0.00  -0.00  -0.00     0.00   0.00  -0.00    -0.00   0.00   0.00
    59   6    -0.00   0.00   0.00     0.00  -0.00  -0.00     0.00   0.00  -0.00
    60   6     0.00  -0.00   0.00     0.00  -0.00  -0.00    -0.00   0.00  -0.00
    61   1     0.00  -0.00   0.00    -0.00   0.00   0.00    -0.01  -0.00   0.00
    62   1     0.00   0.00   0.00     0.00  -0.00  -0.00     0.01   0.00  -0.00
    63   1    -0.00   0.00   0.00     0.00  -0.01   0.00     0.00  -0.01  -0.00
    64   1     0.01  -0.00  -0.00    -0.00   0.00   0.00    -0.01  -0.00  -0.00
    65   1     0.00  -0.01   0.00    -0.00   0.00  -0.00    -0.00   0.00  -0.00
    66   1     0.00   0.00  -0.00     0.00   0.00  -0.00     0.00  -0.01   0.00
    67   1    -0.03   0.00  -0.01    -0.01   0.00  -0.00     0.03   0.00   0.01
    68   1     0.00  -0.01   0.00     0.00  -0.00   0.01     0.00   0.01   0.01
    69   1    -0.01   0.02   0.01    -0.01   0.00   0.01     0.00  -0.02   0.00
                    151                    152                    153
                      A                      A                      A
 Frequencies --   1456.3067              1461.5070              1465.9202
 Red. masses --      1.1036                 4.2250                 1.1033
 Frc consts  --      1.3790                 5.3172                 1.3969
 IR Inten    --      0.0000                 0.0000                 0.0000
  Atom  AN      X      Y      Z        X      Y      Z        X      Y      Z
     1  26     0.00  -0.00   0.00     0.00   0.01  -0.00    -0.00   0.00  -0.00
     2   6     0.00   0.00  -0.00    -0.00  -0.00  -0.00     0.01   0.00   0.00
     3  46     0.00  -0.00  -0.00     0.00  -0.00  -0.00     0.00  -0.00  -0.00
     4   6     0.00   0.01  -0.01    -0.00   0.01  -0.00    -0.00  -0.00   0.00
     5   1    -0.01   0.01  -0.02    -0.24  -0.23   0.00     0.00   0.00  -0.00
     6   1    -0.00   0.02  -0.01    -0.10  -0.35   0.09     0.00   0.00  -0.00
     7   1    -0.03   0.00  -0.03    -0.06  -0.16  -0.01    -0.00   0.00  -0.01
     8   6    -0.02  -0.00  -0.01    -0.00  -0.00  -0.00    -0.01   0.00  -0.01
     9   8    -0.00   0.00   0.00     0.00  -0.00  -0.00    -0.00   0.00  -0.00
    10   6     0.00  -0.01   0.00    -0.01  -0.02   0.00     0.00   0.01  -0.00
    11   8     0.00   0.00   0.01    -0.00   0.00   0.00     0.00   0.00   0.00
    12   6    -0.01  -0.00   0.00    -0.02   0.03  -0.01    -0.00   0.00  -0.00
    13   6     0.03   0.00  -0.00     0.05  -0.01   0.01    -0.00  -0.00   0.00
    14   6    -0.02  -0.01  -0.00    -0.02   0.01  -0.01     0.00  -0.00   0.00
    15   1    -0.01   0.01  -0.01    -0.01  -0.01  -0.01     0.00  -0.01   0.00
    16   1    -0.03   0.01  -0.00    -0.04  -0.00  -0.01     0.00  -0.00   0.00
    17   1    -0.01   0.01  -0.00    -0.03  -0.01  -0.00     0.00   0.00   0.00
    18   1     0.03  -0.02   0.02     0.01  -0.01   0.00     0.03   0.00   0.02
    19   6     0.01   0.01  -0.00     0.00  -0.01   0.00     0.00  -0.00  -0.00
    20   6    -0.00  -0.00   0.00    -0.00  -0.00   0.00    -0.00  -0.00  -0.01
    21   8    -0.00  -0.00  -0.00     0.00   0.00   0.00    -0.00  -0.00  -0.00
    22   6     0.00   0.02  -0.01     0.18   0.17   0.06    -0.00   0.00  -0.00
    23   6     0.01  -0.02   0.02    -0.22  -0.04  -0.18     0.00  -0.00   0.01
    24   6     0.00   0.02  -0.01     0.24   0.00   0.17    -0.00   0.00  -0.00
    25   6    -0.01  -0.01   0.00    -0.06   0.08  -0.07     0.00  -0.00  -0.00
    26   6     0.00   0.00   0.00    -0.11  -0.12   0.00     0.00  -0.00   0.00
    27   1    -0.01   0.00  -0.01    -0.16  -0.37   0.05    -0.01  -0.00  -0.00
    28   7     0.00  -0.00  -0.00     0.00  -0.00  -0.00     0.00  -0.00   0.00
    29   1    -0.00  -0.00   0.00    -0.01  -0.01  -0.01    -0.01  -0.01   0.01
    30   1     0.00  -0.04   0.05     0.05   0.04   0.01     0.01   0.01   0.00
    31   1     0.00  -0.03   0.01     0.05  -0.03  -0.01     0.01  -0.00  -0.00
    32   1    -0.02   0.02  -0.02    -0.12  -0.26   0.17    -0.00   0.00  -0.01
    33   7    -0.01  -0.01   0.01     0.00  -0.00  -0.00    -0.00  -0.00   0.00
    34   6    -0.04  -0.04   0.00    -0.00   0.00  -0.01    -0.00  -0.00   0.00
    35   6     0.00   0.02   0.02     0.01  -0.01   0.01     0.00   0.00   0.00
    36   1    -0.27   0.39  -0.04    -0.01  -0.03   0.08    -0.01   0.02  -0.01
    37   1     0.35  -0.18   0.18     0.04   0.03   0.04     0.02  -0.01   0.01
    38   1     0.52   0.37  -0.13    -0.02  -0.03  -0.02     0.03   0.02  -0.01
    39   1     0.03  -0.06   0.06    -0.10   0.11  -0.00    -0.00   0.00   0.00
    40   1     0.05  -0.20  -0.17     0.08   0.04  -0.02     0.00  -0.00  -0.00
    41   1    -0.07   0.08  -0.20    -0.09  -0.03  -0.06    -0.00  -0.00  -0.00
    42   6     0.00   0.00   0.00    -0.01   0.00  -0.02    -0.03  -0.01  -0.06
    43   6     0.00  -0.00   0.01     0.03  -0.02   0.03    -0.02   0.01  -0.02
    44   6     0.00   0.00  -0.00     0.01   0.04  -0.02    -0.01  -0.01   0.00
    45   6    -0.00  -0.00  -0.00    -0.03  -0.01  -0.01     0.02   0.00   0.01
    46   6     0.00  -0.00   0.00     0.02  -0.01   0.02    -0.02   0.00  -0.01
    47   6     0.00   0.00  -0.00     0.01   0.04  -0.02     0.00  -0.02   0.01
    48   6    -0.00  -0.00  -0.00    -0.03  -0.02  -0.01     0.01   0.01   0.00
    49   1    -0.03   0.00  -0.02     0.10   0.01   0.05     0.55  -0.03   0.29
    50   1     0.01   0.00  -0.03    -0.01   0.07   0.07    -0.10   0.14   0.57
    51   1    -0.01  -0.02   0.01    -0.06  -0.10   0.05     0.02   0.06  -0.02
    52   1     0.00  -0.01   0.01     0.00  -0.04   0.03    -0.00   0.02  -0.02
    53   1    -0.01  -0.01  -0.00    -0.07  -0.04  -0.01     0.04   0.02   0.01
    54   1    -0.00  -0.01   0.00    -0.04  -0.10   0.02     0.02   0.03  -0.01
    55   1    -0.01   0.01  -0.01    -0.08   0.07  -0.04     0.05  -0.05   0.03
    56   8     0.01   0.00   0.00     0.00   0.00   0.00     0.01  -0.00   0.00
    57   6    -0.00  -0.00  -0.00    -0.00  -0.00  -0.00    -0.00   0.03  -0.01
    58   6     0.00  -0.00   0.00     0.00  -0.00  -0.00     0.00   0.00  -0.00
    59   6     0.00  -0.00   0.00    -0.00  -0.00   0.00     0.01  -0.01   0.01
    60   6     0.00   0.00   0.00     0.00   0.00   0.00    -0.01  -0.01  -0.01
    61   1     0.00  -0.00   0.00     0.00  -0.00   0.00    -0.16  -0.08   0.11
    62   1    -0.00   0.00   0.00     0.00   0.00   0.00     0.17   0.02  -0.01
    63   1    -0.00   0.00  -0.00     0.00   0.00   0.00     0.02  -0.29  -0.01
    64   1     0.00   0.01   0.02     0.01   0.00   0.00    -0.09   0.02   0.06
    65   1    -0.01   0.01  -0.01     0.00  -0.00   0.00    -0.10   0.08  -0.11
    66   1     0.01   0.02  -0.01     0.00   0.00  -0.00     0.06  -0.00  -0.09
    67   1    -0.01  -0.01   0.01    -0.01  -0.00  -0.00     0.09   0.04  -0.03
    68   1    -0.00  -0.02  -0.01    -0.00  -0.01  -0.01     0.03   0.08   0.09
    69   1     0.00  -0.00  -0.00     0.00   0.01  -0.00    -0.03  -0.04   0.04
                    154                    155                    156
                      A                      A                      A
 Frequencies --   1468.5654              1473.4626              1477.7118
 Red. masses --      1.0725                 1.0636                 1.0715
 Frc consts  --      1.3628                 1.3605                 1.3786
 IR Inten    --      0.0000                 0.0000                 0.0000
  Atom  AN      X      Y      Z        X      Y      Z        X      Y      Z
     1  26    -0.00   0.00  -0.00     0.00  -0.00   0.00    -0.00   0.00   0.00
     2   6     0.00   0.00   0.00     0.00   0.00  -0.00    -0.00   0.00   0.00
     3  46     0.00  -0.00   0.00    -0.00   0.00  -0.00     0.00  -0.00  -0.00
     4   6    -0.00  -0.00   0.00     0.01  -0.00   0.00     0.02  -0.00   0.01
     5   1     0.00   0.00  -0.00     0.00   0.00  -0.00     0.01   0.01   0.01
     6   1     0.00   0.00  -0.00    -0.00   0.01  -0.00     0.01   0.02  -0.00
     7   1    -0.00   0.00  -0.00    -0.01   0.01  -0.01     0.04   0.01   0.04
     8   6    -0.00  -0.00  -0.00     0.00  -0.00   0.00    -0.01  -0.00  -0.00
     9   8    -0.00   0.00  -0.00    -0.00   0.00   0.00     0.00  -0.00  -0.00
    10   6     0.00   0.00  -0.00     0.00  -0.01   0.00    -0.01  -0.01   0.00
    11   8     0.00   0.00   0.00    -0.00   0.00   0.00    -0.00   0.00   0.00
    12   6    -0.00  -0.00  -0.00     0.00  -0.00   0.00    -0.00   0.00  -0.00
    13   6    -0.00   0.00  -0.00    -0.00  -0.00   0.00    -0.00  -0.01   0.00
    14   6     0.00  -0.00   0.00     0.00   0.01  -0.00     0.01   0.01  -0.00
    15   1    -0.00   0.00   0.00    -0.00   0.00   0.00     0.00  -0.01   0.00
    16   1     0.00   0.00   0.00    -0.01  -0.00  -0.00    -0.00  -0.01  -0.00
    17   1     0.00   0.00   0.00    -0.00  -0.00   0.00    -0.01  -0.01   0.00
    18   1     0.01  -0.00   0.01    -0.01  -0.01  -0.01     0.01  -0.01   0.00
    19   6     0.00   0.00  -0.00    -0.00   0.00   0.00     0.00  -0.00   0.00
    20   6    -0.00  -0.00  -0.00    -0.00  -0.00  -0.00    -0.00  -0.00   0.00
    21   8    -0.00  -0.00  -0.00    -0.00  -0.00  -0.00     0.00   0.00  -0.00
    22   6    -0.00   0.00  -0.00    -0.01  -0.01  -0.00    -0.01  -0.02   0.01
    23   6     0.00  -0.00   0.00     0.00   0.00   0.00     0.00   0.01  -0.00
    24   6    -0.00  -0.00  -0.00    -0.00   0.00  -0.00    -0.01  -0.01  -0.00
    25   6     0.00   0.00  -0.00    -0.00  -0.00   0.00     0.01  -0.00   0.00
    26   6     0.00   0.00   0.00     0.01   0.00   0.00     0.00   0.01  -0.01
    27   1    -0.00  -0.00  -0.00     0.00   0.01  -0.00     0.01   0.01   0.00
    28   7     0.00   0.00   0.00     0.00   0.00  -0.00     0.00  -0.00  -0.00
    29   1    -0.01  -0.00   0.00    -0.00  -0.00   0.00     0.00   0.00   0.00
    30   1     0.01   0.00   0.00    -0.04  -0.03  -0.02    -0.11   0.01  -0.15
    31   1     0.01  -0.00  -0.00    -0.04   0.03   0.01    -0.14   0.08   0.05
    32   1     0.00   0.00  -0.00     0.00   0.01  -0.01     0.01   0.00   0.00
    33   7    -0.00  -0.00   0.00     0.01   0.02  -0.01    -0.00  -0.01  -0.01
    34   6    -0.00  -0.00   0.00    -0.00   0.02  -0.05    -0.02   0.01  -0.03
    35   6     0.00  -0.00   0.00     0.00   0.02   0.03     0.01  -0.04  -0.02
    36   1    -0.01   0.01  -0.01    -0.01  -0.28   0.48    -0.14  -0.04   0.38
    37   1     0.01  -0.01   0.00     0.22   0.24   0.23     0.37   0.07   0.27
    38   1     0.01   0.01  -0.00    -0.19  -0.25  -0.09     0.12  -0.04  -0.18
    39   1    -0.00   0.00  -0.00    -0.01  -0.13   0.22    -0.18   0.30  -0.17
    40   1     0.00   0.00  -0.00     0.01  -0.38  -0.26     0.05   0.41   0.25
    41   1    -0.00  -0.00  -0.00    -0.13   0.10  -0.32    -0.08  -0.21   0.25
    42   6    -0.01  -0.00  -0.03    -0.00   0.00  -0.00     0.00  -0.00   0.00
    43   6    -0.01   0.00  -0.01    -0.00  -0.00   0.00     0.00   0.00  -0.00
    44   6    -0.00  -0.01   0.00     0.00   0.00   0.00    -0.00  -0.00  -0.00
    45   6     0.01   0.00   0.01    -0.00   0.00  -0.00     0.00  -0.00   0.00
    46   6    -0.01   0.00  -0.01     0.00  -0.00   0.00     0.00   0.00  -0.00
    47   6    -0.00  -0.01   0.01     0.00   0.00   0.00    -0.00  -0.00   0.00
    48   6     0.01   0.01   0.00    -0.00   0.00  -0.00     0.00  -0.00   0.00
    49   1     0.28  -0.02   0.15     0.01   0.00   0.01    -0.01  -0.00  -0.00
    50   1    -0.05   0.06   0.30    -0.00   0.00   0.01     0.00  -0.00  -0.01
    51   1     0.02   0.04  -0.01    -0.00  -0.00   0.00     0.00   0.00  -0.00
    52   1    -0.00   0.01  -0.01     0.00  -0.00   0.00    -0.00   0.00  -0.00
    53   1     0.02   0.01   0.00     0.00  -0.00   0.00    -0.00   0.00  -0.00
    54   1     0.01   0.02  -0.00    -0.00  -0.00   0.00    -0.00   0.00   0.00
    55   1     0.03  -0.03   0.02     0.01  -0.01   0.00    -0.00   0.01  -0.01
    56   8     0.00   0.00   0.00    -0.00  -0.00   0.00     0.00   0.00   0.00
    57   6     0.00  -0.04  -0.00     0.00  -0.00  -0.00     0.00  -0.00  -0.00
    58   6    -0.00  -0.01  -0.00     0.00   0.00  -0.00     0.00  -0.00   0.00
    59   6    -0.02   0.01  -0.02     0.00  -0.00   0.00     0.00  -0.00   0.00
    60   6     0.01   0.02   0.02    -0.00   0.00   0.00     0.00   0.00   0.00
    61   1     0.28   0.07  -0.09     0.00  -0.00   0.00     0.00  -0.00   0.01
    62   1    -0.29   0.04   0.11    -0.00   0.00   0.00    -0.01   0.01   0.01
    63   1    -0.05   0.47  -0.02    -0.00   0.00  -0.00    -0.00   0.01  -0.00
    64   1     0.21  -0.04  -0.11    -0.00   0.00   0.00     0.00   0.01   0.02
    65   1     0.19  -0.17   0.22    -0.00   0.00  -0.00    -0.02   0.01  -0.02
    66   1    -0.11   0.05   0.15     0.00  -0.00  -0.00     0.01   0.01  -0.02
    67   1    -0.13  -0.10   0.09    -0.00  -0.00   0.00    -0.01  -0.01   0.01
    68   1    -0.11  -0.16  -0.24    -0.00  -0.00  -0.01    -0.01  -0.02  -0.02
    69   1     0.14   0.05  -0.16     0.00   0.00  -0.00     0.01   0.00  -0.01
                    157                    158                    159
                      A                      A                      A
 Frequencies --   1481.9343              1484.6412              1486.2471
 Red. masses --      1.0601                 1.0597                 1.0634
 Frc consts  --      1.3716                 1.3761                 1.3840
 IR Inten    --      0.0000                 0.0000                 0.0000
  Atom  AN      X      Y      Z        X      Y      Z        X      Y      Z
     1  26     0.00   0.00   0.00     0.00   0.00   0.00     0.00  -0.00   0.00
     2   6     0.00  -0.00   0.00    -0.00  -0.00  -0.00     0.00   0.00  -0.00
     3  46    -0.00  -0.00   0.00    -0.00   0.00  -0.00    -0.00  -0.00   0.00
     4   6     0.00   0.00  -0.00     0.00   0.00  -0.00     0.00  -0.00   0.00
     5   1    -0.00  -0.00   0.00    -0.00   0.00   0.00    -0.00   0.00  -0.00
     6   1    -0.00  -0.00  -0.00    -0.00  -0.00   0.00     0.00   0.00  -0.00
     7   1    -0.00  -0.00  -0.00    -0.00  -0.00  -0.00     0.00   0.00   0.00
     8   6    -0.00  -0.00   0.00     0.00   0.00   0.00    -0.02  -0.00  -0.01
     9   8     0.00   0.00  -0.00     0.00   0.00   0.00    -0.00   0.00   0.00
    10   6    -0.00  -0.01   0.00    -0.00  -0.00   0.00     0.00   0.00  -0.00
    11   8    -0.00   0.00  -0.00    -0.00  -0.00  -0.00     0.00   0.00   0.00
    12   6    -0.00  -0.00   0.00    -0.00   0.00   0.00    -0.00   0.00   0.00
    13   6     0.00  -0.00   0.00     0.00  -0.00   0.00     0.00  -0.00   0.00
    14   6    -0.00   0.00  -0.00     0.00   0.00  -0.00    -0.00  -0.00  -0.00
    15   1    -0.00   0.00  -0.00     0.00  -0.00  -0.00    -0.00   0.00  -0.00
    16   1    -0.00   0.00  -0.00    -0.00  -0.00  -0.00    -0.00   0.00  -0.00
    17   1    -0.00  -0.00   0.00    -0.00  -0.00   0.00    -0.00   0.00  -0.00
    18   1    -0.00  -0.01  -0.00    -0.00   0.00  -0.00     0.02  -0.01   0.02
    19   6     0.00   0.00  -0.00     0.00   0.00   0.00     0.00   0.00  -0.00
    20   6     0.00  -0.00   0.00     0.00   0.00   0.00    -0.00  -0.00   0.00
    21   8    -0.00   0.00  -0.00     0.00   0.00   0.00    -0.00  -0.00  -0.00
    22   6    -0.00  -0.00  -0.00     0.00   0.00   0.00     0.00   0.00  -0.00
    23   6    -0.00  -0.00  -0.00    -0.00  -0.00  -0.00     0.00  -0.00   0.00
    24   6     0.00  -0.00   0.00     0.00   0.00   0.00     0.00   0.00  -0.00
    25   6    -0.00   0.00  -0.00    -0.00   0.00  -0.00    -0.00  -0.00   0.00
    26   6     0.00  -0.00   0.00    -0.00  -0.00   0.00    -0.00   0.00  -0.00
    27   1    -0.00  -0.00   0.00    -0.00   0.00   0.00    -0.00   0.00   0.00
    28   7     0.00   0.00  -0.00     0.00  -0.00  -0.00     0.01  -0.00  -0.00
    29   1    -0.00  -0.00  -0.00     0.00   0.00   0.00    -0.00   0.00   0.00
    30   1     0.00  -0.00   0.00     0.00  -0.00   0.00    -0.01  -0.00  -0.01
    31   1     0.00  -0.00   0.00     0.00  -0.00  -0.00    -0.01   0.00   0.00
    32   1    -0.00   0.00   0.00    -0.00   0.00   0.00    -0.00   0.00   0.00
    33   7    -0.00  -0.00   0.00     0.00   0.00   0.00    -0.00  -0.00  -0.00
    34   6    -0.00  -0.00   0.00     0.00   0.00   0.00    -0.00   0.00  -0.00
    35   6     0.00  -0.00   0.00    -0.00   0.00   0.00     0.00  -0.00  -0.00
    36   1    -0.00   0.00   0.00     0.00  -0.00  -0.00    -0.01   0.00   0.02
    37   1     0.01  -0.00   0.00    -0.01   0.00  -0.01     0.03  -0.00   0.02
    38   1     0.01   0.00  -0.00    -0.01  -0.00   0.01     0.02   0.00  -0.01
    39   1    -0.00   0.00  -0.00     0.00  -0.00   0.00    -0.01   0.01  -0.00
    40   1     0.00   0.00   0.00    -0.00  -0.00  -0.00     0.00   0.01   0.01
    41   1    -0.00  -0.00  -0.00     0.00   0.00  -0.00    -0.01  -0.01   0.00
    42   6    -0.00   0.00  -0.00     0.00   0.00   0.01     0.00  -0.00   0.00
    43   6     0.00  -0.00   0.00     0.00   0.00   0.00     0.00   0.00   0.00
    44   6     0.00   0.00  -0.00    -0.00   0.00  -0.00    -0.00   0.00  -0.00
    45   6     0.00  -0.00   0.00    -0.00  -0.00   0.00    -0.00  -0.00   0.00
    46   6    -0.00  -0.00  -0.00     0.00  -0.00   0.00     0.00   0.00   0.00
    47   6    -0.00   0.00  -0.00    -0.00   0.00  -0.00    -0.00   0.00  -0.00
    48   6    -0.00  -0.00  -0.00    -0.00  -0.00   0.00    -0.00  -0.00   0.00
    49   1     0.02   0.00   0.01    -0.05   0.00  -0.03    -0.01   0.00  -0.01
    50   1    -0.00   0.00   0.02     0.01  -0.01  -0.05     0.00   0.00  -0.02
    51   1     0.00   0.00  -0.00    -0.00  -0.01   0.00    -0.00  -0.00  -0.00
    52   1     0.00  -0.00   0.00    -0.00   0.00  -0.00    -0.00   0.00  -0.00
    53   1    -0.00  -0.00  -0.00    -0.00  -0.00  -0.00    -0.00  -0.00  -0.00
    54   1    -0.00  -0.00   0.00    -0.00  -0.00  -0.00    -0.00  -0.00  -0.00
    55   1    -0.01   0.01  -0.00    -0.01   0.02  -0.01    -0.01   0.01  -0.01
    56   8    -0.00   0.00   0.00    -0.00   0.00   0.00     0.01  -0.00   0.00
    57   6     0.01  -0.03  -0.01     0.03   0.00  -0.04     0.00   0.02   0.00
    58   6     0.00  -0.02  -0.00    -0.01  -0.01  -0.01    -0.02   0.02  -0.02
    59   6     0.04   0.01   0.00    -0.04  -0.01   0.02    -0.01   0.03  -0.04
    60   6    -0.04  -0.01  -0.01    -0.01  -0.00  -0.01    -0.03  -0.01   0.00
    61   1     0.22   0.02  -0.01    -0.06  -0.29   0.40    -0.16  -0.04   0.05
    62   1    -0.26   0.07   0.14    -0.15   0.29   0.39     0.15  -0.01  -0.04
    63   1    -0.06   0.38  -0.05    -0.12   0.01  -0.20     0.01  -0.25  -0.01
    64   1    -0.39  -0.03   0.04     0.41   0.09   0.04     0.08  -0.14  -0.25
    65   1    -0.11   0.22  -0.12    -0.02  -0.21  -0.03     0.35  -0.14   0.41
    66   1     0.02  -0.23   0.04     0.09   0.31  -0.21    -0.27  -0.10   0.42
    67   1     0.46   0.13  -0.00     0.17   0.05  -0.01     0.34   0.08   0.02
    68   1     0.04   0.28   0.20     0.03   0.12   0.10    -0.01   0.21   0.09
    69   1     0.05  -0.26  -0.03     0.00  -0.12   0.01     0.08  -0.19  -0.06
                    160                    161                    162
                      A                      A                      A
 Frequencies --   1491.0007              1495.0809              1498.5321
 Red. masses --      1.1171                 4.8318                 1.0970
 Frc consts  --      1.4632                 6.3634                 1.4514
 IR Inten    --      0.0000                 0.0000                 0.0000
  Atom  AN      X      Y      Z        X      Y      Z        X      Y      Z
     1  26    -0.00  -0.00  -0.00    -0.00  -0.01  -0.01     0.00   0.00   0.00
     2   6     0.00   0.00   0.00    -0.00  -0.00   0.00    -0.00  -0.00  -0.00
     3  46     0.00  -0.00   0.00     0.00   0.00   0.00    -0.00  -0.00   0.00
     4   6    -0.01  -0.01   0.01    -0.11  -0.11   0.06     0.01   0.01  -0.00
     5   1    -0.00   0.00  -0.00    -0.01  -0.00  -0.01    -0.01  -0.01  -0.00
     6   1     0.00   0.00   0.00     0.00  -0.01   0.01    -0.01  -0.02   0.00
     7   1     0.00  -0.00   0.00     0.01  -0.00  -0.00    -0.04  -0.01  -0.05
     8   6    -0.02   0.00  -0.01     0.04  -0.00   0.01    -0.00   0.00  -0.00
     9   8    -0.00   0.00   0.00     0.00  -0.00  -0.00    -0.00   0.00   0.00
    10   6     0.03   0.04  -0.01     0.26   0.33  -0.08    -0.02  -0.03   0.01
    11   8     0.00   0.00   0.01     0.01  -0.00  -0.01    -0.00   0.00   0.00
    12   6    -0.00  -0.00   0.00    -0.01  -0.06   0.02     0.00   0.00  -0.00
    13   6     0.01   0.01  -0.00     0.08   0.08  -0.03    -0.01  -0.01   0.00
    14   6    -0.01  -0.03   0.01    -0.11  -0.28   0.08     0.01   0.02  -0.01
    15   1    -0.00  -0.00  -0.00    -0.04   0.16  -0.06     0.00  -0.01   0.00
    16   1     0.01   0.01   0.00     0.08   0.10   0.01    -0.01  -0.01  -0.00
    17   1     0.02   0.03  -0.01     0.21   0.24  -0.06    -0.02  -0.02   0.01
    18   1     0.02   0.01   0.02    -0.14   0.02  -0.08     0.01  -0.01   0.00
    19   6    -0.01   0.00  -0.00    -0.12   0.02  -0.01     0.01  -0.00   0.00
    20   6    -0.00  -0.00   0.00     0.00   0.00  -0.00    -0.00  -0.00   0.00
    21   8    -0.00  -0.00  -0.00     0.00   0.00   0.00     0.00  -0.00   0.00
    22   6     0.00   0.00   0.00     0.02   0.03   0.01     0.01   0.01  -0.00
    23   6    -0.00  -0.00   0.00    -0.01  -0.01   0.00    -0.00  -0.01   0.00
    24   6     0.00   0.00  -0.00     0.01   0.01   0.00     0.00   0.00   0.00
    25   6    -0.00  -0.00   0.00    -0.00  -0.02   0.01    -0.00   0.01  -0.01
    26   6    -0.00   0.00  -0.00    -0.03   0.00  -0.02    -0.00  -0.02   0.01
    27   1    -0.00  -0.00   0.00     0.01  -0.02  -0.00    -0.02  -0.02  -0.00
    28   7     0.01  -0.00  -0.00    -0.01   0.00   0.01     0.00   0.00  -0.00
    29   1    -0.00  -0.00   0.00     0.00  -0.00  -0.00     0.00   0.00   0.00
    30   1    -0.02   0.00  -0.02    -0.08   0.03  -0.08     0.05   0.00   0.05
    31   1    -0.02   0.01   0.00    -0.11   0.03   0.00     0.05  -0.03  -0.00
    32   1    -0.00   0.00  -0.00    -0.01  -0.01   0.00    -0.01  -0.00  -0.00
    33   7     0.00  -0.00  -0.00     0.00  -0.00  -0.01    -0.02   0.01  -0.01
    34   6    -0.00   0.00  -0.00    -0.01   0.00  -0.01    -0.00  -0.01  -0.02
    35   6    -0.00  -0.00  -0.00    -0.02   0.00  -0.01    -0.06   0.01  -0.01
    36   1    -0.01  -0.00   0.02    -0.03  -0.04   0.14    -0.07  -0.02   0.18
    37   1     0.02   0.00   0.02     0.11   0.04   0.09     0.14   0.07   0.12
    38   1     0.01  -0.00  -0.01     0.01  -0.04  -0.06     0.03  -0.03  -0.06
    39   1    -0.00   0.00  -0.00     0.14  -0.11  -0.07     0.47  -0.37  -0.21
    40   1    -0.00   0.01   0.01    -0.06   0.05   0.06    -0.18   0.02   0.13
    41   1    -0.00  -0.01   0.01     0.18   0.05   0.13     0.56   0.23   0.27
    42   6    -0.00  -0.00  -0.00     0.00   0.01  -0.00     0.00   0.00  -0.00
    43   6    -0.00   0.00  -0.00    -0.02  -0.03   0.01    -0.00  -0.00   0.00
    44   6    -0.00  -0.00   0.00     0.02   0.01   0.00     0.00   0.00   0.00
    45   6     0.00  -0.00   0.00    -0.02   0.02  -0.02    -0.00   0.00  -0.00
    46   6    -0.00   0.00  -0.00     0.01  -0.01   0.01     0.00  -0.00   0.00
    47   6    -0.00  -0.00   0.00     0.01   0.02  -0.00     0.00   0.00  -0.00
    48   6     0.00   0.00   0.00    -0.01   0.01  -0.01    -0.00   0.00  -0.00
    49   1     0.05  -0.00   0.02    -0.04   0.00  -0.02     0.00  -0.00   0.00
    50   1    -0.01   0.01   0.05     0.00  -0.03  -0.03    -0.00  -0.00   0.01
    51   1     0.00   0.01  -0.01    -0.01  -0.05   0.03    -0.00  -0.01   0.01
    52   1    -0.00   0.01  -0.00     0.03  -0.05   0.05     0.01  -0.01   0.01
    53   1     0.01   0.00   0.00     0.01  -0.01   0.01     0.00  -0.00   0.00
    54   1     0.00   0.00  -0.00     0.01  -0.02   0.01    -0.00  -0.01   0.00
    55   1    -0.00   0.01  -0.01     0.08  -0.16   0.16     0.02  -0.03   0.03
    56   8     0.01   0.00   0.00    -0.01  -0.00  -0.00     0.00   0.00   0.00
    57   6    -0.01  -0.01   0.03     0.01   0.00  -0.02    -0.00  -0.00   0.00
    58   6    -0.01  -0.02  -0.01     0.01   0.01   0.00    -0.00  -0.00   0.00
    59   6    -0.02   0.00   0.00     0.01   0.00  -0.00    -0.00  -0.00   0.00
    60   6     0.01  -0.02  -0.05    -0.00   0.01   0.02    -0.00  -0.00  -0.00
    61   1     0.14   0.17  -0.23    -0.06  -0.12   0.16     0.00   0.01  -0.02
    62   1    -0.05  -0.14  -0.16    -0.01   0.11   0.14     0.00  -0.01  -0.01
    63   1     0.04   0.18   0.08    -0.04  -0.06  -0.07     0.00   0.00   0.01
    64   1     0.27   0.03  -0.02    -0.17  -0.03  -0.01     0.02   0.00   0.00
    65   1     0.07  -0.16   0.07    -0.02   0.09  -0.02     0.00  -0.01   0.00
    66   1    -0.01   0.17  -0.03    -0.01  -0.13   0.04     0.00   0.01  -0.01
    67   1    -0.02   0.15  -0.22    -0.02  -0.05   0.07     0.01   0.00  -0.00
    68   1     0.25   0.15   0.44    -0.09  -0.06  -0.17     0.00   0.01   0.01
    69   1    -0.36   0.02   0.41     0.13   0.02  -0.15    -0.00  -0.01   0.00
                    163                    164                    165
                      A                      A                      A
 Frequencies --   1502.7876              1504.3459              1586.8744
 Red. masses --      1.4653                 1.1679                 5.6408
 Frc consts  --      1.9498                 1.5573                 8.3691
 IR Inten    --      0.0000                 0.0000                 0.0000
  Atom  AN      X      Y      Z        X      Y      Z        X      Y      Z
     1  26     0.00  -0.00   0.00     0.00  -0.00   0.00     0.00  -0.00   0.00
     2   6    -0.00  -0.00   0.00    -0.00  -0.00   0.00    -0.00  -0.00  -0.00
     3  46    -0.00  -0.00  -0.00    -0.00  -0.00  -0.00    -0.00  -0.00  -0.00
     4   6    -0.00  -0.00   0.00    -0.01  -0.01   0.00    -0.00  -0.00  -0.00
     5   1    -0.02   0.01   0.00    -0.01   0.00   0.00     0.00   0.01   0.00
     6   1    -0.01  -0.00   0.01    -0.00  -0.00   0.00    -0.00  -0.00   0.00
     7   1    -0.02  -0.01  -0.01    -0.01  -0.00  -0.01    -0.00  -0.00  -0.00
     8   6     0.00  -0.00   0.00     0.02  -0.00   0.01     0.00   0.00   0.00
     9   8     0.00  -0.00  -0.00     0.00  -0.00  -0.00     0.00   0.00   0.00
    10   6     0.01   0.01  -0.00     0.02   0.02  -0.00     0.00   0.00  -0.00
    11   8     0.00  -0.00   0.00     0.00  -0.00  -0.00     0.00  -0.00   0.00
    12   6     0.00  -0.01   0.01    -0.00  -0.01   0.00     0.00  -0.00   0.00
    13   6     0.01   0.01  -0.00     0.01   0.01  -0.00     0.00   0.00  -0.00
    14   6    -0.01  -0.01   0.00    -0.01  -0.02   0.00    -0.00  -0.00  -0.00
    15   1    -0.00   0.01  -0.01    -0.01   0.03  -0.01     0.00   0.00  -0.00
    16   1     0.01   0.01  -0.00     0.01   0.01  -0.00     0.03   0.01   0.02
    17   1     0.00   0.01  -0.01     0.01   0.02  -0.01    -0.00   0.00  -0.00
    18   1    -0.02   0.00  -0.03    -0.04  -0.00  -0.03    -0.02   0.00  -0.01
    19   6    -0.00   0.01  -0.00    -0.01   0.01  -0.00     0.00   0.00  -0.00
    20   6     0.00   0.00   0.00     0.00   0.00  -0.00     0.00   0.00  -0.01
    21   8     0.00   0.00   0.00     0.00   0.00   0.00     0.00   0.00   0.00
    22   6     0.01   0.02  -0.01     0.01   0.01  -0.00     0.00   0.01   0.00
    23   6     0.01  -0.02   0.01     0.00  -0.01   0.00     0.00  -0.00   0.00
    24   6     0.00   0.01  -0.00     0.00   0.00  -0.00    -0.00   0.00  -0.00
    25   6    -0.01  -0.00  -0.00    -0.00  -0.00   0.00    -0.00   0.00   0.00
    26   6    -0.00  -0.01   0.00    -0.00  -0.00   0.00    -0.00  -0.00  -0.00
    27   1    -0.04   0.00   0.02    -0.02   0.00   0.01    -0.02   0.01   0.01
    28   7     0.00  -0.00  -0.00    -0.00  -0.00   0.00     0.00  -0.00  -0.00
    29   1     0.00   0.00  -0.00     0.00  -0.00  -0.00     0.02   0.02   0.01
    30   1    -0.02  -0.01  -0.01    -0.01  -0.01  -0.00    -0.00  -0.00  -0.00
    31   1    -0.02   0.00   0.01    -0.01   0.00   0.00    -0.00   0.00   0.00
    32   1    -0.02   0.01  -0.00    -0.01   0.00   0.00    -0.01   0.01   0.01
    33   7    -0.00   0.00  -0.00     0.00   0.00   0.00     0.00  -0.00   0.00
    34   6    -0.00   0.00  -0.00     0.00   0.00  -0.00     0.00   0.00   0.00
    35   6    -0.01   0.00  -0.00    -0.00   0.00  -0.00     0.00   0.00   0.00
    36   1    -0.00  -0.01   0.02     0.00  -0.01   0.01     0.00  -0.00   0.00
    37   1     0.01   0.01   0.01    -0.00   0.00  -0.00    -0.00  -0.00  -0.00
    38   1    -0.01  -0.02  -0.01    -0.01  -0.01   0.00    -0.00  -0.00  -0.00
    39   1     0.04  -0.04  -0.01     0.01  -0.01  -0.00     0.00  -0.00   0.00
    40   1    -0.02  -0.01   0.01    -0.01  -0.00  -0.00    -0.00  -0.00  -0.00
    41   1     0.05   0.02   0.02     0.01   0.01   0.00    -0.00   0.00  -0.00
    42   6    -0.01  -0.02   0.01    -0.00  -0.01   0.00     0.02   0.00   0.01
    43   6     0.06   0.07  -0.02     0.03   0.03  -0.01    -0.26  -0.05  -0.13
    44   6    -0.06  -0.03  -0.01    -0.03  -0.02  -0.01     0.13   0.11  -0.00
    45   6     0.07  -0.05   0.07     0.03  -0.02   0.04    -0.16  -0.01  -0.08
    46   6    -0.03   0.04  -0.04    -0.01   0.02  -0.02     0.34   0.13   0.10
    47   6    -0.04  -0.04   0.01    -0.02  -0.02   0.00    -0.22  -0.16  -0.01
    48   6     0.01  -0.03   0.03     0.00  -0.02   0.01     0.19  -0.04   0.14
    49   1     0.00   0.01   0.00    -0.00   0.00  -0.00     0.03  -0.03   0.03
    50   1     0.02   0.05  -0.03     0.01   0.03  -0.02    -0.04  -0.12   0.14
    51   1     0.02   0.13  -0.08     0.01   0.06  -0.04    -0.01  -0.11   0.08
    52   1    -0.08   0.13  -0.13    -0.04   0.06  -0.06    -0.06  -0.10   0.04
    53   1    -0.01   0.04  -0.03    -0.01   0.02  -0.02    -0.29  -0.04  -0.10
    54   1     0.01   0.07  -0.06     0.00   0.03  -0.03    -0.06   0.16  -0.17
    55   1    -0.30   0.52  -0.42    -0.15   0.25  -0.20    -0.11   0.46  -0.35
    56   8    -0.00  -0.00   0.00    -0.00   0.00  -0.00    -0.00   0.00  -0.00
    57   6     0.01  -0.00  -0.02    -0.01   0.00   0.03    -0.00  -0.00  -0.00
    58   6     0.01   0.00  -0.01    -0.02  -0.00   0.02     0.00  -0.00  -0.00
    59   6     0.01   0.01  -0.01    -0.02  -0.02   0.01    -0.00   0.00   0.00
    60   6     0.02  -0.00  -0.01    -0.03   0.01   0.01     0.00  -0.00   0.00
    61   1    -0.02  -0.12   0.16     0.01   0.18  -0.26     0.00  -0.00   0.00
    62   1    -0.05   0.12   0.16     0.08  -0.19  -0.26    -0.00   0.00   0.00
    63   1    -0.06   0.00  -0.08     0.09  -0.02   0.13    -0.00   0.00   0.00
    64   1    -0.18  -0.06  -0.06     0.25   0.10   0.10     0.00  -0.00  -0.00
    65   1     0.04   0.08   0.06    -0.08  -0.11  -0.11    -0.00   0.00  -0.00
    66   1    -0.06  -0.17   0.13     0.11   0.24  -0.22     0.00  -0.00  -0.00
    67   1    -0.23  -0.01  -0.08     0.35  -0.02   0.15    -0.00   0.00  -0.00
    68   1     0.06  -0.10   0.04    -0.12   0.13  -0.13     0.00   0.00   0.00
    69   1    -0.13   0.15   0.13     0.25  -0.22  -0.26    -0.00   0.00   0.00
                    166                    167                    168
                      A                      A                      A
 Frequencies --   1602.8503              1684.9458              1727.2602
 Red. masses --      7.6271                 8.1279                12.7153
 Frc consts  --     11.5450                13.5957                22.3507
 IR Inten    --      0.0000                 0.0000                 0.0000
  Atom  AN      X      Y      Z        X      Y      Z        X      Y      Z
     1  26    -0.00   0.00  -0.00    -0.00   0.00  -0.00    -0.00  -0.00   0.00
     2   6     0.00  -0.00  -0.01    -0.00  -0.01  -0.02     0.19   0.32   0.76
     3  46     0.00  -0.00   0.00    -0.00  -0.00   0.00    -0.00   0.00  -0.00
     4   6     0.00   0.00   0.00     0.00  -0.00   0.00    -0.00   0.00  -0.00
     5   1     0.00   0.00  -0.00     0.00  -0.00  -0.00    -0.00  -0.00  -0.00
     6   1     0.00   0.00  -0.00     0.00  -0.00  -0.00    -0.00  -0.00  -0.00
     7   1     0.00   0.00   0.00     0.01  -0.00  -0.00    -0.01   0.01   0.00
     8   6     0.00  -0.00  -0.01    -0.34   0.09   0.51    -0.01   0.00   0.02
     9   8    -0.00   0.00   0.01    -0.00   0.01   0.02     0.00  -0.14  -0.45
    10   6    -0.00  -0.00   0.00     0.00   0.01  -0.00    -0.00   0.00   0.00
    11   8    -0.00   0.00   0.00     0.03  -0.02  -0.12    -0.00  -0.00  -0.00
    12   6     0.00  -0.00   0.00     0.01  -0.01  -0.00     0.00   0.00   0.00
    13   6    -0.00   0.00  -0.00    -0.00   0.01  -0.00     0.00  -0.00   0.00
    14   6     0.00   0.00   0.00    -0.00  -0.00   0.00     0.00  -0.00   0.00
    15   1    -0.00   0.01   0.02    -0.00   0.05   0.00     0.00   0.00   0.00
    16   1    -0.00   0.00  -0.00    -0.00   0.01   0.00     0.01  -0.00  -0.00
    17   1     0.00   0.00   0.00     0.01   0.01  -0.00    -0.00  -0.00  -0.00
    18   1     0.03  -0.01   0.01    -0.56   0.17   0.19     0.04  -0.01  -0.02
    19   6    -0.00  -0.00   0.00    -0.01  -0.01   0.00     0.00  -0.00   0.00
    20   6     0.00   0.00   0.00     0.00  -0.00   0.05    -0.01  -0.01  -0.01
    21   8    -0.00  -0.00  -0.00     0.00   0.00   0.00    -0.14  -0.09  -0.10
    22   6    -0.00  -0.01   0.00    -0.00  -0.00   0.00     0.01  -0.00   0.00
    23   6     0.00   0.00  -0.00    -0.00   0.00  -0.00    -0.00   0.00  -0.00
    24   6    -0.00  -0.00  -0.00     0.00   0.00   0.00     0.00   0.00   0.00
    25   6     0.00  -0.00  -0.00    -0.00   0.00  -0.00    -0.00  -0.00  -0.00
    26   6     0.00   0.00  -0.00     0.00   0.00   0.00    -0.00  -0.00  -0.00
    27   1     0.01  -0.00  -0.01     0.00  -0.01  -0.00    -0.02  -0.00  -0.00
    28   7    -0.00   0.00   0.00     0.28  -0.06  -0.34     0.03  -0.00  -0.03
    29   1    -0.02  -0.02  -0.01     0.00   0.02   0.02     0.02   0.03   0.04
    30   1     0.00   0.00  -0.00    -0.01  -0.00  -0.00     0.01   0.01  -0.00
    31   1     0.00   0.00  -0.00    -0.01   0.01   0.00     0.00  -0.00  -0.00
    32   1     0.02  -0.02  -0.01     0.00  -0.00  -0.00     0.00  -0.00   0.00
    33   7    -0.00  -0.00   0.00    -0.00  -0.00  -0.00     0.00   0.00  -0.00
    34   6    -0.00  -0.00   0.00    -0.00   0.00   0.00     0.00   0.00   0.00
    35   6     0.00  -0.00  -0.00     0.00  -0.00  -0.00     0.00   0.00   0.00
    36   1    -0.00   0.00  -0.00     0.01  -0.00  -0.01     0.00  -0.01   0.00
    37   1     0.00  -0.00   0.00    -0.02   0.01  -0.01     0.00  -0.00  -0.00
    38   1     0.00   0.00   0.00    -0.01  -0.00   0.01    -0.01  -0.02  -0.02
    39   1    -0.00   0.00  -0.00    -0.00   0.00   0.00     0.00  -0.02   0.01
    40   1     0.00   0.00   0.00     0.00   0.00  -0.00    -0.03  -0.03   0.00
    41   1    -0.00  -0.00   0.00    -0.00  -0.00  -0.00    -0.00  -0.00   0.00
    42   6    -0.01   0.02  -0.02     0.00   0.01  -0.00     0.00   0.01   0.00
    43   6     0.04  -0.17   0.16     0.00  -0.00   0.01    -0.00  -0.01   0.00
    44   6     0.07   0.33  -0.19     0.00   0.00  -0.00     0.00   0.01  -0.00
    45   6     0.09  -0.27   0.23     0.00  -0.00   0.00    -0.00  -0.00   0.00
    46   6     0.03   0.15  -0.08    -0.00  -0.00  -0.00     0.00   0.00  -0.00
    47   6    -0.08  -0.29   0.13     0.00  -0.00   0.00    -0.00  -0.00   0.00
    48   6    -0.12   0.24  -0.23    -0.00   0.01  -0.00    -0.00   0.00  -0.00
    49   1    -0.03   0.05  -0.03    -0.00  -0.01   0.01    -0.09  -0.09  -0.00
    50   1     0.01   0.01  -0.07    -0.00  -0.01   0.01    -0.00  -0.06  -0.03
    51   1    -0.21  -0.25   0.07    -0.00  -0.00   0.00    -0.00  -0.00   0.00
    52   1    -0.21   0.11  -0.19    -0.00   0.00   0.00    -0.00   0.00  -0.00
    53   1    -0.07   0.10  -0.09     0.00   0.00   0.00    -0.00   0.00  -0.00
    54   1     0.05   0.13  -0.01    -0.00   0.00   0.01    -0.00   0.01  -0.00
    55   1     0.14  -0.25   0.24    -0.01  -0.00   0.02    -0.01   0.01   0.00
    56   8     0.00  -0.00  -0.00     0.02   0.00  -0.02    -0.00  -0.00  -0.00
    57   6     0.00   0.00  -0.00    -0.00  -0.00  -0.00    -0.00  -0.00  -0.00
    58   6    -0.00  -0.00   0.00     0.03   0.00   0.01     0.00   0.00  -0.00
    59   6     0.00  -0.00  -0.00    -0.01   0.00   0.01    -0.00   0.00   0.00
    60   6    -0.00   0.00  -0.00    -0.01  -0.00   0.01    -0.00  -0.00   0.00
    61   1    -0.01  -0.00   0.01    -0.00  -0.00   0.00    -0.00  -0.00   0.00
    62   1    -0.00   0.00   0.00     0.00   0.00   0.00     0.00   0.00   0.00
    63   1    -0.00  -0.00  -0.00     0.00  -0.00   0.01    -0.00  -0.00  -0.00
    64   1    -0.00   0.00   0.00     0.00  -0.01  -0.01     0.00   0.00  -0.00
    65   1     0.00  -0.00   0.00    -0.02   0.00  -0.02    -0.00  -0.00  -0.00
    66   1    -0.00   0.00   0.00     0.04  -0.04  -0.05     0.00  -0.00  -0.01
    67   1     0.00  -0.00   0.00    -0.00   0.00  -0.00     0.00   0.00   0.00
    68   1    -0.00   0.00  -0.00    -0.01  -0.01  -0.02    -0.00  -0.00  -0.00
    69   1     0.00  -0.00  -0.00     0.03   0.05  -0.05     0.00   0.00  -0.00
                    169                    170                    171
                      A                      A                      A
 Frequencies --   2856.7400              2865.3514              2867.6916
 Red. masses --      1.0721                 1.0731                 1.0735
 Frc consts  --      5.1551                 5.1910                 5.2014
 IR Inten    --      0.0000                 0.0000                 0.0000
  Atom  AN      X      Y      Z        X      Y      Z        X      Y      Z
     1  26     0.00   0.00   0.00    -0.00   0.00  -0.00     0.00   0.00   0.00
     2   6     0.00   0.00   0.00     0.00  -0.00   0.00     0.00  -0.00   0.00
     3  46     0.00   0.00  -0.00     0.00  -0.00   0.00     0.00   0.00  -0.00
     4   6    -0.03  -0.04  -0.06     0.00   0.00   0.00    -0.01  -0.01  -0.01
     5   1    -0.00  -0.00   0.00    -0.00   0.00   0.00    -0.00   0.00  -0.00
     6   1     0.00   0.00   0.00    -0.00   0.00  -0.00     0.00  -0.00  -0.00
     7   1     0.00   0.00   0.00     0.00   0.00  -0.00     0.00   0.00  -0.00
     8   6     0.00  -0.00  -0.00     0.00  -0.00  -0.00     0.00  -0.00  -0.00
     9   8    -0.00  -0.00  -0.00    -0.00   0.00  -0.00    -0.00  -0.00  -0.00
    10   6    -0.00  -0.00  -0.00    -0.00   0.00  -0.00    -0.00  -0.00  -0.00
    11   8     0.00   0.00   0.00     0.00   0.00   0.00    -0.00   0.00   0.00
    12   6     0.00  -0.00   0.00     0.00  -0.00  -0.00     0.00  -0.00   0.00
    13   6    -0.00   0.00  -0.00    -0.00   0.00  -0.00    -0.00  -0.00  -0.00
    14   6     0.00   0.00  -0.00    -0.00   0.00   0.00     0.00   0.00  -0.00
    15   1    -0.00  -0.00   0.00    -0.00   0.00  -0.00    -0.00  -0.00  -0.00
    16   1    -0.00  -0.00   0.00    -0.00  -0.00  -0.00     0.00  -0.00  -0.00
    17   1    -0.00   0.00  -0.00     0.00   0.00  -0.00    -0.00   0.00  -0.00
    18   1    -0.00  -0.00  -0.00    -0.00   0.00  -0.00     0.00  -0.00  -0.00
    19   6     0.00   0.00  -0.00     0.00   0.00  -0.00    -0.00   0.00   0.00
    20   6    -0.00   0.00  -0.00     0.05  -0.06   0.02     0.00  -0.00   0.00
    21   8    -0.00  -0.00   0.00    -0.00   0.00  -0.00    -0.00  -0.00  -0.00
    22   6     0.00  -0.00   0.00     0.00  -0.00   0.00     0.00  -0.00   0.00
    23   6     0.00   0.00  -0.00     0.00   0.00   0.00     0.00   0.00  -0.00
    24   6    -0.00   0.00  -0.00    -0.00   0.00  -0.00    -0.00  -0.00   0.00
    25   6    -0.00  -0.00  -0.00    -0.00   0.00  -0.00    -0.00  -0.00  -0.00
    26   6    -0.00  -0.00   0.00    -0.00  -0.00   0.00    -0.00  -0.00   0.00
    27   1    -0.00   0.00  -0.00    -0.00   0.00  -0.00    -0.00   0.00  -0.00
    28   7    -0.00   0.00  -0.00     0.00  -0.00   0.00    -0.00  -0.00   0.00
    29   1     0.01  -0.01   0.00    -0.61   0.73  -0.26    -0.05   0.06  -0.02
    30   1    -0.05   0.00  -0.01     0.00  -0.00   0.00    -0.01  -0.00  -0.01
    31   1     0.45   0.41   0.74    -0.00  -0.00  -0.01     0.12   0.11   0.20
    32   1    -0.00  -0.00   0.00    -0.00  -0.00  -0.00    -0.00  -0.00   0.00
    33   7    -0.00   0.00  -0.00     0.00   0.00   0.00    -0.00  -0.00  -0.00
    34   6     0.02   0.01   0.01     0.01   0.00   0.00    -0.06  -0.03  -0.03
    35   6     0.00   0.00   0.00     0.00   0.00   0.00     0.00   0.00   0.00
    36   1    -0.19  -0.13  -0.08    -0.06  -0.04  -0.03     0.73   0.52   0.32
    37   1     0.01   0.01   0.00     0.00  -0.00   0.01    -0.02  -0.00  -0.05
    38   1    -0.03   0.05  -0.04    -0.01   0.01  -0.01     0.04  -0.10   0.07
    39   1    -0.03  -0.03  -0.02    -0.00  -0.00  -0.00    -0.04  -0.04  -0.03
    40   1    -0.00   0.01  -0.01    -0.00   0.00  -0.00     0.00   0.00   0.00
    41   1    -0.00   0.00   0.00    -0.00   0.00   0.00     0.01  -0.01  -0.00
    42   6     0.00   0.00  -0.00    -0.01  -0.00   0.00    -0.00  -0.00  -0.00
    43   6    -0.00   0.00  -0.00    -0.00   0.00  -0.00    -0.00   0.00  -0.00
    44   6    -0.00   0.00  -0.00     0.00  -0.00   0.00    -0.00   0.00  -0.00
    45   6    -0.00  -0.00  -0.00    -0.00  -0.00  -0.00    -0.00  -0.00  -0.00
    46   6    -0.00  -0.00   0.00     0.00   0.00   0.00     0.00  -0.00   0.00
    47   6     0.00  -0.00   0.00    -0.00  -0.00  -0.00     0.00   0.00   0.00
    48   6     0.00   0.00   0.00    -0.00  -0.00  -0.00     0.00   0.00   0.00
    49   1    -0.00   0.00   0.00     0.01  -0.01  -0.03     0.00  -0.00  -0.00
    50   1    -0.00  -0.00   0.00     0.07  -0.01   0.02     0.01  -0.00   0.00
    51   1     0.00  -0.00   0.00     0.00  -0.00   0.00     0.00  -0.00   0.00
    52   1     0.00   0.00   0.00     0.00   0.00  -0.00     0.00   0.00  -0.00
    53   1    -0.00   0.00  -0.00    -0.00   0.00  -0.00    -0.00   0.00  -0.00
    54   1    -0.00   0.00  -0.00     0.00   0.00   0.00    -0.00   0.00  -0.00
    55   1    -0.00  -0.00  -0.00     0.00   0.00  -0.00    -0.00   0.00   0.00
    56   8    -0.00   0.00   0.00    -0.00   0.00  -0.00    -0.00   0.00  -0.00
    57   6    -0.00   0.00   0.00     0.00   0.00  -0.00    -0.00   0.00   0.00
    58   6     0.00  -0.00  -0.00     0.00  -0.00  -0.00     0.00  -0.00  -0.00
    59   6    -0.00   0.00   0.00     0.00   0.00  -0.00    -0.00   0.00   0.00
    60   6    -0.00  -0.00   0.00    -0.00  -0.00  -0.00    -0.00  -0.00   0.00
    61   1     0.00  -0.00  -0.00    -0.00   0.00   0.00     0.00  -0.00   0.00
    62   1     0.00  -0.00   0.00     0.00  -0.00   0.00     0.00  -0.00   0.00
    63   1     0.00   0.00  -0.00    -0.00  -0.00   0.00     0.00   0.00  -0.00
    64   1     0.00  -0.00   0.00     0.00  -0.00   0.00     0.00  -0.00   0.00
    65   1     0.00   0.00  -0.00    -0.00  -0.00   0.00     0.00   0.00  -0.00
    66   1    -0.00   0.00  -0.00    -0.00  -0.00  -0.00     0.00  -0.00  -0.00
    67   1     0.00  -0.00  -0.00     0.00   0.00   0.00     0.00  -0.00  -0.00
    68   1     0.00   0.00  -0.00    -0.00  -0.00  -0.00     0.00   0.00  -0.00
    69   1    -0.00  -0.00  -0.00     0.00   0.00  -0.00     0.00   0.00  -0.00
                    172                    173                    174
                      A                      A                      A
 Frequencies --   2899.2953              2901.1452              2910.1433
 Red. masses --      1.0679                 1.0670                 1.0783
 Frc consts  --      5.2890                 5.2912                 5.3804
 IR Inten    --      0.0000                 0.0000                 0.0000
  Atom  AN      X      Y      Z        X      Y      Z        X      Y      Z
     1  26     0.00  -0.00  -0.00     0.00   0.00   0.00     0.00  -0.00  -0.00
     2   6     0.00   0.00   0.00     0.00   0.00   0.00     0.00   0.00  -0.00
     3  46     0.00   0.00   0.00     0.00  -0.00  -0.00    -0.00  -0.00  -0.00
     4   6    -0.00  -0.00  -0.00    -0.00  -0.00  -0.00    -0.00   0.00   0.00
     5   1    -0.00   0.00  -0.00     0.00   0.00   0.00     0.00   0.00  -0.00
     6   1    -0.00  -0.00  -0.00     0.00  -0.00   0.00    -0.00  -0.00  -0.00
     7   1    -0.00  -0.00   0.00    -0.00  -0.00   0.00     0.00  -0.00  -0.00
     8   6     0.00  -0.00  -0.00     0.00  -0.00  -0.00     0.00  -0.00  -0.00
     9   8    -0.00  -0.00  -0.00    -0.00  -0.00  -0.00     0.00  -0.00   0.00
    10   6    -0.00  -0.00  -0.00     0.00  -0.00  -0.00     0.00  -0.00   0.00
    11   8    -0.00   0.00   0.00    -0.00   0.00   0.00    -0.00   0.00   0.00
    12   6     0.00  -0.00   0.00     0.00   0.00   0.00    -0.00   0.00   0.00
    13   6    -0.00  -0.00   0.00    -0.00   0.00  -0.00    -0.00  -0.00   0.00
    14   6     0.00  -0.00   0.00     0.00   0.00  -0.00     0.00   0.00   0.00
    15   1     0.00   0.00   0.00    -0.00  -0.00  -0.00    -0.00  -0.00   0.00
    16   1     0.00   0.00  -0.00     0.00   0.00  -0.00    -0.00   0.00   0.00
    17   1    -0.00   0.00  -0.00    -0.00  -0.00  -0.00    -0.00   0.00   0.00
    18   1     0.00   0.00  -0.00     0.00  -0.00  -0.00     0.00  -0.00   0.00
    19   6    -0.00   0.00   0.00     0.00   0.00  -0.00    -0.00   0.00   0.00
    20   6     0.00  -0.00   0.00     0.00  -0.00   0.00     0.00  -0.00  -0.00
    21   8    -0.00  -0.00  -0.00    -0.00   0.00   0.00    -0.00  -0.00  -0.00
    22   6    -0.00  -0.00   0.00     0.00  -0.00   0.00    -0.00   0.00  -0.00
    23   6    -0.00   0.00   0.00     0.00   0.00  -0.00     0.00   0.00   0.00
    24   6    -0.00  -0.00   0.00     0.00   0.00   0.00    -0.00  -0.00   0.00
    25   6     0.00   0.00  -0.00    -0.00  -0.00  -0.00     0.00   0.00   0.00
    26   6     0.00   0.00  -0.00    -0.00   0.00  -0.00    -0.00  -0.00   0.00
    27   1     0.00  -0.00   0.00    -0.00   0.00  -0.00    -0.00  -0.00   0.00
    28   7    -0.00   0.00   0.00    -0.00  -0.00   0.00     0.00  -0.00   0.00
    29   1    -0.01   0.01  -0.00    -0.00   0.00  -0.00    -0.02   0.03  -0.01
    30   1    -0.01   0.00   0.00    -0.00  -0.00  -0.00     0.00  -0.00  -0.00
    31   1     0.03   0.03   0.05     0.02   0.01   0.03    -0.00  -0.00  -0.00
    32   1     0.00   0.00   0.00    -0.00  -0.00  -0.00    -0.00  -0.00  -0.00
    33   7    -0.00  -0.00   0.00    -0.00  -0.00   0.00     0.00  -0.00   0.00
    34   6    -0.03   0.04  -0.03     0.02  -0.03   0.02     0.00  -0.00   0.00
    35   6    -0.03  -0.03  -0.02    -0.04  -0.04  -0.03    -0.00   0.00  -0.00
    36   1    -0.08  -0.03  -0.05     0.11   0.06   0.06     0.00   0.00   0.00
    37   1    -0.01   0.01  -0.02    -0.01  -0.02   0.03     0.00  -0.00   0.00
    38   1     0.46  -0.47   0.48    -0.32   0.32  -0.33    -0.01   0.01  -0.01
    39   1     0.37   0.35   0.24     0.53   0.50   0.35     0.00   0.00   0.00
    40   1    -0.01  -0.02  -0.01     0.00  -0.04   0.01     0.00  -0.00   0.00
    41   1    -0.03   0.01   0.00    -0.04   0.01  -0.01     0.00  -0.00  -0.00
    42   6     0.00  -0.00  -0.00    -0.00   0.00   0.00     0.05  -0.03  -0.06
    43   6    -0.00   0.00  -0.00    -0.00   0.00  -0.00     0.00   0.00  -0.00
    44   6    -0.00   0.00  -0.00    -0.00   0.00  -0.00    -0.00  -0.00   0.00
    45   6    -0.00  -0.00  -0.00    -0.00  -0.00  -0.00    -0.00   0.00  -0.00
    46   6     0.00  -0.00   0.00    -0.00  -0.00   0.00    -0.00  -0.00   0.00
    47   6     0.00   0.00   0.00    -0.00  -0.00  -0.00     0.00   0.00  -0.00
    48   6     0.00   0.00   0.00     0.00   0.00   0.00     0.00  -0.00   0.00
    49   1    -0.00   0.00   0.01     0.00  -0.00  -0.01    -0.43   0.32   0.83
    50   1     0.00  -0.00   0.00     0.00  -0.00   0.00    -0.13   0.02  -0.06
    51   1     0.00  -0.00   0.00     0.00  -0.00   0.00    -0.00   0.00  -0.00
    52   1     0.00   0.00  -0.00     0.00   0.00   0.00     0.00   0.00   0.00
    53   1    -0.00   0.00  -0.00    -0.00   0.00  -0.00     0.00   0.00  -0.00
    54   1    -0.00   0.00  -0.00     0.00   0.00   0.00    -0.00  -0.00  -0.00
    55   1    -0.00  -0.00  -0.00    -0.00  -0.00  -0.00     0.01   0.00   0.00
    56   8    -0.00   0.00  -0.00    -0.00   0.00   0.00    -0.00  -0.00  -0.00
    57   6    -0.00   0.00   0.00    -0.00   0.00   0.00     0.00  -0.00  -0.00
    58   6     0.00  -0.00  -0.00     0.00  -0.00  -0.00    -0.00   0.00   0.00
    59   6    -0.00  -0.00   0.00    -0.00   0.00   0.00     0.00   0.00  -0.00
    60   6    -0.00  -0.00   0.00    -0.00  -0.00   0.00     0.00  -0.00  -0.00
    61   1     0.00  -0.00  -0.00     0.00  -0.00  -0.00    -0.00   0.00   0.00
    62   1     0.00  -0.00   0.00     0.00  -0.00   0.00    -0.00  -0.00   0.00
    63   1     0.00   0.00  -0.00     0.00   0.00  -0.00    -0.00  -0.00  -0.00
    64   1    -0.00   0.00  -0.00     0.00  -0.00   0.00     0.00  -0.00   0.00
    65   1     0.00   0.00  -0.00     0.00   0.00  -0.00    -0.00   0.00   0.00
    66   1    -0.00  -0.00  -0.00     0.00  -0.00   0.00    -0.00   0.00  -0.00
    67   1     0.00  -0.00  -0.00     0.00  -0.00  -0.00    -0.00   0.00   0.00
    68   1     0.00   0.00  -0.00     0.00   0.00  -0.00     0.00  -0.00  -0.00
    69   1    -0.00   0.00  -0.00     0.00   0.00   0.00    -0.00  -0.00  -0.00
                    175                    176                    177
                      A                      A                      A
 Frequencies --   2978.1153              2980.0763              2990.0716
 Red. masses --      1.0677                 1.0711                 1.0713
 Frc consts  --      5.5794                 5.6046                 5.6434
 IR Inten    --      0.0000                 0.0000                 0.0000
  Atom  AN      X      Y      Z        X      Y      Z        X      Y      Z
     1  26     0.00   0.00   0.00    -0.00  -0.00  -0.00     0.00   0.00   0.00
     2   6    -0.00  -0.00  -0.00     0.00   0.00  -0.00     0.00   0.00   0.00
     3  46    -0.00   0.00   0.00     0.00  -0.00   0.00    -0.00  -0.00  -0.00
     4   6     0.00  -0.00  -0.00    -0.00   0.00   0.00    -0.00   0.00  -0.00
     5   1    -0.00  -0.00   0.00     0.00   0.00  -0.00    -0.00   0.00   0.00
     6   1     0.00   0.00   0.00    -0.00  -0.00  -0.00    -0.00   0.00  -0.00
     7   1     0.00   0.00   0.00    -0.00  -0.00   0.00    -0.00  -0.00   0.00
     8   6    -0.00  -0.00  -0.00    -0.00   0.00   0.00    -0.00  -0.00  -0.00
     9   8     0.00   0.00   0.00    -0.00  -0.00   0.00    -0.00  -0.00   0.00
    10   6    -0.00  -0.00  -0.00     0.00   0.00   0.00    -0.00  -0.00   0.00
    11   8     0.00  -0.00   0.00    -0.00  -0.00  -0.00    -0.00   0.00   0.00
    12   6     0.00  -0.00   0.00    -0.00   0.00  -0.00     0.00  -0.00  -0.00
    13   6     0.00   0.00  -0.00    -0.00  -0.00   0.00     0.00   0.00  -0.00
    14   6    -0.00   0.00  -0.00     0.00  -0.00   0.00    -0.00  -0.00  -0.00
    15   1    -0.00  -0.00  -0.00     0.01   0.00   0.01    -0.00  -0.00  -0.00
    16   1    -0.00  -0.00  -0.00     0.00   0.01   0.00    -0.00  -0.00   0.00
    17   1     0.00  -0.00  -0.00    -0.00   0.00   0.00     0.00  -0.00  -0.00
    18   1    -0.00   0.00  -0.00     0.01  -0.00   0.00     0.00   0.00   0.00
    19   6     0.00   0.00   0.00    -0.00  -0.00  -0.00     0.00   0.00   0.00
    20   6    -0.00   0.00  -0.00    -0.00   0.00  -0.00    -0.00   0.00  -0.00
    21   8     0.00  -0.00   0.00    -0.00  -0.00  -0.00    -0.00  -0.00   0.00
    22   6     0.00  -0.00  -0.00    -0.00   0.00   0.00     0.00  -0.00   0.00
    23   6     0.00  -0.00  -0.00    -0.00  -0.00   0.00     0.00   0.00   0.00
    24   6    -0.00   0.00  -0.00     0.00  -0.00   0.00    -0.00   0.00  -0.00
    25   6    -0.00   0.00  -0.00     0.00  -0.00   0.00    -0.00  -0.00   0.00
    26   6     0.00  -0.00   0.00    -0.00   0.00  -0.00     0.00   0.00  -0.00
    27   1    -0.00   0.00  -0.00     0.00   0.00   0.00    -0.00   0.00  -0.00
    28   7    -0.00   0.00  -0.00     0.00  -0.00  -0.00    -0.00   0.00  -0.00
    29   1     0.04  -0.05   0.02     0.02  -0.02   0.01     0.00  -0.00   0.00
    30   1    -0.00   0.00   0.00     0.01  -0.01  -0.01     0.01  -0.01  -0.01
    31   1    -0.00  -0.00  -0.00     0.00   0.00   0.00     0.01   0.01   0.01
    32   1    -0.00  -0.00  -0.00     0.01   0.01   0.00    -0.00  -0.00   0.00
    33   7     0.00  -0.00  -0.00    -0.00   0.00   0.00     0.00   0.00  -0.00
    34   6    -0.00  -0.00   0.00     0.00   0.00  -0.00     0.04   0.02  -0.06
    35   6     0.00   0.00  -0.00    -0.00   0.00   0.00     0.00  -0.00   0.00
    36   1    -0.00  -0.00  -0.00     0.00   0.00  -0.00     0.04   0.03  -0.01
    37   1     0.00   0.00  -0.00    -0.01  -0.00   0.01    -0.53  -0.33   0.77
    38   1    -0.00   0.00  -0.00    -0.00   0.00  -0.00     0.03   0.00  -0.01
    39   1    -0.00  -0.00  -0.00     0.00   0.00   0.00    -0.01  -0.01  -0.01
    40   1     0.00  -0.00   0.00    -0.00   0.00  -0.00    -0.03   0.03  -0.04
    41   1    -0.00   0.00   0.00     0.01  -0.01  -0.00     0.00  -0.00  -0.00
    42   6    -0.06   0.01  -0.02    -0.02   0.00  -0.01    -0.00   0.00  -0.00
    43   6    -0.00   0.00  -0.00     0.00  -0.00   0.00    -0.00   0.00  -0.00
    44   6     0.00  -0.00   0.00     0.00  -0.00   0.00    -0.00  -0.00  -0.00
    45   6    -0.00  -0.00  -0.00     0.00   0.00  -0.00    -0.00  -0.00  -0.00
    46   6    -0.00  -0.00   0.00     0.00   0.00  -0.00    -0.00  -0.00   0.00
    47   6     0.00   0.00   0.00    -0.00  -0.00   0.00     0.00   0.00   0.00
    48   6     0.02   0.02   0.00    -0.06  -0.04  -0.01     0.00   0.00   0.00
    49   1    -0.10   0.05   0.11    -0.03   0.02   0.04    -0.00   0.00   0.00
    50   1     0.88  -0.17   0.18     0.34  -0.07   0.07     0.00  -0.00   0.00
    51   1    -0.02   0.01  -0.02    -0.03   0.01  -0.02     0.00  -0.00   0.00
    52   1     0.01   0.00   0.00    -0.01  -0.01   0.00     0.00   0.00   0.00
    53   1    -0.00   0.01  -0.00     0.00  -0.01   0.01    -0.00   0.00  -0.00
    54   1     0.01  -0.00   0.00    -0.02   0.00  -0.01     0.00   0.00  -0.00
    55   1    -0.29  -0.20  -0.04     0.77   0.51   0.10    -0.01  -0.01  -0.00
    56   8     0.00   0.00   0.00     0.00   0.00  -0.00     0.00  -0.00   0.00
    57   6    -0.00   0.00   0.00     0.00  -0.00  -0.00    -0.00   0.00   0.00
    58   6    -0.00  -0.00  -0.00    -0.00   0.00   0.00     0.00  -0.00  -0.00
    59   6    -0.00  -0.00   0.00     0.00  -0.00   0.00     0.00   0.00  -0.00
    60   6    -0.00  -0.00   0.00     0.00  -0.00  -0.00     0.00   0.00   0.00
    61   1     0.00  -0.00  -0.00    -0.00   0.00   0.00     0.00  -0.00  -0.00
    62   1     0.00  -0.00   0.00    -0.00   0.00  -0.00    -0.00   0.00  -0.00
    63   1     0.00   0.00  -0.00    -0.00  -0.00   0.00     0.00   0.00  -0.00
    64   1    -0.00   0.00  -0.00    -0.00   0.00  -0.00     0.00  -0.00   0.00
    65   1     0.00   0.00  -0.00    -0.00  -0.00   0.00    -0.00  -0.00   0.00
    66   1    -0.00   0.00   0.00     0.00   0.00   0.00    -0.00  -0.00  -0.00
    67   1     0.00  -0.00  -0.00    -0.00   0.00   0.00     0.00  -0.00  -0.00
    68   1     0.00   0.00  -0.00    -0.00  -0.00   0.00    -0.00  -0.00   0.00
    69   1    -0.00  -0.00  -0.00     0.00   0.00   0.00    -0.00  -0.00  -0.00
                    178                    179                    180
                      A                      A                      A
 Frequencies --   3004.7113              3029.0841              3032.9300
 Red. masses --      1.0730                 1.0742                 1.0660
 Frc consts  --      5.7079                 5.8072                 5.7772
 IR Inten    --      0.0000                 0.0000                 0.0000
  Atom  AN      X      Y      Z        X      Y      Z        X      Y      Z
     1  26    -0.00  -0.00   0.00     0.00   0.00   0.00    -0.00  -0.00  -0.00
     2   6     0.00  -0.00   0.00    -0.00  -0.00   0.00     0.00  -0.00  -0.00
     3  46     0.00   0.00  -0.00    -0.00  -0.00  -0.00     0.00  -0.00  -0.00
     4   6     0.00  -0.00  -0.00    -0.00   0.00   0.00    -0.01   0.00   0.00
     5   1    -0.00   0.00  -0.00    -0.00   0.00  -0.00     0.00   0.00  -0.00
     6   1    -0.00  -0.00  -0.00    -0.00  -0.00  -0.00    -0.00   0.00  -0.00
     7   1    -0.00  -0.01   0.00    -0.00  -0.00   0.00    -0.00   0.01  -0.00
     8   6    -0.00   0.00   0.00    -0.00  -0.00  -0.00    -0.00  -0.00   0.00
     9   8    -0.00  -0.00  -0.00     0.00   0.00  -0.00    -0.00  -0.00  -0.00
    10   6     0.00   0.00  -0.00     0.00  -0.00   0.00    -0.00   0.00   0.00
    11   8    -0.00   0.00   0.00    -0.00   0.00   0.00    -0.00   0.00   0.00
    12   6    -0.00  -0.00   0.00    -0.00  -0.00   0.00    -0.00  -0.00  -0.00
    13   6    -0.00  -0.00   0.00     0.00   0.00  -0.00     0.00  -0.00   0.00
    14   6     0.00  -0.00   0.00     0.00  -0.00   0.00     0.00   0.00   0.00
    15   1     0.00   0.00   0.00     0.00   0.00  -0.00     0.00   0.00   0.00
    16   1     0.00   0.00  -0.00    -0.00  -0.00   0.00    -0.00  -0.00   0.00
    17   1    -0.00   0.00   0.00    -0.00   0.00   0.00    -0.00  -0.00  -0.00
    18   1     0.00  -0.00  -0.00     0.00  -0.00  -0.00     0.00  -0.00   0.00
    19   6     0.00   0.00   0.00    -0.00   0.00   0.00     0.00   0.00   0.00
    20   6     0.00  -0.00   0.00    -0.00  -0.00   0.00    -0.00  -0.00  -0.00
    21   8    -0.00  -0.00  -0.00     0.00   0.00  -0.00    -0.00   0.00   0.00
    22   6     0.00  -0.00   0.00     0.00  -0.00  -0.00     0.00   0.00   0.00
    23   6    -0.00  -0.00  -0.00     0.00   0.00  -0.00    -0.00  -0.00   0.00
    24   6     0.00  -0.00   0.00    -0.00  -0.00   0.00    -0.00  -0.00   0.00
    25   6     0.00  -0.00  -0.00     0.00   0.00   0.00     0.00   0.00   0.00
    26   6     0.00   0.00  -0.00     0.00   0.00  -0.00    -0.00  -0.00   0.00
    27   1    -0.00   0.00  -0.00     0.00   0.00   0.00     0.00  -0.00   0.00
    28   7     0.00   0.00  -0.00    -0.00   0.00   0.00     0.00   0.00  -0.00
    29   1    -0.00   0.00  -0.00     0.00  -0.00   0.00    -0.00   0.00  -0.00
    30   1    -0.02   0.01   0.01     0.00  -0.00  -0.00     0.07  -0.06  -0.06
    31   1     0.00   0.00   0.01     0.00   0.00   0.00     0.00   0.00   0.01
    32   1     0.00   0.00   0.00    -0.00  -0.00  -0.00     0.00   0.00   0.00
    33   7     0.00   0.00  -0.00    -0.00   0.00   0.00     0.00  -0.00  -0.00
    34   6     0.00   0.00  -0.00     0.00   0.00  -0.00    -0.00  -0.00  -0.00
    35   6    -0.04   0.04  -0.05    -0.00   0.00   0.00     0.04  -0.05  -0.03
    36   1    -0.00  -0.00  -0.00     0.00   0.00   0.00     0.01   0.01   0.01
    37   1    -0.03  -0.02   0.05    -0.00  -0.00   0.00    -0.00  -0.00   0.00
    38   1     0.01  -0.01   0.01    -0.00   0.00  -0.00    -0.00   0.00  -0.00
    39   1    -0.04  -0.00  -0.03     0.00   0.00   0.00    -0.02  -0.06  -0.03
    40   1     0.50  -0.48   0.70    -0.00   0.00  -0.00     0.04  -0.06   0.03
    41   1     0.01  -0.03  -0.04     0.00  -0.00  -0.00    -0.49   0.75   0.41
    42   6     0.00  -0.00   0.00    -0.00   0.00   0.00     0.00  -0.00  -0.00
    43   6     0.00  -0.00   0.00     0.00   0.00  -0.00     0.00  -0.00   0.00
    44   6     0.00   0.00   0.00    -0.00   0.00  -0.00     0.00   0.00   0.00
    45   6     0.00   0.00   0.00    -0.00  -0.00   0.00     0.00   0.00  -0.00
    46   6     0.00  -0.00   0.00     0.00   0.00  -0.00    -0.00   0.00  -0.00
    47   6    -0.00  -0.00  -0.00    -0.00   0.00  -0.00    -0.00  -0.00  -0.00
    48   6    -0.00  -0.00  -0.00     0.00   0.00   0.00    -0.00  -0.00  -0.00
    49   1     0.00  -0.00  -0.00     0.00  -0.00  -0.00    -0.00   0.00   0.00
    50   1    -0.00   0.00  -0.00     0.00   0.00   0.00    -0.00   0.00  -0.00
    51   1    -0.00   0.00  -0.00     0.01  -0.00   0.01    -0.00   0.00  -0.00
    52   1    -0.00  -0.00   0.00     0.00   0.00   0.00    -0.00  -0.00   0.00
    53   1    -0.00   0.00  -0.00    -0.00  -0.00   0.00     0.00  -0.00   0.00
    54   1    -0.00  -0.00  -0.00     0.00  -0.00   0.00     0.00  -0.00   0.00
    55   1     0.00   0.00   0.00    -0.00  -0.00  -0.00     0.01   0.01   0.00
    56   8    -0.00   0.00  -0.00    -0.00   0.00   0.00     0.00   0.00   0.00
    57   6     0.00  -0.00  -0.00    -0.00   0.01   0.00     0.00   0.00   0.00
    58   6    -0.00  -0.00  -0.00     0.00  -0.00  -0.00     0.00  -0.00  -0.00
    59   6     0.00   0.00   0.00     0.00  -0.00   0.01     0.00   0.00  -0.00
    60   6     0.00  -0.00  -0.00     0.01  -0.06  -0.05     0.00  -0.00  -0.00
    61   1    -0.00   0.00   0.00     0.01  -0.08  -0.06     0.00  -0.00  -0.00
    62   1     0.00  -0.00   0.00     0.00  -0.05   0.04    -0.00   0.00   0.00
    63   1    -0.00  -0.00   0.00    -0.01   0.00   0.01    -0.00   0.00   0.00
    64   1     0.00  -0.00   0.00    -0.01   0.04  -0.03     0.00  -0.00   0.00
    65   1     0.00   0.00  -0.00     0.04   0.00  -0.03    -0.00  -0.00   0.00
    66   1    -0.00  -0.00  -0.00    -0.04  -0.00  -0.02    -0.00  -0.00  -0.00
    67   1    -0.00   0.00   0.00    -0.20   0.75   0.60    -0.00   0.00   0.00
    68   1     0.00   0.00  -0.00     0.01  -0.02  -0.03    -0.00  -0.00   0.00
    69   1    -0.00  -0.00  -0.00     0.05  -0.02   0.01     0.00  -0.00  -0.00
                    181                    182                    183
                      A                      A                      A
 Frequencies --   3037.3065              3045.7522              3048.1041
 Red. masses --      1.0757                 1.0856                 1.0797
 Frc consts  --      5.8471                 5.9335                 5.9104
 IR Inten    --      0.0000                 0.0000                 0.0000
  Atom  AN      X      Y      Z        X      Y      Z        X      Y      Z
     1  26    -0.00   0.00   0.00    -0.00  -0.00  -0.00    -0.00  -0.00  -0.00
     2   6     0.00  -0.00  -0.00    -0.00   0.00   0.00    -0.00  -0.00  -0.00
     3  46    -0.00  -0.00   0.00     0.00   0.00  -0.00     0.00   0.00  -0.00
     4   6     0.00  -0.00  -0.00    -0.00   0.00   0.00    -0.00   0.00   0.00
     5   1    -0.00  -0.00   0.00     0.00   0.00  -0.00     0.00   0.00  -0.00
     6   1     0.00   0.00   0.00     0.00   0.00   0.00    -0.00   0.00  -0.00
     7   1     0.00   0.00  -0.00     0.00   0.00  -0.00    -0.00  -0.00   0.00
     8   6     0.00  -0.00   0.00    -0.00   0.00  -0.00     0.00   0.00  -0.00
     9   8    -0.00   0.00   0.00    -0.00  -0.00   0.00     0.00   0.00   0.00
    10   6    -0.00   0.00  -0.00     0.00   0.00   0.00     0.00  -0.00   0.00
    11   8     0.00   0.00  -0.00     0.00  -0.00   0.00    -0.00  -0.00   0.00
    12   6     0.00   0.00  -0.00     0.00   0.00  -0.00     0.00   0.00  -0.00
    13   6    -0.00   0.00  -0.00    -0.00  -0.00   0.00     0.00   0.00  -0.00
    14   6    -0.00  -0.00  -0.00    -0.00   0.00   0.00    -0.00   0.00   0.00
    15   1    -0.00  -0.00   0.00    -0.00  -0.00   0.00    -0.00  -0.00   0.00
    16   1    -0.00  -0.00  -0.00     0.00   0.00  -0.00    -0.00  -0.00   0.00
    17   1     0.00   0.00  -0.00     0.00  -0.00   0.00     0.00  -0.00   0.00
    18   1    -0.00  -0.00   0.00     0.00   0.00  -0.00     0.00  -0.00   0.00
    19   6     0.00  -0.00  -0.00    -0.00   0.00   0.00    -0.00   0.00   0.00
    20   6     0.00  -0.00   0.00    -0.00   0.00  -0.00    -0.00   0.00  -0.00
    21   8    -0.00   0.00   0.00     0.00  -0.00   0.00     0.00   0.00   0.00
    22   6    -0.00  -0.00  -0.00    -0.00   0.00  -0.00    -0.00   0.00  -0.00
    23   6     0.00  -0.00   0.00    -0.00  -0.00   0.00    -0.00  -0.00   0.00
    24   6    -0.00   0.00  -0.00     0.00  -0.00   0.00    -0.00   0.00  -0.00
    25   6    -0.00  -0.00  -0.00    -0.00   0.00  -0.00    -0.00   0.00   0.00
    26   6    -0.00  -0.00   0.00    -0.00  -0.00   0.00     0.00  -0.00   0.00
    27   1     0.00  -0.00  -0.00     0.00  -0.00   0.00     0.00  -0.00   0.00
    28   7     0.00   0.00  -0.00     0.00  -0.00  -0.00    -0.00   0.00   0.00
    29   1    -0.00   0.00  -0.00     0.00  -0.00   0.00     0.00  -0.00   0.00
    30   1    -0.00   0.00   0.00     0.00  -0.00  -0.00     0.00  -0.00  -0.00
    31   1     0.00   0.00   0.00    -0.00  -0.00  -0.00    -0.00  -0.00  -0.00
    32   1    -0.00  -0.00   0.00     0.00   0.00   0.00     0.00   0.00   0.00
    33   7     0.00  -0.00  -0.00    -0.00   0.00   0.00    -0.00   0.00  -0.00
    34   6     0.00  -0.00   0.00    -0.00   0.00   0.00     0.00   0.00  -0.00
    35   6     0.00  -0.00  -0.00    -0.00   0.00   0.00     0.00  -0.00  -0.00
    36   1     0.00   0.00   0.00    -0.00  -0.00  -0.00    -0.00  -0.00  -0.00
    37   1    -0.00  -0.00   0.00     0.00   0.00  -0.00    -0.00  -0.00   0.00
    38   1    -0.00   0.00  -0.00     0.00  -0.00   0.00     0.00   0.00  -0.00
    39   1     0.00   0.00   0.00    -0.00  -0.00  -0.00    -0.00  -0.00  -0.00
    40   1     0.00  -0.00   0.00    -0.00   0.00   0.00     0.00  -0.00   0.00
    41   1    -0.00   0.00   0.00     0.00  -0.00  -0.00    -0.00   0.00   0.00
    42   6     0.00  -0.00  -0.00     0.00  -0.00   0.00    -0.00  -0.00  -0.00
    43   6    -0.00  -0.00   0.00     0.00  -0.00  -0.00    -0.00  -0.00   0.00
    44   6     0.00  -0.00   0.00     0.00  -0.00   0.00     0.00  -0.00   0.00
    45   6     0.00   0.00  -0.00     0.00   0.00   0.00     0.00   0.00  -0.00
    46   6     0.00  -0.00   0.00    -0.00   0.00  -0.00    -0.00   0.00  -0.00
    47   6     0.00  -0.00  -0.00     0.00  -0.00   0.00     0.00  -0.00   0.00
    48   6     0.00   0.00   0.00    -0.00  -0.00  -0.00    -0.00  -0.00  -0.00
    49   1    -0.00   0.00   0.00     0.00  -0.00  -0.00    -0.00   0.00   0.00
    50   1    -0.00   0.00  -0.00    -0.00   0.00  -0.00     0.00   0.00   0.00
    51   1    -0.00   0.00  -0.00    -0.00   0.00  -0.00    -0.01   0.00  -0.01
    52   1    -0.00  -0.00  -0.00    -0.00  -0.00  -0.00    -0.00  -0.00  -0.00
    53   1    -0.00   0.00  -0.00     0.00  -0.00   0.00     0.00  -0.00   0.00
    54   1    -0.00   0.00   0.00    -0.00   0.00  -0.00    -0.00  -0.00  -0.00
    55   1    -0.00  -0.00  -0.00     0.00   0.00   0.00     0.00   0.00   0.00
    56   8     0.00   0.00  -0.00     0.00  -0.00   0.00     0.00   0.00   0.00
    57   6    -0.00   0.02  -0.00    -0.00   0.05  -0.00     0.03   0.02  -0.03
    58   6     0.00  -0.00   0.00    -0.00   0.00  -0.00    -0.00   0.00  -0.00
    59   6     0.01  -0.06   0.05     0.04   0.01  -0.03    -0.04  -0.00   0.03
    60   6    -0.00   0.00  -0.00    -0.04  -0.01   0.02    -0.04  -0.00   0.00
    61   1     0.01  -0.08  -0.06     0.03  -0.29  -0.21     0.02  -0.08  -0.08
    62   1     0.01  -0.15   0.11     0.03  -0.32   0.26     0.03  -0.19   0.14
    63   1     0.03   0.01  -0.02    -0.01   0.02   0.01    -0.43  -0.02   0.31
    64   1    -0.12   0.78  -0.55     0.03  -0.07   0.04    -0.01  -0.06   0.05
    65   1     0.02  -0.02   0.01    -0.47  -0.05   0.37     0.51   0.06  -0.40
    66   1    -0.07  -0.03  -0.02    -0.02   0.00  -0.04     0.00   0.00   0.03
    67   1     0.02  -0.06  -0.05    -0.01  -0.04  -0.02    -0.00  -0.07  -0.05
    68   1    -0.04  -0.01   0.02     0.47   0.11  -0.29     0.29   0.07  -0.18
    69   1     0.06   0.01   0.05     0.06   0.01   0.07     0.20   0.04   0.18
                    184                    185                    186
                      A                      A                      A
 Frequencies --   3049.7471              3051.7348              3052.8143
 Red. masses --      1.0795                 1.0577                 1.0528
 Frc consts  --      5.9157                 5.8035                 5.7810
 IR Inten    --      0.0000                 0.0000                 0.0000
  Atom  AN      X      Y      Z        X      Y      Z        X      Y      Z
     1  26    -0.00   0.00  -0.00     0.00   0.00   0.00     0.00  -0.00  -0.00
     2   6    -0.00  -0.00  -0.00    -0.00  -0.00  -0.00    -0.00  -0.00  -0.00
     3  46    -0.00   0.00  -0.00     0.00  -0.00  -0.00     0.00   0.00  -0.00
     4   6    -0.00  -0.00  -0.00    -0.00   0.00   0.00    -0.00   0.00   0.00
     5   1    -0.00   0.00   0.00     0.00  -0.00  -0.00     0.00   0.00  -0.00
     6   1    -0.00  -0.00  -0.00    -0.00   0.00  -0.00    -0.00   0.00  -0.00
     7   1    -0.00  -0.00   0.00    -0.00  -0.00   0.00    -0.00  -0.00   0.00
     8   6     0.00  -0.00  -0.00    -0.00  -0.00  -0.00    -0.00   0.00  -0.00
     9   8    -0.00   0.00   0.00     0.00   0.00   0.00     0.00   0.00   0.00
    10   6     0.00  -0.00   0.00    -0.00   0.00   0.00    -0.00  -0.00   0.00
    11   8    -0.00  -0.00   0.00     0.00   0.00  -0.00     0.00  -0.00   0.00
    12   6     0.00   0.00   0.00    -0.00  -0.00   0.00     0.00   0.00  -0.00
    13   6     0.00   0.00  -0.00     0.00  -0.00   0.00    -0.00   0.00  -0.00
    14   6    -0.00   0.00   0.00     0.00  -0.00   0.00    -0.00   0.00   0.00
    15   1    -0.00  -0.00   0.00     0.00   0.00  -0.00    -0.00  -0.00   0.00
    16   1    -0.00  -0.00   0.00    -0.00  -0.00   0.00     0.00  -0.00  -0.00
    17   1     0.00  -0.00   0.00    -0.00   0.00   0.00     0.00  -0.00   0.00
    18   1    -0.00  -0.00   0.00     0.00  -0.00  -0.00     0.00  -0.00   0.00
    19   6    -0.00   0.00   0.00     0.00   0.00   0.00    -0.00  -0.00   0.00
    20   6     0.00  -0.00   0.00    -0.00   0.00  -0.00    -0.00   0.00  -0.00
    21   8     0.00   0.00   0.00     0.00   0.00  -0.00     0.00  -0.00   0.00
    22   6    -0.00   0.00  -0.00     0.00  -0.00  -0.00     0.00   0.00  -0.00
    23   6     0.00  -0.00   0.00     0.00   0.00  -0.00     0.00  -0.00  -0.00
    24   6    -0.00   0.00  -0.00    -0.00  -0.00   0.00     0.00  -0.00   0.00
    25   6    -0.00   0.00   0.00     0.00   0.00   0.00     0.00   0.00   0.00
    26   6     0.00  -0.00   0.00     0.00   0.00  -0.00     0.00  -0.00   0.00
    27   1     0.00  -0.00   0.00    -0.00   0.00  -0.00     0.00  -0.00   0.00
    28   7    -0.00   0.00   0.00     0.00   0.00   0.00     0.00   0.00   0.00
    29   1    -0.00   0.00  -0.00     0.00  -0.00   0.00     0.00  -0.00   0.00
    30   1    -0.00   0.00   0.00     0.00  -0.00  -0.00     0.00  -0.00  -0.00
    31   1     0.00   0.00   0.00    -0.00   0.00   0.00    -0.00   0.00   0.00
    32   1     0.00   0.00   0.00    -0.00  -0.00  -0.00     0.00   0.00  -0.00
    33   7     0.00   0.00  -0.00    -0.00   0.00   0.00    -0.00   0.00   0.00
    34   6     0.00   0.00  -0.00     0.00   0.00  -0.00     0.00   0.00  -0.00
    35   6     0.00  -0.00  -0.00     0.00  -0.00  -0.00     0.00   0.00   0.00
    36   1     0.00   0.00   0.00    -0.00  -0.00  -0.00    -0.00  -0.00  -0.00
    37   1    -0.00  -0.00   0.00    -0.00  -0.00   0.00     0.00   0.00  -0.00
    38   1     0.00   0.00  -0.00    -0.00   0.00  -0.00     0.00  -0.00   0.00
    39   1     0.00   0.00   0.00    -0.00  -0.00  -0.00    -0.00  -0.00  -0.00
    40   1    -0.00   0.00  -0.00    -0.00   0.00  -0.00    -0.00   0.00  -0.00
    41   1    -0.00   0.00   0.00    -0.00   0.00   0.00     0.00  -0.00  -0.00
    42   6    -0.00   0.00  -0.00    -0.00   0.00   0.00    -0.00   0.00   0.00
    43   6    -0.00  -0.00   0.00    -0.00   0.00  -0.00    -0.00   0.00  -0.00
    44   6     0.00  -0.00   0.00    -0.00   0.00  -0.00     0.00  -0.00   0.00
    45   6     0.00   0.00  -0.00    -0.00  -0.00   0.00    -0.00  -0.00  -0.00
    46   6    -0.00   0.00  -0.00     0.00   0.00  -0.00    -0.00  -0.00   0.00
    47   6     0.00  -0.00   0.00     0.00   0.00   0.00    -0.00   0.00  -0.00
    48   6     0.00   0.00  -0.00     0.00  -0.00   0.00     0.00   0.00   0.00
    49   1    -0.00   0.00   0.00     0.00  -0.00  -0.00     0.00  -0.00  -0.00
    50   1     0.00  -0.00   0.00     0.00   0.00   0.00     0.00   0.00   0.00
    51   1    -0.01   0.00  -0.00     0.02  -0.00   0.01    -0.01   0.00  -0.01
    52   1    -0.00  -0.00   0.00     0.00   0.00   0.00     0.00   0.00   0.00
    53   1     0.00  -0.00   0.00     0.00  -0.00   0.00    -0.00   0.00  -0.00
    54   1    -0.00   0.00  -0.00    -0.00  -0.00  -0.00     0.00  -0.00   0.00
    55   1    -0.00  -0.00  -0.00    -0.00  -0.00  -0.00    -0.00  -0.00  -0.00
    56   8     0.00   0.00   0.00    -0.00   0.00   0.00    -0.00  -0.00   0.00
    57   6     0.02  -0.06   0.01     0.01  -0.02  -0.05    -0.01  -0.02  -0.03
    58   6    -0.00  -0.00   0.00     0.00  -0.00  -0.00    -0.00   0.00  -0.00
    59   6     0.01  -0.01  -0.00    -0.01  -0.01  -0.00     0.03   0.01   0.01
    60   6    -0.04  -0.01   0.01     0.02  -0.00   0.03    -0.03  -0.00  -0.03
    61   1    -0.02   0.26   0.20    -0.04   0.52   0.34    -0.05   0.46   0.31
    62   1    -0.05   0.53  -0.42     0.04  -0.32   0.21     0.02  -0.26   0.18
    63   1    -0.16  -0.04   0.13    -0.11  -0.02   0.06     0.17   0.01  -0.14
    64   1    -0.02   0.16  -0.11    -0.01   0.06  -0.05     0.03  -0.08   0.06
    65   1    -0.15  -0.02   0.12    -0.02  -0.00   0.01    -0.02  -0.00   0.03
    66   1     0.03  -0.00   0.01     0.15   0.01   0.10    -0.38  -0.04  -0.25
    67   1    -0.03   0.04   0.04    -0.01   0.06   0.06    -0.01  -0.01  -0.02
    68   1     0.42   0.10  -0.27     0.21   0.05  -0.11    -0.07  -0.02   0.02
    69   1     0.15   0.02   0.14    -0.45  -0.08  -0.37     0.42   0.07   0.36
                    187                    188                    189
                      A                      A                      A
 Frequencies --   3056.9950              3057.9678              3058.9654
 Red. masses --      1.0704                 1.0668                 1.0686
 Frc consts  --      5.8934                 5.8777                 5.8915
 IR Inten    --      0.0000                 0.0000                 0.0000
  Atom  AN      X      Y      Z        X      Y      Z        X      Y      Z
     1  26    -0.00   0.00  -0.00    -0.00   0.00  -0.00     0.00   0.00   0.00
     2   6     0.00   0.00  -0.00    -0.00  -0.00  -0.00    -0.00   0.00   0.00
     3  46     0.00  -0.00   0.00     0.00   0.00  -0.00    -0.00   0.00  -0.00
     4   6    -0.00   0.00   0.00    -0.00   0.00   0.00    -0.05   0.04   0.04
     5   1     0.00  -0.00   0.00    -0.00   0.00   0.00     0.00  -0.00  -0.00
     6   1    -0.00   0.00  -0.00    -0.00   0.00   0.00    -0.00   0.01  -0.00
     7   1    -0.00  -0.00   0.00    -0.00   0.00   0.00     0.00  -0.00   0.00
     8   6     0.00  -0.00   0.00     0.00  -0.00  -0.00     0.00   0.00   0.00
     9   8    -0.00   0.00   0.00     0.00   0.00   0.00     0.00  -0.00  -0.00
    10   6    -0.00   0.00   0.00    -0.00  -0.00   0.00    -0.00   0.00   0.00
    11   8    -0.00   0.00  -0.00    -0.00   0.00   0.00     0.00  -0.00  -0.00
    12   6    -0.00  -0.00  -0.00     0.00   0.00   0.00     0.00   0.00   0.00
    13   6     0.00   0.00  -0.00     0.00   0.00  -0.00    -0.00   0.00  -0.00
    14   6     0.00  -0.00   0.00    -0.00   0.00  -0.00     0.00  -0.00   0.00
    15   1     0.00   0.00   0.00    -0.00  -0.00   0.00    -0.00  -0.00  -0.00
    16   1    -0.00  -0.00   0.00    -0.00  -0.00   0.00    -0.00  -0.00   0.00
    17   1    -0.00   0.00   0.00     0.00  -0.00   0.00    -0.01   0.00  -0.00
    18   1     0.00  -0.00   0.00    -0.00   0.00   0.00    -0.00   0.00   0.00
    19   6     0.00   0.00   0.00    -0.00   0.00   0.00     0.00  -0.00   0.00
    20   6     0.00  -0.00   0.00     0.00  -0.00   0.00     0.00   0.00   0.00
    21   8    -0.00  -0.00  -0.00     0.00   0.00   0.00     0.00  -0.00   0.00
    22   6    -0.00   0.00  -0.00    -0.00   0.00  -0.00    -0.00  -0.00  -0.00
    23   6    -0.00  -0.00   0.00     0.00  -0.00   0.00    -0.00  -0.00   0.00
    24   6    -0.00   0.00  -0.00    -0.00   0.00  -0.00    -0.00  -0.00  -0.00
    25   6     0.00   0.00   0.00    -0.00   0.00   0.00     0.00   0.00   0.00
    26   6     0.00   0.00   0.00     0.00  -0.00   0.00     0.00   0.00   0.00
    27   1     0.00  -0.00  -0.00     0.00  -0.00   0.00     0.00  -0.00   0.00
    28   7    -0.00   0.00   0.00    -0.00   0.00  -0.00    -0.00   0.00  -0.00
    29   1    -0.00   0.00  -0.00    -0.00   0.00  -0.00     0.00  -0.00   0.00
    30   1     0.02  -0.02  -0.02     0.01  -0.01  -0.01     0.62  -0.57  -0.52
    31   1    -0.00   0.00   0.00    -0.00   0.00   0.00    -0.00   0.03   0.05
    32   1     0.00   0.00  -0.00     0.00   0.00   0.00     0.00   0.00  -0.00
    33   7    -0.00   0.00   0.00    -0.00   0.00   0.00    -0.00   0.00   0.00
    34   6     0.00   0.00   0.00     0.00   0.00  -0.00    -0.00  -0.00   0.00
    35   6    -0.00   0.00   0.00    -0.00   0.00  -0.00    -0.01   0.01   0.00
    36   1    -0.00  -0.00  -0.00    -0.00  -0.00  -0.00    -0.01  -0.01  -0.00
    37   1     0.00   0.00   0.00    -0.00  -0.00   0.00     0.01   0.00  -0.01
    38   1    -0.00   0.00  -0.00     0.00  -0.00   0.00     0.00  -0.00   0.00
    39   1    -0.00  -0.00  -0.00    -0.00  -0.00  -0.00     0.00   0.01   0.00
    40   1     0.00  -0.00   0.00     0.00  -0.00   0.00     0.01  -0.01   0.02
    41   1     0.00  -0.00  -0.00     0.00  -0.00  -0.00     0.05  -0.08  -0.05
    42   6     0.00   0.00   0.00     0.00  -0.00   0.00    -0.00   0.00   0.00
    43   6    -0.00   0.00  -0.00     0.00  -0.00   0.00    -0.00   0.00  -0.00
    44   6    -0.00   0.00  -0.00     0.00  -0.00   0.00    -0.00   0.00  -0.00
    45   6     0.00   0.00  -0.00    -0.00  -0.00   0.00     0.00   0.00   0.00
    46   6     0.00   0.00  -0.00    -0.00  -0.00   0.00     0.00  -0.00   0.00
    47   6    -0.00  -0.00   0.00    -0.00   0.00  -0.00    -0.00   0.00  -0.00
    48   6    -0.00  -0.00  -0.00     0.00   0.00  -0.00     0.00   0.00   0.00
    49   1     0.00  -0.00  -0.00     0.00   0.00   0.00     0.00  -0.00  -0.00
    50   1    -0.00   0.00  -0.00    -0.00   0.00  -0.00     0.00  -0.00   0.00
    51   1     0.03  -0.01   0.02    -0.02   0.00  -0.02     0.01  -0.00   0.01
    52   1    -0.03  -0.02   0.00     0.00   0.00  -0.00    -0.00  -0.00   0.00
    53   1     0.00  -0.00   0.00     0.00   0.00  -0.00    -0.00   0.01  -0.00
    54   1    -0.00   0.00  -0.00     0.00  -0.00   0.00     0.00  -0.00   0.00
    55   1     0.00   0.00   0.00    -0.00  -0.00  -0.00    -0.01  -0.01  -0.00
    56   8    -0.00   0.00  -0.00    -0.00   0.00  -0.00     0.00  -0.00   0.00
    57   6    -0.04  -0.00   0.04    -0.02  -0.00   0.00     0.00   0.00  -0.00
    58   6    -0.00  -0.00   0.00    -0.00  -0.00  -0.00     0.00   0.00  -0.00
    59   6    -0.02  -0.00   0.02    -0.05  -0.01  -0.03     0.00   0.00  -0.00
    60   6    -0.02  -0.00   0.03    -0.02  -0.00  -0.02     0.00   0.00  -0.00
    61   1    -0.01  -0.07  -0.03    -0.02   0.10   0.07     0.00  -0.00  -0.00
    62   1    -0.03   0.07  -0.03     0.00  -0.11   0.08     0.00   0.00  -0.00
    63   1     0.58   0.05  -0.42     0.22   0.02  -0.17    -0.02  -0.00   0.02
    64   1    -0.01  -0.00   0.01    -0.03   0.01  -0.02     0.00   0.00  -0.00
    65   1     0.33   0.04  -0.26    -0.02  -0.00  -0.02    -0.01  -0.00   0.01
    66   1    -0.12  -0.01  -0.06     0.71   0.08   0.45    -0.00  -0.00  -0.00
    67   1    -0.01  -0.01   0.00    -0.01   0.01   0.00     0.00  -0.00  -0.00
    68   1     0.41   0.10  -0.24    -0.02  -0.01  -0.00    -0.02  -0.00   0.01
    69   1    -0.14  -0.02  -0.10     0.31   0.05   0.26     0.00   0.00   0.00
                    190                    191                    192
                      A                      A                      A
 Frequencies --   3061.7458              3073.0552              3085.0318
 Red. masses --      1.0761                 1.0807                 1.0882
 Frc consts  --      5.9437                 6.0128                 6.1021
 IR Inten    --      0.0000                 0.0000                 0.0000
  Atom  AN      X      Y      Z        X      Y      Z        X      Y      Z
     1  26    -0.00  -0.00  -0.00     0.00   0.00  -0.00    -0.00   0.00  -0.00
     2   6    -0.00  -0.00  -0.00     0.00   0.00   0.00     0.00   0.00  -0.00
     3  46    -0.00  -0.00  -0.00     0.00   0.00   0.00     0.00   0.00   0.00
     4   6     0.00  -0.00  -0.00     0.00  -0.00  -0.00     0.00  -0.00  -0.00
     5   1     0.00   0.00  -0.00    -0.00  -0.00   0.00    -0.00  -0.00   0.00
     6   1     0.00  -0.00  -0.00    -0.00  -0.00  -0.00     0.00  -0.00  -0.00
     7   1    -0.00  -0.00  -0.00    -0.00  -0.00   0.00    -0.00  -0.00   0.00
     8   6    -0.00   0.00  -0.00     0.00  -0.00  -0.00    -0.00   0.00   0.00
     9   8     0.00   0.00   0.00    -0.00  -0.00  -0.00    -0.00  -0.00   0.00
    10   6     0.00   0.00  -0.00     0.00  -0.00  -0.00     0.00   0.00   0.00
    11   8     0.00  -0.00   0.00    -0.00   0.00  -0.00     0.00  -0.00  -0.00
    12   6    -0.00  -0.00  -0.00     0.00  -0.00   0.00    -0.00  -0.00  -0.00
    13   6    -0.00  -0.00   0.00    -0.00   0.00  -0.00    -0.00  -0.00  -0.00
    14   6    -0.00  -0.00   0.00    -0.00   0.00   0.00    -0.00   0.00   0.00
    15   1     0.00   0.00   0.00    -0.00  -0.00  -0.00     0.00   0.00   0.00
    16   1     0.00   0.00  -0.00    -0.00  -0.00  -0.00    -0.00   0.00  -0.00
    17   1     0.00  -0.00   0.00    -0.00   0.00   0.00     0.00  -0.00   0.00
    18   1    -0.00   0.00   0.00     0.00  -0.00  -0.00     0.00   0.00   0.00
    19   6     0.00  -0.00  -0.00    -0.00   0.00   0.00    -0.00  -0.00  -0.00
    20   6    -0.00   0.00  -0.00     0.00  -0.00   0.00    -0.00   0.00   0.00
    21   8     0.00   0.00   0.00    -0.00  -0.00  -0.00    -0.00  -0.00   0.00
    22   6    -0.00   0.00  -0.00    -0.00   0.00  -0.00    -0.00   0.00  -0.00
    23   6    -0.00  -0.00   0.00    -0.00  -0.00  -0.00    -0.00  -0.00   0.00
    24   6     0.00  -0.00   0.00    -0.00   0.00  -0.00    -0.00   0.00  -0.00
    25   6    -0.00  -0.00  -0.00     0.00   0.00   0.00     0.00  -0.00  -0.00
    26   6     0.00   0.00  -0.00     0.00   0.00  -0.00     0.00   0.00  -0.00
    27   1     0.00  -0.00   0.00     0.00  -0.00   0.00     0.00  -0.00   0.00
    28   7     0.00  -0.00  -0.00    -0.00   0.00   0.00     0.00  -0.00  -0.00
    29   1     0.00  -0.00   0.00    -0.00   0.00  -0.00     0.00  -0.00   0.00
    30   1    -0.01   0.01   0.01    -0.00   0.00   0.00    -0.00   0.00   0.00
    31   1    -0.00  -0.00  -0.00     0.00   0.00   0.00    -0.00  -0.00  -0.00
    32   1     0.00   0.00   0.00     0.00   0.00   0.00     0.00   0.00   0.00
    33   7     0.00  -0.00  -0.00    -0.00   0.00  -0.00    -0.00  -0.00  -0.00
    34   6     0.00  -0.00   0.00    -0.00  -0.00  -0.00     0.00   0.00   0.00
    35   6     0.00  -0.00  -0.00    -0.00  -0.00   0.00     0.00  -0.00   0.00
    36   1    -0.00  -0.00  -0.00     0.00   0.00   0.00    -0.00  -0.00  -0.00
    37   1    -0.00  -0.00   0.00     0.00  -0.00  -0.00    -0.00   0.00   0.00
    38   1    -0.00   0.00  -0.00     0.00  -0.00   0.00    -0.00   0.00  -0.00
    39   1    -0.00  -0.00  -0.00     0.00   0.00   0.00    -0.00  -0.00  -0.00
    40   1    -0.00   0.00  -0.00    -0.00   0.00  -0.00    -0.00   0.00  -0.00
    41   1    -0.00   0.00   0.00    -0.00   0.00   0.00    -0.00   0.00   0.00
    42   6    -0.00   0.00  -0.00     0.00  -0.00   0.00    -0.00   0.00  -0.00
    43   6    -0.00   0.00  -0.00    -0.00  -0.00   0.00     0.00   0.00  -0.00
    44   6    -0.05   0.01  -0.04     0.03  -0.01   0.02    -0.02   0.00  -0.01
    45   6     0.03   0.03  -0.00     0.04   0.03  -0.00    -0.04  -0.03   0.00
    46   6     0.00  -0.01   0.01     0.00  -0.04   0.03     0.00  -0.05   0.03
    47   6     0.00  -0.00   0.00    -0.00  -0.00   0.00     0.00   0.00   0.00
    48   6    -0.00  -0.00   0.00    -0.00   0.00  -0.00    -0.00  -0.00  -0.00
    49   1    -0.00   0.00   0.01     0.00  -0.00  -0.00    -0.00   0.00  -0.00
    50   1     0.03  -0.01   0.01    -0.02   0.00  -0.00     0.01  -0.00   0.00
    51   1     0.67  -0.13   0.49    -0.37   0.07  -0.27     0.20  -0.04   0.15
    52   1    -0.39  -0.33   0.01    -0.46  -0.38   0.01     0.47   0.39  -0.01
    53   1    -0.01   0.12  -0.08    -0.04   0.54  -0.36    -0.05   0.62  -0.41
    54   1     0.00   0.00   0.00     0.02  -0.00   0.01     0.02  -0.00   0.01
    55   1     0.02   0.01   0.00    -0.01  -0.01   0.00     0.03   0.02   0.00
    56   8     0.00   0.00   0.00    -0.00  -0.00  -0.00     0.00  -0.00  -0.00
    57   6     0.00   0.00  -0.00     0.00   0.00  -0.00    -0.00  -0.00   0.00
    58   6    -0.00  -0.00  -0.00     0.00   0.00   0.00    -0.00   0.00   0.00
    59   6    -0.00   0.00  -0.00     0.00   0.00   0.00    -0.00  -0.00   0.00
    60   6    -0.00   0.00  -0.00     0.00  -0.00   0.00    -0.00   0.00   0.00
    61   1     0.00   0.00   0.00    -0.00   0.00   0.00     0.00  -0.00  -0.00
    62   1     0.00  -0.00   0.00     0.00  -0.00   0.00    -0.00   0.00  -0.00
    63   1    -0.02  -0.00   0.02    -0.00  -0.00   0.00     0.01   0.00  -0.00
    64   1     0.00  -0.00   0.00     0.00   0.00  -0.00    -0.00   0.00   0.00
    65   1    -0.01  -0.00   0.01    -0.00  -0.00   0.00     0.01   0.00  -0.00
    66   1     0.02   0.00   0.01    -0.00  -0.00  -0.00     0.00   0.00   0.00
    67   1     0.00  -0.00  -0.01    -0.00   0.01   0.01    -0.00  -0.00  -0.00
    68   1    -0.02  -0.00   0.01    -0.00  -0.00   0.00     0.01   0.00  -0.01
    69   1     0.03   0.01   0.03    -0.02  -0.00  -0.01     0.00   0.00   0.01
                    193                    194                    195
                      A                      A                      A
 Frequencies --   3214.3907              3224.9831              3227.8547
 Red. masses --      1.0767                 1.0872                 1.0830
 Frc consts  --      6.5542                 6.6624                 6.6480
 IR Inten    --      0.0000                 0.0000                 0.0000
  Atom  AN      X      Y      Z        X      Y      Z        X      Y      Z
     1  26     0.00   0.00  -0.00     0.00  -0.00   0.00     0.00  -0.00  -0.00
     2   6     0.00   0.00   0.00     0.00   0.00   0.00    -0.00  -0.00   0.00
     3  46    -0.00   0.00  -0.00    -0.00  -0.00  -0.00    -0.00  -0.00   0.00
     4   6     0.00   0.00  -0.00     0.00  -0.00  -0.00    -0.00   0.00   0.00
     5   1    -0.00  -0.02   0.01    -0.00   0.02  -0.02    -0.00   0.02  -0.02
     6   1    -0.02  -0.00  -0.01    -0.04  -0.01  -0.02     0.02   0.00   0.01
     7   1    -0.00  -0.01   0.00     0.05   0.12  -0.04     0.00   0.00  -0.00
     8   6    -0.00   0.00   0.00     0.00  -0.00  -0.00     0.00  -0.00   0.00
     9   8    -0.00  -0.00  -0.00    -0.00  -0.00  -0.00     0.00   0.00  -0.00
    10   6     0.00   0.00   0.00     0.00  -0.00  -0.00     0.00   0.00  -0.00
    11   8    -0.00   0.00  -0.00    -0.00  -0.00  -0.00     0.00   0.00  -0.00
    12   6    -0.02  -0.00   0.00     0.00   0.00  -0.00    -0.07  -0.01   0.00
    13   6     0.00   0.01  -0.00    -0.00  -0.00   0.00     0.01   0.04  -0.01
    14   6     0.00  -0.00   0.00    -0.00   0.00   0.00     0.01  -0.00   0.00
    15   1     0.19   0.04   0.00    -0.04  -0.01   0.00     0.83   0.14  -0.00
    16   1    -0.04  -0.17   0.02     0.01   0.04  -0.01    -0.07  -0.43   0.11
    17   1    -0.02   0.01  -0.00     0.01  -0.00   0.00    -0.09   0.05  -0.01
    18   1     0.00  -0.00   0.00     0.00   0.00   0.00    -0.00  -0.00   0.00
    19   6    -0.00   0.00  -0.00    -0.00  -0.00   0.00    -0.00   0.00  -0.00
    20   6    -0.00   0.00   0.00    -0.00   0.00   0.00     0.00  -0.00   0.00
    21   8    -0.00  -0.00  -0.00    -0.00  -0.00  -0.00     0.00   0.00  -0.00
    22   6    -0.00   0.00  -0.00    -0.05   0.03  -0.06    -0.00   0.00  -0.00
    23   6    -0.00  -0.00   0.00     0.01   0.01   0.00     0.00   0.00  -0.00
    24   6    -0.00   0.00  -0.00     0.00  -0.00   0.00     0.00  -0.00   0.00
    25   6     0.00   0.00   0.00     0.00   0.00   0.00    -0.00  -0.00  -0.00
    26   6     0.00   0.00  -0.00    -0.00  -0.01   0.00     0.00  -0.00   0.00
    27   1     0.04  -0.02   0.04     0.58  -0.37   0.69     0.03  -0.02   0.03
    28   7     0.00  -0.00  -0.00     0.00   0.00  -0.00    -0.00   0.00  -0.00
    29   1     0.00  -0.00   0.00    -0.00   0.00  -0.00    -0.00   0.00  -0.00
    30   1    -0.00   0.00   0.00    -0.00   0.00   0.00     0.00  -0.00  -0.00
    31   1     0.00   0.00   0.00     0.00   0.00   0.00     0.00   0.00   0.00
    32   1     0.02   0.01   0.00    -0.10  -0.10  -0.03    -0.01  -0.01  -0.00
    33   7     0.00   0.00  -0.00     0.00  -0.00  -0.00     0.00  -0.00   0.00
    34   6    -0.00   0.00  -0.00     0.00  -0.00  -0.00     0.00  -0.00  -0.00
    35   6    -0.00   0.00   0.00    -0.00  -0.00  -0.00    -0.00   0.00   0.00
    36   1     0.00   0.00   0.00     0.00   0.00   0.00     0.00   0.00   0.00
    37   1    -0.00   0.00   0.00    -0.00  -0.00   0.00    -0.00  -0.00   0.00
    38   1     0.00  -0.00   0.00    -0.00   0.00  -0.00    -0.00   0.00  -0.00
    39   1     0.00   0.00   0.00     0.00   0.00   0.00     0.00   0.00   0.00
    40   1    -0.00   0.00  -0.00     0.00  -0.00   0.00    -0.00   0.00  -0.00
    41   1     0.00  -0.00  -0.00    -0.00  -0.00  -0.00     0.00  -0.00  -0.00
    42   6    -0.00  -0.00  -0.00    -0.00   0.00   0.00     0.00   0.00  -0.00
    43   6     0.00   0.00   0.00    -0.00  -0.00   0.00     0.00  -0.00   0.00
    44   6    -0.00   0.00  -0.00     0.00   0.00   0.00    -0.00  -0.00   0.00
    45   6     0.00  -0.00   0.00     0.00   0.00   0.00    -0.00   0.00  -0.00
    46   6     0.00   0.00  -0.00    -0.00  -0.00   0.00    -0.00  -0.00   0.00
    47   6    -0.07   0.01  -0.04     0.00  -0.00   0.00     0.02  -0.00   0.01
    48   6    -0.00  -0.00  -0.00     0.00   0.00   0.00     0.00   0.00  -0.00
    49   1    -0.00   0.00   0.00    -0.00  -0.00  -0.00    -0.00  -0.00  -0.00
    50   1     0.00  -0.00  -0.00     0.00  -0.00  -0.00    -0.00   0.00  -0.00
    51   1     0.00  -0.00   0.00    -0.00   0.00  -0.00    -0.00   0.00  -0.00
    52   1     0.00   0.00  -0.00    -0.00  -0.00   0.00    -0.00  -0.00   0.00
    53   1     0.00  -0.02   0.01    -0.00  -0.00   0.00    -0.00   0.00  -0.00
    54   1     0.82  -0.13   0.48    -0.04   0.01  -0.02    -0.22   0.03  -0.13
    55   1     0.01   0.01  -0.00    -0.00  -0.00  -0.00    -0.01  -0.01   0.00
    56   8    -0.00   0.00  -0.00    -0.00   0.00  -0.00    -0.00  -0.00  -0.00
    57   6     0.00   0.00  -0.00    -0.00  -0.00   0.00     0.00   0.00  -0.00
    58   6     0.00   0.00  -0.00    -0.00  -0.00   0.00     0.00   0.00  -0.00
    59   6     0.00   0.00  -0.00     0.00   0.00   0.00    -0.00   0.00  -0.00
    60   6    -0.00   0.00   0.00     0.00  -0.00   0.00    -0.00   0.00  -0.00
    61   1     0.00  -0.00  -0.00     0.00   0.00   0.00    -0.00  -0.00  -0.00
    62   1     0.00  -0.00   0.00    -0.00   0.00  -0.00     0.00  -0.00   0.00
    63   1    -0.00  -0.00   0.00     0.00   0.00  -0.00    -0.00   0.00   0.00
    64   1     0.00  -0.00  -0.00     0.00   0.00   0.00     0.00  -0.00   0.00
    65   1    -0.00  -0.00   0.00     0.00  -0.00  -0.00    -0.00  -0.00   0.00
    66   1     0.00   0.00   0.00    -0.00  -0.00  -0.00     0.00  -0.00   0.00
    67   1     0.00  -0.00  -0.00     0.00   0.00   0.00    -0.00  -0.00  -0.00
    68   1     0.00   0.00  -0.00    -0.00   0.00   0.00    -0.00  -0.00   0.00
    69   1     0.00   0.00   0.00    -0.00  -0.00  -0.00     0.00   0.00   0.00
                    196                    197                    198
                      A                      A                      A
 Frequencies --   3241.3001              3250.1415              3263.6178
 Red. masses --      1.0899                 1.0835                 1.0873
 Frc consts  --      6.7466                 6.7438                 6.8232
 IR Inten    --      0.0000                 0.0000                 0.0000
  Atom  AN      X      Y      Z        X      Y      Z        X      Y      Z
     1  26     0.00   0.00  -0.00     0.00  -0.00  -0.00    -0.00   0.00   0.00
     2   6    -0.00  -0.00  -0.00    -0.00  -0.00   0.00     0.00  -0.00  -0.00
     3  46    -0.00  -0.00   0.00     0.00  -0.00  -0.00    -0.00   0.00   0.00
     4   6    -0.00   0.00   0.00    -0.00  -0.00   0.00    -0.00   0.00   0.00
     5   1     0.01  -0.06   0.05    -0.03   0.25  -0.23    -0.05   0.44  -0.41
     6   1    -0.14  -0.02  -0.09     0.71   0.11   0.45    -0.16  -0.03  -0.10
     7   1     0.00   0.01  -0.00    -0.08  -0.19   0.07     0.03   0.06  -0.02
     8   6     0.00  -0.00   0.00     0.00  -0.00   0.00     0.00   0.00   0.00
     9   8     0.00   0.00   0.00    -0.00   0.00  -0.00     0.00  -0.00   0.00
    10   6    -0.00  -0.00   0.00    -0.00   0.00  -0.00    -0.00  -0.00   0.00
    11   8     0.00   0.00  -0.00    -0.00   0.00  -0.00    -0.00   0.00  -0.00
    12   6    -0.04  -0.01   0.00    -0.01  -0.00   0.00     0.00  -0.00  -0.00
    13   6    -0.01  -0.07   0.02    -0.00  -0.02   0.00     0.00   0.01  -0.00
    14   6    -0.02   0.01  -0.00     0.01  -0.01   0.00    -0.04   0.02  -0.01
    15   1     0.48   0.08  -0.00     0.07   0.01   0.00    -0.01  -0.00  -0.00
    16   1     0.12   0.78  -0.18     0.03   0.21  -0.05    -0.02  -0.11   0.03
    17   1     0.22  -0.12   0.03    -0.12   0.07  -0.02     0.46  -0.25   0.06
    18   1    -0.00  -0.00   0.00     0.00  -0.00   0.00    -0.00  -0.00  -0.00
    19   6     0.00   0.00  -0.00     0.00   0.00  -0.00     0.00  -0.00  -0.00
    20   6     0.00  -0.00  -0.00     0.00  -0.00   0.00    -0.00   0.00   0.00
    21   8     0.00   0.00   0.00    -0.00   0.00  -0.00     0.00  -0.00  -0.00
    22   6     0.00  -0.00   0.00    -0.00   0.00  -0.00     0.01  -0.00   0.01
    23   6    -0.00  -0.00  -0.00     0.01   0.01   0.00     0.03   0.03   0.01
    24   6    -0.00   0.00  -0.00     0.00  -0.02   0.02     0.00  -0.04   0.03
    25   6     0.01   0.00   0.01    -0.06  -0.01  -0.04     0.02   0.00   0.01
    26   6    -0.00  -0.00   0.00     0.01   0.01  -0.01    -0.00  -0.00   0.00
    27   1    -0.01   0.01  -0.01     0.02  -0.01   0.02    -0.06   0.04  -0.08
    28   7     0.00   0.00  -0.00     0.00   0.00  -0.00     0.00  -0.00  -0.00
    29   1    -0.00   0.00  -0.00    -0.00   0.00  -0.00     0.00  -0.00   0.00
    30   1     0.00  -0.00  -0.00     0.01  -0.00  -0.00     0.00  -0.00  -0.00
    31   1     0.00   0.00   0.00     0.00  -0.00  -0.00     0.00   0.00   0.00
    32   1     0.02   0.02   0.01    -0.10  -0.10  -0.03    -0.38  -0.36  -0.11
    33   7     0.00   0.00  -0.00     0.00   0.00   0.00    -0.00  -0.00  -0.00
    34   6     0.00   0.00  -0.00    -0.00  -0.00  -0.00    -0.00   0.00   0.00
    35   6    -0.00   0.00   0.00     0.00   0.00   0.00    -0.00   0.00  -0.00
    36   1     0.00   0.00  -0.00     0.00   0.00   0.00    -0.00  -0.00  -0.00
    37   1    -0.00  -0.00   0.00    -0.00  -0.00   0.00     0.00   0.00  -0.00
    38   1    -0.00   0.00  -0.00     0.00  -0.00   0.00     0.00  -0.00   0.00
    39   1     0.00   0.00   0.00     0.00  -0.00  -0.00    -0.00   0.00   0.00
    40   1    -0.00   0.00  -0.00    -0.00   0.00  -0.00     0.00  -0.00   0.00
    41   1     0.00  -0.00  -0.00     0.00   0.00   0.00    -0.00  -0.00  -0.00
    42   6     0.00   0.00  -0.00     0.00  -0.00  -0.00    -0.00   0.00   0.00
    43   6     0.00   0.00   0.00     0.00  -0.00   0.00    -0.00  -0.00  -0.00
    44   6    -0.00  -0.00   0.00     0.00  -0.00   0.00     0.00   0.00  -0.00
    45   6     0.00   0.00  -0.00     0.00   0.00   0.00     0.00  -0.00   0.00
    46   6     0.00   0.00  -0.00     0.00   0.00  -0.00     0.00  -0.00  -0.00
    47   6    -0.00   0.00  -0.00    -0.00   0.00  -0.00    -0.00   0.00  -0.00
    48   6     0.00   0.00  -0.00    -0.00  -0.00  -0.00    -0.00  -0.00  -0.00
    49   1    -0.00   0.00  -0.00    -0.00   0.00   0.00     0.00   0.00  -0.00
    50   1    -0.00   0.00  -0.00    -0.00   0.00  -0.00     0.00  -0.00   0.00
    51   1    -0.00   0.00  -0.00    -0.00   0.00  -0.00     0.00   0.00   0.00
    52   1    -0.00  -0.00  -0.00    -0.00  -0.00  -0.00     0.00   0.00  -0.00
    53   1    -0.00  -0.00   0.00     0.00  -0.00   0.00    -0.00   0.00  -0.00
    54   1     0.04  -0.00   0.03     0.04  -0.01   0.02     0.02  -0.00   0.01
    55   1    -0.01  -0.01  -0.00     0.00   0.00  -0.00     0.01   0.01   0.00
    56   8     0.00  -0.00  -0.00    -0.00   0.00   0.00    -0.00  -0.00  -0.00
    57   6     0.00  -0.00  -0.00     0.00  -0.00  -0.00    -0.00   0.00   0.00
    58   6    -0.00   0.00   0.00     0.00  -0.00  -0.00     0.00   0.00  -0.00
    59   6    -0.00  -0.00  -0.00    -0.00  -0.00   0.00     0.00   0.00   0.00
    60   6    -0.00   0.00  -0.00    -0.00   0.00  -0.00     0.00   0.00   0.00
    61   1    -0.00   0.00   0.00     0.00   0.00   0.00    -0.00  -0.00  -0.00
    62   1    -0.00   0.00  -0.00    -0.00   0.00  -0.00     0.00  -0.00   0.00
    63   1    -0.00   0.00   0.00    -0.00  -0.00   0.00     0.00  -0.00  -0.00
    64   1    -0.00   0.00  -0.00    -0.00   0.00  -0.00     0.00  -0.00   0.00
    65   1     0.00   0.00  -0.00     0.00   0.00  -0.00    -0.00  -0.00   0.00
    66   1     0.00  -0.00   0.00     0.00   0.00   0.00    -0.00  -0.00  -0.00
    67   1    -0.00  -0.00  -0.00    -0.00  -0.00  -0.00     0.00   0.00   0.00
    68   1    -0.00  -0.00   0.00    -0.00  -0.00   0.00     0.00  -0.00  -0.00
    69   1     0.00   0.00   0.00     0.00   0.00   0.00    -0.00  -0.00  -0.00
                    199                    200                    201
                      A                      A                      A
 Frequencies --   3269.6292              3275.1425              3277.4999
 Red. masses --      1.0887                 1.0899                 1.0961
 Frc consts  --      6.8576                 6.8880                 6.9374
 IR Inten    --      0.0000                 0.0000                 0.0000
  Atom  AN      X      Y      Z        X      Y      Z        X      Y      Z
     1  26     0.00   0.00   0.00     0.00   0.00  -0.00    -0.00   0.00   0.00
     2   6     0.00   0.00   0.00    -0.00  -0.00  -0.00    -0.00   0.00   0.00
     3  46    -0.00  -0.00  -0.00    -0.00   0.00   0.00     0.00  -0.00  -0.00
     4   6    -0.00   0.00   0.00    -0.00   0.00   0.00     0.00   0.00  -0.00
     5   1     0.02  -0.15   0.14    -0.02   0.18  -0.17    -0.06   0.46  -0.43
     6   1     0.25   0.04   0.16     0.15   0.02   0.09    -0.23  -0.04  -0.14
     7   1    -0.05  -0.13   0.05     0.32   0.78  -0.28    -0.12  -0.30   0.11
     8   6     0.00  -0.00  -0.00    -0.00  -0.00  -0.00    -0.00   0.00   0.00
     9   8    -0.00  -0.00  -0.00     0.00   0.00   0.00     0.00  -0.00  -0.00
    10   6    -0.00  -0.00   0.00    -0.00  -0.00   0.00     0.00   0.00  -0.00
    11   8    -0.00   0.00   0.00     0.00   0.00  -0.00     0.00  -0.00   0.00
    12   6     0.00  -0.00   0.00    -0.00  -0.00   0.00     0.00   0.00   0.00
    13   6     0.00   0.02  -0.00    -0.00  -0.00   0.00    -0.00  -0.00   0.00
    14   6    -0.06   0.03  -0.01     0.00  -0.00  -0.00     0.01  -0.01   0.00
    15   1    -0.02  -0.00  -0.00     0.01   0.00  -0.00    -0.01  -0.00   0.00
    16   1    -0.03  -0.19   0.04     0.00   0.03  -0.01     0.01   0.04  -0.01
    17   1     0.68  -0.37   0.09    -0.00   0.00  -0.00    -0.12   0.06  -0.01
    18   1     0.00  -0.00  -0.00    -0.00  -0.00   0.00    -0.00   0.00   0.00
    19   6     0.00  -0.00  -0.00    -0.00  -0.00  -0.00    -0.00   0.00   0.00
    20   6     0.00  -0.00   0.00    -0.00   0.00  -0.00     0.00  -0.00   0.00
    21   8    -0.00  -0.00  -0.00     0.00  -0.00   0.00     0.00   0.00   0.00
    22   6    -0.01   0.00  -0.01     0.00  -0.00   0.01    -0.01   0.00  -0.01
    23   6    -0.03  -0.03  -0.01    -0.02  -0.02  -0.01    -0.04  -0.04  -0.01
    24   6    -0.00   0.01  -0.01     0.00  -0.02   0.01     0.01  -0.04   0.04
    25   6    -0.02  -0.00  -0.01    -0.01  -0.00  -0.01     0.02   0.00   0.01
    26   6     0.00   0.01  -0.00    -0.03  -0.07   0.03     0.01   0.03  -0.01
    27   1     0.06  -0.04   0.07    -0.04   0.03  -0.05     0.06  -0.04   0.07
    28   7    -0.00   0.00   0.00    -0.00   0.00   0.00    -0.00   0.00  -0.00
    29   1    -0.00   0.00  -0.00     0.00  -0.00   0.00    -0.00   0.00  -0.00
    30   1     0.01  -0.00  -0.00     0.00   0.00   0.00    -0.00   0.00   0.00
    31   1     0.00   0.00   0.00    -0.00  -0.00  -0.00     0.00   0.00   0.00
    32   1     0.30   0.29   0.09     0.24   0.22   0.07     0.43   0.41   0.12
    33   7     0.00   0.00   0.00    -0.00  -0.00  -0.00     0.00   0.00   0.00
    34   6    -0.00  -0.00  -0.00     0.00   0.00  -0.00     0.00  -0.00   0.00
    35   6    -0.00   0.00   0.00    -0.00  -0.00  -0.00     0.00   0.00   0.00
    36   1     0.00   0.00   0.00    -0.00  -0.00  -0.00     0.00   0.00   0.00
    37   1     0.00  -0.00  -0.00    -0.00  -0.00   0.00     0.00   0.00  -0.00
    38   1     0.00  -0.00   0.00     0.00  -0.00  -0.00    -0.00   0.00  -0.00
    39   1     0.00   0.00   0.00    -0.00   0.00   0.00     0.00  -0.00  -0.00
    40   1    -0.00   0.00  -0.00     0.00  -0.00   0.00    -0.00   0.00  -0.00
    41   1     0.00   0.00   0.00    -0.00  -0.01  -0.01     0.00   0.00   0.00
    42   6     0.00  -0.00  -0.00    -0.00  -0.00  -0.00     0.00   0.00  -0.00
    43   6     0.00  -0.00   0.00     0.00  -0.00   0.00     0.00  -0.00   0.00
    44   6    -0.00  -0.00   0.00    -0.00  -0.00   0.00    -0.00  -0.00   0.00
    45   6     0.00   0.00  -0.00     0.00   0.00  -0.00    -0.00   0.00  -0.00
    46   6    -0.00   0.00   0.00    -0.00   0.00   0.00    -0.00   0.00   0.00
    47   6     0.00  -0.00   0.00    -0.00   0.00  -0.00     0.00  -0.00   0.00
    48   6     0.00   0.00   0.00    -0.00   0.00   0.00     0.00   0.00   0.00
    49   1    -0.00  -0.00   0.00    -0.00   0.00   0.00    -0.00  -0.00  -0.00
    50   1    -0.00   0.00  -0.00     0.00   0.00   0.00    -0.00   0.00  -0.00
    51   1    -0.00  -0.00  -0.00    -0.00   0.00  -0.00    -0.00   0.00  -0.00
    52   1    -0.00  -0.00   0.00    -0.00  -0.00  -0.00    -0.00  -0.00  -0.00
    53   1     0.00  -0.00   0.00     0.00   0.00  -0.00    -0.00  -0.00   0.00
    54   1    -0.02   0.00  -0.02     0.01  -0.00   0.01    -0.01   0.00  -0.01
    55   1    -0.00  -0.00  -0.00    -0.00  -0.00   0.00    -0.02  -0.01  -0.00
    56   8    -0.00   0.00  -0.00     0.00   0.00   0.00     0.00  -0.00  -0.00
    57   6     0.00  -0.00  -0.00    -0.00  -0.00  -0.00     0.00  -0.00   0.00
    58   6     0.00  -0.00  -0.00    -0.00  -0.00   0.00    -0.00  -0.00   0.00
    59   6     0.00   0.00   0.00    -0.00   0.00   0.00     0.00  -0.00   0.00
    60   6     0.00  -0.00   0.00    -0.00  -0.00  -0.00     0.00   0.00   0.00
    61   1     0.00   0.00   0.00     0.00   0.00   0.00     0.00  -0.00   0.00
    62   1     0.00  -0.00   0.00    -0.00   0.00  -0.00    -0.00   0.00  -0.00
    63   1    -0.00  -0.00   0.00     0.00   0.00  -0.00     0.00   0.00  -0.00
    64   1     0.00   0.00  -0.00    -0.00  -0.00   0.00    -0.00   0.00  -0.00
    65   1    -0.00  -0.00   0.00     0.00   0.00  -0.00     0.00   0.00  -0.00
    66   1    -0.00  -0.00  -0.00    -0.00  -0.00  -0.00    -0.00   0.00   0.00
    67   1     0.00   0.00   0.00    -0.00   0.00   0.00     0.00  -0.00  -0.00
    68   1    -0.00  -0.00   0.00     0.00   0.00  -0.00    -0.00  -0.00   0.00
    69   1    -0.00  -0.00  -0.00    -0.00  -0.00  -0.00    -0.00  -0.00  -0.00

 -------------------
 - Thermochemistry -
 -------------------
 Temperature   298.150 Kelvin.  Pressure   1.00000 Atm.
 Atom     1 has atomic number 26 and mass  55.93494
 Atom     2 has atomic number  6 and mass  12.00000
 Atom     3 has atomic number 46 and mass 105.90320
 Atom     4 has atomic number  6 and mass  12.00000
 Atom     5 has atomic number  1 and mass   1.00783
 Atom     6 has atomic number  1 and mass   1.00783
 Atom     7 has atomic number  1 and mass   1.00783
 Atom     8 has atomic number  6 and mass  12.00000
 Atom     9 has atomic number  8 and mass  15.99491
 Atom    10 has atomic number  6 and mass  12.00000
 Atom    11 has atomic number  8 and mass  15.99491
 Atom    12 has atomic number  6 and mass  12.00000
 Atom    13 has atomic number  6 and mass  12.00000
 Atom    14 has atomic number  6 and mass  12.00000
 Atom    15 has atomic number  1 and mass   1.00783
 Atom    16 has atomic number  1 and mass   1.00783
 Atom    17 has atomic number  1 and mass   1.00783
 Atom    18 has atomic number  1 and mass   1.00783
 Atom    19 has atomic number  6 and mass  12.00000
 Atom    20 has atomic number  6 and mass  12.00000
 Atom    21 has atomic number  8 and mass  15.99491
 Atom    22 has atomic number  6 and mass  12.00000
 Atom    23 has atomic number  6 and mass  12.00000
 Atom    24 has atomic number  6 and mass  12.00000
 Atom    25 has atomic number  6 and mass  12.00000
 Atom    26 has atomic number  6 and mass  12.00000
 Atom    27 has atomic number  1 and mass   1.00783
 Atom    28 has atomic number  7 and mass  14.00307
 Atom    29 has atomic number  1 and mass   1.00783
 Atom    30 has atomic number  1 and mass   1.00783
 Atom    31 has atomic number  1 and mass   1.00783
 Atom    32 has atomic number  1 and mass   1.00783
 Atom    33 has atomic number  7 and mass  14.00307
 Atom    34 has atomic number  6 and mass  12.00000
 Atom    35 has atomic number  6 and mass  12.00000
 Atom    36 has atomic number  1 and mass   1.00783
 Atom    37 has atomic number  1 and mass   1.00783
 Atom    38 has atomic number  1 and mass   1.00783
 Atom    39 has atomic number  1 and mass   1.00783
 Atom    40 has atomic number  1 and mass   1.00783
 Atom    41 has atomic number  1 and mass   1.00783
 Atom    42 has atomic number  6 and mass  12.00000
 Atom    43 has atomic number  6 and mass  12.00000
 Atom    44 has atomic number  6 and mass  12.00000
 Atom    45 has atomic number  6 and mass  12.00000
 Atom    46 has atomic number  6 and mass  12.00000
 Atom    47 has atomic number  6 and mass  12.00000
 Atom    48 has atomic number  6 and mass  12.00000
 Atom    49 has atomic number  1 and mass   1.00783
 Atom    50 has atomic number  1 and mass   1.00783
 Atom    51 has atomic number  1 and mass   1.00783
 Atom    52 has atomic number  1 and mass   1.00783
 Atom    53 has atomic number  1 and mass   1.00783
 Atom    54 has atomic number  1 and mass   1.00783
 Atom    55 has atomic number  1 and mass   1.00783
 Atom    56 has atomic number  8 and mass  15.99491
 Atom    57 has atomic number  6 and mass  12.00000
 Atom    58 has atomic number  6 and mass  12.00000
 Atom    59 has atomic number  6 and mass  12.00000
 Atom    60 has atomic number  6 and mass  12.00000
 Atom    61 has atomic number  1 and mass   1.00783
 Atom    62 has atomic number  1 and mass   1.00783
 Atom    63 has atomic number  1 and mass   1.00783
 Atom    64 has atomic number  1 and mass   1.00783
 Atom    65 has atomic number  1 and mass   1.00783
 Atom    66 has atomic number  1 and mass   1.00783
 Atom    67 has atomic number  1 and mass   1.00783
 Atom    68 has atomic number  1 and mass   1.00783
 Atom    69 has atomic number  1 and mass   1.00783
 Molecular mass:   612.09000 amu.
 Principal axes and moments of inertia in atomic units:
                           1         2         3
     Eigenvalues --  ******************************
           X            0.99997   0.00425  -0.00614
           Y           -0.00408   0.99959   0.02833
           Z            0.00626  -0.02831   0.99958
 This molecule is an asymmetric top.
 Rotational symmetry number  1.
 Warning -- assumption of classical behavior for rotation
           may cause significant error
 Rotational temperatures (Kelvin)      0.00817     0.00551     0.00478
 Rotational constants (GHZ):           0.17023     0.11478     0.09956
    1 imaginary frequencies ignored.
 Zero-point vibrational energy    1461042.0 (Joules/Mol)
                                  349.19743 (Kcal/Mol)
 Warning -- explicit consideration of  57 degrees of freedom as
           vibrations may cause significant error
 Vibrational temperatures:     37.06    59.86    72.47    84.02    86.65
          (Kelvin)            101.74   107.58   118.58   134.66   154.49
                              164.71   189.17   208.31   233.09   239.50
                              244.20   254.02   270.47   271.73   300.50
                              317.17   323.34   330.85   343.54   346.51
                              354.81   368.13   395.57   404.04   436.33
                              439.00   451.88   462.00   479.34   490.08
                              507.90   537.91   545.38   570.86   597.94
                              609.08   625.73   632.29   641.34   652.92
                              673.11   681.84   702.46   721.13   733.34
                              796.83   808.37   821.32   839.67   849.30
                              859.87   879.83   901.96   916.38   929.42
                              947.63   964.56   984.84  1002.55  1023.33
                             1078.73  1084.99  1116.02  1124.88  1131.69
                             1137.91  1142.29  1157.31  1162.33  1181.49
                             1190.79  1206.53  1212.01  1223.48  1247.76
                             1262.80  1276.68  1280.28  1286.51  1290.98
                             1308.56  1333.72  1370.49  1371.44  1375.33
                             1381.27  1390.16  1424.72  1430.34  1474.36
                             1480.11  1487.02  1490.88  1492.56  1506.65
                             1513.03  1535.04  1537.27  1555.06  1559.45
                             1569.49  1578.73  1611.30  1629.82  1642.50
                             1660.82  1672.12  1674.60  1685.65  1691.87
                             1701.07  1724.76  1725.93  1749.87  1754.17
                             1761.91  1781.42  1792.65  1793.99  1798.42
                             1804.28  1810.28  1827.21  1843.57  1869.41
                             1881.23  1905.76  1916.76  1936.89  1980.73
                             2002.16  2008.07  2009.18  2013.86  2015.74
                             2030.49  2037.90  2048.50  2055.91  2058.82
                             2075.83  2081.06  2082.49  2090.30  2095.30
                             2102.78  2109.13  2112.94  2119.98  2126.10
                             2132.17  2136.07  2138.38  2145.22  2151.09
                             2156.05  2162.18  2164.42  2283.16  2306.14
                             2424.26  2485.14  4110.21  4122.60  4125.97
                             4171.44  4174.10  4187.05  4284.84  4287.67
                             4302.05  4323.11  4358.18  4363.71  4370.01
                             4382.16  4385.54  4387.91  4390.77  4392.32
                             4398.33  4399.73  4401.17  4405.17  4421.44
                             4438.67  4624.79  4640.03  4644.16  4663.51
                             4676.23  4695.62  4704.27  4712.20  4715.59
 
 Zero-point correction=                           0.556482 (Hartree/Particle)
 Thermal correction to Energy=                    0.589537
 Thermal correction to Enthalpy=                  0.590481
 Thermal correction to Gibbs Free Energy=         0.495166
 Sum of electronic and zero-point Energies=           -104.561929
 Sum of electronic and thermal Energies=              -104.528874
 Sum of electronic and thermal Enthalpies=            -104.527929
 Sum of electronic and thermal Free Energies=         -104.623245
 
                     E (Thermal)             CV                S
                      KCal/Mol        Cal/Mol-Kelvin    Cal/Mol-Kelvin
 Total                  369.940            133.882            200.608
 Electronic               0.000              0.000              0.000
 Translational            0.889              2.981             45.118
 Rotational               0.889              2.981             36.356
 Vibrational            368.163            127.921            119.133
 Vibration     1          0.593              1.985              6.132
 Vibration     2          0.594              1.981              5.181
 Vibration     3          0.595              1.977              4.803
 Vibration     4          0.596              1.974              4.511
 Vibration     5          0.597              1.973              4.450
 Vibration     6          0.598              1.968              4.133
 Vibration     7          0.599              1.966              4.024
 Vibration     8          0.600              1.961              3.832
 Vibration     9          0.603              1.954              3.584
 Vibration    10          0.606              1.943              3.316
 Vibration    11          0.607              1.937              3.191
 Vibration    12          0.612              1.922              2.924
 Vibration    13          0.616              1.908              2.740
 Vibration    14          0.622              1.889              2.526
 Vibration    15          0.624              1.884              2.475
 Vibration    16          0.625              1.880              2.439
 Vibration    17          0.628              1.871              2.365
 Vibration    18          0.633              1.856              2.248
 Vibration    19          0.633              1.855              2.239
 Vibration    20          0.642              1.827              2.054
 Vibration    21          0.647              1.810              1.955
 Vibration    22          0.649              1.803              1.921
 Vibration    23          0.652              1.795              1.879
 Vibration    24          0.657              1.781              1.812
 Vibration    25          0.658              1.778              1.797
 Vibration    26          0.661              1.768              1.755
 Vibration    27          0.666              1.753              1.690
 Vibration    28          0.677              1.720              1.565
 Vibration    29          0.680              1.709              1.529
 Vibration    30          0.695              1.668              1.399
 Vibration    31          0.696              1.664              1.389
 Vibration    32          0.702              1.647              1.341
 Vibration    33          0.707              1.633              1.304
 Vibration    34          0.715              1.609              1.245
 Vibration    35          0.720              1.594              1.209
 Vibration    36          0.729              1.569              1.153
 Vibration    37          0.745              1.526              1.064
 Vibration    38          0.749              1.515              1.043
 Vibration    39          0.763              1.477              0.975
 Vibration    40          0.779              1.436              0.907
 Vibration    41          0.785              1.419              0.881
 Vibration    42          0.795              1.394              0.843
 Vibration    43          0.799              1.384              0.828
 Vibration    44          0.805              1.370              0.809
 Vibration    45          0.812              1.352              0.784
 Vibration    46          0.825              1.321              0.744
 Vibration    47          0.831              1.308              0.727
 Vibration    48          0.844              1.276              0.688
 Vibration    49          0.857              1.247              0.655
 Vibration    50          0.865              1.229              0.634
 Vibration    51          0.909              1.131              0.536
 Vibration    52          0.918              1.114              0.520
 Vibration    53          0.927              1.094              0.503
 Vibration    54          0.940              1.067              0.479
 Vibration    55          0.948              1.052              0.467
 Vibration    56          0.956              1.037              0.454
 Vibration    57          0.971              1.007              0.430
                       Q            Log10(Q)             Ln(Q)
 Total Bot       0.173596-227       -227.760461       -524.437842
 Total V=0       0.159605D+29         28.203045         64.939912
 Vib (Bot)       0.148208-243       -243.829129       -561.437318
 Vib (Bot)    1  0.804027D+01          0.905271          2.084462
 Vib (Bot)    2  0.497242D+01          0.696568          1.603907
 Vib (Bot)    3  0.410373D+01          0.613179          1.411897
 Vib (Bot)    4  0.353687D+01          0.548619          1.263241
 Vib (Bot)    5  0.342867D+01          0.535125          1.232172
 Vib (Bot)    6  0.291627D+01          0.464828          1.070305
 Vib (Bot)    7  0.275640D+01          0.440342          1.013925
 Vib (Bot)    8  0.249776D+01          0.397551          0.915395
 Vib (Bot)    9  0.219545D+01          0.341524          0.786389
 Vib (Bot)   10  0.190842D+01          0.280674          0.646275
 Vib (Bot)   11  0.178731D+01          0.252200          0.580711
 Vib (Bot)   12  0.154996D+01          0.190319          0.438226
 Vib (Bot)   13  0.140259D+01          0.146932          0.338324
 Vib (Bot)   14  0.124713D+01          0.095911          0.220843
 Vib (Bot)   15  0.121205D+01          0.083520          0.192312
 Vib (Bot)   16  0.118747D+01          0.074624          0.171828
 Vib (Bot)   17  0.113894D+01          0.056502          0.130102
 Vib (Bot)   18  0.106544D+01          0.027528          0.063385
 Vib (Bot)   19  0.106016D+01          0.025373          0.058423
 Vib (Bot)   20  0.951383D+00         -0.021645         -0.049839
 Vib (Bot)   21  0.897129D+00         -0.047145         -0.108556
 Vib (Bot)   22  0.878410D+00         -0.056303         -0.129642
 Vib (Bot)   23  0.856524D+00         -0.067261         -0.154873
 Vib (Bot)   24  0.821654D+00         -0.085311         -0.196436
 Vib (Bot)   25  0.813842D+00         -0.089460         -0.205989
 Vib (Bot)   26  0.792687D+00         -0.100898         -0.232326
 Vib (Bot)   27  0.760654D+00         -0.118813         -0.273577
 Vib (Bot)   28  0.701156D+00         -0.154186         -0.355025
 Vib (Bot)   29  0.684349D+00         -0.164722         -0.379287
 Vib (Bot)   30  0.625945D+00         -0.203464         -0.468493
 Vib (Bot)   31  0.621468D+00         -0.206581         -0.475671
 Vib (Bot)   32  0.600641D+00         -0.221385         -0.509758
 Vib (Bot)   33  0.585039D+00         -0.232815         -0.536077
 Vib (Bot)   34  0.559747D+00         -0.252008         -0.580271
 Vib (Bot)   35  0.544920D+00         -0.263668         -0.607117
 Vib (Bot)   36  0.521631D+00         -0.282637         -0.650796
 Vib (Bot)   37  0.485675D+00         -0.313654         -0.722216
 Vib (Bot)   38  0.477295D+00         -0.321214         -0.739621
 Vib (Bot)   39  0.450286D+00         -0.346512         -0.797873
 Vib (Bot)   40  0.423928D+00         -0.372707         -0.858191
 Vib (Bot)   41  0.413719D+00         -0.383295         -0.882569
 Vib (Bot)   42  0.399101D+00         -0.398917         -0.918541
 Vib (Bot)   43  0.393533D+00         -0.405018         -0.932589
 Vib (Bot)   44  0.386036D+00         -0.413372         -0.951825
 Vib (Bot)   45  0.376722D+00         -0.423979         -0.976247
 Vib (Bot)   46  0.361195D+00         -0.442258         -1.018337
 Vib (Bot)   47  0.354754D+00         -0.450073         -1.036331
 Vib (Bot)   48  0.340125D+00         -0.468361         -1.078442
 Vib (Bot)   49  0.327562D+00         -0.484706         -1.116078
 Vib (Bot)   50  0.319670D+00         -0.495298         -1.140467
 Vib (Bot)   51  0.282322D+00         -0.549256         -1.264708
 Vib (Bot)   52  0.276133D+00         -0.558882         -1.286874
 Vib (Bot)   53  0.269385D+00         -0.569627         -1.311614
 Vib (Bot)   54  0.260167D+00         -0.584748         -1.346431
 Vib (Bot)   55  0.255480D+00         -0.592642         -1.364609
 Vib (Bot)   56  0.250455D+00         -0.601270         -1.384475
 Vib (Bot)   57  0.241286D+00         -0.617468         -1.421773
 Vib (V=0)       0.136263D+13         12.134377         27.940436
 Vib (V=0)    1  0.855580D+01          0.932261          2.146609
 Vib (V=0)    2  0.549750D+01          0.740165          1.704293
 Vib (V=0)    3  0.463408D+01          0.665964          1.533438
 Vib (V=0)    4  0.407203D+01          0.609811          1.404143
 Vib (V=0)    5  0.396493D+01          0.598236          1.377489
 Vib (V=0)    6  0.345882D+01          0.538928          1.240928
 Vib (V=0)    7  0.330138D+01          0.518696          1.194341
 Vib (V=0)    8  0.304732D+01          0.483917          1.114261
 Vib (V=0)    9  0.275167D+01          0.439596          1.012208
 Vib (V=0)   10  0.247283D+01          0.393195          0.905364
 Vib (V=0)   11  0.235593D+01          0.372162          0.856935
 Vib (V=0)   12  0.212861D+01          0.328096          0.755468
 Vib (V=0)   13  0.198905D+01          0.298646          0.687657
 Vib (V=0)   14  0.184362D+01          0.265673          0.611734
 Vib (V=0)   15  0.181113D+01          0.257950          0.593951
 Vib (V=0)   16  0.178845D+01          0.252476          0.581347
 Vib (V=0)   17  0.174386D+01          0.241512          0.556103
 Vib (V=0)   18  0.167693D+01          0.224514          0.516963
 Vib (V=0)   19  0.167215D+01          0.223277          0.514113
 Vib (V=0)   20  0.157477D+01          0.197217          0.454109
 Vib (V=0)   21  0.152705D+01          0.183854          0.423340
 Vib (V=0)   22  0.151074D+01          0.179191          0.412603
 Vib (V=0)   23  0.149178D+01          0.173706          0.399972
 Vib (V=0)   24  0.146183D+01          0.164897          0.379688
 Vib (V=0)   25  0.145516D+01          0.162912          0.375119
 Vib (V=0)   26  0.143720D+01          0.157519          0.362700
 Vib (V=0)   27  0.141027D+01          0.149303          0.343782
 Vib (V=0)   28  0.136117D+01          0.133913          0.308347
 Vib (V=0)   29  0.134755D+01          0.129544          0.298285
 Vib (V=0)   30  0.130113D+01          0.114320          0.263232
 Vib (V=0)   31  0.129764D+01          0.113153          0.260544
 Vib (V=0)   32  0.128152D+01          0.107725          0.248045
 Vib (V=0)   33  0.126959D+01          0.103664          0.238695
 Vib (V=0)   34  0.125054D+01          0.097099          0.223579
 Vib (V=0)   35  0.123955D+01          0.093265          0.214750
 Vib (V=0)   36  0.122256D+01          0.087272          0.200950
 Vib (V=0)   37  0.119705D+01          0.078113          0.179861
 Vib (V=0)   38  0.119124D+01          0.075999          0.174993
 Vib (V=0)   39  0.117287D+01          0.069251          0.159456
 Vib (V=0)   40  0.115553D+01          0.062780          0.144556
 Vib (V=0)   41  0.114897D+01          0.060309          0.138867
 Vib (V=0)   42  0.113975D+01          0.056810          0.130810
 Vib (V=0)   43  0.113629D+01          0.055490          0.127771
 Vib (V=0)   44  0.113168D+01          0.053725          0.123706
 Vib (V=0)   45  0.112603D+01          0.051552          0.118702
 Vib (V=0)   46  0.111682D+01          0.047982          0.110482
 Vib (V=0)   47  0.111307D+01          0.046521          0.107119
 Vib (V=0)   48  0.110472D+01          0.043252          0.099591
 Vib (V=0)   49  0.109774D+01          0.040501          0.093256
 Vib (V=0)   50  0.109345D+01          0.038801          0.089342
 Vib (V=0)   51  0.107420D+01          0.031085          0.071576
 Vib (V=0)   52  0.107118D+01          0.029863          0.068763
 Vib (V=0)   53  0.106795D+01          0.028551          0.065742
 Vib (V=0)   54  0.106364D+01          0.026794          0.061694
 Vib (V=0)   55  0.106149D+01          0.025916          0.059673
 Vib (V=0)   56  0.105922D+01          0.024986          0.057534
 Vib (V=0)   57  0.105517D+01          0.023324          0.053706
 Electronic      0.100000D+01          0.000000          0.000000
 Translational   0.595219D+09          8.774677         20.204440
 Rotational      0.196785D+08          7.293992         16.795036
 ***** Axes restored to original set *****
 -------------------------------------------------------------------
 Center     Atomic                   Forces (Hartrees/Bohr)
 Number     Number              X              Y              Z
 -------------------------------------------------------------------
      1       26           0.000012722    0.000012945    0.000031625
      2        6           0.000014247    0.000004606    0.000001460
      3       46           0.000013066    0.000028821   -0.000040578
      4        6          -0.000002690    0.000002184   -0.000004767
      5        1           0.000000200    0.000000838   -0.000001337
      6        1           0.000001687    0.000001140    0.000002410
      7        1           0.000005098    0.000003249    0.000002502
      8        6           0.000000305   -0.000005553    0.000045768
      9        8           0.000001609    0.000003248    0.000007966
     10        6           0.000007582   -0.000003566   -0.000005826
     11        8          -0.000012110   -0.000003248   -0.000010873
     12        6          -0.000016030    0.000008330    0.000004481
     13        6          -0.000002342   -0.000010401    0.000010555
     14        6           0.000008496    0.000010129   -0.000006827
     15        1           0.000000579    0.000002346    0.000001187
     16        1           0.000002203    0.000003883    0.000000739
     17        1          -0.000003148    0.000000553   -0.000000349
     18        1          -0.000019016    0.000015820    0.000014465
     19        6           0.000010089   -0.000049812    0.000022490
     20        6           0.000022465    0.000000654   -0.000015358
     21        8          -0.000038813   -0.000023984   -0.000014862
     22        6          -0.000009527    0.000004821   -0.000005440
     23        6           0.000009905   -0.000003116   -0.000004830
     24        6          -0.000000607    0.000007617   -0.000002068
     25        6          -0.000005679   -0.000003738   -0.000003748
     26        6          -0.000004788   -0.000007438   -0.000000553
     27        1           0.000005733    0.000001058    0.000004473
     28        7          -0.000002201    0.000011151   -0.000028549
     29        1           0.000001566    0.000004811    0.000002618
     30        1          -0.000002387   -0.000000819   -0.000000603
     31        1          -0.000000809   -0.000001572   -0.000002547
     32        1          -0.000001720    0.000000940   -0.000000658
     33        7          -0.000001424   -0.000006228    0.000005167
     34        6           0.000000177   -0.000003520   -0.000000118
     35        6           0.000000488    0.000001883    0.000004426
     36        1           0.000000806    0.000001788    0.000000027
     37        1          -0.000000109    0.000000031   -0.000000027
     38        1          -0.000000696    0.000000652   -0.000000374
     39        1          -0.000001322   -0.000000087   -0.000001356
     40        1           0.000000354    0.000000418   -0.000000583
     41        1           0.000001358   -0.000003028   -0.000001282
     42        6           0.000001602    0.000006604   -0.000003855
     43        6          -0.000009878   -0.000006810   -0.000000220
     44        6           0.000001756   -0.000001999    0.000003691
     45        6           0.000003620    0.000004794   -0.000001907
     46        6           0.000000431    0.000004128   -0.000002886
     47        6          -0.000002115   -0.000013201    0.000005083
     48        6           0.000006337    0.000004630   -0.000000396
     49        1           0.000004086   -0.000000494    0.000001621
     50        1          -0.000000408    0.000000878   -0.000003273
     51        1           0.000000104   -0.000000108   -0.000000116
     52        1          -0.000001567   -0.000001271    0.000000602
     53        1           0.000000379    0.000000731   -0.000000179
     54        1          -0.000001412    0.000003425   -0.000005275
     55        1          -0.000004052   -0.000012413   -0.000006571
     56        8           0.000007564    0.000006414    0.000002310
     57        6          -0.000001529   -0.000001427   -0.000003681
     58        6          -0.000000212   -0.000006566    0.000006218
     59        6          -0.000000891    0.000002813    0.000004282
     60        6           0.000000085   -0.000000911   -0.000006319
     61        1          -0.000001121   -0.000000461    0.000001101
     62        1          -0.000000647   -0.000001077    0.000000819
     63        1           0.000001438    0.000001167   -0.000001275
     64        1           0.000001565   -0.000001222    0.000000857
     65        1          -0.000001028    0.000000513   -0.000002417
     66        1          -0.000001374   -0.000001150   -0.000000658
     67        1          -0.000002299    0.000003432    0.000002372
     68        1           0.000000319    0.000001242    0.000001215
     69        1           0.000003932    0.000000530    0.000000010
 -------------------------------------------------------------------
 Cartesian Forces:  Max     0.000049812 RMS     0.000009195
 Z-matrix is all fixed cartesians, so copy forces.
 Leave Link  716 at Mon Oct 14 08:38:42 2024, MaxMem=   104857600 cpu:               0.1 elap:               0.6
 (Enter /home/echo/g16/l103.exe)

 GradGradGradGradGradGradGradGradGradGradGradGradGradGradGradGradGradGrad
 Berny optimization.
 Search for a local minimum.
 Step number   1 out of a maximum of    2
 All quantities printed in internal units (Hartrees-Bohrs-Radians)
 Second derivative matrix not updated -- analytic derivatives used.
 ITU=  0
     Eigenvalues ---   -0.02035   0.00011   0.00028   0.00033   0.00057
     Eigenvalues ---    0.00069   0.00086   0.00100   0.00108   0.00126
     Eigenvalues ---    0.00145   0.00194   0.00228   0.00237   0.00256
     Eigenvalues ---    0.00292   0.00332   0.00383   0.00441   0.00478
     Eigenvalues ---    0.00505   0.00679   0.00807   0.00930   0.00954
     Eigenvalues ---    0.01091   0.01146   0.01215   0.01272   0.01369
     Eigenvalues ---    0.01487   0.01532   0.01633   0.01697   0.01736
     Eigenvalues ---    0.01858   0.01926   0.02027   0.02129   0.02203
     Eigenvalues ---    0.02371   0.02465   0.02509   0.02879   0.03014
     Eigenvalues ---    0.03186   0.03326   0.03632   0.03822   0.04014
     Eigenvalues ---    0.04257   0.04376   0.04427   0.04547   0.04664
     Eigenvalues ---    0.04677   0.04777   0.04908   0.05047   0.05211
     Eigenvalues ---    0.05284   0.05341   0.05399   0.05489   0.05512
     Eigenvalues ---    0.05579   0.05815   0.05943   0.06063   0.06260
     Eigenvalues ---    0.06305   0.06348   0.06448   0.06479   0.06522
     Eigenvalues ---    0.06827   0.07003   0.07250   0.07725   0.07937
     Eigenvalues ---    0.08310   0.08653   0.09312   0.09741   0.09936
     Eigenvalues ---    0.10048   0.10556   0.10690   0.10919   0.11083
     Eigenvalues ---    0.11196   0.11224   0.11266   0.11400   0.11462
     Eigenvalues ---    0.11709   0.11951   0.12053   0.12384   0.12459
     Eigenvalues ---    0.12894   0.12974   0.13115   0.13210   0.14808
     Eigenvalues ---    0.14848   0.15341   0.15559   0.16004   0.16661
     Eigenvalues ---    0.17349   0.17553   0.17659   0.18068   0.18445
     Eigenvalues ---    0.18824   0.18851   0.18956   0.19179   0.19254
     Eigenvalues ---    0.19822   0.20456   0.21036   0.21072   0.22052
     Eigenvalues ---    0.22397   0.23456   0.23647   0.24043   0.25248
     Eigenvalues ---    0.25965   0.26496   0.27358   0.29843   0.32001
     Eigenvalues ---    0.34938   0.35266   0.37377   0.39141   0.40058
     Eigenvalues ---    0.40948   0.41591   0.41694   0.42164   0.43076
     Eigenvalues ---    0.45165   0.46159   0.48544   0.50365   0.51416
     Eigenvalues ---    0.53296   0.57043   0.59224   0.61061   0.62059
     Eigenvalues ---    0.62131   0.64293   0.65438   0.66358   0.66441
     Eigenvalues ---    0.67222   0.68948   0.69619   0.69932   0.70761
     Eigenvalues ---    0.70947   0.72167   0.73113   0.73577   0.74586
     Eigenvalues ---    0.74824   0.74979   0.75384   0.76448   0.77249
     Eigenvalues ---    0.78102   0.78254   0.78581   0.78918   0.79241
     Eigenvalues ---    0.79842   0.81019   0.87152   0.90615   0.92139
     Eigenvalues ---    0.95120   0.95513   1.01934   1.04715   1.04771
     Eigenvalues ---    1.05421   1.07191   1.13823   1.17698   1.18657
     Eigenvalues ---    1.19377   1.20252   1.22188   1.26620   1.33624
     Eigenvalues ---    1.50297
 Eigenvalue     1 is  -2.03D-02 should be greater than     0.000000 Eigenvector:
                          X18       Y18       X19       X10       X11
   1                    0.80755  -0.30974  -0.21078  -0.15165   0.13800
                          Z19       Y17       X30       X8        Y15
   1                    0.12492   0.11054  -0.10345   0.09423  -0.09088
 Angle between quadratic step and forces=  82.03 degrees.
 Linear search not attempted -- first point.
 B after Tr=    -0.000007    0.000028   -0.000039
         Rot=    1.000000   -0.000002    0.000002   -0.000001 Ang=  -0.00 deg.
 Variable       Old X    -DE/DX   Delta X   Delta X   Delta X     New X
                                 (Linear)    (Quad)   (Total)
    X1       -2.91932   0.00001   0.00000  -0.00000  -0.00001  -2.91934
    Y1        2.33066   0.00001   0.00000   0.00003   0.00006   2.33071
    Z1       -0.83456   0.00003   0.00000   0.00013   0.00009  -0.83447
    X2        0.07262   0.00001   0.00000  -0.00007  -0.00009   0.07254
    Y2       -2.31238   0.00000   0.00000   0.00003   0.00004  -2.31235
    Z2        5.20907   0.00000   0.00000  -0.00046  -0.00051   5.20856
    X3       -1.66923   0.00001   0.00000   0.00016   0.00015  -1.66908
    Y3       -2.28666   0.00003   0.00000   0.00012   0.00015  -2.28652
    Z3        0.30028  -0.00004   0.00000  -0.00036  -0.00042   0.29986
    X4       -6.29199  -0.00000   0.00000  -0.00002  -0.00001  -6.29201
    Y4       -1.69276   0.00000   0.00000  -0.00009  -0.00007  -1.69283
    Z4       -2.48219  -0.00000   0.00000   0.00005  -0.00002  -2.48222
    X5       -4.82045   0.00000   0.00000  -0.00081  -0.00083  -4.82127
    Y5        6.83312   0.00000   0.00000  -0.00025  -0.00022   6.83290
    Z5       -1.18650  -0.00000   0.00000  -0.00014  -0.00016  -1.18666
    X6       -7.92018   0.00000   0.00000  -0.00017  -0.00018  -7.92036
    Y6        3.00172   0.00000   0.00000  -0.00066  -0.00065   3.00107
    Z6       -0.69018   0.00000   0.00000   0.00072   0.00067  -0.68951
    X7       -5.81183   0.00001   0.00000   0.00093   0.00092  -5.81092
    Y7       -0.21892   0.00000   0.00000  -0.00006  -0.00005  -0.21898
    Z7        2.69900   0.00000   0.00000   0.00081   0.00075   2.69975
    X8        3.62100   0.00000   0.00000   0.00007   0.00007   3.62107
    Y8       -2.41722  -0.00001   0.00000   0.00003   0.00006  -2.41716
    Z8       -0.70009   0.00005   0.00000  -0.00017  -0.00021  -0.70030
    X9        0.04794   0.00000   0.00000  -0.00030  -0.00033   0.04761
    Y9       -1.62715   0.00000   0.00000   0.00009   0.00008  -1.62707
    Z9        7.41228   0.00001   0.00000  -0.00048  -0.00052   7.41176
   X10       -4.23735   0.00001   0.00000  -0.00003  -0.00003  -4.23738
   Y10        0.00108  -0.00000   0.00000  -0.00002   0.00002   0.00110
   Z10       -3.33038  -0.00001   0.00000   0.00007   0.00002  -3.33036
   X11        2.94049  -0.00001   0.00000  -0.00010  -0.00009   2.94040
   Y11       -2.69346  -0.00000   0.00000   0.00020   0.00025  -2.69321
   Z11       -3.06774  -0.00001   0.00000  -0.00006  -0.00010  -3.06784
   X12       -0.42528  -0.00002   0.00000  -0.00024  -0.00024  -0.42552
   Y12        1.79159   0.00001   0.00000   0.00018   0.00022   1.79181
   Z12       -3.63844   0.00000   0.00000  -0.00004  -0.00008  -3.63852
   X13       -2.23420  -0.00000   0.00000  -0.00031  -0.00031  -2.23452
   Y13        3.63409  -0.00001   0.00000   0.00013   0.00018   3.63427
   Z13       -4.21384   0.00001   0.00000   0.00014   0.00012  -4.21373
   X14       -4.61218   0.00001   0.00000  -0.00022  -0.00022  -4.61240
   Y14        2.52069   0.00001   0.00000   0.00002   0.00006   2.52075
   Z14       -4.06888  -0.00001   0.00000   0.00020   0.00016  -4.06873
   X15        1.55918   0.00000   0.00000  -0.00025  -0.00025   1.55893
   Y15        2.13171   0.00000   0.00000   0.00024   0.00029   2.13200
   Z15       -3.66981   0.00000   0.00000  -0.00014  -0.00016  -3.66997
   X16       -1.94079   0.00000   0.00000  -0.00035  -0.00035  -1.94114
   Y16        5.56993   0.00000   0.00000   0.00015   0.00020   5.57013
   Z16       -4.67596   0.00000   0.00000   0.00015   0.00013  -4.67582
   X17       -6.35122  -0.00000   0.00000  -0.00032  -0.00031  -6.35153
   Y17        3.49448   0.00000   0.00000  -0.00006  -0.00002   3.49446
   Z17       -4.30430  -0.00000   0.00000   0.00041   0.00037  -4.30394
   X18        0.91914  -0.00002   0.00000  -0.00089  -0.00088   0.91826
   Y18       -2.22239   0.00002   0.00000   0.00073   0.00078  -2.22162
   Z18       -3.15826   0.00001   0.00000   0.00033   0.00029  -3.15797
   X19       -1.61417   0.00001   0.00000   0.00005   0.00006  -1.61411
   Y19       -0.53099  -0.00005   0.00000  -0.00004   0.00000  -0.53099
   Z19       -3.07989   0.00002   0.00000  -0.00025  -0.00030  -3.08020
   X20        2.55531   0.00002   0.00000   0.00003   0.00001   2.55532
   Y20       -1.86867   0.00000   0.00000   0.00024   0.00026  -1.86842
   Z20        3.64375  -0.00002   0.00000  -0.00031  -0.00035   3.64340
   X21       -1.71757  -0.00004   0.00000   0.00005   0.00003  -1.71754
   Y21       -3.42643  -0.00002   0.00000  -0.00025  -0.00025  -3.42668
   Z21        4.07606  -0.00001   0.00000  -0.00055  -0.00061   4.07545
   X22       -2.91768  -0.00001   0.00000   0.00041   0.00038  -2.91730
   Y22        2.68194   0.00000   0.00000   0.00050   0.00051   2.68245
   Z22        3.01307  -0.00001   0.00000   0.00001  -0.00003   3.01305
   X23       -2.69399   0.00001   0.00000  -0.00006  -0.00008  -2.69407
   Y23        5.05702  -0.00000   0.00000   0.00039   0.00040   5.05742
   Z23        1.90698  -0.00000   0.00000  -0.00031  -0.00033   1.90665
   X24       -4.64396  -0.00000   0.00000  -0.00038  -0.00040  -4.64436
   Y24        5.36306   0.00001   0.00000  -0.00011  -0.00009   5.36297
   Z24        0.17155  -0.00000   0.00000  -0.00005  -0.00007   0.17148
   X25       -6.23069  -0.00001   0.00000  -0.00003  -0.00005  -6.23074
   Y25        3.24795  -0.00000   0.00000  -0.00036  -0.00035   3.24760
   Z25        0.36561  -0.00000   0.00000   0.00042   0.00037   0.36598
   X26       -5.08822  -0.00000   0.00000   0.00046   0.00044  -5.08778
   Y26        1.53296  -0.00001   0.00000  -0.00001  -0.00000   1.53296
   Z26        2.03465  -0.00000   0.00000   0.00044   0.00039   2.03504
   X27       -1.72356   0.00001   0.00000   0.00080   0.00078  -1.72278
   Y27        1.91293   0.00000   0.00000   0.00086   0.00086   1.91379
   Z27        4.44471   0.00000   0.00000  -0.00011  -0.00015   4.44456
   X28        1.94211  -0.00000   0.00000   0.00004   0.00003   1.94214
   Y28       -2.06997   0.00001   0.00000   0.00048   0.00051  -2.06946
   Z28        1.00696  -0.00003   0.00000  -0.00029  -0.00033   1.00663
   X29        3.82475   0.00000   0.00000   0.00003   0.00002   3.82477
   Y29       -3.42647   0.00000   0.00000   0.00025   0.00027  -3.42620
   Z29        4.18066   0.00000   0.00000  -0.00031  -0.00036   4.18030
   X30       -7.62385  -0.00000   0.00000  -0.00010  -0.00010  -7.62395
   Y30       -0.54439  -0.00000   0.00000  -0.00027  -0.00025  -0.54464
   Z30       -1.42432  -0.00000   0.00000   0.00015   0.00009  -1.42424
   X31       -7.30364  -0.00000   0.00000  -0.00003  -0.00002  -7.30366
   Y31       -2.57046  -0.00000   0.00000  -0.00008  -0.00004  -2.57050
   Z31       -4.07463  -0.00000   0.00000   0.00003  -0.00005  -4.07467
   X32       -1.29150  -0.00000   0.00000  -0.00027  -0.00030  -1.29179
   Y32        6.42993   0.00000   0.00000   0.00070   0.00071   6.43064
   Z32        2.32846  -0.00000   0.00000  -0.00066  -0.00067   2.32780
   X33       -5.21589  -0.00000   0.00000   0.00016   0.00016  -5.21573
   Y33       -3.61121  -0.00001   0.00000  -0.00010  -0.00008  -3.61129
   Z33       -0.80567   0.00001   0.00000  -0.00006  -0.00013  -0.80580
   X34       -4.26634   0.00000   0.00000  -0.00003  -0.00002  -4.26636
   Y34       -5.77268  -0.00000   0.00000  -0.00008  -0.00005  -5.77273
   Z34       -2.26249  -0.00000   0.00000  -0.00021  -0.00029  -2.26279
   X35       -7.00531   0.00000   0.00000   0.00043   0.00043  -7.00488
   Y35       -4.56000   0.00000   0.00000  -0.00008  -0.00007  -4.56008
   Z35        1.06116   0.00000   0.00000   0.00020   0.00012   1.06127
   X36       -5.84301   0.00000   0.00000  -0.00014  -0.00012  -5.84314
   Y36       -6.92074   0.00000   0.00000   0.00001   0.00004  -6.92070
   Z36       -2.98786   0.00000   0.00000  -0.00010  -0.00019  -2.98806
   X37       -3.15879  -0.00000   0.00000  -0.00017  -0.00015  -3.15895
   Y37       -5.10827   0.00000   0.00000  -0.00006  -0.00002  -5.10829
   Z37       -3.87124  -0.00000   0.00000  -0.00030  -0.00037  -3.87161
   X38       -3.08390  -0.00000   0.00000   0.00005   0.00006  -3.08384
   Y38       -6.96967   0.00000   0.00000  -0.00014  -0.00011  -6.96978
   Z38       -1.04577  -0.00000   0.00000  -0.00036  -0.00045  -1.04622
   X39       -8.38700  -0.00000   0.00000   0.00018   0.00018  -8.38682
   Y39       -5.84598  -0.00000   0.00000   0.00008   0.00009  -5.84589
   Z39        0.19755  -0.00000   0.00000   0.00036   0.00027   0.19782
   X40       -5.97142   0.00000   0.00000   0.00065   0.00064  -5.97078
   Y40       -5.56511   0.00000   0.00000  -0.00024  -0.00024  -5.56535
   Z40        2.53454  -0.00000   0.00000  -0.00006  -0.00015   2.53439
   X41       -8.04902   0.00000   0.00000   0.00074   0.00073  -8.04830
   Y41       -3.02158  -0.00000   0.00000  -0.00005  -0.00005  -3.02163
   Z41        1.93895  -0.00000   0.00000   0.00048   0.00040   1.93936
   X42        3.85378   0.00000   0.00000   0.00010   0.00008   3.85385
   Y42        0.64430   0.00001   0.00000   0.00017   0.00019   0.64449
   Z42        4.31630  -0.00000   0.00000  -0.00020  -0.00023   4.31608
   X43        3.71301  -0.00001   0.00000  -0.00023  -0.00025   3.71276
   Y43        2.72293  -0.00001   0.00000   0.00036   0.00039   2.72331
   Z43        2.38533  -0.00000   0.00000   0.00005   0.00004   2.38536
   X44        5.70578   0.00000   0.00000  -0.00047  -0.00049   5.70529
   Y44        4.45722  -0.00000   0.00000   0.00067   0.00070   4.45792
   Z44        2.32582   0.00000   0.00000   0.00043   0.00044   2.32626
   X45        5.62963   0.00000   0.00000  -0.00052  -0.00055   5.62908
   Y45        6.56748   0.00000   0.00000   0.00074   0.00077   6.56825
   Z45        0.79801  -0.00000   0.00000   0.00052   0.00054   0.79855
   X46        3.49363   0.00000   0.00000  -0.00037  -0.00039   3.49324
   Y46        7.04877   0.00000   0.00000   0.00046   0.00050   7.04927
   Z46       -0.64946  -0.00000   0.00000   0.00020   0.00021  -0.64925
   X47        1.53659  -0.00000   0.00000  -0.00014  -0.00016   1.53643
   Y47        5.33245  -0.00001   0.00000   0.00018   0.00022   5.33266
   Z47       -0.62093   0.00001   0.00000  -0.00010  -0.00011  -0.62104
   X48        1.67076   0.00001   0.00000  -0.00008  -0.00010   1.67067
   Y48        3.12022   0.00000   0.00000   0.00017   0.00019   3.12041
   Z48        0.79200  -0.00000   0.00000  -0.00016  -0.00018   0.79182
   X49        2.96309   0.00000   0.00000   0.00053   0.00050   2.96359
   Y49        1.31207  -0.00000   0.00000  -0.00009  -0.00008   1.31199
   Z49        6.06604   0.00000   0.00000   0.00011   0.00009   6.06613
   X50        5.83723  -0.00000   0.00000   0.00021   0.00018   5.83741
   Y50        0.28677   0.00000   0.00000   0.00010   0.00012   0.28688
   Z50        4.75406  -0.00000   0.00000  -0.00075  -0.00077   4.75329
   X51        7.33066   0.00000   0.00000  -0.00059  -0.00062   7.33005
   Y51        4.15012  -0.00000   0.00000   0.00082   0.00084   4.15097
   Z51        3.52617  -0.00000   0.00000   0.00064   0.00064   3.52682
   X52        7.20443  -0.00000   0.00000  -0.00071  -0.00074   7.20369
   Y52        7.86691  -0.00000   0.00000   0.00096   0.00100   7.86791
   Z52        0.77579   0.00000   0.00000   0.00084   0.00086   0.77665
   X53        3.37059   0.00000   0.00000  -0.00044  -0.00046   3.37013
   Y53        8.75159   0.00000   0.00000   0.00046   0.00051   8.75209
   Z53       -1.76691  -0.00000   0.00000   0.00021   0.00023  -1.76669
   X54       -0.23828  -0.00000   0.00000  -0.00001  -0.00002  -0.23830
   Y54        5.60476   0.00000   0.00000   0.00013   0.00016   5.60492
   Z54       -1.56638  -0.00001   0.00000  -0.00036  -0.00037  -1.56675
   X55       -0.03076  -0.00000   0.00000   0.00010   0.00008  -0.03068
   Y55        1.96688  -0.00001   0.00000  -0.00008  -0.00005   1.96683
   Z55        0.55193  -0.00001   0.00000  -0.00035  -0.00038   0.55155
   X56        6.03854   0.00001   0.00000   0.00005   0.00005   6.03860
   Y56       -2.48728   0.00001   0.00000  -0.00024  -0.00020  -2.48747
   Z56       -0.04976   0.00000   0.00000   0.00003   0.00000  -0.04976
   X57       10.41224  -0.00000   0.00000   0.00021   0.00020  10.41244
   Y57       -1.95660  -0.00000   0.00000  -0.00104  -0.00099  -1.95760
   Z57       -0.25766  -0.00000   0.00000   0.00018   0.00017  -0.25750
   X58        8.04065  -0.00000   0.00000   0.00018   0.00019   8.04084
   Y58       -2.21504  -0.00001   0.00000  -0.00062  -0.00057  -2.21561
   Z58       -1.88763   0.00001   0.00000   0.00015   0.00013  -1.88750
   X59        8.20453  -0.00000   0.00000  -0.00014  -0.00013   8.20440
   Y59       -4.56127   0.00000   0.00000  -0.00061  -0.00055  -4.56182
   Z59       -3.56234   0.00000   0.00000   0.00012   0.00009  -3.56225
   X60        7.63871   0.00000   0.00000   0.00064   0.00064   7.63935
   Y60        0.18143  -0.00000   0.00000  -0.00051  -0.00045   0.18099
   Z60       -3.45174  -0.00001   0.00000   0.00016   0.00014  -3.45159
   X61       10.27726  -0.00000   0.00000   0.00045   0.00044  10.27769
   Y61       -0.26834  -0.00000   0.00000  -0.00108  -0.00104  -0.26938
   Z61        0.90299   0.00000   0.00000   0.00027   0.00026   0.90325
   X62       10.59511  -0.00000   0.00000  -0.00003  -0.00003  10.59507
   Y62       -3.58676  -0.00000   0.00000  -0.00113  -0.00108  -3.58784
   Z62        0.97754   0.00000   0.00000   0.00011   0.00009   0.97763
   X63       12.07767   0.00000   0.00000   0.00024   0.00024  12.07792
   Y63       -1.82506   0.00000   0.00000  -0.00122  -0.00116  -1.82622
   Z63       -1.44855  -0.00000   0.00000   0.00019   0.00019  -1.44836
   X64        8.45654   0.00000   0.00000   0.00065   0.00066   8.45721
   Y64       -6.23840  -0.00000   0.00000  -0.00058  -0.00052  -6.23892
   Z64       -2.40099   0.00000   0.00000   0.00001  -0.00003  -2.40102
   X65        9.80373  -0.00000   0.00000  -0.00075  -0.00073   9.80300
   Y65       -4.38798   0.00000   0.00000  -0.00035  -0.00028  -4.38826
   Z65       -4.83760  -0.00000   0.00000  -0.00061  -0.00063  -4.83824
   X66        6.48900  -0.00000   0.00000  -0.00059  -0.00057   6.48842
   Y66       -4.77048  -0.00000   0.00000  -0.00089  -0.00083  -4.77131
   Z66       -4.67084  -0.00000   0.00000   0.00086   0.00082  -4.67002
   X67        7.21163  -0.00000   0.00000  -0.00016  -0.00017   7.21146
   Y67        1.76404   0.00000   0.00000  -0.00068  -0.00063   1.76341
   Z67       -2.20814   0.00000   0.00000   0.00014   0.00013  -2.20801
   X68        9.34710   0.00000   0.00000   0.00108   0.00109   9.34819
   Y68        0.60452   0.00000   0.00000  -0.00013  -0.00007   0.60446
   Z68       -4.50783   0.00000   0.00000   0.00103   0.00102  -4.50680
   X69        6.08913   0.00000   0.00000   0.00129   0.00130   6.09043
   Y69       -0.06304   0.00000   0.00000  -0.00057  -0.00051  -0.06355
   Z69       -4.77645   0.00000   0.00000  -0.00058  -0.00060  -4.77705
         Item               Value     Threshold  Converged?
 Maximum Force            0.000050     0.000450     YES
 RMS     Force            0.000009     0.000300     YES
 Maximum Displacement     0.001298     0.001800     YES
 RMS     Displacement     0.000424     0.001200     YES
 Predicted change in Energy=-7.293800D-08
 Optimization completed.
    -- Stationary point found.
 GradGradGradGradGradGradGradGradGradGradGradGradGradGradGradGradGradGrad

 Leave Link  103 at Mon Oct 14 08:38:42 2024, MaxMem=   104857600 cpu:               0.0 elap:               0.1
 (Enter /home/echo/g16/l9999.exe)
 Unable to Open any file for archive entry.
 1\1\GINC-ECHO\Freq\External='./xtb.sh'\ZDO\C27H34Fe1N2O4Pd1\ECHO\14-Oc
 t-2024\0\\#p freq external='./xtb.sh'\\Generate automatically by rxnb\
 \0,1\Fe,-1.54484,1.23333,-0.44163\C,0.03843,-1.22366,2.75652\Pd,-0.883
 32,-1.21005,0.1589\C,-3.32958,-0.89577,-1.31352\H,-2.55087,3.61593,-0.
 62787\H,-4.19118,1.58844,-0.36523\H,-3.07549,-0.11585,1.42825\C,1.9161
 5,-1.27914,-0.37047\O,0.02537,-0.86105,3.92241\C,-2.24231,0.00057,-1.7
 6236\O,1.55604,-1.42532,-1.62338\C,-0.22505,0.94807,-1.92538\C,-1.1822
 9,1.92308,-2.22987\C,-2.44066,1.33389,-2.15316\H,0.82508,1.12805,-1.94
 198\H,-1.02702,2.94748,-2.47441\H,-3.36092,1.8492,-2.27774\H,0.48639,-
 1.17604,-1.67128\C,-0.85418,-0.28099,-1.62981\C,1.35221,-0.98886,1.928
 19\O,-0.9089,-1.81319,2.15696\C,-1.54397,1.41922,1.59445\C,-1.4256,2.6
 7606,1.00913\C,-2.45748,2.83801,0.09078\C,-3.29714,1.71874,0.19347\C,-
 2.69257,0.81121,1.07669\H,-0.91207,1.01228,2.35204\N,1.02772,-1.09538,
 0.53286\H,2.02397,-1.81321,2.21231\H,-4.03437,-0.28808,-0.75372\H,-3.8
 6492,-1.36023,-2.1562\H,-0.68343,3.40257,1.23217\N,-2.76013,-1.91097,-
 0.42634\C,-2.25765,-3.05477,-1.19726\C,-3.70705,-2.41305,0.56154\H,-3.
 09199,-3.6623,-1.58111\H,-1.67156,-2.70318,-2.04857\H,-1.63193,-3.6881
 9,-0.5534\H,-4.43821,-3.09356,0.10454\H,-3.15994,-2.94493,1.34122\H,-4
 .25936,-1.59895,1.02605\C,2.03933,0.34095,2.28409\C,1.96484,1.44091,1.
 26226\C,3.01937,2.35866,1.23077\C,2.97907,3.47536,0.42229\C,1.84875,3.
 73005,-0.34368\C,0.81313,2.82181,-0.32858\C,0.88413,1.65115,0.41911\H,
 1.568,0.69432,3.21001\H,3.08893,0.15175,2.51574\H,3.87922,2.19615,1.86
 597\H,3.81242,4.16299,0.41053\H,1.78364,4.63114,-0.93501\H,-0.12609,2.
 96591,-0.82889\H,-0.01628,1.04083,0.29207\O,3.19546,-1.31621,-0.02633\
 C,5.50992,-1.03539,-0.13635\C,4.25493,-1.17215,-0.99889\C,4.34165,-2.4
 1372,-1.88511\C,4.04223,0.09601,-1.82658\H,5.43849,-0.142,0.47784\H,5.
 60669,-1.89803,0.51729\H,6.39123,-0.96578,-0.76654\H,4.47501,-3.30122,
 -1.27055\H,5.18791,-2.32202,-2.55995\H,3.43383,-2.52443,-2.4717\H,3.81
 623,0.93349,-1.1685\H,4.94627,0.3199,-2.38544\H,3.22223,-0.03336,-2.52
 759\\Version=ES64L-G16RevC.01\HF=-105.1184109\RMSD=0.000e+00\RMSF=9.19
 5e-06\ZeroPoint=0.5564815\Thermal=0.5895373\ETot=-104.5288736\HTot=-10
 4.5279294\GTot=-104.6232446\Dipole=0.,0.,0.\PG=C01 [X(C27H34Fe1N2O4Pd1
 )]\NImag=1\\0.42686077,-0.07504647,0.48202833,-0.05021278,0.07672008,0
 .58140338,-0.00095865,-0.00104665,0.00032912,0.45435225,-0.00113531,-0
 .00032423,0.00060840,0.13137033,0.32993846,0.00037081,-0.00128879,0.00
 205846,0.09307702,0.23366769,0.80907841,-0.01211862,0.02038888,-0.0036
 2750,0.00002256,-0.00054559,-0.01154569,0.21282940,0.01903266,-0.08115
 075,0.01105229,0.00876325,0.00524317,0.00039029,-0.00389707,0.17991947
 ,-0.00789454,0.02474853,-0.00893840,-0.01442476,-0.00620971,-0.0013950
 6,0.03275596,-0.07667429,0.25036939,-0.00432539,0.00270945,0.00261963,
 -0.00084558,-0.00050871,-0.00071277,-0.00407601,0.00129352,-0.00490975
 ,0.50419077,0.00184735,0.00200472,0.00389891,0.00018541,0.00025679,0.0
 0050801,-0.00133740,0.00319476,-0.00135748,-0.00833700,0.48842483,-0.0
 0536936,-0.00191197,-0.00214541,-0.00056424,-0.00035132,-0.00084638,-0
 .00388479,0.00096273,-0.00336683,-0.03509092,0.03659710,0.47487452,-0.
 00510335,0.00143458,-0.00319728,-0.00000213,-0.00009784,-0.00004308,0.
 00009277,-0.00084047,0.00016566,-0.00006668,-0.00031865,0.00001279,0.0
 4179103,-0.00033160,-0.00258025,0.00283049,-0.00021608,-0.00005905,-0.
 00008741,-0.00046674,0.00105511,-0.00023768,0.00041834,0.00053789,0.00
 013288,-0.01513164,0.21724958,0.00164525,-0.00301118,-0.00177659,0.000
 23092,0.00000383,0.00002376,-0.00027794,0.00055727,-0.00029362,0.00017
 255,0.00022462,0.00003778,0.02771350,-0.17228897,0.18796207,-0.0006921
 7,-0.00063603,-0.00153523,0.00001561,-0.00009672,-0.00002479,-0.000389
 77,-0.00035861,0.00004559,-0.00046887,-0.00098385,-0.00013956,-0.00057
 315,0.00004538,0.00067780,0.26973505,0.00128069,-0.00156210,0.00048594
 ,-0.00005138,0.00006595,0.00003701,0.00059048,-0.00033916,0.00014722,0
 .00127803,-0.00216724,-0.00129691,0.00015948,-0.00045252,-0.00043912,0
 .04026264,0.05004729,0.00027798,0.00045717,-0.00226520,-0.00006945,-0.
 00015807,-0.00000812,-0.00067714,0.00021075,-0.00007089,0.00052024,-0.
 00093801,-0.00024463,0.00063690,-0.00039405,-0.00011072,0.15504784,0.0
 1652352,0.12743809,-0.00162478,-0.00224113,-0.00341592,-0.00173481,-0.
 00010066,-0.00077301,-0.00439112,0.00232488,0.00380772,0.00001984,-0.0
 0055846,-0.00014015,0.00056568,0.00062181,-0.00038778,-0.00031796,0.00
 024679,0.00055589,0.08175509,0.00205450,0.00223782,-0.00234501,0.00019
 020,0.00044509,0.00016268,0.00028104,0.00104398,-0.00001711,-0.0005138
 3,-0.00003435,-0.00042065,-0.00096089,-0.00016854,0.00037265,0.0003612
 0,0.00003140,-0.00031786,0.11340697,0.29708526,-0.00050536,0.00270622,
 0.00142274,-0.00043809,0.00011639,0.00051150,0.00547632,-0.00147252,-0
 .00048540,0.00011985,-0.00012058,-0.00109792,0.00020794,0.00035119,0.0
 0027827,0.00030822,-0.00015945,-0.00055617,-0.03003407,-0.09842829,0.0
 6457671,-0.00055119,-0.00112370,0.00167756,-0.00059665,0.00204329,0.00
 544792,-0.00632395,0.00215186,0.00645608,-0.00085076,0.00051871,-0.000
 77291,0.00005475,-0.00017732,0.00012278,0.00020307,0.00000909,0.000102
 43,-0.00020181,0.00006797,0.00006842,0.68402686,-0.00050321,-0.0001571
 2,0.00081761,0.00159486,0.00154005,0.00073893,0.00169476,-0.00157346,0
 .00220976,-0.00001976,-0.00014001,0.00000757,-0.00002298,0.00002528,-0
 .00003790,-0.00007984,-0.00002302,-0.00009111,0.00001010,-0.00004192,-
 0.00000528,-0.04726677,0.16055527,-0.00004440,-0.00165172,0.00324843,0
 .00698674,0.00200747,-0.00727304,0.00084872,-0.00201747,0.01157459,0.0
 0045678,-0.00083281,0.00046383,0.00007333,0.00001796,-0.00006668,-0.00
 006617,-0.00003260,-0.00012498,0.00037205,-0.00036501,0.00001512,-0.09
 591167,0.07268188,0.73705719,0.00033647,0.00016108,0.00016174,-0.07203
 277,0.00140041,0.01504182,-0.00157986,-0.00276095,0.00222512,0.0001131
 0,-0.00002272,0.00007724,-0.00001355,0.00006408,-0.00007680,-0.0000072
 0,0.00001769,0.00000897,0.00044849,-0.00000152,0.00022094,0.00030806,-
 0.00058273,-0.00089119,0.08241249,0.00027542,0.00049732,-0.00145617,0.
 00436788,-0.11112796,-0.15279444,-0.00072402,-0.00249864,0.00194357,0.
 00020686,-0.00016530,0.00020285,0.00005862,-0.00000250,0.00002577,0.00
 010956,-0.00002205,0.00007820,0.00005297,-0.00022696,-0.00012990,-0.00
 171429,-0.00024634,-0.00002727,0.02006783,0.09747957,0.00010820,0.0008
 5521,-0.00116932,0.01515938,-0.15535999,-0.57649178,0.00104865,-0.0030
 9752,-0.00068073,0.00045804,-0.00029137,0.00051257,0.00007751,0.000014
 76,-0.00003539,0.00006167,-0.00006139,-0.00000865,0.00038642,-0.000278
 05,-0.00032059,-0.00405730,0.00031249,-0.00074275,-0.01301428,0.203827
 71,0.69602177,-0.02741893,-0.02831463,-0.02532198,-0.00164690,-0.00129
 107,-0.00129691,-0.00152916,0.00340361,-0.00794901,-0.16609349,-0.0797
 6979,0.04382425,-0.00019688,0.00029097,0.00014561,-0.00110669,0.000130
 11,-0.00044533,-0.00035666,0.00017289,0.00074034,-0.00134927,0.0000196
 1,0.00064583,0.00020932,0.00081572,0.00113480,0.61238673,-0.02426755,-
 0.06324936,-0.06560611,0.00131270,0.00128664,0.00107779,0.00961387,-0.
 00102883,0.00736184,-0.07761768,-0.12225177,0.03197926,-0.00056903,0.0
 0019264,0.00024041,-0.00006629,-0.00012568,-0.00027813,0.00023627,-0.0
 0076399,-0.00004687,0.00085611,-0.00004150,-0.00100728,-0.00014389,-0.
 00083869,-0.00095824,0.09286498,0.62123935,-0.02008228,-0.04475985,-0.
 07640049,0.00045648,0.00059718,0.00062252,-0.00958919,0.00462884,-0.00
 891035,0.03902426,0.03243124,-0.06370809,-0.00011935,0.00043291,0.0004
 3726,-0.00001725,-0.00010470,0.00000597,-0.00025321,0.00010988,-0.0000
 0071,0.00032974,0.00006688,-0.00049597,-0.00003514,-0.00016411,-0.0001
 3386,-0.00898296,-0.11487285,0.22738749,0.00009161,0.00509436,-0.00439
 173,-0.00807945,-0.00261540,0.00001345,-0.00657783,0.00253732,-0.00351
 800,-0.00006971,0.00074440,-0.00015958,0.00005457,-0.00011894,-0.00026
 931,0.00007214,-0.00003619,-0.00007951,0.00003295,0.00021672,-0.000246
 09,-0.08849159,0.00245115,-0.02436172,0.00190447,0.00066607,0.00083697
 ,-0.00277743,0.00700608,-0.00012423,0.21615832,-0.00028886,0.00016278,
 0.00065430,-0.00025039,0.00005037,-0.00053960,0.00247866,-0.00402556,0
 .00152768,0.00006511,-0.00024596,0.00007382,-0.00004477,0.00004324,0.0
 0008341,-0.00000085,0.00002735,0.00008002,0.00000082,0.00001236,-0.000
 02747,-0.00105015,-0.05697487,-0.03743113,0.00024763,-0.00021297,-0.00
 075773,0.00128399,-0.00248608,-0.00020215,-0.03189375,0.06234568,-0.00
 046549,0.00165040,-0.00284359,-0.01036575,-0.00264541,0.00074570,0.005
 43299,0.00271519,-0.00679824,-0.00039506,0.00042800,-0.00044428,-0.000
 07019,0.00002231,0.00004139,-0.00005129,0.00002464,0.00006487,-0.00044
 071,0.00005428,0.00007748,-0.04013944,-0.03532863,-0.31486929,0.003180
 92,-0.00038237,-0.00267561,-0.00023208,0.00052905,0.00047432,0.0303890
 0,0.05801351,0.45927629,-0.06756140,-0.00487657,0.03799890,0.00121061,
 0.00072494,0.00042293,0.00192724,0.00221029,0.00404304,-0.00489150,0.0
 0302374,0.00086942,0.00028326,-0.00055460,-0.00036172,0.00107552,-0.00
 041917,-0.00055625,0.00020162,0.00002591,-0.00067188,0.00025016,0.0005
 1692,-0.00034582,-0.00033876,-0.00040930,-0.00053388,-0.03950063,-0.02
 105693,0.00882535,0.00277616,0.00043562,0.00012321,0.79774915,-0.00337
 976,-0.00206622,0.00144577,0.00027571,0.00047113,0.00077943,-0.0023317
 7,-0.00715362,-0.00132820,-0.00170446,0.00089587,0.00229198,0.00015782
 ,-0.00031077,-0.00007350,-0.00009478,-0.00046719,0.00001303,-0.0002673
 3,0.00012795,0.00060534,0.00112821,0.00076565,0.00267638,0.00003635,-0
 .00034073,-0.00051159,-0.03918176,0.01059596,0.01029205,-0.00772933,-0
 .00035021,-0.00199804,0.03017801,0.50704468,0.03251855,0.00263223,-0.0
 3854906,0.00018412,0.00044189,0.00052589,0.00456369,0.00155261,-0.0007
 2528,-0.00156173,0.00052855,0.00191066,-0.00067858,0.00074040,0.000624
 17,-0.00069475,0.00039337,0.00043607,-0.00047037,-0.00011164,0.0006265
 9,0.00068804,-0.00031289,-0.00215623,0.00005293,-0.00004861,-0.0003803
 0,-0.00355350,0.00526192,-0.00263679,0.00062761,-0.00003161,0.00156904
 ,-0.01312479,-0.10400850,0.16238431,-0.00732617,-0.01665067,0.01933307
 ,0.00069232,0.00034569,0.00009024,-0.00063691,-0.00072698,-0.00120357,
 -0.00070298,0.00079580,0.00203530,0.00020384,0.00035336,0.00063898,-0.
 00000180,-0.00052389,0.00050864,-0.00015106,0.00023761,-0.00030292,0.0
 0014179,0.00010987,0.00006962,-0.00016366,-0.00010754,-0.00019551,0.00
 258775,-0.03645654,0.02284290,-0.00097821,0.00007474,0.00000223,-0.196
 41085,0.10308429,-0.01732561,0.58219930,-0.01277689,-0.03856493,0.0415
 3000,-0.00162205,-0.00084082,-0.00056965,-0.00159531,-0.00080636,-0.00
 045331,0.00237408,-0.00309280,0.00282072,0.00152826,-0.00073754,-0.001
 76426,0.00014519,-0.00001281,-0.00004997,0.00055618,-0.00027084,-0.000
 68818,-0.00023902,-0.00008536,0.00164465,0.00037358,0.00049696,0.00039
 283,-0.02270688,-0.03802992,0.01412258,0.00004352,0.00062900,-0.001179
 24,0.14151634,-0.18778616,0.03901836,0.05776111,0.74225698,0.01267412,
 0.03073841,-0.11100578,-0.00016442,0.00002347,0.00014182,0.00014452,0.
 00015238,-0.00018904,-0.00044597,0.00095985,0.00148842,0.00010114,0.00
 023682,-0.00050407,-0.00044244,0.00003175,0.00009116,0.00047014,-0.000
 89817,-0.00023637,0.00005377,-0.00017866,-0.00056091,0.00007733,0.0001
 1674,0.00002769,0.01020793,-0.00194278,0.00558982,0.00030109,-0.000165
 78,0.00040860,-0.05325884,0.06180603,-0.04292533,-0.00229665,-0.194613
 47,0.21669690,-0.03027961,0.00541843,-0.05134820,0.00005245,-0.0000215
 5,0.00004553,-0.00311406,0.00060055,-0.00095928,0.00370126,-0.01790237
 ,0.00814652,0.00016211,0.00081591,0.00056327,-0.00272111,0.00067671,0.
 00396413,-0.00023800,0.00006980,0.00054537,0.00003408,-0.00004325,0.00
 030127,0.00001178,0.00003125,0.00013347,-0.07392746,0.05236596,-0.0140
 6187,-0.00258338,0.00081793,-0.00020141,-0.05626290,0.02115688,-0.0199
 7440,-0.30304005,-0.12642113,0.03324049,0.75920507,0.00221748,0.000347
 67,0.00959591,-0.00089776,-0.00074845,-0.00057269,0.00262016,0.0001111
 0,0.00131334,0.00063001,-0.01910097,0.00676213,-0.00014811,-0.00119134
 ,-0.00130564,0.00055181,0.00065444,-0.00072952,0.00005064,0.00001027,0
 .00046421,-0.00014126,-0.00005097,-0.00034344,0.00010550,0.00039243,0.
 00041779,0.01368834,-0.29257125,0.06161686,0.00148190,-0.00045693,0.00
 017265,0.00712001,0.01139486,-0.01260168,-0.09396520,-0.12082432,0.030
 31009,-0.07980254,0.56683060,-0.04667114,-0.00089481,-0.09147511,-0.00
 011403,-0.00012171,-0.00009117,0.00089885,0.00044439,-0.00078044,-0.00
 097645,0.00440535,-0.00326356,-0.00032257,0.00011165,-0.00029379,0.000
 13820,-0.00038747,-0.00286838,-0.00032325,-0.00015549,0.00059801,0.000
 24067,-0.00011298,-0.00028167,-0.00002911,0.00025772,0.00007688,-0.007
 25902,0.09340542,-0.04513733,-0.00063650,0.00015459,0.00003483,0.00595
 540,-0.01338818,0.00756888,-0.00773421,0.01430101,-0.03078684,0.083148
 75,-0.13231864,0.20878011,0.00253693,-0.00131123,-0.00358330,-0.000335
 98,-0.00014347,-0.00003408,-0.00077743,-0.00087856,0.00145268,-0.00026
 150,0.00058005,0.00013528,0.00014908,-0.00031119,-0.00022181,0.0003819
 0,-0.00003110,-0.00022949,0.00011508,0.00007370,-0.00016418,0.00053752
 ,0.00003047,0.00012815,0.00011412,0.00003356,0.00000876,-0.00278301,-0
 .00108432,0.00087582,0.00059499,0.00072904,-0.00032131,-0.32772018,-0.
 04849010,0.00556933,-0.01820959,-0.00229550,0.00016092,-0.00388746,0.0
 0192499,0.00041969,0.35979397,-0.00033763,-0.00140986,0.00099154,-0.00
 007788,0.00003517,0.00010474,-0.00083889,-0.00070210,0.00101706,-0.001
 39275,0.00051063,0.00007461,0.00006355,0.00013905,-0.00000786,-0.00012
 288,-0.00014545,0.00001261,0.00000831,-0.00007552,-0.00013661,0.000743
 38,-0.00077244,0.00222624,0.00005307,-0.00003358,-0.00013206,-0.004072
 27,-0.00373360,0.00224464,0.00084965,0.00014537,-0.00109630,-0.0491537
 5,-0.04551301,0.00625908,0.01903819,0.00373238,-0.00051854,0.00278716,
 -0.00255877,0.00067942,0.05445949,0.05794522,0.00173212,0.00235287,0.0
 0316159,0.00053172,0.00017745,0.00002844,0.00079071,0.00040333,-0.0002
 5363,-0.00035140,-0.00022431,0.00049294,-0.00024804,0.00016885,0.00011
 591,-0.00016058,0.00004533,0.00016963,-0.00018813,-0.00009259,-0.00000
 723,-0.00038981,0.00082132,-0.00010842,-0.00018235,-0.00009007,0.00002
 216,-0.00077553,0.00030229,0.00180206,0.00000356,0.00008911,-0.0000708
 0,0.00935567,0.00745414,-0.02196304,-0.01006033,-0.00196971,-0.0013280
 3,-0.00300130,0.00188264,0.00186259,0.00031541,-0.00449189,0.02667889,
 -0.00253175,0.00063496,-0.00107187,0.00027264,0.00010581,0.00008006,-0
 .00003520,0.00065294,0.00010754,0.00051882,-0.00070268,0.00043606,-0.0
 0054308,0.00060617,0.00123854,0.00011833,-0.00020600,0.00007671,-0.000
 04433,0.00015279,-0.00023529,0.00009515,0.00001349,-0.00016771,-0.0000
 6608,-0.00009583,-0.00008072,-0.00442665,-0.00256443,0.00111879,-0.000
 03790,0.00000776,0.00012159,0.00526178,0.01641080,-0.00379371,-0.04297
 811,-0.04115514,0.01031695,-0.00347692,-0.02537734,0.00632418,0.000000
 84,0.00024392,0.00035777,0.05297500,0.00120324,-0.00069069,-0.00363431
 ,-0.00053774,-0.00035105,-0.00031887,-0.00049738,-0.00048976,-0.000503
 29,0.00037454,-0.00022670,0.00046730,0.00035824,0.00034917,-0.00039964
 ,0.00010037,-0.00005445,-0.00004135,0.00002969,0.00001888,-0.00018805,
 -0.00036250,-0.00006240,0.00018668,0.00013165,0.00015772,0.00023370,-0
 .00174395,-0.00282145,0.00196694,0.00013812,0.00006961,-0.00015071,-0.
 00360798,-0.01589127,0.00332886,-0.04236798,-0.31366638,0.07090293,-0.
 00243395,-0.01068314,0.00242108,0.00032927,0.00003420,-0.00034398,0.04
 922325,0.34589322,-0.00225755,0.00431548,0.00123961,-0.00005396,-0.000
 12605,-0.00003232,0.00009759,-0.00107300,-0.00018645,-0.00021715,-0.00
 041349,0.00045464,0.00140304,-0.00043388,-0.00089082,-0.00041523,0.000
 04299,0.00010656,-0.00005460,-0.00030416,0.00010011,0.00007998,-0.0000
 2174,-0.00004798,0.00000228,0.00008096,0.00008784,-0.00091809,-0.00085
 338,0.00256964,0.00009496,-0.00009196,-0.00002712,-0.00029009,0.000602
 66,-0.00311245,0.01221643,0.07516656,-0.03898307,0.00020924,-0.0020016
 8,-0.00075071,0.00007478,-0.00009080,-0.00109567,-0.00554346,-0.075402
 47,0.04390742,-0.00253177,0.00032072,0.00266563,0.00008521,0.00015610,
 0.00023153,-0.00020835,-0.00034980,0.00017436,0.00023349,-0.00036354,-
 0.00005466,-0.00016865,-0.00077673,-0.00050115,0.00011269,-0.00009300,
 0.00258442,0.00000548,-0.00015682,0.00021247,0.00025604,-0.00010645,0.
 00012447,0.00000152,-0.00003429,-0.00012093,-0.00097096,0.00139197,-0.
 00010199,0.00001088,0.00012925,-0.00008556,-0.00540571,-0.00032519,-0.
 00129049,-0.02001929,0.01195607,-0.00303761,-0.26697722,0.12795199,-0.
 03291996,-0.00044182,0.00080034,-0.00081048,-0.00029138,-0.00035875,0.
 00006565,0.29627036,-0.00057049,-0.00273064,-0.00021643,-0.00024517,-0
 .00017382,-0.00025785,0.00141894,-0.00070770,0.00048539,0.00041901,0.0
 0019310,-0.00066623,-0.00050990,-0.00087585,-0.00098036,-0.00070290,0.
 00116632,0.00074036,0.00011603,-0.00011091,0.00001795,-0.00025066,-0.0
 0005432,-0.00004638,0.00003633,0.00010392,0.00015651,0.02197350,-0.009
 83460,0.00150694,0.00065525,-0.00013657,0.00000834,-0.00199083,-0.0016
 7163,0.00071734,-0.01086040,0.00718009,-0.00245463,0.12997180,-0.10851
 152,0.02140309,-0.00051867,0.00046029,-0.00002282,-0.00040076,0.000353
 32,-0.00003145,-0.13977077,0.11913857,-0.00031424,0.00140972,0.0008164
 9,-0.00005013,-0.00005862,-0.00006764,0.00077288,-0.00049522,0.0001394
 9,-0.00068565,-0.00085659,-0.00069727,-0.00082082,-0.00081046,-0.00028
 011,0.00235246,0.00097848,-0.00442363,-0.00018852,-0.00015631,0.000171
 90,-0.00003762,0.00006494,0.00026795,0.00001342,0.00006101,0.00009154,
 -0.00353918,0.00212132,-0.00289033,-0.00034150,0.00007408,-0.00030377,
 0.00174511,0.00041195,0.00298070,0.00290932,-0.00343107,-0.00128520,-0
 .03426164,0.02212235,-0.02331389,0.00042583,0.00002659,0.00048172,-0.0
 0005397,-0.00016672,-0.00110200,0.03013893,-0.02334827,0.03109001,0.00
 049792,-0.00873846,0.00644765,0.01138605,0.00370520,0.00100865,0.00318
 404,-0.00169515,0.01199283,-0.00040273,-0.00087616,0.00004981,-0.00009
 440,0.00007973,0.00034599,0.00006135,0.00005851,0.00014416,0.00013973,
 0.00010019,0.00007378,-0.01455865,-0.00937689,-0.07659251,-0.00287785,
 -0.00077716,-0.00036610,0.00127685,-0.00649151,-0.00010395,-0.03618378
 ,0.01031144,0.04378069,-0.00523400,0.01097105,-0.00013011,0.00159254,-
 0.00029927,0.00011027,0.00237673,-0.00143119,0.00090429,-0.00090012,-0
 .00261794,0.00007586,0.00006126,-0.00026929,-0.00006257,-0.00011837,-0
 .00059596,0.00036400,0.01980277,-0.00132196,0.00214496,-0.00020972,-0.
 00354809,-0.00098712,-0.00021426,0.00037728,0.00436633,-0.00751744,0.0
 0007794,0.00040012,-0.00027840,-0.00007859,0.00003581,-0.00001474,-0.0
 0005593,0.00000097,-0.00002591,-0.00019109,-0.00004731,0.00018167,-0.0
 0130360,0.00649608,0.01947409,0.00088392,0.00013522,0.00017566,-0.0003
 1206,0.00285143,0.00067587,0.00813491,-0.02193762,-0.01554711,0.004250
 64,-0.00986580,0.00074876,0.00011906,-0.00174281,0.00030466,-0.0009755
 0,0.00005928,-0.00040570,-0.00027126,-0.00211668,0.00035813,0.00021298
 ,-0.00012154,0.00007222,-0.00019915,0.00025455,-0.00024680,0.00758709,
 0.02857186,-0.00009566,-0.00038790,0.00195244,0.00004417,-0.00045260,-
 0.00147465,-0.00186768,0.00007987,0.00281656,0.00011553,-0.00018370,0.
 00028923,-0.00001814,0.00003658,-0.00002670,-0.00003831,0.00004195,-0.
 00003133,0.00015991,-0.00004584,-0.00011905,-0.03054333,0.00519546,-0.
 00103618,-0.00014955,0.00033085,0.00107077,-0.00060043,0.00066033,-0.0
 0125575,0.01744832,-0.00744628,-0.03512661,-0.00059902,0.00339198,-0.0
 0012726,0.00010086,0.00068806,-0.00015612,-0.00037616,-0.00001273,0.00
 015160,0.00015848,0.00036430,0.00055272,-0.00006911,0.00021282,0.00002
 732,-0.00011081,0.00022125,0.00020463,0.01125291,0.00558653,0.04933149
 ,-0.00930986,0.02769706,-0.01009832,-0.00287672,-0.00064974,0.00036799
 ,-0.01542464,-0.00461112,-0.01077153,-0.01561256,0.00263705,0.00201113
 ,0.00003842,-0.00067110,-0.00038883,0.00046024,0.00027497,0.00006424,0
 .00054636,-0.00038570,-0.00072246,0.00298565,0.00379128,0.02307424,0.0
 0094864,0.00002987,0.00034256,-0.26681233,0.03206749,-0.03109813,-0.05
 377316,0.01619761,-0.01607454,-0.11025678,-0.07685591,0.02756682,0.014
 80090,-0.00427888,-0.00642018,-0.01926783,0.04373275,-0.00192955,-0.00
 828956,-0.02100904,0.00287653,-0.00207973,0.00088088,0.00017478,-0.001
 10809,0.00279383,0.00048476,0.03689953,-0.01550096,0.00676127,0.444381
 94,0.03006917,-0.08354465,-0.01865944,-0.00010090,-0.00099448,0.000827
 76,-0.01003980,-0.01882631,0.04301000,-0.01528333,0.00423882,0.0005444
 6,-0.00096630,0.00148053,0.00081993,-0.00104670,0.00005534,0.00069645,
 -0.00036895,-0.00028422,0.00007087,-0.00107619,-0.00176076,-0.01353936
 ,0.00029260,0.00089583,0.00068438,0.06100281,-0.07101311,0.01448380,0.
 01657798,-0.00150225,0.00968418,-0.10924155,-0.24410754,0.07510390,0.0
 1842520,-0.04884717,0.00205973,0.01905118,-0.01672626,0.00602457,-0.00
 134490,-0.00232258,-0.00100447,0.00350381,-0.00366363,-0.00050344,-0.0
 0079532,-0.00383160,0.00066849,-0.00586905,-0.00394856,-0.00797299,0.0
 0062940,0.47707023,0.01688691,-0.05245513,-0.00916979,0.00625879,0.003
 07082,0.00071099,-0.00985870,0.04266533,-0.08723619,0.00496934,-0.0032
 5371,-0.00332731,-0.00018910,0.00040834,0.00002149,-0.00071854,0.00032
 201,0.00039311,-0.00008173,-0.00038330,0.00017381,-0.00051688,-0.00176
 188,-0.00883042,-0.00170454,-0.00102045,-0.00091280,-0.01307681,0.0152
 1680,-0.02786057,0.01391807,-0.00240561,0.01094448,0.00940530,0.048277
 40,-0.04333950,-0.01635533,0.02630282,0.00134842,-0.00574122,0.0221567
 7,-0.00192556,-0.00013863,-0.00201021,-0.00222805,-0.00224948,0.003484
 17,0.00264326,-0.00083121,0.00350527,0.00215282,-0.01855029,0.00407154
 ,-0.00919928,0.01736218,-0.11422129,0.17676994,0.00052985,-0.00053440,
 0.00037410,-0.08228028,0.00235203,0.00955639,-0.00032954,-0.00079155,-
 0.00510198,0.00019426,-0.00000150,0.00019793,0.00001852,0.00001693,-0.
 00001923,0.00004857,-0.00002895,0.00002066,0.00014862,-0.00024059,0.00
 004835,0.00710359,0.00111515,0.01888235,-0.00269083,-0.00252905,0.0234
 8204,0.00003219,0.00017719,-0.00003350,-0.00072472,0.00191013,0.006805
 10,-0.00012313,0.00018536,0.00030376,-0.00006179,0.00023579,0.00011762
 ,-0.00008401,0.00011423,0.00018134,-0.00000819,0.00007397,-0.00008770,
 -0.00004930,0.00002361,0.00001026,0.00005065,0.00000071,0.00001278,-0.
 00173668,0.00053371,-0.00075566,-0.00021397,-0.00015949,-0.00097341,0.
 42197108,-0.00033031,0.00000171,-0.00006541,0.00483413,-0.06420387,0.0
 0427890,-0.00008315,0.00042150,0.00238205,0.00001760,-0.00002862,-0.00
 000301,-0.00000587,0.00000853,-0.00002193,-0.00002808,0.00000006,-0.00
 004500,0.00008973,-0.00003182,0.00001540,0.00013736,-0.00629955,-0.004
 98593,0.00049685,0.01146041,-0.00971137,-0.00004038,0.00008493,0.00003
 876,0.00110456,0.00874588,-0.00232731,0.00006077,0.00007294,-0.0001261
 1,-0.00002974,0.00000935,-0.00004712,-0.00000676,-0.00002133,-0.000010
 48,-0.00005676,-0.00002831,0.00012596,-0.00000577,-0.00003219,-0.00001
 627,0.00000823,-0.00002842,0.00001747,-0.00072590,0.00068285,-0.000080
 14,0.00061362,-0.00012415,-0.00036731,-0.01675385,0.43828987,-0.000215
 16,-0.00051519,0.00063935,0.02042965,0.00703796,-0.05784630,-0.0022894
 9,0.00209873,-0.00536126,-0.00016639,0.00013416,-0.00014816,0.00001753
 ,-0.00003974,0.00001757,0.00005388,-0.00002885,-0.00000587,-0.00002079
 ,-0.00002672,0.00001676,0.00598610,-0.00245747,-0.03602429,0.03447916,
 -0.00653053,-0.04821455,-0.00044940,0.00030681,0.00013629,0.00197574,-
 0.00246168,-0.00550709,0.00015245,0.00020423,0.00026509,0.00008680,-0.
 00022868,-0.00001270,0.00007441,-0.00016286,0.00010172,-0.00001015,0.0
 0010405,-0.00010095,0.00002006,-0.00011223,0.00000322,0.00007884,-0.00
 008613,0.00000146,-0.00032014,-0.00004180,-0.00041941,0.00025009,-0.00
 007520,0.00030974,0.03074992,0.00606376,0.46652452,0.00027779,0.000325
 02,0.00022198,-0.27604567,-0.13242449,-0.12166579,-0.01868781,-0.00594
 525,0.00574018,0.00049683,-0.00019212,0.00040740,-0.00000075,0.0001649
 0,-0.00015139,0.00001071,0.00000442,0.00004638,0.00087743,0.00019408,0
 .00004234,-0.00059504,-0.00052282,-0.00481884,-0.00029656,-0.01992344,
 -0.03276645,0.00100888,-0.00157307,0.00010767,0.00440441,-0.00032148,0
 .00397217,-0.00059057,-0.00044605,-0.00073922,-0.00017637,0.00104226,-
 0.00001363,0.00021740,0.00035160,-0.00021485,0.00013995,-0.00001560,-0
 .00022415,-0.00013505,0.00034430,-0.00000253,-0.00012496,0.00001517,0.
 00002971,-0.00577143,0.00177440,0.00055821,0.00604129,0.00104331,-0.00
 214254,-0.05220295,-0.03096405,-0.00593101,0.35086156,0.00016720,-0.00
 025813,0.00020382,-0.13734581,-0.14149797,-0.07779869,-0.00468155,-0.0
 1888704,0.01842070,0.00032892,-0.00023535,0.00012062,-0.00005408,0.000
 06968,0.00013526,-0.00001825,0.00001151,0.00011749,-0.00010135,-0.0006
 1114,0.00010570,-0.00141151,-0.00109799,-0.00136221,-0.02157932,-0.000
 54758,-0.03803532,-0.00038707,0.00018686,0.00006354,0.00115710,0.00047
 750,0.00145947,-0.00079367,0.00159754,-0.00007659,0.00071912,-0.000064
 07,-0.00001105,-0.00011877,-0.00061623,-0.00006344,0.00003370,-0.00003
 404,0.00001413,0.00000327,0.00015875,-0.00009353,-0.00012697,0.0000154
 7,-0.00011804,-0.00174240,0.00010100,-0.00003413,0.00215809,0.00264541
 ,-0.00117623,-0.02369738,0.00388605,-0.00558986,0.18870024,0.15085042,
 0.00065911,-0.00020498,-0.00184886,-0.11698067,-0.07566943,-0.15128420
 ,0.01805222,0.02026351,-0.06108373,0.00034441,0.00012114,0.00041412,-0
 .00000581,0.00001388,-0.00007168,0.00003824,-0.00007125,0.00000070,-0.
 00050074,0.00032512,-0.00046379,-0.00098045,-0.00053166,-0.00292777,-0
 .05139966,-0.04846638,-0.05778942,0.00256369,-0.00083755,-0.00171041,0
 .00398720,-0.00074065,0.00361265,-0.00160208,-0.00116862,-0.00159159,-
 0.00069339,0.00137231,-0.00011546,-0.00039808,0.00166640,0.00031723,-0
 .00009507,-0.00014144,-0.00010316,-0.00032431,0.00044370,0.00029401,-0
 .00011975,0.00041045,0.00020633,-0.00599729,0.00252705,0.00047513,-0.0
 0061858,-0.00168581,0.00352626,0.00230837,-0.00053428,0.00821899,0.152
 40425,0.09999223,0.26012006,-0.01538872,0.00419073,-0.01882205,-0.0000
 0004,0.00126258,0.00072819,0.00172972,0.00000180,0.00027568,-0.0003215
 1,0.00018055,0.00012912,-0.00219556,-0.00105723,-0.00378724,-0.0003104
 5,0.00060527,-0.00571641,-0.00633140,-0.00485410,-0.00408067,0.0004811
 3,-0.00003379,-0.00005882,0.00015487,-0.00061511,-0.00038388,-0.003307
 84,0.00326694,-0.00287142,-0.00078785,-0.00000027,-0.00017714,0.005382
 75,-0.00139738,-0.00501089,0.00507212,-0.00119854,0.00363408,-0.003919
 87,-0.00648192,0.00192616,0.00034370,-0.00011981,-0.00066546,-0.000149
 30,0.00002355,0.00021652,0.00020337,-0.00021294,0.00022341,0.00120917,
 -0.00013188,0.00015265,0.00073129,0.00575908,0.00459973,0.00005671,-0.
 00012740,0.00001433,-0.00045369,0.00022025,-0.00058748,0.50796330,-0.0
 0485484,-0.00642550,0.01649325,0.00050523,-0.00121606,-0.00008401,0.00
 478761,-0.00517944,-0.00370452,0.00010469,0.00035397,0.00003303,-0.000
 02820,0.00043464,0.00427076,0.00009229,-0.00216985,0.00209569,-0.01703
 404,-0.01056601,-0.01312480,0.00020056,0.00031383,0.00091201,-0.000245
 18,-0.00009094,-0.00017058,-0.00759915,0.00841360,-0.00536901,-0.00162
 765,0.00001674,-0.00061006,0.00731420,-0.00684700,-0.00977718,0.003022
 07,-0.00250481,0.00778841,-0.00729105,-0.01032239,-0.00315581,-0.00007
 223,-0.00018713,-0.00035950,0.00003344,0.00013404,0.00064426,-0.000070
 88,-0.00037597,-0.00016709,0.00222170,-0.00041106,0.00035814,0.0045090
 6,0.01161614,0.00510978,-0.00022554,0.00003929,0.00021654,0.00026312,-
 0.00040318,0.00054419,0.05951109,0.51472050,-0.02057001,0.01196809,-0.
 06516366,0.00009853,-0.00011272,-0.00211230,0.00186026,-0.00256120,-0.
 00140888,0.00103844,0.00128780,0.00091460,-0.00300153,0.00042453,-0.00
 210675,-0.00169157,0.00266589,-0.00102151,0.00741628,0.00285622,0.0038
 3213,-0.00095089,-0.00015137,-0.00038438,-0.00047264,0.00042461,0.0012
 3359,-0.00069520,0.00698635,0.00396393,0.00094290,0.00001923,0.0006816
 5,0.00255361,-0.01232337,0.00330250,-0.00916549,-0.00214656,0.00469217
 ,0.00193721,-0.00029236,-0.00819265,-0.00072559,0.00018075,0.00098053,
 -0.00050891,-0.00005211,0.00143070,0.00069930,0.00020508,0.00106309,-0
 .00184515,0.00075149,-0.00036369,0.01421708,-0.00217077,-0.00680878,-0
 .00056103,-0.00017889,-0.00032266,-0.00003472,0.00076067,0.00075928,0.
 28644001,-0.20839706,0.48788498,-0.01773048,-0.01579623,-0.00392382,-0
 .00008425,-0.00025197,-0.00024315,-0.00025173,0.00006535,-0.00005937,0
 .00026498,0.00007765,0.00008886,-0.00227446,0.00230094,0.00071948,-0.0
 0170946,-0.00541459,-0.00266710,-0.00279216,-0.00296651,-0.00353320,-0
 .00003481,0.00000911,-0.00024003,-0.00007437,0.00047963,0.00016517,-0.
 00157019,0.00379331,0.00197768,-0.00021199,0.00003411,0.00017758,0.003
 31371,-0.00350957,-0.00034056,-0.00243231,-0.00108089,0.00186409,-0.00
 154773,0.00085499,-0.00298882,0.00022902,0.00000496,-0.00037869,0.0000
 2131,0.00008806,-0.00000543,0.00001066,-0.00022302,-0.00020331,0.00039
 785,-0.00007311,-0.00005381,0.00556629,0.00132318,-0.00166508,0.000091
 78,0.00003213,-0.00008958,-0.00006143,0.00001293,0.00004031,-0.0566618
 5,-0.03832428,-0.00747029,0.54648097,-0.01270421,-0.05786935,-0.046514
 12,0.00048089,-0.00057179,-0.00014872,-0.00019541,-0.00130326,-0.00076
 856,0.00009570,0.00044167,0.00026616,0.01587912,-0.00022447,0.01280682
 ,-0.00187214,-0.00267438,0.00137789,-0.00271532,-0.00148235,-0.0016225
 8,0.00017065,-0.00009376,0.00012405,-0.00016163,0.00008974,0.00008393,
 0.00519012,-0.00311937,-0.00309663,-0.00061439,0.00025620,-0.00008686,
 -0.00232724,0.01160639,0.00025808,0.00965825,0.00367951,-0.00183416,0.
 00225813,-0.00087471,0.00811840,-0.00042975,0.00034204,0.00070002,-0.0
 0000423,-0.00033619,0.00031227,0.00010452,0.00010289,0.00110494,0.0006
 1949,0.00003178,0.00036010,-0.01044177,0.00161858,0.00606907,-0.000168
 93,-0.00009619,-0.00002454,-0.00013941,0.00064962,-0.00028329,-0.03029
 826,-0.28987809,0.14816376,0.22151316,0.63841242,-0.01448730,-0.031022
 68,-0.02851258,0.00103532,0.00020047,-0.00042162,0.00151072,0.00180362
 ,-0.00008956,-0.00043618,0.00058658,0.00052717,-0.01072473,0.00000074,
 -0.01123222,-0.00060615,0.00038252,-0.00017397,-0.00125496,0.00101972,
 0.00026259,-0.00013066,0.00040026,0.00077916,-0.00040149,0.00015286,0.
 00006792,-0.00681609,0.01191081,-0.00281270,-0.00216205,0.00019345,-0.
 00049588,0.00592783,-0.00459281,-0.00828939,0.00403261,-0.00453112,0.0
 0779601,-0.00546404,-0.01186385,-0.00469975,-0.00060811,0.00022232,0.0
 0014287,-0.00022641,-0.00006461,0.00149296,0.00038947,-0.00012475,0.00
 080923,0.00283508,-0.00034134,0.00054097,0.00568727,0.01152368,0.00523
 671,-0.00028204,0.00013590,-0.00002574,-0.00079972,0.00015531,-0.00043
 386,-0.01577087,0.08026534,-0.10705075,0.23480503,-0.07180836,0.362480
 29,-0.04212627,0.04740839,0.01439315,0.00022405,0.00045924,0.00037918,
 0.00003006,-0.00207466,0.00078451,0.00016984,-0.00016025,-0.00031669,-
 0.03501032,0.01485235,-0.02479350,-0.01169596,-0.01904676,0.00131958,-
 0.00027580,-0.00080625,-0.00177216,0.00026642,0.00011523,0.00061679,-0
 .00001954,-0.00021182,-0.00019931,-0.00119866,-0.00314524,-0.00753681,
 -0.00070015,0.00003735,-0.00066600,0.00001219,0.01160813,-0.00375773,0
 .00940394,0.00213959,-0.00347287,0.00268926,-0.00647746,0.00214002,0.0
 0026083,-0.00007022,-0.00054372,0.00018874,0.00026776,-0.00040205,-0.0
 0039765,-0.00034345,-0.00040232,0.00116969,-0.00054207,0.00037897,-0.0
 0936947,0.00122333,0.00774568,0.00012957,0.00004386,0.00021215,-0.0001
 8764,-0.00010499,-0.00054285,-0.00697463,0.03204354,-0.00286098,-0.210
 03131,-0.01062780,-0.16375234,0.44988825,0.05689307,-0.10650336,-0.034
 56128,-0.00024434,-0.00013719,-0.00009581,-0.00037580,0.00094194,-0.00
 026494,0.00097738,0.00082909,0.00041734,0.01534422,-0.19690835,0.15716
 645,-0.00151085,-0.00242785,-0.00126582,0.00152195,-0.00231545,0.00192
 891,-0.00020461,-0.00017911,0.00000915,0.00007905,0.00008314,0.0000393
 3,0.00619237,-0.00571818,-0.00138483,0.00011808,0.00014768,0.00020794,
 -0.00363338,0.00593622,0.00315729,0.00193335,0.00077185,-0.00196913,0.
 00510970,0.00055155,0.00056135,-0.00040937,0.00030083,0.00050781,-0.00
 064055,-0.00011919,0.00079217,0.00054055,0.00038315,0.00032447,-0.0004
 5416,0.00007423,-0.00005953,-0.00867110,-0.00157249,0.00135542,-0.0000
 6343,-0.00001231,-0.00007032,0.00017207,0.00007739,0.00001133,0.013996
 09,-0.00382197,0.02159536,0.03078928,-0.07259141,0.04974495,0.05578129
 ,0.65256364,0.01941767,-0.02354657,-0.02166552,0.00022321,-0.00007478,
 -0.00010396,-0.00126265,0.00249967,-0.00056152,0.00055422,-0.00008433,
 -0.00027342,-0.02481832,0.15748029,-0.16863957,-0.00661825,-0.01378319
 ,-0.00036180,-0.00315871,0.00358789,-0.00054496,-0.00013043,-0.0000576
 3,-0.00032615,-0.00011835,0.00002110,0.00014827,0.00510339,-0.00624796
 ,-0.00213081,0.00129015,-0.00010621,0.00041621,-0.00320530,0.00401794,
 0.00187640,0.00581095,0.00145059,-0.00227125,0.00012481,-0.00292844,0.
 00068565,-0.00023076,0.00019541,0.00044059,0.00077829,-0.00052666,-0.0
 0103986,-0.00031323,-0.00117781,-0.00122736,-0.00197184,0.00035110,-0.
 00047540,-0.00467481,-0.00678777,-0.00251238,-0.00001643,0.00001545,-0
 .00001521,-0.00002688,-0.00010133,0.00038247,-0.01015652,0.04855373,-0
 .02068242,-0.15235895,0.01388859,-0.17189466,0.18678142,-0.23704416,0.
 45272831,-0.10565956,0.03509840,0.04426039,-0.00049483,-0.00005378,-0.
 00001890,-0.00082674,0.00124876,-0.00000097,-0.00188704,-0.00074022,0.
 00002019,0.00336566,0.00315477,0.00077929,-0.24996899,-0.03249802,-0.1
 4127727,0.00573324,-0.00552698,0.00671316,0.00021283,0.00003674,-0.000
 04936,0.00013736,0.00002614,0.00001615,0.00495211,-0.00546203,0.000779
 76,0.00076227,-0.00007234,-0.00011363,-0.00149387,0.00477850,0.0035010
 3,-0.00282996,0.00183015,-0.00124264,-0.00381568,0.00558485,0.00265533
 ,0.00047406,-0.00011800,-0.00001201,0.00021728,0.00005476,-0.00098263,
 -0.00031132,0.00029817,-0.00194271,-0.00062214,-0.00001790,-0.00002904
 ,-0.00712722,-0.00670962,-0.00177274,0.00018835,0.00003104,0.00009786,
 0.00048515,-0.00036458,0.00016827,-0.02872896,0.00517068,-0.02136622,-
 0.03729844,-0.01484480,-0.01536388,-0.15319216,-0.15844510,-0.00593135
 ,0.68714969,0.02381752,-0.00733698,-0.00986148,-0.00008795,-0.00030878
 ,-0.00031233,0.00270792,-0.00158316,-0.00082984,-0.00070042,-0.0016797
 9,-0.00067926,-0.01241702,-0.01553494,0.00010452,-0.03519364,-0.036652
 45,-0.01183678,0.01238975,-0.01364973,0.01093178,-0.00022950,-0.000157
 25,-0.00043816,-0.00005475,0.00008569,0.00030671,0.00235463,0.00147819
 ,0.00346280,0.00062543,-0.00013729,0.00051807,0.00291742,-0.01347980,0
 .00332713,-0.01088459,0.00115720,0.00305390,0.00089985,0.00785015,-0.0
 0427622,0.00001386,-0.00028859,-0.00030143,-0.00049164,-0.00007210,0.0
 0045399,0.00041977,0.00080690,0.00018610,-0.00137542,0.00042881,-0.000
 34422,0.01099755,-0.00040363,-0.00776103,-0.00011844,-0.00006306,-0.00
 018287,-0.00004022,0.00020338,0.00044685,0.02047087,0.00266529,-0.0063
 6236,-0.04304714,0.00915448,-0.01909751,-0.10842957,-0.22781871,0.0332
 3941,0.09856980,0.47190214,0.02915846,-0.01838092,-0.01641702,-0.00063
 598,-0.00043633,-0.00074019,-0.00102319,0.00009688,-0.00013561,-0.0011
 9802,-0.00030913,-0.00003924,0.01307306,0.01121581,-0.00206626,-0.1421
 0102,-0.01119567,-0.10854772,-0.00277618,0.00395753,-0.00435693,-0.000
 56992,0.00007094,0.00002561,0.00012916,0.00037171,0.00039316,-0.000035
 25,-0.00051260,0.00006073,-0.00011249,-0.00009974,-0.00004454,0.004007
 59,0.00091871,-0.00864207,0.01127112,-0.00285880,0.00140446,-0.0064841
 0,-0.00283079,-0.00322289,-0.00028248,0.00002497,-0.00116194,0.0000556
 0,0.00005590,0.00051546,0.00182732,-0.00067661,-0.00623372,0.00016020,
 0.00014873,0.00019283,0.00296049,0.00576975,0.00253694,0.00000608,0.00
 000578,-0.00015044,0.00051042,0.00015455,0.00038248,-0.04698358,-0.007
 58982,-0.01752301,-0.01931666,-0.00705659,-0.01199964,-0.00418632,0.03
 381500,-0.04544267,0.23657149,-0.12119857,0.37029599,-0.05324655,-0.01
 275250,0.06063490,0.00074440,0.00076459,0.00066135,-0.00344759,0.00702
 812,0.00342839,-0.00051752,-0.00010715,-0.00072550,-0.00072680,-0.0021
 3072,-0.00197417,-0.00765396,0.01417878,-0.01204545,-0.07262982,-0.098
 58029,0.03279909,-0.00039169,0.00005639,-0.00007583,-0.00009296,-0.000
 17259,-0.00043002,0.00171399,0.00132974,0.00157200,0.00074835,-0.00020
 003,0.00029906,0.00125780,-0.00927266,0.00559618,-0.01189414,0.0031762
 0,-0.00109487,0.00460633,0.00502999,-0.00776952,0.00019509,-0.00001599
 ,0.00000164,0.00002213,0.00003973,-0.00038565,0.00000325,0.00015464,-0
 .00051562,-0.00125011,0.00004521,-0.00044237,0.00812393,-0.00541459,-0
 .00737089,0.00000837,0.00002347,-0.00000781,-0.00109523,-0.00010717,-0
 .00045298,-0.23760723,-0.11086175,-0.12550529,-0.01985498,-0.02430291,
 0.01429666,0.02315160,0.00553193,0.00050523,-0.10613668,0.04206753,-0.
 06455689,0.48838001,-0.02053809,-0.03318169,0.02014738,-0.00039468,-0.
 00012284,-0.00020325,0.00403345,-0.00275202,-0.00246245,-0.00163834,-0
 .00128921,-0.00063074,-0.00489872,-0.00272791,0.00265655,-0.00032635,0
 .00339723,-0.00536515,-0.10356436,-0.26245470,0.10305423,-0.00000670,0
 .00031841,0.00057186,0.00006028,-0.00017262,0.00000594,-0.00266060,0.0
 0470562,-0.00134245,0.00021127,-0.00007916,-0.00045693,0.00172323,0.00
 087320,-0.00409770,0.00405405,0.00226509,0.00042404,-0.00218445,-0.002
 12222,0.00050899,0.00008446,-0.00013968,-0.00006498,0.00021079,-0.0000
 1811,-0.00103899,-0.00012157,-0.00021659,-0.00001449,0.00004451,-0.000
 09449,0.00018701,0.00289408,0.00423787,0.00184066,-0.00001619,0.000102
 85,0.00002024,0.00087266,-0.00051006,0.00079267,-0.11086851,-0.1079212
 4,-0.04030430,-0.02504679,-0.04043021,0.01191316,-0.01884256,-0.043745
 37,0.02098053,0.07426508,-0.17043601,0.11807358,0.19480321,0.65468065,
 0.06334205,0.01724708,-0.07872516,-0.00043297,-0.00073087,-0.00116801,
 0.00142034,-0.00210336,0.00094045,0.00025768,0.00064023,-0.00078320,0.
 00020266,0.00097312,-0.00059426,-0.00367361,0.00725457,-0.00924706,0.0
 3218799,0.09501946,-0.06291874,-0.00092615,-0.00009662,-0.00008070,-0.
 00008226,0.00047933,0.00056328,0.00870061,-0.00730099,0.00287773,0.001
 31027,0.00006962,0.00038745,-0.00814462,0.00734761,0.01131912,-0.00683
 665,0.00093455,-0.00362534,0.00660351,0.00877671,-0.00333534,-0.000328
 19,0.00001136,0.00038182,-0.00052052,-0.00032327,-0.00029123,0.0004073
 0,0.00019754,0.00019115,-0.00230875,0.00033908,-0.00020303,-0.00595384
 ,-0.01105627,-0.00599698,-0.00016026,-0.00000744,-0.00033974,0.0003450
 5,0.00037832,0.00078190,-0.07458967,-0.01160308,-0.09105513,-0.0005979
 9,-0.01570808,0.02529887,0.00908956,0.01744300,-0.01404028,-0.10276382
 ,0.12850341,-0.14914072,0.10479460,-0.22817648,0.38697207,0.00170875,-
 0.00230363,0.00135205,0.00197330,0.00169936,0.00081340,0.00068033,-0.0
 0064198,-0.00102400,0.00001648,0.00011910,-0.00011615,0.00024083,-0.00
 026218,-0.00023263,-0.00021562,0.00051879,-0.00112443,-0.00034268,0.00
 022231,0.00068527,-0.00006136,0.00018607,0.00039095,-0.00091511,-0.000
 09616,-0.00100071,0.00001729,-0.00010252,-0.00012024,-0.00031466,-0.00
 001379,-0.00033300,0.00002201,0.00048894,-0.00037519,0.00012483,-0.000
 08726,0.00005068,-0.00026523,0.00014403,0.00096314,0.00005947,-0.00001
 461,0.00010708,-0.00010055,0.00001848,0.00004032,0.00008427,-0.0000912
 4,0.00011792,0.00042305,-0.00009683,0.00010526,-0.00094651,0.00017286,
 0.00042877,-0.00052555,0.00047547,0.00029244,-0.00099539,0.00014921,-0
 .00013658,-0.13571988,0.06254531,-0.12942036,0.00121276,0.00005804,0.0
 0218122,0.00005330,-0.00063594,-0.00154093,-0.00378439,-0.00153592,-0.
 00449064,-0.01341291,0.00956415,-0.01525773,0.15334528,-0.00209867,-0.
 00001838,-0.00052156,0.00192336,-0.00295632,-0.00123667,-0.00012698,-0
 .00046794,-0.00180482,-0.00000522,0.00000053,-0.00009477,0.00078236,0.
 00010603,0.00112283,-0.00044863,0.00051551,-0.00012139,0.00005468,0.00
 015219,-0.00043824,0.00028938,-0.00004184,-0.00047790,-0.00006937,0.00
 029030,0.00195502,-0.00009118,0.00022861,0.00027830,0.00013703,0.00001
 922,0.00045853,0.00026966,-0.00062751,0.00012705,-0.00011906,-0.000056
 85,-0.00024348,0.00001999,-0.00045748,-0.00059332,0.00000028,-0.000026
 49,-0.00004236,0.00014265,0.00000422,-0.00022784,-0.00012172,-0.000145
 13,-0.00006092,-0.00025702,0.00009047,-0.00017933,0.00052848,-0.000021
 63,-0.00036234,0.00033438,-0.00002348,-0.00012098,-0.00039167,-0.00091
 395,0.00041554,0.06211155,-0.07863300,0.08300161,0.01549159,-0.0079885
 2,0.01651947,-0.00040142,-0.00395464,0.00478274,-0.00202482,-0.0008960
 4,0.00004888,-0.00616887,0.00562707,-0.00832762,-0.06959620,0.08950118
 ,-0.00146341,0.00217629,0.00545247,0.00028588,0.00127047,0.00344338,-0
 .00061283,-0.00357601,-0.00349069,0.00013732,0.00033434,0.00011366,-0.
 00017359,-0.00024026,0.00010801,0.00023784,0.00035538,0.00040001,0.000
 36350,-0.00062528,-0.00055315,0.00040742,-0.00026561,-0.00065123,0.000
 19790,-0.00058500,-0.00175744,0.00003867,0.00040249,0.00048719,0.00005
 695,0.00002844,0.00038730,-0.00006262,-0.00057463,0.00103351,-0.000324
 56,-0.00013290,0.00037627,0.00045277,-0.00020365,-0.00046354,-0.000203
 86,0.00006024,0.00016192,-0.00000752,-0.00004066,0.00029833,0.00008869
 ,0.00005829,0.00041713,-0.00029857,0.00021508,-0.00018551,0.00076205,0
 .00050936,0.00013648,0.00037346,-0.00021080,-0.00004819,-0.00091318,-0
 .00008906,-0.00077077,-0.13454964,0.08828591,-0.18448269,-0.00361674,0
 .00249646,-0.00595013,-0.00097472,0.00105693,0.00041734,-0.00074398,0.
 00000809,0.00054090,-0.00299667,0.00178977,-0.00475452,0.14400376,-0.0
 9373359,0.19403515,0.00440358,-0.00257047,0.00164070,0.00997606,0.0014
 8787,0.02105418,-0.08501646,-0.02230266,-0.01012155,-0.00000244,-0.000
 79002,-0.00002673,0.00008610,-0.00001015,-0.00000840,0.00011276,-0.000
 14799,0.00000657,0.00004918,0.00001719,-0.00025388,-0.28612801,0.04315
 414,0.20232615,-0.00601975,0.00108511,0.00723673,0.00074736,0.00007723
 ,0.00008854,0.01775754,-0.00060676,-0.00165605,-0.00165970,0.00221392,
 -0.00023237,0.00038131,0.00036776,0.00042880,0.00016738,-0.00053686,0.
 00030902,-0.00010758,0.00016275,0.00011628,-0.00007073,0.00014633,0.00
 010180,-0.00001478,-0.00006076,0.00008008,-0.01294578,0.00324986,-0.00
 091138,0.00522442,-0.00302048,-0.00480552,-0.08040863,-0.00314725,-0.0
 4066298,-0.00087889,0.00001517,-0.00045256,-0.00009882,0.00031996,-0.0
 0047113,0.00010789,-0.00010395,-0.00009656,0.00020722,0.00008555,0.000
 04124,0.00005499,-0.00045954,0.00040573,-0.00024161,0.00079078,-0.0001
 2023,0.00008353,-0.00006149,-0.00000157,0.53290173,-0.00149750,0.00264
 348,-0.00148007,0.00106844,-0.00032359,-0.00062637,-0.00315078,-0.0151
 2626,0.00193376,-0.00054815,-0.00071621,-0.00025183,-0.00007281,0.0000
 4950,-0.00002247,0.00007286,0.00001916,0.00005260,0.00001013,0.0001126
 2,-0.00003178,0.04555970,-0.04982533,-0.04336486,-0.00076724,0.0010692
 3,0.00082487,-0.00042908,-0.00051286,-0.00016542,0.00048128,0.00720602
 ,-0.01275505,0.00018453,-0.00062967,-0.00025878,-0.00041275,0.00035420
 ,-0.00029997,-0.00005860,0.00005691,-0.00003794,0.00035270,0.00005380,
 -0.00029769,-0.00000108,0.00018573,-0.00003591,0.00001112,0.00001374,-
 0.00000972,0.00451408,-0.00443164,0.00026209,-0.00115146,0.00130712,0.
 00198475,-0.00315484,-0.05182243,-0.00918368,-0.00249202,0.00220411,0.
 00113266,-0.00006527,-0.00039757,0.00063469,0.00005273,0.00023453,-0.0
 0028219,-0.00033091,-0.00001566,-0.00004742,-0.00002046,0.00019070,-0.
 00002018,-0.00042786,-0.00040993,0.00022858,-0.00002295,-0.00013587,0.
 00044595,-0.03368424,0.11211912,0.00154020,-0.00078209,-0.00125698,-0.
 00556255,-0.00231730,-0.02297856,-0.01163400,0.00095897,-0.03553100,0.
 00042884,0.00029506,0.00037287,-0.00000030,-0.00005404,0.00003540,0.00
 009968,0.00000077,0.00005845,0.00000746,0.00038680,-0.00015758,0.21204
 738,-0.04652804,-0.28751160,0.00778868,-0.00096143,-0.00677115,-0.0005
 2582,0.00118756,-0.00022058,0.01733234,-0.01186798,-0.08191834,0.00060
 873,-0.00078672,0.00103781,0.00004113,-0.00075773,0.00025726,-0.000208
 81,0.00009430,0.00013527,-0.00006609,-0.00031190,-0.00014783,0.0001387
 2,-0.00016870,0.00004450,-0.00000674,0.00000447,-0.00003057,0.01803885
 ,-0.00501076,-0.00302317,-0.01022605,0.00294165,0.00123633,-0.04677069
 ,0.00086207,-0.20490369,0.00071737,-0.00059920,0.00118036,0.00024434,-
 0.00057023,-0.00016532,0.00007990,-0.00011280,-0.00025245,0.00002167,-
 0.00006247,0.00010794,0.00009517,-0.00016011,-0.00012008,0.00019862,-0
 .00038226,-0.00004596,0.00002745,0.00003353,-0.00012078,-0.16751925,0.
 07859961,0.67499919,0.00010149,-0.00004007,0.00017511,-0.01871655,0.02
 019913,-0.00338789,-0.00082182,0.00041433,-0.00169308,0.00007848,-0.00
 002256,0.00007376,0.00000338,-0.00000490,-0.00000304,0.00001388,-0.000
 00944,0.00000486,0.00010776,0.00003371,-0.00001699,-0.00122798,0.00009
 249,0.00099945,0.00100567,-0.00249601,0.00189110,0.00009248,-0.0000415
 4,0.00009323,-0.00001509,-0.00020477,0.00014247,-0.00004379,0.00000038
 ,0.00005134,0.00002423,-0.00001091,0.00003751,0.00001408,-0.00002358,0
 .00000897,-0.00003410,-0.00002584,0.00002196,-0.00000286,-0.00000315,-
 0.00000240,0.00000219,-0.00001069,0.00001335,0.00013338,0.00003842,0.0
 0002487,-0.00004587,-0.00003835,0.00009993,-0.12190495,0.10846662,-0.0
 2998253,-0.00113979,-0.00385805,0.00103498,0.00002750,-0.00000143,-0.0
 0007663,-0.00001048,-0.00009621,-0.00011011,0.00006737,-0.00003772,0.0
 0002616,0.00007241,-0.00004516,0.00003613,0.00004673,0.00005884,-0.000
 03091,-0.00003855,-0.00015757,-0.00007875,-0.00549064,0.00449157,-0.01
 459140,0.14183120,-0.00000837,0.00016812,-0.00016268,0.00233020,0.0007
 7402,0.00085174,0.00015115,-0.00019201,0.00043213,-0.00006122,0.000021
 88,-0.00005088,-0.00002073,0.00001559,0.00000282,-0.00000399,0.0000098
 3,0.00001243,-0.00001442,-0.00002844,0.00001955,0.00255326,0.00077736,
 -0.00082432,-0.00083472,0.00010895,-0.00087560,-0.00003964,-0.00000994
 ,-0.00004359,0.00017589,0.00011565,0.00052409,-0.00001446,-0.00003787,
 0.00003310,-0.00003219,0.00002430,-0.00001636,-0.00003427,0.00003014,0
 .00000053,0.00003464,-0.00000876,-0.00001557,-0.00000674,0.00000989,-0
 .00001592,0.00000021,0.00000248,-0.00002159,-0.00033196,0.00001568,-0.
 00002854,0.00011259,0.00000139,-0.00007207,0.09860662,-0.15637652,0.03
 667752,-0.00016916,-0.00000849,-0.00001638,0.00002985,0.00000350,0.000
 07439,-0.00000326,0.00002705,0.00002498,-0.00005436,0.00004926,-0.0000
 4265,-0.00005019,0.00002428,-0.00001451,-0.00002598,-0.00003868,0.0000
 2535,-0.00000465,-0.00009180,0.00007010,0.00194869,0.00261952,0.006627
 66,-0.11085975,0.18501740,0.00016303,-0.00008366,-0.00011090,0.0071665
 9,-0.00978776,0.00460302,0.00035638,0.00086942,-0.00289831,0.00007661,
 -0.00004495,0.00007979,0.00000880,-0.00000020,-0.00000063,0.00000700,-
 0.00000812,0.00000134,-0.00002281,-0.00001157,-0.00003861,-0.00497735,
 0.00287087,0.00208405,-0.00004587,0.00120193,-0.00118010,0.00005668,0.
 00002268,0.00000726,-0.00063978,-0.00159649,-0.00069425,-0.00004605,0.
 00002914,0.00002775,0.00001882,-0.00007026,0.00003605,0.00001256,-0.00
 002121,0.00001706,-0.00004086,-0.00007354,0.00002296,0.00000794,-0.000
 00041,0.00000893,-0.00000448,0.00000187,0.00000121,0.00082510,-0.00032
 768,0.00004439,-0.00041644,0.00007432,0.00017568,-0.02531928,0.0337926
 5,-0.04803595,0.00185633,0.00190368,-0.00003815,-0.00003883,-0.0000384
 3,0.00003537,0.00002353,0.00002831,0.00002566,-0.00001992,0.00002057,0
 .00002344,-0.00003512,0.00001826,0.00003847,-0.00000467,-0.00002195,0.
 00007795,-0.00002972,0.00010525,0.00000496,-0.02382420,0.02160360,-0.0
 2721540,0.04317563,-0.04491256,0.06876072,0.00371352,0.00407838,0.0012
 0842,-0.00005504,0.00017948,0.00010742,-0.00193066,0.00070700,-0.00021
 871,-0.13467496,0.08992818,0.08052036,-0.00010060,0.00025958,0.0001222
 3,0.00160221,0.00005632,0.00015852,-0.00003154,0.00014485,-0.00125774,
 0.00017835,0.00006542,0.00011186,0.00004804,-0.00007934,-0.00003004,-0
 .02639097,0.00582127,0.01594944,0.00021250,-0.00014590,-0.00013965,-0.
 00099423,-0.00087215,-0.00102940,-0.00069074,0.00012620,-0.00055850,0.
 00041050,0.00113297,-0.00071322,0.00018755,-0.00026930,-0.00028123,0.0
 0017979,0.00013392,-0.00026505,0.00010146,-0.00045841,0.00019692,-0.00
 027154,0.00002197,-0.00008465,-0.00054989,-0.00246296,0.00202321,0.000
 08055,0.00003069,0.00008487,0.00002145,-0.00025606,-0.00004810,-0.0003
 0441,-0.00023219,-0.00008338,0.00016346,0.00027718,0.00013860,-0.00049
 577,0.00000465,0.00010684,0.00047223,-0.00015523,0.00055297,-0.0010609
 7,-0.00050461,-0.00058639,0.00003053,-0.00001210,0.00018021,-0.0001646
 8,-0.00011613,0.00001875,0.00004610,-0.00001180,-0.00000467,0.16005683
 ,0.00430746,0.00197871,0.00145609,0.00024301,0.00012148,0.00018170,0.0
 0055796,0.00003317,0.00025232,0.08873875,-0.11173064,-0.07012756,-0.00
 028812,0.00017593,0.00025407,0.00156176,-0.00658848,-0.00101657,-0.000
 11453,0.00031646,0.00021622,0.00013951,-0.00004273,-0.00018770,-0.0000
 3077,-0.00007346,-0.00009235,-0.01381611,0.00760957,0.00811421,-0.0000
 8253,0.00008965,0.00017946,-0.00020781,-0.00114479,-0.00090842,-0.0003
 3842,0.00008496,-0.00048180,-0.00128841,0.00028755,-0.00038264,0.00014
 923,-0.00024679,-0.00017129,0.00014731,0.00007373,-0.00031565,-0.00027
 949,-0.00060782,0.00050051,0.00020232,-0.00014088,-0.00013072,0.000053
 83,-0.00137192,0.00066446,-0.00001304,-0.00000813,0.00005428,-0.000120
 42,-0.00006692,-0.00012201,-0.00008033,-0.00034224,0.00056407,0.000075
 38,0.00067024,-0.00019240,-0.00028379,-0.00018107,0.00076691,-0.003594
 06,-0.00434496,-0.00344113,-0.00164362,-0.00035080,-0.00158278,0.00013
 641,-0.00001559,0.00024957,-0.00008347,-0.00004644,0.00002012,-0.00001
 630,-0.00000278,-0.00001314,-0.10428892,0.14634128,0.00031853,0.000902
 50,-0.00137827,-0.00013004,0.00000348,-0.00002399,-0.00000738,0.000415
 15,0.00054376,0.08461202,-0.07496704,-0.11048337,0.00005441,0.00018840
 ,0.00002401,-0.00010843,-0.00170348,0.00135233,-0.00108162,0.00002128,
 -0.00183813,-0.00000747,0.00003529,-0.00008558,0.00004382,-0.00001547,
 0.00002533,0.01193328,-0.00374117,-0.00501475,0.00000898,-0.00003157,0
 .00007254,0.00074191,0.00004551,0.00020085,0.00020642,0.00018504,-0.00
 016566,0.00039125,-0.00003681,-0.00034946,-0.00000817,0.00016505,0.000
 01631,0.00008946,0.00000755,0.00001004,-0.00018020,0.00069312,-0.00027
 589,0.00005352,0.00001160,-0.00004006,0.00018684,0.00074584,-0.0013632
 2,-0.00000373,0.00000167,0.00000564,0.00012845,-0.00007124,0.00003185,
 -0.00031151,-0.00001647,-0.00028435,0.00003787,0.00029468,0.00013919,-
 0.00013808,-0.00015986,0.00020725,-0.00065739,-0.00276723,-0.00037225,
 -0.00184796,-0.00184509,-0.00177578,-0.00006064,-0.00001362,0.00008638
 ,-0.00016674,-0.00016786,-0.00001213,0.00001499,-0.00000605,-0.0000084
 5,-0.09511487,0.08160897,0.13059213,-0.00098528,-0.00018072,0.00021968
 ,0.00015875,0.00006741,0.00026563,-0.00091007,0.00058351,-0.00214340,-
 0.08430429,-0.04403512,-0.07027040,-0.00001521,0.00007428,0.00004862,0
 .00020739,-0.00019601,0.00004574,-0.00002541,0.00000846,-0.00017596,0.
 00033236,-0.00014816,-0.00034475,-0.00002579,-0.00002104,-0.00009813,-
 0.01411898,-0.01574886,-0.01473489,-0.00000668,0.00009085,0.00020742,-
 0.00032096,-0.00014615,0.00039477,-0.00031829,-0.00024742,0.00024146,-
 0.00007977,0.00024111,-0.00024886,0.00008660,-0.00008270,-0.00001495,-
 0.00002088,0.00006302,-0.00003305,0.00007178,-0.00017337,-0.00017140,-
 0.00005996,-0.00009477,-0.00018753,-0.00054746,-0.00040201,-0.00015579
 ,0.00006509,-0.00003815,0.00009089,-0.00016965,-0.00007961,0.00003893,
 -0.00014231,-0.00012536,0.00026713,0.00032008,0.00009578,0.00002397,-0
 .00026503,0.00001042,-0.00001941,-0.00003648,0.00058109,0.00011852,0.0
 0005340,0.00039503,0.00041609,0.00004699,0.00002097,0.00010337,-0.0005
 3866,-0.00009098,0.00021420,-0.00000404,0.00001688,0.00001085,0.008311
 17,0.00809150,0.01379561,0.10334064,-0.00131454,-0.00077181,0.00067716
 ,0.00024230,0.00003308,0.00015244,-0.00001768,-0.00107878,0.00062189,-
 0.04067743,-0.08325758,-0.07215553,-0.00004515,0.00007895,0.00001003,-
 0.00016267,-0.00007000,-0.00024147,-0.00005294,-0.00016596,0.00015183,
 0.00017025,-0.00008587,0.00004926,-0.00003972,0.00002498,-0.00007727,-
 0.01265730,-0.01009134,-0.01102639,-0.00015466,0.00011664,-0.00000893,
 -0.00017872,-0.00035671,0.00018590,-0.00037365,-0.00016697,0.00001971,
 -0.00023043,0.00049994,0.00024925,0.00010644,-0.00006864,0.00006499,0.
 00003517,0.00005876,-0.00005665,0.00006562,-0.00038871,-0.00024156,0.0
 0019664,-0.00016549,-0.00006629,0.00014230,-0.00044592,-0.00087797,-0.
 00000042,-0.00003008,0.00003960,-0.00019402,0.00006281,-0.00019255,0.0
 0001315,-0.00013552,0.00040392,0.00034990,-0.00007063,-0.00013742,-0.0
 0034541,0.00004930,-0.00011808,-0.00050878,-0.00007291,-0.00042569,-0.
 00010167,-0.00012231,0.00026522,0.00006294,-0.00000700,0.00008273,0.00
 036934,0.00032845,-0.00013732,-0.00002042,0.00001448,-0.00000217,-0.00
 630456,-0.00814382,-0.01646090,0.04765450,0.09666794,0.00142276,0.0010
 9857,0.00003449,0.00017886,0.00011157,0.00034376,-0.00005743,0.0012487
 8,-0.00133154,-0.06914693,-0.07113379,-0.15907964,-0.00001921,0.000019
 21,0.00000530,-0.00016895,-0.00008235,-0.00017066,-0.00012604,-0.00005
 512,0.00013995,0.00043001,-0.00008818,-0.00038896,-0.00005252,-0.00006
 918,-0.00017902,0.00125332,0.00126295,0.00774747,0.00008693,-0.0000321
 9,0.00019289,0.00009218,-0.00010915,0.00004078,-0.00020179,-0.00011132
 ,-0.00005166,0.00027559,0.00023082,-0.00009773,0.00006383,0.00007436,-
 0.00001174,0.00003938,0.00002859,-0.00002532,-0.00002300,-0.00014632,-
 0.00000619,-0.00012389,0.00005401,-0.00017478,0.00093033,0.00037603,-0
 .00008237,0.00004183,-0.00002410,0.00012021,-0.00017065,-0.00015608,0.
 00009779,0.00008339,-0.00012820,0.00005820,-0.00005121,0.00019073,-0.0
 0003623,0.00004296,0.00003184,-0.00002157,-0.00040424,-0.00053834,-0.0
 0017357,-0.00034328,-0.00017961,-0.00010524,0.00004188,0.00000940,0.00
 009075,-0.00072344,-0.00023266,0.00019808,-0.00001014,0.00001139,-0.00
 000867,-0.00648420,-0.01157816,-0.01625931,0.09037300,0.07858668,0.193
 54176,0.00115547,0.00215975,0.00026045,0.00007719,-0.00006420,-0.00008
 712,-0.00004599,0.00015409,-0.00008961,-0.00002157,0.00010052,0.000037
 42,-0.00027082,0.00048097,0.00014144,-0.00025580,-0.00109647,-0.000379
 96,0.00022479,-0.00014074,-0.00041632,-0.00003730,0.00008981,0.0001126
 0,-0.00004758,0.00002936,0.00007603,-0.00018850,0.00024319,0.00049901,
 -0.00008322,-0.00003196,-0.00007589,0.00008704,-0.00026328,0.00001271,
 -0.00053422,-0.00028051,0.00005448,0.00007737,0.00015315,0.00012143,-0
 .00008177,0.00009296,0.00011775,0.00000172,0.00001251,0.00006378,0.000
 02110,-0.00006373,0.00014443,0.00007247,-0.00001366,0.00001223,0.00007
 917,-0.00002582,-0.00010799,0.00000734,-0.00000749,0.00002071,-0.00002
 628,0.00000469,-0.00000640,-0.00224493,-0.00165628,0.00075322,-0.17776
 406,-0.15045246,-0.05392267,-0.01596322,-0.01345145,-0.00358411,-0.003
 28357,-0.00267242,-0.00414442,-0.00051838,-0.00197150,-0.00151972,0.00
 007473,0.00034490,0.00051801,0.00003199,0.00003609,-0.00003403,-0.0000
 1857,-0.00002262,0.00000764,0.00015812,0.00013915,-0.00002695,0.000059
 55,0.00003270,-0.00000420,0.20760091,0.00005594,0.00084755,0.00464059,
 -0.00048033,-0.00034053,-0.00010908,-0.00054591,0.00002945,-0.00041359
 ,0.00019799,0.00026710,0.00012962,0.00042851,-0.00011077,-0.00061450,0
 .00049936,0.00030052,0.00026186,-0.00091113,-0.00025128,-0.00068621,-0
 .00005430,-0.00011306,-0.00029183,0.00013932,0.00020581,0.00007238,0.0
 0026937,-0.00014458,-0.00014041,0.00017817,0.00003385,0.00022497,-0.00
 031308,0.00040635,0.00068292,0.00014183,0.00003553,0.00046843,0.000247
 07,0.00025124,0.00033490,-0.00009231,-0.00000061,0.00003289,-0.0001038
 8,-0.00001777,0.00020597,0.00014392,0.00011167,0.00027913,-0.00025494,
 0.00008476,0.00002167,-0.00024640,0.00051258,0.00070633,0.00009030,-0.
 00007058,-0.00007656,0.00028645,0.00013724,0.00008230,-0.01617498,-0.0
 1486661,-0.00533242,-0.15189424,-0.18132724,-0.04056710,0.00432446,0.0
 0395365,0.00022355,0.00060896,0.00017598,0.00141077,-0.00162166,-0.004
 18504,0.00147674,0.00006707,-0.00029281,-0.00012974,-0.00017281,0.0003
 0290,-0.00001085,-0.00002290,0.00005426,0.00002461,0.00019317,0.000172
 17,0.00018357,0.00002661,0.00002787,0.00003996,0.16328554,0.19473354,-
 0.00015000,0.00172819,0.00283072,-0.00007326,-0.00000309,0.00005526,-0
 .00028285,0.00057463,0.00001519,0.00017173,0.00020823,0.00002494,0.000
 03762,-0.00044617,-0.00063032,-0.00030321,-0.00051863,0.00043783,0.000
 44189,0.00057511,0.00039177,-0.00008879,-0.00004371,-0.00011220,0.0000
 3289,-0.00004338,-0.00006827,0.00015900,0.00035026,-0.00052189,0.00003
 031,0.00003183,0.00008078,-0.00031953,0.00049385,0.00054607,0.00024852
 ,-0.00020459,0.00067052,0.00017641,-0.00013880,0.00045128,-0.00011542,
 -0.00008562,0.00000452,-0.00017741,-0.00016718,-0.00022299,0.00019544,
 0.00001506,0.00026341,-0.00003069,0.00007181,-0.00002372,-0.00021941,0
 .00084703,0.00042391,0.00000440,-0.00000072,-0.00002205,0.00003906,0.0
 0005139,-0.00002576,0.01151973,0.00792634,0.00233302,-0.05688430,-0.04
 109251,-0.04442548,-0.01150447,-0.01194686,-0.00278943,-0.00262557,0.0
 0114045,-0.00127760,0.00013530,0.00476801,0.00067552,0.00055370,-0.000
 46414,-0.00052751,-0.00012041,0.00014855,-0.00001703,-0.00000627,0.000
 00976,-0.00000896,0.00007697,0.00029659,0.00008983,0.00000856,0.000075
 37,0.00004548,0.05377146,0.03971497,0.04888566,0.00164217,0.00247555,0
 .00008199,-0.00260962,-0.00081559,0.00147471,-0.04240616,0.01047949,-0
 .00135584,-0.08850743,0.03231811,-0.02549703,-0.00006415,0.00006453,0.
 00004448,0.00005996,-0.00008574,0.00020866,-0.00011476,-0.00021064,0.0
 0027864,0.00272867,-0.00158541,-0.00489121,0.00045534,0.00004337,-0.00
 049563,0.00918060,-0.01749544,0.01332296,0.00008788,-0.00037514,0.0024
 4485,0.00073832,-0.00054830,-0.00019396,-0.00052791,-0.00071622,-0.000
 36641,-0.00182289,-0.00164127,0.00068898,0.00023546,0.00025733,-0.0001
 5818,-0.00015836,0.00004386,-0.00003660,-0.00002448,-0.00029521,-0.000
 08486,-0.00121665,0.00056730,-0.00020421,0.00092070,0.00183319,0.00282
 615,-0.00099381,-0.00020743,-0.00017714,0.00209855,0.00220252,-0.00122
 010,0.00021784,-0.00021584,0.00025360,0.00012685,0.00015902,-0.0000446
 1,0.00009337,-0.00006995,-0.00002974,-0.00051544,0.00069670,-0.0001463
 6,0.00083481,-0.00161257,-0.00027193,0.00011501,0.00000866,0.00026718,
 -0.00023617,-0.01017552,-0.00252290,-0.00031197,0.00002495,-0.00046443
 ,-0.01069061,0.01589854,-0.01062373,-0.01120685,0.01196314,-0.01897584
 ,0.00001949,0.00016906,0.00007895,0.38500773,0.00275724,0.00662659,-0.
 00130845,-0.00012039,-0.00000289,0.00090264,-0.00961129,-0.01303064,0.
 00221114,0.04916777,-0.11952979,0.05958912,-0.00010299,0.00025008,0.00
 020740,-0.00017469,-0.00004387,0.00000979,0.00023540,-0.00155226,-0.00
 144460,0.00103396,-0.00031747,-0.00159460,-0.00008833,-0.00009578,-0.0
 0042313,0.00233632,-0.02622820,0.02052069,-0.00062135,0.00080284,0.000
 32296,0.00112131,-0.00097640,-0.00054977,-0.00035639,-0.00117474,-0.00
 029421,-0.00296879,-0.00142358,0.00133657,0.00022467,0.00010339,-0.000
 15554,-0.00017902,0.00002657,-0.00021031,-0.00014868,0.00007271,-0.000
 20517,0.00078924,-0.00048643,0.00006148,-0.00135043,0.00241588,0.00145
 477,-0.00039977,0.00009199,0.00005894,0.00074876,0.00124577,-0.0011743
 4,0.00024571,-0.00004746,0.00031444,-0.00000497,0.00047086,0.00050259,
 -0.00029883,0.00019380,-0.00006455,-0.00040438,-0.00024820,-0.00014507
 ,0.00062535,-0.00269769,-0.00054859,-0.00008982,0.00007869,0.00018258,
 0.00495111,0.00360464,0.00030148,-0.00004975,0.00000785,-0.00019690,0.
 01264085,-0.01879958,0.01053576,0.00309377,0.00534420,0.00175912,-0.00
 001306,0.00011717,0.00005719,-0.04944344,0.46499281,0.00056109,-0.0002
 6692,-0.00076753,-0.00157744,-0.00081671,-0.00044485,-0.01477442,0.004
 92172,-0.03094236,-0.03131624,0.04594653,-0.12018301,0.00001435,-0.000
 03585,-0.00003376,-0.00009274,0.00002273,-0.00007949,0.00048047,-0.001
 72901,-0.00103864,-0.00012148,-0.00061227,-0.00161723,0.00028884,0.000
 20426,0.00001775,-0.00141882,0.01939932,-0.01217358,0.00025396,-0.0001
 3539,0.00023504,0.00016258,0.00028767,-0.00025913,0.00012228,0.0011016
 5,0.00009670,0.00195464,0.00092282,-0.00104141,0.00008107,0.00001301,0
 .00002724,0.00023581,0.00010397,0.00016921,0.00006404,-0.00004946,-0.0
 0010315,0.00029900,-0.00023259,0.00003198,0.00155541,0.00093771,0.0027
 5784,0.00133285,-0.00016006,-0.00023127,-0.00064053,-0.00031802,0.0013
 8396,0.00013615,0.00006850,0.00021740,-0.00007718,0.00019088,-0.000059
 59,0.00005978,0.00010607,0.00003975,0.00008055,-0.00009165,-0.00049410
 ,0.00065040,-0.00165670,-0.00037199,-0.00006906,0.00000237,0.00001978,
 0.00120602,-0.00264486,0.00943264,-0.00008401,0.00001357,0.00023955,0.
 00529995,-0.00781496,0.00749003,-0.01787237,0.01787858,-0.02610113,-0.
 00002772,0.00003235,-0.00001192,-0.07397050,-0.05687948,0.45731039,-0.
 00009497,0.00043608,-0.00028506,-0.00028407,-0.00031527,-0.00021459,-0
 .00205393,-0.00757983,-0.00572178,-0.01023586,0.01620893,0.00377232,-0
 .00001614,0.00000667,0.00000125,-0.00001542,0.00006531,0.00000304,0.00
 002475,-0.00002993,0.00001671,0.00010370,-0.00027024,-0.00085299,0.000
 03416,0.00010717,0.00006147,-0.00034969,-0.00050485,0.00039173,0.00027
 388,0.00038459,0.00024033,0.00011047,-0.00034905,-0.00004617,-0.000054
 20,-0.00016675,-0.00005120,0.00026782,0.00005121,-0.00018241,0.0000365
 4,-0.00001460,-0.00003704,0.00001784,0.00002309,0.00001725,-0.00001925
 ,0.00001187,-0.00001520,0.00032926,-0.00063486,-0.00006094,-0.00109653
 ,-0.00103451,0.00082049,0.00016147,0.00002609,-0.00001052,-0.00015555,
 0.00024534,0.00002877,-0.00005248,-0.00019198,0.00017848,-0.00000597,0
 .00011560,0.00002808,-0.00008931,0.00007472,0.00001504,-0.00009709,0.0
 0031205,0.00009343,-0.00001591,-0.00008274,0.00013177,-0.00000152,-0.0
 0000390,0.00007225,-0.00116101,0.00025716,0.00071190,-0.00005138,-0.00
 001156,-0.00001157,-0.00139681,0.00320718,-0.00118785,0.00086379,0.001
 77700,0.00194896,-0.00000208,0.00004415,0.00001731,-0.07024584,0.02219
 423,0.01671347,0.49173785,-0.00025095,0.00006674,-0.00038829,-0.000400
 63,-0.00008355,-0.00082110,-0.00139164,-0.00301016,-0.00310711,0.01172
 529,-0.02413531,-0.00889688,0.00001426,0.00002768,-0.00003525,-0.00011
 230,-0.00008685,-0.00006185,0.00018551,-0.00015032,-0.00029638,-0.0008
 8445,0.00044350,0.00075348,0.00002057,0.00003023,0.00034609,-0.0003805
 6,0.00065491,-0.00060018,-0.00049366,0.00018129,-0.00051291,0.00027845
 ,-0.00053791,-0.00014848,0.00002780,-0.00031223,-0.00009214,-0.0001779
 2,0.00019521,-0.00005186,0.00000842,-0.00006776,-0.00004355,0.00002041
 ,-0.00000587,0.00001944,-0.00003428,0.00001271,-0.00004381,0.00091113,
 -0.00063067,0.00019908,-0.00162028,-0.00238359,0.00139918,-0.00009219,
 0.00012595,-0.00021961,0.00042687,-0.00003218,-0.00119273,-0.00007684,
 -0.00021234,0.00006557,-0.00012528,0.00013545,0.00002300,0.00006443,0.
 00013381,0.00015295,-0.00000963,-0.00006107,0.00013331,-0.00010115,0.0
 0011347,0.00048995,0.00002270,-0.00004141,0.00002859,0.00109997,0.0000
 8184,-0.00014703,0.00006897,-0.00007182,0.00007179,0.00153877,-0.00340
 571,0.00194807,-0.00080233,0.00209536,-0.00126353,0.00001761,0.0000484
 0,0.00000085,0.04323614,-0.14920662,-0.04921215,0.00510347,0.45123522,
 -0.00000048,-0.00002225,0.00015332,-0.00038111,-0.00040206,-0.00106382
 ,-0.00109472,-0.00537073,-0.00150624,-0.00740762,0.01294009,0.00740680
 ,0.00003180,0.00000181,-0.00005870,-0.00000294,0.00000989,-0.00002277,
 0.00026393,-0.00005718,-0.00015923,-0.00079852,0.00025884,0.00109740,0
 .00004523,0.00016795,0.00044821,-0.00062210,0.00085986,-0.00049923,0.0
 0016957,-0.00022055,-0.00079875,0.00028026,-0.00017838,-0.00002649,-0.
 00006442,0.00034018,-0.00010763,0.00006369,-0.00000700,-0.00024302,0.0
 0005980,0.00004988,-0.00004785,0.00002790,0.00006111,0.00002682,-0.000
 01326,0.00006325,0.00003313,-0.00034074,0.00008955,0.00044064,-0.00057
 434,-0.00173337,0.00039545,-0.00004070,0.00007645,-0.00025560,0.000234
 17,0.00055867,-0.00027578,-0.00011807,-0.00030502,-0.00021984,-0.00001
 736,0.00008644,-0.00000760,0.00004078,-0.00002742,0.00004394,0.0000961
 8,0.00011624,0.00033075,-0.00009958,0.00035747,0.00022630,0.00005209,-
 0.00003301,0.00005362,0.00039287,0.00018848,-0.00006314,-0.00002610,-0
 .00004561,0.00001884,-0.00199774,0.00323105,-0.00129198,-0.00032540,0.
 00191242,0.00104337,0.00002832,0.00005645,-0.00000173,0.03161317,-0.05
 143470,-0.10919577,-0.00896080,-0.05155184,0.49585575,-0.00038833,0.00
 013213,-0.00015991,0.00002368,-0.00000242,-0.00054244,-0.00060759,-0.0
 0134689,0.00527065,0.00641238,0.00238324,-0.00678425,-0.00000818,0.000
 00733,-0.00001022,0.00000966,-0.00002905,-0.00003497,0.00075366,-0.000
 63489,-0.00003832,-0.00035939,0.00003790,0.00003996,-0.00006144,-0.000
 02360,0.00010366,0.00034032,0.00065467,-0.00124448,0.00028894,-0.00008
 143,-0.00008579,-0.00003048,-0.00016564,-0.00004364,0.00001231,0.00010
 841,-0.00002137,0.00041121,0.00026745,-0.00020746,0.00006123,0.0000049
 6,-0.00001284,0.00000892,0.00009251,0.00003559,-0.00004701,-0.00001189
 ,-0.00000935,-0.00062096,0.00021159,0.00026712,-0.00022336,0.00003655,
 0.00002151,-0.00033179,-0.00001841,-0.00016395,-0.00063221,0.00007550,
 -0.00046588,-0.00001945,-0.00012174,0.00038859,-0.00018805,0.00000272,
 0.00015347,0.00001423,0.00008179,0.00011794,-0.00035008,0.00011261,0.0
 0003440,-0.00067126,-0.00038136,-0.00002341,-0.00004321,-0.00002046,-0
 .00000695,-0.00045397,-0.00006614,-0.00128806,-0.00001137,-0.00003333,
 -0.00004386,0.00115046,0.00073314,-0.00153292,-0.00017595,0.00091511,-
 0.00147945,0.00000092,-0.00001022,0.00001524,-0.13021399,-0.02706304,0
 .07311971,-0.01529832,-0.00313711,0.01372866,0.47674109,0.00037299,0.0
 0107532,-0.00022474,0.00017909,0.00023235,-0.00017721,-0.00001709,-0.0
 0059698,0.00320553,-0.01215246,-0.01222341,0.01608823,-0.00002907,0.00
 002878,0.00000958,-0.00000631,-0.00009926,0.00012887,-0.00198673,-0.00
 359109,-0.00067027,-0.00015842,-0.00001365,-0.00003835,-0.00008685,-0.
 00016354,-0.00008885,0.00169685,-0.00376623,0.00355203,-0.00005736,0.0
 0014693,0.00003322,0.00008285,-0.00018059,-0.00006784,-0.00009249,-0.0
 0026645,-0.00008225,-0.00084889,-0.00047186,0.00032946,0.00002961,-0.0
 0000084,-0.00002706,-0.00007114,-0.00001256,-0.00005018,-0.00005697,-0
 .00001422,0.00000396,-0.00006422,-0.00012057,0.00007226,-0.00007270,0.
 00004512,0.00007901,-0.00019904,-0.00003120,-0.00013206,-0.00060546,-0
 .00022698,-0.00020574,-0.00011881,-0.00041809,0.00011992,-0.00009993,-
 0.00007622,0.00002254,-0.00000639,-0.00007774,0.00003967,-0.00008260,-
 0.00012734,0.00006730,0.00021828,0.00136851,-0.00057643,-0.00004593,-0
 .00000574,0.00000364,-0.00035557,0.00006419,-0.00067639,0.00000149,-0.
 00001694,-0.00000840,-0.00147920,-0.00000869,0.00196127,-0.00008085,0.
 00026286,-0.00038282,0.00002099,0.00000126,0.00002595,-0.03087783,-0.0
 8817579,0.04112726,0.01492643,0.00230792,-0.01947092,-0.04497872,0.508
 45529,0.00024432,-0.00019634,0.00045575,-0.00011902,0.00014180,0.00097
 956,-0.00093947,-0.00019322,0.00274051,0.01235299,0.01214741,-0.019443
 49,-0.00003414,-0.00002280,0.00000807,0.00003420,-0.00008675,0.0001238
 7,-0.00109758,-0.00159472,-0.00026132,0.00067031,-0.00014993,-0.000344
 52,0.00019091,-0.00001447,-0.00034279,-0.00125546,0.00164118,-0.001910
 20,-0.00029430,0.00003487,0.00013515,0.00009733,0.00026030,0.00000472,
 0.00001196,0.00024537,-0.00002061,0.00067683,0.00032951,-0.00033166,-0
 .00002367,-0.00000414,-0.00000629,0.00005607,-0.00000025,0.00005210,0.
 00002828,-0.00005589,0.00000497,0.00045598,-0.00008275,-0.00014899,-0.
 00039439,0.00010783,-0.00021767,-0.00001841,-0.00000259,0.00025854,-0.
 00016887,0.00018559,-0.00087730,0.00017471,0.00001997,-0.00029793,-0.0
 0013534,-0.00006407,-0.00015679,0.00004327,-0.00023464,0.00011391,0.00
 010674,-0.00008618,-0.00022923,0.00051836,0.00031255,-0.00040070,0.000
 01544,-0.00005050,0.00002815,-0.00087415,-0.00027481,-0.00056285,-0.00
 001747,0.00002480,-0.00007963,0.00104058,-0.00139689,0.00101489,-0.000
 33108,0.00060326,-0.00047733,0.00001299,-0.00000768,0.00004279,0.05283
 424,0.03029484,-0.12488706,0.01805956,0.00147759,-0.01925728,0.0200806
 9,0.01487183,0.49556727,0.00029531,0.00000582,0.00025522,0.00036832,0.
 00022114,0.00038621,-0.00068717,-0.00073274,-0.00069513,0.00088791,0.0
 0035752,0.00112129,0.00000187,-0.00000340,0.00001230,0.00001541,-0.000
 02574,0.00002478,-0.00007119,-0.00003097,-0.00000660,0.00065641,0.0000
 3491,0.00011890,-0.00007806,-0.00011378,-0.00031037,-0.00038622,0.0000
 8870,-0.00002619,-0.00034213,0.00003074,-0.00005128,0.00032358,-0.0000
 8757,-0.00003148,-0.00008756,0.00001039,-0.00005174,-0.00004273,0.0000
 2039,-0.00009653,0.00005179,0.00001393,-0.00002744,0.00004106,-0.00003
 796,-0.00001486,0.00003136,-0.00005106,-0.00001788,0.00051952,-0.00020
 547,-0.00018680,-0.00073018,-0.00045366,0.00038379,-0.00002015,0.00001
 286,0.00014291,-0.00018825,0.00000136,-0.00053906,0.00005382,-0.000090
 03,-0.00014381,-0.00004247,0.00010718,-0.00005779,0.00003450,-0.000009
 49,0.00005775,0.00000255,-0.00003619,-0.00006682,-0.00004278,0.0000316
 6,-0.00000035,0.00003302,0.00000250,0.00007365,-0.00007801,-0.00015081
 ,-0.00011890,-0.00001077,0.00000514,-0.00001265,-0.00001724,0.00002872
 ,0.00011759,0.00038631,-0.00072640,0.00021887,0.00001288,0.00001344,0.
 00001379,0.00724006,-0.00263253,-0.00065303,-0.17077998,-0.07979277,-0
 .04990399,0.00277201,0.00306888,0.00147098,0.19441056,0.00021648,0.000
 22938,0.00018654,0.00004428,-0.00006394,0.00017094,0.00054394,-0.00114
 277,-0.00193236,-0.00171320,0.00107427,-0.00201723,-0.00001396,0.00000
 915,0.00002139,-0.00001158,-0.00000904,-0.00001216,-0.00004400,-0.0000
 7266,0.00005151,0.00031370,-0.00013385,-0.00019027,-0.00000381,0.00001
 079,-0.00005317,-0.00008194,-0.00003902,0.00025376,-0.00016769,0.00013
 694,0.00006477,0.00015149,0.00000220,-0.00001517,-0.00005234,0.0000091
 4,-0.00003357,0.00007088,-0.00002978,-0.00003344,0.00003463,0.00002115
 ,-0.00001009,0.00002707,0.00000221,-0.00000980,0.00001190,-0.00002696,
 -0.00002776,0.00029009,-0.00021935,-0.00008570,-0.00036189,0.00006374,
 0.00017355,0.00008435,-0.00003960,0.00009628,-0.00007814,0.00007562,0.
 00013535,0.00008703,0.00001313,-0.00002597,0.00000540,0.00002757,0.000
 02584,0.00002302,-0.00003251,-0.00002880,-0.00002193,0.00001370,-0.000
 06369,0.00003287,-0.00018738,-0.00017667,0.00002939,0.00000088,0.00005
 089,-0.00028666,0.00034413,0.00030679,-0.00001504,0.00000731,-0.000008
 54,-0.00018556,0.00041280,0.00013136,0.00079595,0.00009855,0.00102975,
 0.00000492,0.00000117,0.00000591,-0.01510612,-0.03087962,-0.02065078,-
 0.08343180,-0.09785561,-0.03142728,-0.00091867,0.00070227,0.00163627,0
 .10045781,0.12444470,0.00012754,0.00011960,-0.00007711,0.00019034,0.00
 007359,0.00021707,0.00005302,-0.00128675,-0.00055561,0.00041281,0.0005
 7934,0.00059926,0.00000015,0.00000465,0.00000912,-0.00001568,0.0000007
 7,0.00000036,-0.00005801,-0.00010590,0.00001466,0.00025764,-0.00005039
 ,-0.00008817,-0.00005367,-0.00005962,-0.00014362,0.00018500,-0.0001434
 7,0.00008646,-0.00023550,0.00015798,-0.00001838,0.00005009,0.00003014,
 -0.00002185,0.00000786,0.00004381,0.00000644,0.00001685,-0.00005728,-0
 .00001696,-0.00000880,0.00000728,-0.00000571,0.00000137,-0.00000243,-0
 .00001565,0.00000353,-0.00000845,-0.00001637,0.00026441,-0.00006855,-0
 .00007134,0.00018404,0.00065857,0.00050931,0.00003243,-0.00000800,0.00
 012007,0.00000245,0.00012204,-0.00027605,-0.00000115,-0.00009739,-0.00
 003173,0.00000916,0.00003578,-0.00005629,-0.00001460,0.00001518,0.0000
 4209,0.00001207,-0.00001339,-0.00002972,0.00005945,-0.00010025,-0.0000
 4111,0.00001852,0.00001481,0.00004561,-0.00015009,0.00020345,0.0001692
 2,0.00000570,0.00001128,0.00000590,-0.00017535,0.00017190,-0.00003202,
 -0.00008459,0.00008098,0.00029828,0.00000358,0.00001173,-0.00000005,-0
 .00800750,-0.02034350,-0.01386952,-0.05292788,-0.03111953,-0.06570614,
 -0.00258648,-0.00232520,0.00046558,0.06152694,0.04924729,0.07849057,-0
 .00049143,0.00012200,-0.00011931,0.00005821,-0.00003692,-0.00007152,-0
 .00006541,-0.00147135,-0.00036882,0.00004955,-0.00039067,0.00058396,0.
 00001449,-0.00000095,0.00000349,-0.00005773,0.00003268,0.00002607,-0.0
 0004887,-0.00007513,0.00002843,-0.00017743,-0.00017653,-0.00052438,-0.
 00002561,0.00003641,-0.00000442,0.00046582,0.00024188,-0.00007816,-0.0
 0004956,0.00047538,0.00031327,0.00002463,-0.00015779,0.00003412,-0.000
 00051,-0.00007885,-0.00006227,-0.00008782,0.00018459,-0.00002462,-0.00
 007005,-0.00005619,0.00000701,-0.00003306,-0.00000760,-0.00000466,-0.0
 0003906,0.00001930,-0.00001873,0.00008874,-0.00109297,-0.00030042,-0.0
 0029981,-0.00101734,0.00031010,-0.00008180,-0.00002809,-0.00006170,0.0
 0008243,0.00030092,-0.00003974,-0.00001466,0.00000598,-0.00002614,-0.0
 0005397,-0.00007679,-0.00014154,0.00003843,-0.00006772,0.00001858,0.00
 007638,0.00013629,-0.00001426,0.00012577,-0.00000551,0.00003997,-0.000
 03706,0.00003505,0.00000266,-0.00006854,0.00004342,0.00019893,-0.00001
 079,0.00001500,0.00001999,0.00005606,-0.00036582,-0.00009613,-0.001046
 79,0.00022795,-0.00004660,-0.00001649,-0.00000148,-0.00001091,-0.00799
 578,-0.00107641,0.01090845,-0.10732133,-0.03914305,0.09336438,-0.00122
 408,0.00271135,0.00269745,-0.01644228,-0.01274946,0.01833034,0.1250079
 3,-0.00030011,0.00100941,-0.00036611,-0.00004654,-0.00006930,-0.000065
 42,-0.00025577,-0.00061755,-0.00151479,0.00048036,0.00065799,-0.000690
 56,-0.00000865,0.00006578,0.00004175,-0.00007837,0.00001845,-0.0000158
 1,-0.00001669,-0.00001977,0.00008043,-0.00003776,0.00015092,0.00002514
 ,0.00000879,0.00002554,0.00006143,0.00049281,-0.00055659,-0.00039494,0
 .00016215,-0.00020170,-0.00008119,-0.00012009,-0.00052370,0.00014052,-
 0.00006384,-0.00008751,-0.00003902,0.00018052,-0.00025385,0.00000752,0
 .00000193,-0.00000640,-0.00004375,0.00003636,0.00004823,-0.00007468,-0
 .00001653,0.00001166,-0.00006498,-0.00064050,-0.00006567,-0.00020560,-
 0.00122200,-0.00120374,0.00051758,0.00001594,0.00002724,0.00000484,0.0
 0000379,0.00012643,0.00019713,-0.00004128,-0.00004879,0.00019728,-0.00
 003046,0.00005283,-0.00003418,0.00000653,0.00010853,0.00010629,-0.0000
 7901,0.00007962,0.00002713,0.00001001,-0.00014994,0.00018787,-0.000007
 37,0.00004778,0.00007129,0.00000907,-0.00007506,-0.00004774,0.00002420
 ,-0.00000838,0.00002121,-0.00017698,0.00018872,-0.00015326,0.00048771,
 -0.00013379,-0.00007520,-0.00000645,0.00003121,0.00001087,0.01299523,0
 .00541131,-0.01912980,-0.04378710,-0.06992515,0.06639111,0.00225830,-0
 .00289924,-0.00237151,-0.01063156,-0.00614779,0.01171415,0.04767022,0.
 08079503,0.00001513,0.00088874,-0.00031837,0.00006025,0.00001278,-0.00
 010539,-0.00044986,-0.00152167,-0.00430842,-0.00068020,0.00094660,0.00
 087562,-0.00002329,0.00004163,0.00002627,-0.00002701,-0.00000824,-0.00
 001250,0.00000074,0.00007724,-0.00000554,-0.00077750,-0.00022190,-0.00
 052208,-0.00004826,0.00000961,0.00026374,0.00039329,-0.00021843,0.0001
 3832,-0.00016463,0.00052879,0.00027279,-0.00013411,-0.00032763,-0.0000
 8679,0.00008454,0.00005767,-0.00003300,-0.00003537,-0.00016939,-0.0000
 5702,0.00002156,0.00000385,-0.00000955,-0.00000163,0.00008218,-0.00002
 686,-0.00005698,0.00004235,-0.00002708,0.00005804,-0.00069240,0.000270
 18,-0.00012134,0.00052393,0.00068104,0.00000566,-0.00005821,-0.0000538
 8,-0.00019597,-0.00035371,0.00043526,-0.00005945,-0.00009079,0.0003059
 5,0.00004984,0.00011948,0.00008704,-0.00010961,0.00016496,0.00004966,-
 0.00017051,0.00001935,0.00002555,-0.00007927,-0.00009751,0.00018479,0.
 00006298,-0.00003183,0.00007839,-0.00014711,-0.00000308,-0.00024314,0.
 00005318,-0.00004324,0.00004577,-0.00018047,0.00037652,-0.00004873,-0.
 00017251,0.00014539,0.00028964,0.00001133,0.00003882,0.00002115,0.0111
 0021,0.00295120,-0.01684785,0.09644695,0.06131330,-0.18249579,0.001895
 89,-0.00383156,-0.00238242,-0.00410742,-0.00219521,0.00711631,-0.11299
 356,-0.06781578,0.21286156,-0.00026162,-0.00025636,-0.00060746,0.00042
 094,0.00009342,0.00010021,0.00028164,0.00090655,0.00019276,-0.00088920
 ,0.00206094,0.00134946,-0.00002112,0.00000694,0.00002604,-0.00000735,-
 0.00000949,0.00001648,0.00000143,-0.00002184,0.00002294,-0.00000776,-0
 .00029367,-0.00030999,-0.00013637,-0.00005160,-0.00001830,-0.00012884,
 0.00017366,-0.00008257,-0.00015471,0.00041767,0.00012273,0.00018669,-0
 .00004983,-0.00007991,-0.00003895,-0.00004834,-0.00007242,-0.00001096,
 0.00001086,-0.00004186,-0.00001168,-0.00003520,-0.00000238,0.00001271,
 -0.00000600,-0.00002760,-0.00000215,-0.00002892,-0.00003035,0.00059559
 ,-0.00035236,0.00010062,-0.00018590,0.00039437,0.00042064,-0.00006635,
 -0.00010582,-0.00001466,-0.00038839,-0.00022013,-0.00044082,-0.0000230
 2,-0.00006593,0.00018942,-0.00002464,0.00006423,0.00012305,-0.00010891
 ,-0.00000699,0.00003249,-0.00004865,0.00006235,-0.00003709,0.00006723,
 -0.00008239,-0.00000480,-0.00001621,-0.00001456,0.00000405,0.00007414,
 0.00027072,0.00003260,-0.00002873,0.00003015,0.00001244,-0.00012988,0.
 00046908,-0.00036708,0.00018725,-0.00017887,0.00049193,-0.00000912,0.0
 0001275,0.00002135,-0.00562396,0.00969488,-0.00472831,-0.11114689,0.06
 799253,-0.07114579,0.00009528,0.00019840,-0.00026105,-0.01773468,0.011
 41839,-0.01858448,0.00952351,-0.00913266,0.00947928,0.12577352,-0.0004
 3406,0.00102362,-0.00020864,-0.00037200,-0.00053036,-0.00083234,-0.000
 92644,-0.00569354,-0.00119167,0.00361680,-0.00396357,-0.00288821,0.000
 00690,0.00005893,-0.00000757,-0.00013423,0.00002793,-0.00002597,0.0000
 1941,-0.00005040,0.00002576,-0.00077157,-0.00022647,0.00021126,0.00007
 256,0.00021811,0.00054982,0.00036824,-0.00002491,-0.00008979,-0.000061
 90,0.00029736,-0.00018662,-0.00006407,-0.00003716,-0.00018836,0.000053
 77,0.00018110,-0.00012865,-0.00014654,0.00018026,-0.00006046,0.0000427
 0,-0.00001723,-0.00003293,-0.00001247,0.00006795,-0.00003292,-0.000070
 82,0.00008669,-0.00005676,0.00007631,-0.00040199,0.00028692,0.00026033
 ,-0.00015958,0.00007369,0.00004691,-0.00005739,-0.00007678,0.00017775,
 0.00066359,0.00020634,-0.00005920,-0.00002652,0.00013246,-0.00002047,0
 .00005896,-0.00002746,0.00005880,0.00013812,0.00004335,-0.00006002,-0.
 00006124,0.00004286,-0.00007212,-0.00006744,0.00021943,0.00004342,-0.0
 0004822,0.00006382,-0.00019428,0.00008205,-0.00031096,0.00000685,-0.00
 001881,0.00001034,0.00067783,-0.00126223,0.00088876,-0.00030102,0.0000
 9087,-0.00045030,0.00001420,0.00004162,0.00000753,0.01452434,-0.020121
 07,0.01196045,0.06982292,-0.10805082,0.07475923,-0.00032787,0.00038557
 ,0.00058658,-0.00878064,0.00840278,-0.00820165,0.00554626,-0.00637739,
 0.00943438,-0.08312328,0.13480371,-0.00031069,0.00002442,-0.00068449,-
 0.00016715,-0.00028080,-0.00012964,0.00031524,0.00133681,0.00144643,0.
 00152986,-0.00168719,-0.00050634,-0.00000933,0.00001235,0.00001908,-0.
 00001120,-0.00000272,-0.00000569,0.00003483,-0.00002720,0.00005256,0.0
 0046576,0.00006073,0.00011046,0.00004072,0.00008637,0.00008431,-0.0002
 7191,-0.00006658,-0.00003361,0.00002059,-0.00014739,-0.00013572,0.0001
 4115,-0.00018656,-0.00006097,-0.00005294,-0.00012244,-0.00004382,0.000
 01934,-0.00005763,0.00001870,0.00002333,0.00000242,-0.00001430,0.00002
 605,-0.00000412,-0.00001199,0.00001099,0.00000151,-0.00003588,0.000110
 87,0.00009753,-0.00009075,-0.00044180,0.00003797,0.00046105,0.00011960
 ,-0.00000373,0.00010380,0.00005421,0.00031489,-0.00048587,-0.00002988,
 -0.00011475,0.00025780,0.00000751,0.00013822,0.00013172,-0.00013097,0.
 00010177,0.00000743,-0.00007585,-0.00004857,-0.00006459,0.00002298,-0.
 00018767,0.00000096,-0.00004480,-0.00000943,-0.00000658,0.00011883,0.0
 0018822,-0.00000229,-0.00001142,0.00004045,-0.00000462,0.00051105,-0.0
 0065817,0.00054132,0.00031842,0.00005293,0.00020986,-0.00001414,0.0000
 1271,0.00001911,0.00903370,-0.00913021,0.00831346,-0.07538933,0.076528
 73,-0.12224805,0.00033747,-0.00103051,0.00099900,-0.00809034,0.0051483
 6,-0.00692547,-0.01268869,0.01419435,-0.01643440,0.08381200,-0.0842483
 8,0.13597519,0.00038463,0.00025026,0.00012749,0.00020444,0.00014830,0.
 00042199,0.00023516,-0.00018612,0.00222745,0.00026343,0.00035903,-0.00
 054511,-0.00000150,0.00001245,0.00001958,0.00002296,-0.00004074,0.0000
 5074,-0.00039306,-0.00021335,-0.00014304,0.00067612,-0.00014826,-0.000
 46673,-0.00006165,-0.00010452,-0.00029825,0.00019956,-0.00040074,0.000
 32085,-0.00006318,0.00004585,0.00025617,0.00010666,0.00004371,-0.00000
 739,-0.00003340,0.00002818,-0.00004487,-0.00002477,-0.00000850,0.00001
 339,0.00003154,0.00001984,-0.00001825,0.00000622,-0.00000430,-0.000015
 14,0.00000359,-0.00003751,-0.00000601,0.00008507,-0.00002543,-0.000125
 49,-0.00012642,0.00018232,-0.00000818,-0.00007498,-0.00004600,0.000083
 33,0.00003742,0.00016200,-0.00016934,0.00006487,0.00008959,-0.00009027
 ,0.00004715,0.00006276,-0.00004258,-0.00000264,-0.00001231,-0.00000791
 ,0.00002537,-0.00000125,-0.00002668,0.00009717,0.00008981,0.00001244,0
 .00001384,0.00003078,0.00004314,-0.00073234,-0.00009714,-0.00034511,-0
 .00003492,0.00002088,-0.00004224,-0.00008694,-0.00001735,0.00005908,0.
 00009684,0.00001032,0.00035692,0.00000459,0.00001838,0.00000334,-0.029
 14387,-0.02045520,0.00410455,0.00039362,-0.00182093,-0.00140951,-0.128
 72786,-0.08095104,-0.06481970,0.00015284,0.00100349,0.00153537,0.00045
 891,0.00007551,-0.00051086,-0.00028922,-0.00007937,0.00005510,0.160251
 21,0.00028935,0.00011907,0.00012148,0.00012213,0.00001545,0.00035725,0
 .00035898,0.00008647,0.00100102,-0.00032821,0.00053907,-0.00083998,-0.
 00000522,0.00000293,0.00001557,-0.00002498,-0.00004102,0.00000021,0.00
 008753,-0.00009507,0.00014600,0.00052468,-0.00012670,-0.00031485,0.000
 01388,-0.00000112,-0.00015130,0.00013797,-0.00019483,0.00015447,-0.000
 07384,0.00002497,0.00015282,0.00010801,0.00003339,0.00000819,-0.000030
 88,0.00000110,-0.00002292,0.00002610,-0.00001312,0.00000233,0.00002349
 ,0.00001938,-0.00000193,0.00001678,-0.00000468,-0.00000069,0.00000780,
 -0.00005002,-0.00001769,0.00012899,-0.00002711,-0.00008712,-0.00017866
 ,0.00023430,0.00008209,-0.00000400,-0.00002159,0.00010445,0.00009530,0
 .00015272,-0.00017957,0.00001939,-0.00014908,0.00010878,0.00000756,0.0
 0005478,-0.00000727,0.00000121,0.00000562,-0.00001090,-0.00011344,-0.0
 0004471,-0.00007352,-0.00024302,0.00005958,-0.00018852,0.00003886,0.00
 000952,0.00006175,-0.00046520,-0.00006147,-0.00012427,-0.00003122,0.00
 001972,-0.00003097,-0.00014244,-0.00033767,-0.00022505,0.00011554,0.00
 020828,0.00041305,0.00000891,-0.00001009,0.00000867,-0.02049647,-0.013
 70894,0.00206216,0.00293203,0.00179373,-0.00020149,-0.08003921,-0.1226
 5626,-0.05909921,-0.00011508,0.00052344,0.00032956,0.00041415,0.000000
 40,-0.00038109,-0.00000832,-0.00014829,0.00006813,0.10435228,0.1448366
 3,0.00001417,0.00002718,-0.00013169,0.00051073,0.00018025,0.00009818,0
 .00026768,0.00007980,-0.00133470,0.00081878,0.00017966,0.00095875,-0.0
 0001262,-0.00001642,0.00001161,-0.00002061,-0.00001105,-0.00000926,-0.
 00010423,0.00000758,0.00009139,0.00007081,-0.00001823,0.00000464,-0.00
 019292,-0.00011382,-0.00023517,-0.00013339,0.00022758,-0.00030444,-0.0
 0015749,0.00005970,0.00000613,0.00003128,-0.00001827,-0.00000718,-0.00
 000729,-0.00001652,0.00000264,-0.00000505,0.00004175,-0.00004222,-0.00
 000609,-0.00000896,0.00000505,0.00000578,-0.00001838,-0.00000126,0.000
 01098,-0.00001434,-0.00000635,0.00022673,-0.00007553,-0.00001224,0.000
 00269,0.00002800,0.00017873,-0.00005108,-0.00005734,-0.00001180,-0.000
 58226,-0.00010621,0.00004459,-0.00001757,-0.00007831,0.00015631,-0.000
 03396,0.00005891,0.00002610,-0.00002051,0.00003019,0.00005896,-0.00011
 582,0.00000115,-0.00005334,-0.00007259,0.00018533,-0.00002624,0.000050
 03,0.00002143,0.00004570,0.00025882,0.00004162,0.00034947,-0.00002157,
 -0.00000521,0.00002945,-0.00012199,-0.00009091,-0.00013827,0.00008154,
 -0.00039442,0.00032128,-0.00000162,-0.00001451,0.00001620,0.01640054,0
 .01170545,0.00706134,0.00237309,0.00287673,0.00158819,-0.06051509,-0.0
 5732793,-0.08787271,-0.00049694,-0.00031551,-0.00030507,-0.00009196,0.
 00024445,0.00015999,-0.00034206,-0.00018216,-0.00030113,0.06647149,0.0
 6696448,0.09823065,-0.00041280,0.00038564,-0.00016824,-0.00082991,-0.0
 0071750,-0.00099924,0.00129008,-0.00058355,0.00088649,-0.00132928,-0.0
 0074776,0.00340224,0.00000399,0.00001465,-0.00000646,-0.00003209,-0.00
 003302,0.00003206,0.00007116,0.00023897,-0.00008237,-0.00007220,-0.000
 06076,0.00021282,0.00009300,0.00023865,0.00056282,0.00033977,-0.000673
 46,0.00053661,-0.00005479,0.00003776,-0.00012056,0.00004711,0.00004034
 ,-0.00008579,-0.00001444,-0.00001192,-0.00004807,-0.00020967,0.0000281
 5,0.00004672,0.00000671,-0.00000083,-0.00002546,-0.00001067,0.00000452
 ,-0.00000578,-0.00001584,0.00001838,-0.00001632,0.00003360,-0.00006968
 ,0.00000588,0.00015387,-0.00010248,-0.00009774,0.00030920,0.00001792,-
 0.00004630,-0.00017010,0.00064545,-0.00003233,-0.00002772,-0.00007529,
 0.00005702,-0.00002315,0.00004992,0.00000203,0.00000802,0.00000470,0.0
 0002311,-0.00007764,-0.00008788,-0.00005723,0.00001629,0.00001310,0.00
 001045,0.00002567,-0.00003959,0.00002472,0.00009018,0.00023661,-0.0000
 7534,-0.00000940,0.00001800,-0.00001405,-0.00006907,0.00003032,-0.0002
 2120,0.00036336,-0.00039675,0.00061251,0.00000829,0.00001886,0.0000148
 1,0.00829396,-0.01107800,0.01589375,0.00056452,-0.00111674,0.00051046,
 -0.10735810,0.06236498,-0.08974715,-0.00041634,0.00015630,-0.00005164,
 -0.00001413,-0.00000654,-0.00004523,-0.00016674,0.00017167,0.00036049,
 -0.01283604,0.00819650,-0.01619835,0.12153734,-0.00001507,0.00057407,-
 0.00031636,-0.00133426,-0.00047570,-0.00069988,-0.00131383,-0.00075817
 ,0.00121790,-0.00155562,-0.00063010,0.00299457,0.00001557,0.00006228,-
 0.00002361,-0.00007394,0.00007383,-0.00004612,0.00045704,-0.00073435,0
 .00022831,-0.00004570,0.00002214,0.00005459,0.00037363,0.00022651,0.00
 051335,0.00029678,-0.00046378,0.00051334,0.00013720,-0.00010140,-0.000
 16735,-0.00003986,-0.00002188,-0.00009629,0.00002894,-0.00000628,-0.00
 007979,-0.00012888,0.00007170,0.00000736,0.00002233,0.00000504,-0.0000
 1133,-0.00001222,0.00001821,-0.00001291,-0.00003701,0.00005046,-0.0000
 4706,-0.00000601,0.00002026,0.00006613,0.00005032,-0.00013996,-0.00012
 852,0.00032515,0.00008864,-0.00000386,0.00131960,0.00032883,-0.0000352
 6,-0.00007493,-0.00004588,0.00003287,0.00003602,0.00002783,0.00002387,
 0.00000501,0.00017439,-0.00007367,0.00004138,0.00002981,0.00013929,-0.
 00021702,-0.00020135,0.00009151,-0.00008022,-0.00005969,-0.00003263,-0
 .00000474,0.00002921,0.00011466,0.00006667,-0.00000032,-0.00002522,-0.
 00029105,0.00038223,0.00008045,0.00002935,-0.00026192,0.00027312,0.000
 00690,0.00003883,-0.00000521,0.00299756,-0.00912138,0.01239605,0.00030
 784,0.00060888,-0.00050514,0.05953202,-0.09701032,0.07785653,-0.000225
 44,-0.00012155,0.00001747,0.00003548,-0.00003459,-0.00007394,0.0001926
 3,0.00023745,-0.00034249,-0.01067268,0.00843525,-0.01371145,-0.0669982
 7,0.11349910,-0.00008808,-0.00046605,0.00016176,-0.00008060,0.00005832
 ,0.00029511,0.00151923,0.00106749,0.00013040,0.00263150,0.00106951,-0.
 00323491,-0.00000176,-0.00003569,-0.00001285,0.00001971,0.00000182,-0.
 00003079,0.00006239,0.00020338,0.00029233,0.00004170,0.00006937,0.0000
 0731,0.00000061,-0.00009066,-0.00030776,-0.00040788,0.00088760,-0.0006
 7887,-0.00008435,-0.00001151,0.00006516,0.00001242,0.00000641,0.000056
 39,-0.00002773,0.00001562,0.00006238,0.00023245,0.00004565,-0.00007681
 ,-0.00003004,-0.00000663,0.00000460,0.00001356,-0.00001743,0.00003374,
 0.00003430,-0.00002982,0.00001048,-0.00001174,0.00005074,-0.00006026,-
 0.00010286,0.00008677,0.00004259,0.00003509,0.00002467,-0.00006947,-0.
 00031483,-0.00016416,-0.00043769,0.00006945,-0.00003081,-0.00001670,-0
 .00006299,-0.00002860,0.00000020,-0.00001551,-0.00006684,0.00000736,0.
 00000841,0.00002387,-0.00005112,0.00002889,0.00003230,-0.00022440,-0.0
 0000287,-0.00000906,0.00000854,0.00009666,-0.00008882,-0.00014767,-0.0
 0001899,0.00001516,-0.00001357,0.00032763,-0.00042578,0.00010630,-0.00
 018604,0.00015440,0.00004254,-0.00000522,-0.00001809,-0.00000293,-0.00
 582812,0.01586866,-0.02044288,-0.00034574,0.00030644,0.00012773,-0.085
 96082,0.07836532,-0.15967296,-0.00022864,0.00008718,-0.00016837,-0.000
 06974,-0.00006121,0.00037714,0.00072019,-0.00040300,-0.00039920,-0.012
 50397,0.00566313,-0.01202525,0.09537980,-0.09673030,0.18771745,0.00032
 514,0.00080395,-0.00011360,-0.00056689,0.00004216,-0.00007187,-0.00136
 214,0.00035644,0.00057155,0.00086779,0.00069529,-0.00110487,0.00001762
 ,0.00009108,-0.00001818,0.00004552,-0.00002581,0.00001042,-0.00136147,
 -0.00342302,-0.00133868,0.00013838,0.00009680,0.00000523,0.00018973,-0
 .00002616,0.00007533,-0.00011094,0.00016659,-0.00023165,0.00022520,-0.
 00019583,-0.00011848,0.00005498,0.00010305,-0.00005803,0.00007301,0.00
 012311,-0.00008479,-0.00001679,-0.00001213,-0.00006004,0.00005098,0.00
 002106,-0.00003949,0.00003227,0.00002085,-0.00003056,-0.00001244,-0.00
 000399,-0.00002497,-0.00018105,0.00014419,0.00001291,0.00000955,-0.000
 38429,-0.00017734,0.00008435,0.00006457,0.00003783,0.00062344,-0.00027
 548,-0.00005072,-0.00016257,0.00005658,-0.00031868,0.00009679,0.000074
 30,-0.00002268,-0.00001602,0.00007703,-0.00006729,0.00025419,-0.000074
 17,0.00023554,-0.00030644,-0.00087908,0.00034414,-0.00007754,-0.000009
 16,-0.00004040,-0.00011661,-0.00010718,0.00003895,0.00005732,-0.000013
 94,-0.00000831,0.00074254,-0.00025151,0.00033101,-0.00011914,-0.000088
 35,-0.00020110,0.00002139,0.00009689,-0.00000180,-0.01388590,0.0160641
 1,0.01284405,-0.00300158,-0.00171649,0.00364132,-0.10167728,0.08941908
 ,0.04918724,0.00003380,-0.00037724,-0.00023717,-0.00031156,0.00113502,
 0.00095718,0.00019315,-0.00025131,-0.00010803,0.00907731,-0.01546833,-
 0.00829317,-0.00930027,0.01656688,0.00536237,0.11906817,0.00045823,0.0
 0056093,-0.00034005,0.00016218,-0.00002147,-0.00007306,0.00045420,-0.0
 0019353,-0.00005914,-0.00132742,0.00083475,0.00132294,0.00000306,0.000
 04768,0.00001476,0.00008215,-0.00008121,0.00016927,-0.00269475,-0.0020
 5860,-0.00130147,-0.00011208,-0.00003559,-0.00003512,-0.00006909,-0.00
 000499,0.00004343,-0.00011527,0.00010839,-0.00005418,0.00001155,0.0000
 6410,0.00009078,0.00000792,0.00004490,-0.00005185,0.00014959,0.0000022
 4,-0.00000978,-0.00004236,0.00001063,-0.00005442,0.00000702,0.00003265
 ,0.00000631,0.00004890,0.00003065,0.00001469,-0.00005468,0.00001019,-0
 .00001662,-0.00007900,-0.00003081,-0.00000314,0.00001668,-0.00005716,0
 .00000106,-0.00005145,-0.00002739,-0.00002848,-0.00019140,0.00010855,0
 .00015811,-0.00016128,-0.00004442,-0.00000270,-0.00004390,0.00007135,0
 .00005525,-0.00005154,-0.00004645,0.00013692,-0.00008537,-0.00021503,-
 0.00000281,-0.00088832,-0.00181065,-0.00009181,0.00000251,0.00001341,0
 .00002859,-0.00000714,-0.00001707,-0.00009919,-0.00001359,-0.00000276,
 0.00000716,-0.00015329,-0.00012476,0.00124194,0.00013574,-0.00020491,-
 0.00010537,0.00002711,0.00002910,0.00000555,-0.00244197,0.00597469,0.0
 0208620,-0.00021151,0.00027727,0.00046836,0.09178319,-0.18183143,-0.07
 688789,0.00032655,0.00027866,0.00031846,-0.00016578,0.00047642,0.00029
 450,-0.00026217,0.00013398,0.00003357,0.00818607,-0.01958610,-0.010387
 92,0.00978247,-0.01481003,-0.00538939,-0.10265543,0.21200296,-0.000426
 57,-0.00036328,-0.00005252,-0.00001519,0.00003983,0.00009401,0.0006035
 6,-0.00005440,0.00011727,0.00095100,-0.00169720,0.00013549,0.00000984,
 -0.00002132,-0.00002423,-0.00008095,0.00020545,-0.00010696,-0.00046812
 ,-0.00075004,0.00137001,-0.00009152,-0.00002993,0.00001390,0.00002184,
 -0.00004080,-0.00011598,0.00012004,-0.00022751,0.00025297,-0.00016776,
 0.00011967,0.00001489,-0.00009327,-0.00004514,-0.00001910,-0.00004082,
 -0.00008663,0.00002807,-0.00000736,0.00006792,-0.00001025,-0.00005483,
 -0.00003004,0.00001163,-0.00004219,-0.00003290,0.00002251,0.00000518,0
 .00005353,-0.00003207,0.00022195,-0.00012589,-0.00001754,0.00003238,0.
 00011591,0.00009878,-0.00004146,-0.00001188,-0.00002421,0.00003134,-0.
 00001350,-0.00011212,0.00001671,0.00002896,0.00000025,-0.00010110,-0.0
 0013275,0.00000858,0.00001401,0.00003265,-0.00001318,0.00011780,0.0001
 4256,0.00008355,-0.00020788,-0.00065037,-0.00005304,-0.00005948,-0.000
 02026,-0.00004442,0.00003721,0.00003132,0.00003752,-0.00000211,0.00000
 619,-0.00000877,-0.00002765,0.00152786,-0.00111861,-0.00000678,-0.0000
 5471,0.00000309,-0.00002717,-0.00002167,-0.00002085,0.01332362,-0.0152
 6417,-0.01370267,0.00407766,0.00138408,-0.00403932,0.04757139,-0.07283
 266,-0.08271029,0.00006026,0.00050575,0.00029517,0.00085510,-0.0011422
 8,-0.00076319,-0.00009062,0.00011807,0.00000066,0.00556010,-0.01575291
 ,-0.00662905,-0.01045881,0.01653822,0.00859729,-0.06092983,0.08853371,
 0.09846802,0.00056062,-0.00015584,0.00080607,-0.00968689,-0.01833015,-
 0.00035028,-0.00050817,-0.00008330,-0.00061321,0.00001837,0.00002563,-
 0.00000314,0.00002938,-0.00002231,0.00001126,0.00001060,0.00001381,0.0
 0003588,0.00000110,-0.00002656,-0.00000625,-0.00014616,-0.00034857,0.0
 0079370,-0.00139426,-0.00167475,-0.00192837,0.00005875,-0.00005713,0.0
 0000167,0.00038635,0.00031489,0.00052359,0.00009723,-0.00000265,0.0001
 3709,0.00005529,-0.00001615,0.00007334,0.00004165,0.00000014,-0.000006
 66,-0.00004181,0.00000460,-0.00003892,0.00001322,-0.00002133,0.0000393
 4,0.00000660,0.00001037,-0.00002111,-0.00004943,-0.00004944,-0.0000608
 8,-0.00020256,0.00020063,0.00024885,-0.07913181,-0.04822580,-0.0089057
 3,-0.00714887,-0.00144373,0.00098225,0.00015351,-0.00024768,-0.0000338
 4,-0.00006521,-0.00005809,-0.00022604,0.00005247,0.00001436,-0.0000147
 5,0.00000672,-0.00002614,-0.00003818,-0.00005839,0.00002591,-0.0000532
 4,-0.00036242,0.00016426,0.00012133,-0.00361187,-0.00676786,-0.0099926
 6,0.00474205,0.01070269,0.00060960,-0.00000521,-0.00000283,0.00000048,
 0.00001267,0.00001714,0.00000659,-0.00001109,-0.00003684,-0.00004493,-
 0.00001852,0.00001653,0.00000964,0.00002292,-0.00000806,-0.00001900,-0
 .00002603,-0.00003338,0.00002038,0.00001205,0.00001725,0.00001356,-0.0
 0000993,-0.00000258,-0.00000037,0.00001861,0.00001119,0.00004680,0.000
 00268,0.00002167,-0.00000800,0.00002488,0.00003569,-0.00000856,0.00000
 142,-0.00000536,-0.00000643,0.50890464,-0.00020884,-0.00030849,-0.0006
 2438,-0.00829684,-0.00488482,0.00349355,0.00049913,-0.00029564,0.00021
 287,-0.00000885,-0.00002205,0.00001081,-0.00002443,0.00003851,0.000001
 51,-0.00001070,-0.00000117,-0.00001555,-0.00000769,-0.00001453,0.00002
 650,-0.00188807,0.00057369,0.00215952,-0.00019088,-0.00046825,-0.00335
 724,-0.00003615,0.00003502,0.00001541,-0.00028429,0.00028040,-0.000634
 54,-0.00013576,-0.00001412,-0.00001566,0.00003058,0.00003066,0.0000212
 4,-0.00006206,0.00002358,0.00002031,0.00008712,-0.00004309,0.00009071,
 -0.00002015,0.00004528,-0.00002480,-0.00001943,0.00000740,-0.00001154,
 0.00066343,-0.00027032,0.00000796,-0.00019371,0.00014282,0.00001968,-0
 .03327666,-0.13986596,-0.01279009,-0.00088045,-0.00040046,0.00019197,0
 .00000829,0.00001663,0.00005662,0.00014171,-0.00005553,0.00012264,-0.0
 0005966,-0.00001455,-0.00007254,-0.00005964,0.00005341,0.00002554,-0.0
 0000718,-0.00005331,0.00000642,0.00024601,0.00004767,0.00005448,-0.005
 14429,-0.00551855,-0.01802836,-0.01106536,-0.02780556,-0.00393268,-0.0
 0002184,0.00001069,-0.00001571,-0.00000520,0.00001582,-0.00001788,0.00
 003188,-0.00001587,0.00006453,-0.00008953,-0.00000749,0.00000162,0.000
 02537,-0.00001786,0.00000604,-0.00000972,-0.00000923,0.00000407,-0.000
 01037,0.00001273,-0.00000429,-0.00001506,-0.00002348,0.00002463,0.0000
 0232,0.00002963,-0.00001269,-0.00001115,0.00000232,-0.00000225,0.00002
 027,0.00000630,-0.00000726,-0.00001655,-0.00000694,-0.00000371,-0.0108
 8094,0.44700930,0.00063069,-0.00044468,0.00012412,-0.00410015,0.005601
 05,0.00284699,0.00010396,0.00026816,-0.00172345,-0.00005335,-0.0000000
 2,-0.00000574,0.00007912,-0.00004729,0.00001875,-0.00001717,-0.0000151
 2,0.00001571,-0.00009320,-0.00000686,-0.00004739,-0.00222169,-0.001159
 65,0.00130201,0.00460870,0.00282382,-0.00132426,-0.00008704,0.00007244
 ,0.00006138,-0.00039286,0.00173827,-0.00140926,-0.00005612,0.00009128,
 0.00003603,0.00009965,-0.00022267,-0.00010195,0.00003147,-0.00005906,0
 .00002324,-0.00015398,0.00007606,0.00010749,0.00005112,-0.00012468,0.0
 0005399,0.00001521,-0.00001452,-0.00001784,0.00085106,-0.00004245,-0.0
 0019183,-0.00038067,0.00004871,0.00034109,-0.01058364,-0.01979925,-0.0
 6481853,0.00652115,0.00126077,0.00133930,0.00012125,0.00010002,-0.0002
 8631,0.00014635,0.00010979,0.00005131,0.00005107,-0.00003043,0.0001182
 6,0.00009104,-0.00001428,0.00003876,0.00006641,-0.00003489,-0.00014379
 ,0.00022844,0.00014544,0.00021128,-0.01493310,-0.02731173,-0.01947050,
 0.00124817,0.00402607,0.00316816,0.00001571,0.00001660,0.00000507,0.00
 000970,-0.00000335,0.00002391,-0.00004800,-0.00000818,-0.00012854,-0.0
 0057570,-0.00004839,-0.00000447,-0.00002202,0.00003188,-0.00003052,-0.
 00001692,0.00001491,-0.00005955,0.00000357,0.00000814,0.00001966,0.000
 00358,0.00000472,0.00003985,0.00001871,-0.00003047,-0.00002293,-0.0000
 0454,-0.00000945,0.00004300,-0.00005279,-0.00007398,-0.00000446,-0.000
 01767,0.00001568,-0.00001226,-0.00195185,-0.01288070,0.46408572,-0.000
 96361,0.00074397,-0.00044750,0.00030296,-0.00134959,-0.00057710,-0.001
 26261,-0.00094283,-0.00010117,0.00000716,-0.00000396,0.00008715,0.0001
 2436,-0.00005690,-0.00001148,0.00009865,0.00001614,0.00002207,0.000096
 18,0.00001264,-0.00006331,0.00077398,-0.00039033,0.00023038,-0.0003011
 1,0.00000873,0.00014728,0.00027200,0.00003221,0.00018842,-0.00019539,0
 .00008233,-0.00013590,-0.00112809,0.00032795,0.00056963,0.00023175,0.0
 0011333,0.00024575,0.00007355,0.00005909,-0.00010101,0.00049561,0.0007
 5481,0.00062533,0.00005512,-0.00003963,0.00017368,0.00004000,0.0000311
 6,0.00000862,0.00005650,-0.00013957,-0.00003422,0.00047531,-0.00008958
 ,-0.00046842,0.00014744,-0.00818526,0.00883909,-0.00102656,-0.00007378
 ,-0.00021083,-0.00117516,0.00044169,0.00081512,0.00000682,-0.00054443,
 -0.00022228,0.00042634,-0.00009807,-0.00033992,0.00014951,0.00010692,0
 .00020419,0.00022015,-0.00001202,-0.00001695,-0.00062003,-0.00026608,0
 .00027685,0.00084281,-0.00031649,0.00040797,-0.00017777,-0.00112111,-0
 .00003381,0.00005710,-0.00001670,0.00002133,0.00003735,0.00001377,0.00
 000040,0.00092728,0.00040670,-0.00060262,0.00014354,0.00003765,0.00005
 180,0.00004480,-0.00001464,0.00002283,-0.00000847,0.00003467,0.0000099
 7,0.00002665,0.00001110,0.00000860,0.00001130,-0.00000311,0.00001771,0
 .00002440,0.00002429,0.00001233,0.00002211,0.00001106,0.00000076,0.000
 02647,0.00001325,-0.00000513,0.00001446,-0.00000254,-0.00000442,-0.063
 72823,0.00093812,-0.00729568,0.53332584,-0.00287302,-0.00090882,-0.001
 93291,-0.00273413,-0.00320202,-0.00197818,-0.00154641,0.00043494,-0.00
 117909,-0.00002570,0.00007545,0.00000159,0.00003866,-0.00002415,0.0000
 5261,-0.00001985,-0.00008559,-0.00003523,-0.00005188,-0.00004628,-0.00
 004845,-0.00001808,-0.00032351,-0.00206923,0.00174431,0.00175498,0.000
 76514,0.00002176,0.00003487,0.00030272,0.00077945,-0.00017051,0.001735
 37,-0.00040111,-0.00004383,-0.00074024,0.00042076,-0.00028025,0.000075
 71,0.00004077,-0.00008601,-0.00002159,0.00002464,0.00022119,0.00026755
 ,0.00008927,0.00003417,0.00009060,-0.00007142,-0.00004465,0.00001707,-
 0.00083328,0.00036603,-0.00014439,0.00070719,-0.00086672,-0.00086378,-
 0.00311447,-0.02319100,0.01109860,0.00120025,0.00062802,0.00142935,-0.
 00070719,0.00125386,0.00054399,0.00058557,0.00054201,0.00146752,0.0001
 6588,-0.00024776,-0.00008599,-0.00009207,0.00026595,0.00030071,0.00003
 317,-0.00011343,-0.00003441,-0.00040098,0.00025097,-0.00012921,0.00003
 681,-0.00136999,0.00285893,-0.00135385,-0.00305635,-0.00011368,0.00006
 346,0.00000585,0.00001285,0.00001077,-0.00003102,0.00003276,0.00058307
 ,-0.00042155,-0.00010796,0.00040141,0.00005733,-0.00000603,0.00001044,
 -0.00001457,0.00000722,0.00004732,0.00003279,0.00000682,0.00000276,0.0
 0000036,0.00000467,-0.00001878,0.00003206,0.00001713,-0.00004411,-0.00
 001608,-0.00003499,0.00002702,0.00000942,-0.00000612,-0.00002826,-0.00
 002460,-0.00000375,0.00002427,0.00000838,-0.00002854,0.00768771,-0.134
 33087,0.07173727,0.10612478,0.45974654,0.00128374,0.00018535,-0.000661
 37,0.00425541,0.00141576,0.00004795,0.00059796,-0.00116653,0.00139314,
 0.00004248,-0.00006179,0.00005076,0.00000120,0.00001288,-0.00002206,0.
 00002148,0.00008520,0.00004373,0.00010162,0.00002758,0.00001007,-0.000
 81380,-0.00074900,0.00269699,-0.00101314,-0.00091031,-0.00030832,0.000
 29848,-0.00008288,0.00006323,-0.00067860,0.00028662,-0.00196533,-0.000
 88809,0.00013329,0.00089422,-0.00007969,0.00051493,0.00014433,-0.00002
 828,0.00022833,0.00026235,0.00023279,0.00000394,-0.00050362,-0.0000649
 0,0.00006620,-0.00001608,0.00009833,0.00004198,-0.00007690,0.00064300,
 -0.00058206,0.00009368,-0.00019044,-0.00005123,-0.00013208,0.00328276,
 -0.00015413,0.00794283,-0.00253321,-0.00062266,-0.00147124,0.00026926,
 -0.00044559,-0.00053564,0.00083353,-0.00076772,-0.00057737,0.00004076,
 -0.00001687,-0.00039806,0.00004337,0.00021247,0.00011036,0.00011073,0.
 00011327,0.00003135,0.00060103,-0.00005067,0.00004829,0.00019645,-0.00
 131045,-0.00120017,-0.00089212,-0.00224398,-0.00047358,-0.00001156,-0.
 00004875,-0.00002476,0.00001930,0.00003910,-0.00004564,0.00038417,0.00
 008350,-0.00005377,-0.00027011,-0.00004272,0.00003662,0.00000960,0.000
 00363,0.00002861,-0.00004736,-0.00000458,0.00000421,0.00000790,0.00000
 244,-0.00000942,0.00002514,-0.00003033,-0.00001254,0.00005858,0.000031
 82,0.00004295,-0.00001414,-0.00001008,-0.00000688,0.00005464,0.0000439
 7,-0.00000797,-0.00000551,-0.00001558,0.00002227,-0.01061662,0.0701311
 0,-0.12638136,0.16701398,-0.17670531,0.40151177,-0.00057496,-0.0001765
 3,-0.00077867,-0.00066385,-0.00014557,0.00050458,-0.00041978,-0.000302
 86,-0.00004647,-0.00000399,-0.00002360,-0.00002651,0.00003696,-0.00003
 463,0.00003178,-0.00000085,0.00003873,0.00006393,0.00003266,0.00002172
 ,0.00001269,-0.00010844,-0.00059619,-0.00027315,0.00011930,-0.00001858
 ,-0.00031865,0.00006067,-0.00014271,0.00003882,0.00013573,0.00013279,0
 .00006927,-0.00018862,-0.00017144,-0.00057189,0.00008197,0.00002266,0.
 00006276,0.00004837,0.00005173,0.00003083,-0.00043893,-0.00027246,-0.0
 0047203,-0.00000831,-0.00003849,0.00002113,0.00005554,0.00001004,-0.00
 002832,-0.00025719,0.00001941,-0.00010965,-0.00013894,-0.00005724,-0.0
 0010477,0.00109089,0.00090221,0.00007054,0.00021867,0.00005650,-0.0000
 5609,0.00025391,0.00022121,0.00016896,-0.00013447,0.00022091,0.0005001
 3,-0.00002403,-0.00008600,0.00002261,0.00002328,0.00007867,0.00016561,
 0.00016715,0.00003883,-0.00017260,-0.00014678,-0.00008869,0.00012266,0
 .00012070,0.00086714,-0.00043437,-0.00014950,-0.00010643,0.00005395,0.
 00003780,-0.00002019,-0.00001446,0.00002775,0.00000331,0.00002694,-0.0
 0073059,0.00016394,0.00021064,0.00013643,0.00004690,0.00002238,0.00000
 764,0.00000554,-0.00002372,-0.00000024,0.00000241,0.00002516,0.0000221
 0,0.00001672,0.00001565,-0.00001224,0.00001911,0.00000321,0.00000186,-
 0.00000741,0.00002547,0.00002153,0.00002158,0.00000798,0.00000171,-0.0
 0000131,0.00000436,0.00000773,0.00000609,-0.00000430,-0.00168102,-0.00
 699998,0.00365060,-0.20128174,-0.13817382,0.01078316,0.53856662,-0.000
 76914,0.00006731,0.00077094,0.00049189,-0.00043855,0.00005229,-0.00002
 239,-0.00038876,0.00015422,-0.00002646,-0.00003460,0.00000989,-0.00004
 029,-0.00002244,0.00000740,-0.00001253,0.00001022,0.00001819,0.0000117
 1,0.00003329,0.00001705,0.00026725,-0.00020266,-0.00012689,-0.00019740
 ,-0.00016986,-0.00005247,0.00003602,-0.00004773,-0.00004741,-0.0001057
 7,0.00004601,-0.00012562,0.00093757,-0.00029072,-0.00063445,-0.0002050
 3,-0.00007503,0.00029196,0.00010231,0.00000413,-0.00019421,-0.00031165
 ,-0.00039618,-0.00059274,-0.00012847,-0.00002080,-0.00002784,0.0000347
 1,-0.00001111,-0.00004858,0.00001797,-0.00001823,-0.00006253,-0.000319
 96,0.00036555,0.00027598,-0.00023637,-0.00264048,0.00336610,-0.0006668
 6,-0.00012884,-0.00026346,-0.00008375,-0.00021939,-0.00028624,-0.00122
 328,0.00044382,-0.00010776,-0.00000681,-0.00000347,0.00026336,-0.00002
 417,-0.00014960,-0.00016173,0.00006145,0.00009575,0.00011346,-0.000104
 28,-0.00015099,0.00014585,0.00018582,0.00131744,-0.00006077,-0.0003615
 7,-0.00058236,-0.00012232,0.00000739,-0.00001373,-0.00000727,-0.000003
 02,-0.00000729,-0.00000089,-0.00069201,0.00011632,0.00027973,-0.000080
 02,-0.00002072,0.00000574,0.00001217,0.00003427,0.00003250,0.00001000,
 0.00002484,-0.00002778,0.00000778,-0.00000345,0.00000064,-0.00000076,0
 .00000292,0.00000448,0.00002816,-0.00000961,0.00003586,-0.00000148,0.0
 0000132,0.00000371,0.00001658,0.00000595,0.00000991,0.00000409,0.00000
 281,0.00000189,-0.01840153,-0.02370622,0.00983469,-0.08015690,-0.16681
 344,0.03499650,0.10689892,0.50978211,-0.00115511,0.00042111,0.00010249
 ,-0.00092038,0.00006172,0.00019861,-0.00033158,0.00013411,-0.00026913,
 0.00000312,0.00001536,-0.00002560,0.00003837,0.00000476,0.00001473,0.0
 0000708,0.00000625,-0.00002258,0.00001057,-0.00000275,-0.00000808,0.00
 100637,0.00002678,-0.00051384,0.00023522,0.00015357,-0.00007351,-0.000
 03382,0.00013036,-0.00000401,0.00008804,0.00008464,0.00051404,0.000206
 87,-0.00019857,0.00007873,0.00003438,0.00005805,0.00009762,0.00004773,
 -0.00008135,-0.00020733,0.00005956,0.00006891,0.00008739,0.00007040,-0
 .00000126,0.00002275,0.00001933,0.00000034,0.00003166,-0.00017368,0.00
 000692,-0.00005488,0.00033665,-0.00007142,-0.00012238,-0.00041142,0.00
 128269,-0.00274041,0.00061933,0.00012341,0.00025995,-0.00067925,0.0002
 5095,0.00030510,-0.00045074,-0.00016364,0.00015948,0.00016763,0.000054
 64,-0.00003227,-0.00002794,-0.00001886,0.00005292,0.00006848,-0.000003
 56,0.00012168,-0.00007631,0.00001197,-0.00011264,-0.00058484,-0.000547
 46,0.00047842,0.00031832,0.00072678,0.00010052,0.00002066,-0.00000912,
 -0.00000114,0.00002058,0.00000485,0.00001768,0.00001261,-0.00004358,-0
 .00018594,0.00014963,0.00004382,0.00001468,0.00000493,-0.00002053,-0.0
 0003608,-0.00000623,-0.00001763,0.00003440,0.00000722,0.00001343,0.000
 00966,-0.00000617,0.00000985,0.00000073,-0.00001629,0.00000182,-0.0000
 1121,0.00001545,0.00001206,0.00000284,-0.00001193,-0.00000516,-0.00000
 716,0.00000426,0.00000301,-0.00000731,0.01302286,0.01851891,-0.0037332
 6,-0.02760955,0.00100448,-0.06720305,0.17466628,-0.22119631,0.37825840
 ,-0.00000792,-0.00016821,0.00041107,-0.00003242,-0.00010308,-0.0000092
 4,-0.00009167,-0.00009685,-0.00003144,-0.00001450,-0.00003408,-0.00004
 300,-0.00000897,-0.00007132,0.00002896,0.00000332,0.00003568,0.0000352
 9,0.00004245,0.00004181,0.00005029,-0.00013126,-0.00016309,-0.00004738
 ,0.00006000,0.00016143,-0.00004538,-0.00003522,-0.00002783,-0.00007992
 ,0.00008624,0.00004877,0.00001220,0.00010121,-0.00024513,-0.00064849,-
 0.00029971,-0.00025868,-0.00014360,0.00014470,0.00006461,-0.00014532,-
 0.00044701,-0.00039717,-0.00051451,-0.00013913,-0.00011579,-0.00000151
 ,0.00004944,0.00000400,-0.00000398,-0.00008318,-0.00002502,-0.00002183
 ,-0.00013919,0.00019067,0.00011567,0.00021819,-0.00093960,0.00088888,0
 .00001504,0.00001189,0.00000094,0.00000546,-0.00007526,-0.00016003,-0.
 00084545,0.00038213,-0.00007651,-0.00000131,0.00003215,0.00017459,-0.0
 0003390,0.00001148,-0.00007349,0.00006539,0.00017900,0.00013240,-0.000
 03041,-0.00004211,-0.00001234,0.00008633,0.00041116,-0.00000378,-0.000
 11693,-0.00025285,-0.00005256,0.00002192,-0.00003441,-0.00002910,0.000
 02139,-0.00000540,0.00000735,-0.00062406,0.00005041,0.00021279,0.00010
 753,0.00001730,0.00000223,0.00000849,-0.00001518,-0.00001886,-0.000011
 14,-0.00001511,0.00001978,0.00000927,0.00000672,0.00000506,-0.00000514
 ,0.00001543,0.00000008,-0.00000435,0.00000237,-0.00000554,0.00000683,0
 .00000041,-0.00000186,-0.00000033,-0.00000190,-0.00000788,0.00000763,-
 0.00000624,-0.00000589,-0.00203139,-0.00462992,-0.00157861,0.02591072,
 -0.00934307,0.02195456,-0.08517915,-0.03518275,-0.00097142,0.57164509,
 0.00027690,-0.00024807,0.00016764,-0.00027047,-0.00014053,-0.00007624,
 0.00007578,0.00010900,-0.00002220,0.00003454,0.00001681,-0.00001195,0.
 00004697,-0.00002439,0.00000903,0.00002076,0.00002776,0.00000836,0.000
 03522,-0.00000423,-0.00002217,-0.00018882,-0.00006669,-0.00016821,0.00
 003871,0.00008691,-0.00009050,0.00004080,0.00004227,-0.00006298,0.0000
 6507,0.00002462,0.00018406,-0.00031801,0.00021480,0.00048426,-0.000001
 46,-0.00013971,-0.00025540,-0.00000684,0.00003855,-0.00001169,0.000177
 78,0.00024158,0.00022177,0.00000466,-0.00005282,0.00000420,0.00001861,
 0.00002140,0.00003566,0.00006930,-0.00004830,0.00005873,0.00006526,-0.
 00003027,0.00006576,-0.00030154,-0.00031348,0.00033406,0.00010912,0.00
 007373,0.00008300,-0.00004711,0.00006372,0.00008473,0.00010935,-0.0005
 8715,-0.00005918,0.00004018,0.00013043,0.00002511,0.00004691,0.0000024
 2,0.00007829,-0.00009489,-0.00002345,0.00000815,0.00001468,-0.00002432
 ,-0.00009610,-0.00001653,-0.00031247,0.00037157,0.00003613,0.00011947,
 -0.00001628,0.00000983,-0.00000807,-0.00000325,0.00001807,0.00001537,0
 .00000851,0.00020039,-0.00004099,-0.00023726,0.00004596,0.00003628,0.0
 0001094,-0.00000106,-0.00002810,-0.00004582,-0.00001648,-0.00002744,0.
 00003635,-0.00000223,0.00001301,0.00000818,-0.00000427,0.00000521,-0.0
 0000066,-0.00001414,0.00001442,-0.00000296,0.00000596,0.00001109,-0.00
 000139,-0.00000110,0.00001241,-0.00000820,0.00000196,0.00000274,0.0000
 0017,-0.00314583,0.00085572,0.00078587,-0.05270368,-0.04502696,0.00083
 952,0.02218677,-0.24354182,0.15536622,0.12403772,0.52280299,-0.0003749
 1,0.00002815,0.00023760,0.00000303,0.00009758,0.00022286,-0.00011847,-
 0.00012144,-0.00002295,-0.00002370,-0.00002659,-0.00003013,-0.00003139
 ,-0.00003054,0.00002895,-0.00001186,-0.00000487,0.00001032,-0.00000081
 ,0.00001386,0.00002916,0.00029963,-0.00006707,-0.00006920,-0.00005748,
 -0.00005272,-0.00002651,0.00005281,-0.00002800,-0.00004534,-0.00005312
 ,0.00000624,0.00002414,0.00058887,0.00018508,-0.00067310,0.00008908,0.
 00001564,0.00020707,0.00002133,0.00002039,0.00001115,-0.00025699,-0.00
 036129,-0.00045012,-0.00006382,0.00003246,-0.00000618,0.00001105,-0.00
 000985,-0.00002499,-0.00001917,0.00001163,-0.00005446,-0.00024888,0.00
 008458,0.00015211,0.00031740,0.00075679,-0.00030541,0.00001534,-0.0000
 5906,-0.00003347,0.00005859,0.00015180,-0.00006465,-0.00097199,0.00027
 126,0.00040180,-0.00004279,-0.00000477,0.00015197,-0.00006143,-0.00003
 116,-0.00009506,0.00007246,0.00001419,-0.00001352,-0.00003732,-0.00003
 195,0.00006355,-0.00002049,0.00034800,-0.00034663,0.00004063,0.0000452
 6,0.00002989,0.00001036,-0.00001227,-0.00001496,0.00000045,-0.00001618
 ,-0.00000415,-0.00072146,-0.00006038,0.00031741,0.00001579,-0.00001081
 ,-0.00000724,0.00000897,0.00000995,0.00001766,0.00000479,0.00001000,-0
 .00001434,0.00000624,-0.00000390,-0.00000293,0.00000059,0.00000668,0.0
 0000316,0.00000623,-0.00000517,-0.00000265,-0.00000098,-0.00000802,-0.
 00000070,-0.00000032,-0.00000961,-0.00000074,0.00000252,-0.00000604,-0
 .00000392,-0.00248221,0.00173996,0.00540143,0.05191741,0.02675458,0.01
 100884,-0.03901396,0.11891773,-0.15616816,0.16158816,-0.21206576,0.348
 86571,0.00039305,-0.00106153,-0.00007692,0.00006917,0.00004779,-0.0000
 8029,0.00017958,0.00013466,0.00014580,-0.00004747,-0.00004662,0.000046
 69,0.00009300,-0.00015248,-0.00000474,0.00005563,0.00007557,0.00003572
 ,0.00002902,-0.00001037,-0.00001831,-0.00018839,0.00003962,0.00008213,
 -0.00004180,-0.00011032,-0.00000056,0.00013930,-0.00000048,-0.00005573
 ,-0.00004278,0.00001688,-0.00000245,-0.00103689,0.00046278,0.00170190,
 -0.00040508,-0.00034520,-0.00062617,0.00018231,0.00021555,0.00001295,0
 .00043769,0.00002712,0.00066175,-0.00012709,-0.00024157,0.00009455,0.0
 0007791,0.00002188,0.00004588,0.00012920,-0.00001137,0.00012779,0.0002
 1355,-0.00007339,-0.00008625,-0.00017088,-0.00010690,-0.00009890,-0.00
 000501,0.00005431,-0.00003164,0.00038089,0.00000263,-0.00017527,0.0011
 2490,-0.00108422,-0.00029399,0.00000620,0.00019777,0.00003237,0.000332
 51,0.00017088,0.00003533,-0.00016035,-0.00008942,0.00000607,0.00001227
 ,0.00001726,-0.00004635,-0.00007267,-0.00047948,0.00031039,0.00003170,
 0.00006509,-0.00000875,0.00000290,-0.00001998,-0.00002932,0.00001008,-
 0.00000450,-0.00001448,-0.00035161,-0.00033902,0.00033337,-0.00009167,
 -0.00000032,-0.00000397,-0.00000833,-0.00004248,0.00000045,-0.00002990
 ,0.00001768,-0.00000553,0.00000281,-0.00000590,-0.00000320,0.00000403,
 -0.00000730,-0.00000148,0.00003756,-0.00001917,0.00002716,-0.00000071,
 -0.00000470,-0.00000269,0.00001089,-0.00000466,0.00000603,0.00000455,-
 0.00001975,0.00000051,0.00049468,0.00029038,-0.00084309,-0.05473669,-0
 .01599104,-0.01602901,0.01653800,0.07079864,-0.03681035,-0.23769466,-0
 .00383420,-0.09812810,0.55885469,0.00065425,0.00077331,-0.00009457,0.0
 0023745,0.00018836,0.00016932,-0.00004454,-0.00023965,0.00010358,0.000
 00525,-0.00000021,-0.00004627,-0.00002181,0.00001721,-0.00002272,0.000
 03447,0.00007790,0.00005167,0.00009097,0.00002735,0.00000499,0.0002191
 9,-0.00004125,0.00001339,-0.00012336,-0.00005315,-0.00019422,0.0000751
 9,0.00006411,0.00002664,-0.00016787,0.00011871,0.00002128,-0.00022995,
 -0.00018186,0.00078632,-0.00002919,0.00047042,0.00042621,0.00015763,0.
 00015762,0.00004850,-0.00004360,-0.00049530,-0.00034481,0.00004856,0.0
 0017802,-0.00003728,0.00007300,0.00002102,-0.00001442,0.00023787,-0.00
 018084,0.00006856,0.00007742,0.00015025,0.00001165,0.00008995,-0.00002
 287,-0.00005821,-0.00012334,0.00001867,-0.00017841,-0.00039463,-0.0001
 7266,0.00015537,0.00086456,-0.00072958,-0.00077773,0.00020786,-0.00004
 501,-0.00033283,0.00010955,0.00021574,-0.00003669,0.00005309,0.0000148
 1,0.00027212,-0.00005974,-0.00004105,-0.00005702,-0.00016704,-0.000112
 96,0.00015274,-0.00004265,0.00007061,-0.00004590,0.00000129,-0.0000425
 4,-0.00002111,0.00003681,0.00003028,-0.00000174,-0.00014577,0.00022339
 ,0.00017509,0.00003441,0.00004381,0.00001814,0.00000602,-0.00006206,-0
 .00003146,-0.00005029,-0.00000687,0.00001178,0.00001873,0.00001354,0.0
 0000898,0.00000893,-0.00000685,-0.00000799,0.00002249,0.00000302,0.000
 01157,0.00001674,0.00001069,0.00000188,0.00001294,0.00000690,-0.000011
 07,0.00000007,-0.00002026,0.00000294,0.00026920,-0.00081627,0.00062783
 ,-0.01500589,-0.00314604,-0.01097464,0.02589469,0.00337901,0.01370787,
 0.05653501,-0.09165636,0.05791994,0.11166597,0.55013354,-0.00051127,-0
 .00056399,0.00010495,-0.00010821,-0.00009084,-0.00013722,0.00014825,0.
 00022769,-0.00000503,-0.00004326,-0.00002158,0.00004614,0.00004495,-0.
 00006409,-0.00000739,-0.00001827,0.00002212,-0.00003992,-0.00002371,-0
 .00002181,-0.00002501,0.00008488,0.00021429,-0.00018848,0.00005191,-0.
 00001046,0.00012531,-0.00015115,0.00013688,0.00021822,0.00003343,-0.00
 007060,0.00011906,-0.00014587,-0.00051080,-0.00005277,-0.00053875,-0.0
 0046333,-0.00064143,0.00015913,-0.00000753,-0.00037950,-0.00006155,-0.
 00000398,0.00015236,-0.00005498,-0.00024842,0.00004474,0.00000210,-0.0
 0002506,0.00004062,-0.00004271,0.00006808,-0.00001698,0.00026327,0.000
 08452,-0.00010009,-0.00012928,-0.00006400,0.00001706,0.00006192,0.0000
 1078,0.00010421,-0.00029513,-0.00006898,-0.00009727,0.00024176,-0.0005
 7614,-0.00037723,0.00008516,-0.00003253,0.00008713,0.00008329,-0.00002
 470,0.00002337,-0.00017418,0.00012910,0.00040224,0.00000665,0.00004581
 ,-0.00007598,-0.00012936,0.00012849,0.00016617,0.00004011,-0.00000890,
 0.00000953,-0.00000366,0.00000343,-0.00001001,-0.00001022,-0.00000795,
 -0.00000334,0.00111379,-0.00016503,-0.00030897,-0.00007496,-0.00003168
 ,-0.00000313,0.00000047,0.00001475,0.00002020,0.00001139,0.00000914,-0
 .00001552,-0.00000817,-0.00000925,-0.00000626,-0.00000402,0.00000218,0
 .00000266,0.00000484,-0.00001143,0.00000928,-0.00000900,-0.00000726,-0
 .00000134,-0.00000384,-0.00000504,0.00000706,0.00000181,-0.00000108,-0
 .00000243,0.00027022,0.00042312,-0.00101000,-0.01782722,-0.01094447,-0
 .00829796,-0.00788929,0.03930218,-0.02889417,-0.13538822,0.02341872,-0
 .13441070,0.16402330,-0.21301525,0.33361904,0.00645432,0.00354039,0.00
 117831,-0.00081523,-0.00042221,-0.00055941,-0.00078769,0.00084940,-0.0
 0025879,0.00036905,0.00057882,0.00017867,-0.00027867,-0.00029318,-0.00
 050752,0.00056502,-0.00000893,-0.00014409,0.00023680,0.00042619,-0.000
 19111,-0.00053748,-0.00004385,0.00025155,0.00027590,0.00017676,0.00024
 964,0.00058557,0.00021725,-0.00020984,0.00013042,-0.00000461,-0.000072
 48,0.00028633,0.00060788,-0.00135424,-0.00160994,-0.00209823,0.0003329
 7,0.00092752,0.00011479,0.00133691,0.00062896,-0.00084910,-0.00083191,
 -0.00087106,0.00035221,0.00006948,0.00031578,0.00003522,0.00040523,-0.
 00047567,0.00018166,0.00005193,-0.00073422,0.00074659,0.00103650,-0.00
 011435,-0.00054887,0.00002824,0.00050179,0.00025853,0.00027144,-0.0002
 1903,0.00051808,-0.00104463,-0.00793151,0.00052539,0.00569818,0.000810
 39,-0.00118651,-0.00028138,0.00058990,-0.00069171,-0.00046446,0.000589
 09,0.00051388,-0.00093723,-0.00018683,-0.00000735,-0.00047799,0.000141
 33,-0.00012436,-0.00029674,-0.00006124,-0.00013023,0.00003876,0.000303
 60,0.00036153,0.00004661,0.00006022,0.00003811,-0.00001053,-0.00378768
 ,0.00142655,0.00399279,0.00014202,0.00015825,0.00000990,0.00002244,0.0
 0007432,0.00005953,0.00006776,0.00003561,-0.00004602,-0.00000859,-0.00
 001025,-0.00001037,0.00000340,0.00006784,0.00006067,0.00003560,0.00006
 032,0.00003173,-0.00000658,-0.00001090,-0.00000042,0.00000560,0.000032
 42,-0.00002082,0.00004995,0.00000657,-0.00001908,-0.00176877,-0.001483
 82,-0.00461923,0.01747176,0.02628767,-0.01001059,-0.00870356,-0.021657
 07,0.01288585,-0.05780386,0.00114395,-0.03284281,-0.23229301,-0.163340
 27,0.00445686,0.62259826,0.00511799,-0.00378311,-0.00019258,-0.0005377
 3,-0.00027172,0.00006769,-0.00116037,-0.00054898,-0.00019580,0.0000701
 9,0.00015972,0.00025999,0.00031198,-0.00042248,-0.00029960,0.00021886,
 0.00014668,0.00003317,0.00020772,0.00013703,-0.00015896,0.00026775,-0.
 00058767,0.00004494,0.00016490,-0.00001904,-0.00003860,0.00009016,-0.0
 0021604,0.00045857,-0.00001177,0.00019253,0.00002866,-0.00291411,-0.00
 448186,-0.00399776,-0.00290050,-0.00260379,-0.00111754,0.00100044,0.00
 084077,0.00002223,-0.00183099,-0.00275807,-0.00447739,-0.00015795,-0.0
 0001961,0.00074012,0.00025194,0.00008953,0.00013842,-0.00034986,-0.000
 01660,-0.00009036,-0.00094228,0.00072124,0.00025762,-0.00006661,0.0002
 5935,-0.00033151,0.00020425,0.00015260,0.00002558,-0.00006257,-0.00028
 887,-0.00192846,-0.00091534,0.00070399,-0.00167560,0.00081361,0.000227
 63,0.00068961,0.00066272,-0.00040149,-0.00045282,-0.00011773,0.0005950
 9,0.00078500,-0.00027183,-0.00006401,-0.00005566,0.00023290,-0.0001211
 3,-0.00055112,-0.00001639,0.00016915,0.00003973,0.00021268,0.00007853,
 -0.00000338,0.00009492,0.00001437,0.00001645,0.00030267,0.00089513,-0.
 00079125,0.00015818,0.00020761,0.00006502,0.00001714,0.00000874,-0.000
 00715,0.00001147,0.00006183,0.00000964,0.00003555,0.00001135,0.0000075
 1,0.00000258,0.00005931,0.00002060,0.00008911,-0.00001246,0.00009365,0
 .00003425,0.00002014,0.00000918,0.00002983,0.00000086,0.00000633,0.000
 04625,-0.00000167,-0.00002104,-0.00154163,0.00315177,0.00194965,0.0688
 9094,0.00286612,0.03549090,-0.02116023,-0.04972674,0.01598181,-0.04449
 278,0.03604854,-0.04660775,-0.10438666,-0.19290093,0.03766700,0.118133
 40,0.53702219,0.00308857,0.00172609,-0.00604928,-0.00021702,0.00003037
 ,-0.00013979,0.00037963,0.00034307,-0.00004451,0.00013802,0.00020439,-
 0.00003908,-0.00033145,0.00022856,-0.00020260,0.00008930,0.00002888,-0
 .00008292,-0.00001920,0.00015311,0.00006411,-0.00022419,0.00000632,-0.
 00007759,0.00000837,-0.00002127,0.00006160,-0.00069693,0.00011421,0.00
 057801,0.00019587,-0.00004878,0.00013993,-0.00114828,-0.00463915,-0.00
 405149,-0.00389058,-0.00112621,-0.00167931,0.00030430,-0.00052952,-0.0
 0000670,-0.00078139,-0.00278150,-0.00231576,-0.00100217,-0.00070110,-0
 .00081112,-0.00007480,-0.00015200,0.00009244,-0.00016110,0.00007724,0.
 00006731,-0.00000764,0.00022192,-0.00016613,0.00013022,0.00032989,-0.0
 0030455,0.00016159,0.00002701,0.00014742,-0.00032379,-0.00029113,0.000
 62534,0.00821905,-0.00019090,-0.00387771,0.00110376,-0.00048235,-0.000
 96294,-0.00007761,0.00021700,0.00074510,0.00025060,0.00051667,0.000060
 77,0.00006543,0.00020989,-0.00032101,-0.00011971,-0.00032958,0.0000668
 3,0.00010730,0.00005385,0.00000829,-0.00000564,0.00004764,-0.00004901,
 -0.00000621,0.00005129,0.00000701,0.00492804,-0.00108831,-0.00261976,-
 0.00000231,-0.00006491,-0.00001863,-0.00000989,0.00003750,0.00003743,0
 .00003976,-0.00002370,-0.00002509,-0.00002519,-0.00001034,-0.00000714,
 -0.00000317,0.00001812,0.00000826,-0.00004526,0.00003492,-0.00005035,-
 0.00002428,-0.00001424,-0.00000386,-0.00001380,0.00000579,-0.00000467,
 -0.00000889,-0.00001129,0.00000434,-0.00527868,0.00301372,0.00282481,-
 0.03731978,0.01392047,-0.02845813,0.01192926,0.01622341,-0.00970313,-0
 .00322853,-0.02099768,0.01328307,-0.03293525,0.00420045,-0.06686710,0.
 16984743,-0.17914382,0.32257887,-0.01093582,0.00343508,-0.00027343,-0.
 00193092,-0.00122731,0.00009788,-0.00313236,-0.00056707,-0.00126711,0.
 00048317,0.00104205,0.00015152,0.00067613,-0.00097845,-0.00041261,0.00
 105053,-0.00012170,-0.00033815,0.00022341,0.00037709,-0.00046600,0.000
 92145,-0.00026361,-0.00175006,0.00073942,0.00045174,0.00023184,0.00060
 668,0.00130177,0.00106495,0.00206441,0.00011381,0.00128836,0.00167147,
 -0.00273519,-0.00251561,-0.00085727,-0.00044430,0.00237712,0.00126397,
 -0.00022791,-0.00022687,-0.00008146,-0.00063172,-0.00131469,-0.0004758
 4,-0.00054923,0.00072597,0.00076280,0.00005362,0.00100641,-0.00304682,
 0.00072117,-0.00064263,0.00231461,0.00213998,0.00114072,0.00023544,-0.
 00071571,0.00033123,0.00101417,0.00023730,0.00089374,-0.00793588,0.002
 67294,0.00316073,-0.00742174,0.00191291,0.00535275,0.00088719,-0.00246
 717,-0.00101657,0.00055105,0.00034094,-0.00010535,0.00294354,0.0003266
 5,-0.00248577,-0.00040186,-0.00053560,0.00006757,-0.00120164,0.0035160
 7,-0.00007911,0.00000195,0.00025085,-0.00000064,0.00069567,0.00058191,
 0.00022778,0.00013337,0.00006498,0.00014087,-0.00436307,0.00193293,0.0
 0139002,0.00085812,0.00029235,0.00017206,0.00016685,0.00025669,0.00029
 217,0.00015976,0.00008365,-0.00002746,0.00014303,0.00002927,0.00003495
 ,-0.00003353,0.00016587,0.00008805,0.00000987,0.00006485,0.00000756,0.
 00007188,0.00003771,0.00004866,0.00000487,0.00000350,-0.00002958,0.000
 13692,0.00005565,-0.00010895,-0.00168176,0.00537700,-0.00494269,-0.224
 93276,0.03455913,-0.14246764,-0.05296672,-0.03834540,-0.00773242,-0.01
 241660,0.01982075,-0.01796596,0.02471718,-0.01129320,0.01920492,-0.082
 63595,-0.02496572,-0.00371772,0.56038839,0.00296299,-0.00350031,-0.004
 26374,0.00025893,0.00001736,0.00005650,-0.00171354,-0.00279987,-0.0003
 9612,0.00022141,0.00033088,-0.00003329,0.00023249,-0.00008085,0.000013
 69,0.00012635,-0.00006452,0.00017780,-0.00008581,0.00005515,-0.0000723
 5,-0.00045878,-0.00110783,0.00027187,-0.00022389,0.00002026,0.00020691
 ,0.00057387,-0.00024534,0.00056985,0.00031135,-0.00021186,-0.00015274,
 -0.00084569,-0.00080525,-0.00122464,-0.00038618,-0.00019096,0.00014852
 ,0.00035104,0.00038834,0.00135706,-0.00032112,0.00064176,-0.00078888,0
 .00010143,0.00003753,0.00012306,0.00009989,-0.00004941,-0.00008252,-0.
 00041471,0.00018252,-0.00001687,-0.00044767,0.00126691,0.00098905,0.00
 010203,0.00112021,-0.00153697,-0.00010225,0.00001330,0.00007005,0.0033
 6669,0.00094409,-0.00174922,0.00739351,-0.00456564,-0.00158508,0.00021
 788,-0.00003112,-0.00031189,0.00017752,0.00047716,0.00094925,0.0007060
 7,-0.00032067,-0.00106781,-0.00022756,-0.00004049,0.00042721,0.0005494
 5,-0.00636932,0.00038644,-0.00002225,0.00045368,-0.00003631,0.00009841
 ,0.00008312,0.00006063,-0.00000011,0.00005291,0.00004654,0.00418821,-0
 .00124235,-0.00166338,-0.00011565,-0.00002083,-0.00006130,-0.00008029,
 0.00006373,0.00004510,0.00004841,-0.00000080,-0.00002633,0.00000895,0.
 00000934,-0.00000002,-0.00001848,0.00002530,0.00004964,-0.00006595,0.0
 0006593,-0.00006200,-0.00000525,0.00000873,0.00002131,0.00002449,0.000
 00636,-0.00001271,-0.00000370,0.00004127,-0.00001584,0.01765660,-0.004
 56285,0.01458613,-0.01560526,-0.08538141,0.02403488,0.00237082,0.03514
 968,-0.02117784,0.02377271,-0.02153399,0.02368366,-0.05292599,-0.04788
 399,0.00112248,0.02583423,-0.24543381,0.13312637,0.09988340,0.50242656
 ,-0.00042428,-0.00258048,-0.01294979,-0.00144906,-0.00108929,-0.000618
 50,-0.00103607,0.00004538,-0.00015982,0.00016075,0.00033843,-0.0000119
 4,0.00024022,-0.00031901,-0.00008598,0.00036546,0.00000289,-0.00007022
 ,0.00013821,0.00014830,0.00008797,0.00024593,0.00029562,-0.00082462,0.
 00058486,0.00062146,0.00041685,0.00041204,0.00007672,0.00132882,0.0003
 9813,-0.00008108,0.00065670,-0.00538632,-0.00205371,-0.00915986,0.0006
 9488,-0.00032795,-0.00025300,-0.00024535,0.00018161,0.00147415,-0.0024
 2446,-0.00262201,-0.00520286,-0.00036180,-0.00021043,0.00015910,0.0002
 0898,0.00002574,0.00030095,-0.00042914,0.00024218,0.00002586,-0.000643
 35,-0.00051021,-0.00127819,-0.00046509,-0.00116662,-0.00018590,0.00088
 579,0.00033220,0.00080585,0.00813292,0.00173685,-0.00014639,0.00414375
 ,-0.00254998,0.00143495,0.00004505,-0.00081071,-0.00058158,0.00006900,
 0.00133990,0.00157933,0.00098027,-0.00046097,-0.00227531,0.00115413,0.
 00027275,-0.00037618,-0.00003368,-0.00006900,0.00117824,0.00019908,-0.
 00001315,0.00017653,0.00020354,0.00010587,-0.00005911,0.00009316,0.000
 05509,0.00002216,0.00093869,-0.00051521,0.00033633,0.00026688,0.000061
 35,-0.00005556,0.00005280,0.00005237,0.00011145,0.00004266,0.00004758,
 -0.00001996,0.00002458,-0.00000377,0.00000209,-0.00000695,0.00007807,0
 .00005293,-0.00001262,0.00003529,-0.00002666,0.00001105,-0.00000400,0.
 00000953,0.00001542,-0.00002587,0.00000369,0.00002228,-0.00001630,-0.0
 0002555,-0.01620417,0.00805303,-0.01570795,-0.10667028,0.04780909,-0.1
 5723915,-0.03352189,-0.04423634,0.01066159,-0.01913518,0.02265064,-0.0
 3111287,0.04710788,0.02671704,0.01322543,-0.03774378,0.10774491,-0.123
 63950,0.19072458,-0.17204629,0.36560298,0.00008679,-0.00009675,0.00017
 872,-0.00074070,-0.00339724,-0.00316848,0.00014806,0.00003477,-0.00044
 111,-0.00002555,-0.00000302,0.00000465,0.00003348,-0.00002795,0.000028
 70,0.00002805,-0.00001500,0.00003651,-0.00003480,-0.00002384,-0.000025
 28,-0.00054223,-0.00010631,0.00003235,-0.00050075,0.00175885,0.0001564
 8,-0.00001015,-0.00003912,0.00000506,-0.00014344,0.00017298,-0.0003279
 6,-0.00004264,0.00001432,-0.00001579,0.00009219,-0.00004986,-0.0000061
 7,-0.00000273,0.00000166,0.00000999,-0.00004839,0.00000624,0.00004593,
 0.00001845,-0.00002674,0.00002604,-0.00000238,0.00000139,0.00000718,0.
 00024795,-0.00004550,0.00000315,-0.00009311,0.00007614,0.00010475,0.00
 531197,-0.00434117,-0.00879938,0.00117610,0.00029905,0.00104803,-0.000
 14165,0.00021799,-0.00006285,0.00005962,0.00011138,0.00007325,0.000003
 90,-0.00004147,0.00002095,0.00006158,0.00000069,0.00000351,0.00003678,
 -0.00012141,0.00001342,-0.00064861,0.00011160,-0.00037586,-0.00129346,
 -0.00205998,-0.00140457,-0.00022751,-0.00058766,0.00001175,0.00000911,
 0.00000700,0.00000166,0.00001572,0.00001040,0.00001663,0.00002354,0.00
 001988,-0.00001138,-0.00009345,0.00000909,0.00000275,0.00000088,-0.000
 01460,-0.00001088,-0.00001176,0.00000354,-0.00000373,0.00001566,0.0000
 1351,0.00001504,0.00000338,0.00000170,0.00000877,0.00000895,0.00000314
 ,-0.00000225,0.00001528,0.00001057,0.00002033,-0.00000531,-0.00002544,
 -0.00000949,-0.00001334,0.00000255,-0.00000980,-0.08342522,0.03300765,
 0.07876911,0.00274837,-0.00302211,0.00083755,0.00034130,-0.00066267,0.
 00006059,-0.00004203,0.00006082,-0.00020293,0.00022267,0.00014808,0.00
 004178,-0.00036628,-0.00025279,0.00021781,-0.00071501,0.00083908,-0.00
 100626,0.09842056,-0.00003791,0.00003807,-0.00002229,-0.00113714,-0.00
 147391,-0.00516217,0.00014776,-0.00015088,-0.00038527,0.00002274,0.000
 00080,0.00001109,-0.00001180,-0.00000145,0.00000330,0.00000295,-0.0000
 0863,-0.00000659,-0.00003505,-0.00000687,-0.00001901,-0.00040214,-0.00
 015363,0.00007199,0.00154782,0.00149411,0.00186938,0.00002296,0.000000
 84,-0.00000293,-0.00029687,0.00038776,-0.00063753,0.00000597,-0.000053
 90,0.00001763,0.00000032,-0.00002204,0.00000970,-0.00001197,-0.0000533
 7,0.00002274,0.00000660,-0.00003342,-0.00002719,-0.00000683,0.00001130
 ,-0.00000974,0.00000291,-0.00000582,0.00000663,0.00038484,-0.00009755,
 0.00003694,-0.00016783,0.00008600,0.00015592,0.00424878,-0.01302829,-0
 .02185170,0.00115916,0.00029532,0.00091714,-0.00002292,-0.00014630,-0.
 00003621,0.00007313,0.00000403,-0.00005287,-0.00000874,-0.00003964,0.0
 0005740,-0.00003203,-0.00000335,-0.00003501,-0.00002472,0.00002946,0.0
 0001600,-0.00001080,0.00043113,-0.00004431,-0.00105493,-0.00400154,-0.
 00164175,-0.00044633,-0.00183281,-0.00002235,-0.00000505,-0.00000043,-
 0.00000440,0.00000586,0.00000330,-0.00000115,0.00001438,-0.00007961,0.
 00008738,-0.00015705,-0.00002304,-0.00002215,0.00000092,0.00002914,0.0
 0001379,0.00000492,0.00001618,-0.00003095,-0.00000527,-0.00000144,0.00
 000486,0.00001042,-0.00000037,0.00002714,0.00002036,0.00000913,-0.0000
 0972,-0.00000252,-0.00001117,0.00001769,-0.00000394,-0.00001653,-0.000
 01186,-0.00000898,0.00000894,-0.00000185,0.03277753,-0.05830107,-0.059
 16696,-0.00743758,0.00315754,0.02010681,0.00012625,-0.00086723,0.00101
 251,0.00035034,-0.00060134,-0.00068906,0.00016548,0.00000554,0.0001125
 7,0.00047844,-0.00088258,-0.00067690,-0.00081358,-0.00029712,0.0005761
 7,-0.03461105,0.07683497,0.00044083,-0.00014424,0.00012415,0.00116579,
 0.00037973,-0.00011508,-0.00027167,-0.00041654,-0.00024558,0.00005438,
 0.00000545,0.00004098,0.00005216,-0.00003797,0.00001123,0.00006404,-0.
 00001706,0.00002756,0.00000681,-0.00000984,-0.00001076,0.00001337,-0.0
 0013250,-0.00045271,0.00007979,0.00038268,0.00044658,0.00010004,-0.000
 05578,0.00004092,-0.00008467,0.00020294,0.00004142,-0.00009199,0.00010
 435,0.00008263,-0.00004078,-0.00004010,0.00003115,0.00008185,0.0000406
 6,0.00007717,-0.00002532,-0.00000644,0.00004870,-0.00000083,-0.0000183
 7,0.00004399,0.00001356,0.00000352,0.00003501,0.00015634,-0.00002146,0
 .00004380,-0.00018276,0.00015013,0.00009825,0.00062168,-0.01049210,-0.
 00880215,-0.00046114,-0.00019302,-0.00073084,-0.00001652,0.00012954,-0
 .00020346,0.00003005,0.00004327,0.00001421,-0.00001346,-0.00006127,-0.
 00001949,0.00012135,0.00001695,0.00007270,-0.00003039,-0.00008677,-0.0
 0000228,-0.00084192,-0.00008013,0.00020546,-0.00017168,-0.00189791,-0.
 00118339,0.00001930,-0.00065721,-0.00053224,0.00000188,0.00001738,0.00
 001374,0.00000735,0.00001013,-0.00000134,-0.00001323,0.00016368,-0.000
 09979,0.00000439,0.00000890,-0.00002201,0.00002592,0.00003903,0.000038
 89,0.00001360,0.00000457,-0.00001314,-0.00000113,0.00000594,0.00000626
 ,0.00001084,0.00000808,0.00002993,-0.00001288,0.00004292,-0.00002387,-
 0.00000123,-0.00000207,0.00000700,0.00000752,0.00000517,-0.00000730,-0
 .00000860,0.00001090,0.00000271,0.08247054,-0.06189021,-0.19359193,0.0
 0936366,0.00202333,-0.02585005,-0.00077471,-0.00021932,-0.00053267,-0.
 00053454,0.00091279,0.00054873,0.00000392,-0.00018880,0.00009237,-0.00
 058188,0.00092120,0.00073407,0.00125402,0.00008771,0.00015371,-0.09264
 473,0.07116359,0.22662634,0.00005671,0.00001961,0.00026789,-0.00029789
 ,-0.00188762,-0.00148313,-0.00002222,0.00007719,0.00019819,0.00004877,
 -0.00001551,0.00005032,0.00000777,-0.00001103,-0.00002494,0.00000305,-
 0.00000613,-0.00002495,0.00005651,0.00002526,-0.00001366,-0.00166035,-
 0.00020177,0.00002187,0.00046476,0.00016878,0.00032096,0.00002670,0.00
 003741,0.00004322,0.00021768,-0.00003374,-0.00004487,-0.00002874,0.000
 03855,-0.00001656,0.00001043,0.00004406,-0.00000283,0.00000624,-0.0000
 1736,-0.00001746,-0.00002465,0.00001851,-0.00001140,-0.00000721,-0.000
 00566,-0.00000132,0.00000579,-0.00000160,0.00003039,-0.00014089,0.0000
 8357,0.00005173,0.00010896,-0.00008340,-0.00009006,-0.01508519,-0.0030
 8606,-0.00293818,-0.00110867,-0.00035508,-0.00009598,-0.00002653,-0.00
 003778,-0.00013332,-0.00002869,-0.00010419,-0.00004961,0.00007086,-0.0
 0003863,0.00001546,0.00008032,-0.00006570,0.00001252,0.00007802,0.0000
 8155,-0.00004260,0.00010056,0.00000092,-0.00006094,-0.00059890,-0.0007
 5235,-0.00030398,0.00160057,0.00021909,-0.00018425,0.00003211,0.000008
 63,0.00001931,-0.00001851,-0.00002483,-0.00002102,-0.00000531,-0.00005
 595,-0.00000751,-0.00006027,-0.00005944,-0.00001767,0.00000174,0.00004
 913,0.00005146,0.00002835,0.00001138,-0.00001123,-0.00002225,-0.000015
 65,-0.00001312,-0.00000013,0.00001601,0.00001228,-0.00002360,0.0000340
 4,-0.00002075,-0.00002863,-0.00002725,-0.00002511,0.00000968,0.0000310
 0,-0.00000807,0.00002555,0.00000563,0.00000024,-0.25744062,0.04250238,
 -0.04452332,-0.00554754,0.00400900,-0.00467974,0.00059124,-0.00236505,
 0.00165391,-0.00001412,-0.00002311,-0.00052280,0.00044524,-0.00004963,
 0.00019715,-0.00029171,-0.00063580,-0.00012075,-0.00014276,0.00119905,
 -0.00072514,-0.01996534,0.00567451,0.00040167,0.29659702,0.00003379,0.
 00016414,-0.00017483,-0.00021189,-0.00213150,-0.00192118,-0.00007448,-
 0.00012047,-0.00010549,0.00000972,0.00000080,0.00000523,-0.00001641,0.
 00001452,-0.00000426,0.00000829,-0.00000351,0.00001416,0.00002471,-0.0
 0001675,0.00000046,-0.00058173,-0.00017462,0.00010946,0.00005324,0.000
 38634,0.00030133,0.00000918,-0.00002903,-0.00001121,0.00009528,0.00013
 978,0.00001313,-0.00004532,0.00000441,0.00007359,-0.00002712,0.0000041
 4,0.00002619,-0.00000078,0.00000846,0.00002522,0.00002453,-0.00003209,
 -0.00002831,-0.00001027,0.00002273,-0.00001483,-0.00000043,-0.00000162
 ,-0.00000880,0.00010022,-0.00005935,0.00005116,-0.00005731,0.00002168,
 0.00003703,-0.02420182,-0.00338954,-0.00473896,-0.00183049,-0.00042106
 ,0.00003088,0.00000186,-0.00000035,0.00000892,0.00003434,-0.00000981,-
 0.00002185,-0.00003113,0.00001116,-0.00001854,-0.00000368,0.00001370,0
 .00000986,-0.00002075,-0.00003762,0.00003117,-0.00012955,-0.00008210,0
 .00002550,-0.00128749,-0.00114671,-0.00057869,-0.00242399,0.00002634,-
 0.00114489,-0.00000114,-0.00000636,-0.00000112,0.00000697,0.00000840,-
 0.00000065,-0.00001701,0.00008554,0.00002334,-0.00007560,0.00000372,0.
 00000896,0.00000419,-0.00001468,-0.00001229,-0.00001960,-0.00000974,0.
 00000770,-0.00000479,0.00000865,0.00000861,0.00000613,0.00000029,0.000
 00453,0.00002208,0.00001630,0.00002588,-0.00000039,0.00000430,-0.00000
 783,0.00001931,0.00002153,-0.00000697,0.00000377,-0.00000268,0.0000005
 9,0.04247797,-0.04813193,0.00931120,0.01902918,-0.00601502,0.00662212,
 0.00194249,-0.00003204,0.00151706,0.00007969,0.00006486,-0.00003181,-0
 .00019534,-0.00003312,-0.00014055,0.00048811,0.00048625,0.00081546,0.0
 0051182,-0.00297622,0.00263973,0.01229194,-0.00104285,0.00032767,-0.04
 478917,0.06617215,0.00013774,-0.00008388,0.00011227,0.00087342,-0.0002
 8519,-0.00064681,-0.00004613,-0.00003751,-0.00003747,0.00002209,-0.000
 00788,0.00001637,0.00002233,-0.00000821,0.00000737,0.00000631,-0.00000
 587,0.00000363,0.00001327,-0.00000668,-0.00000005,-0.00186905,-0.00027
 977,-0.00026719,-0.00016181,0.00020507,0.00017931,0.00001551,0.0000038
 1,0.00000993,0.00036131,0.00000650,0.00002788,-0.00002251,0.00003242,-
 0.00001911,-0.00000254,0.00001742,-0.00000443,0.00002770,-0.00000154,0
 .00000582,-0.00002440,0.00002709,0.00001691,0.00000746,-0.00001508,0.0
 0001499,0.00001035,-0.00000208,0.00000921,-0.00015781,0.00006906,0.000
 04866,0.00005385,-0.00001246,-0.00004269,-0.00957440,-0.00020030,-0.00
 007248,-0.00077007,-0.00015656,-0.00013110,-0.00000560,0.00005655,-0.0
 0003660,-0.00000613,0.00000940,-0.00000307,0.00001570,-0.00001358,0.00
 000929,0.00002601,-0.00000264,0.00002543,0.00001030,-0.00002529,0.0000
 2935,-0.00017770,-0.00002279,-0.00007512,-0.00004844,-0.00094460,-0.00
 106222,0.00043009,0.00068312,0.00078113,0.00000911,-0.00000140,0.00000
 079,0.00000204,-0.00000360,-0.00000254,0.00003603,-0.00001744,-0.00003
 255,-0.00001087,-0.00002135,0.00000409,0.00000799,0.00001494,0.0000193
 6,0.00000585,-0.00000289,0.00000436,-0.00000263,0.00000146,0.,-0.00000
 164,0.00000649,0.00000658,-0.00001066,0.00001646,-0.00000617,-0.000003
 83,-0.00000318,-0.00000542,0.00000455,0.00000943,-0.00000689,0.0000068
 0,0.00000066,-0.00000344,-0.04460226,0.00766093,-0.04937120,-0.0222447
 0,0.00950368,-0.00887997,-0.00105309,-0.00080147,-0.00002975,-0.000005
 89,-0.00040995,-0.00019261,-0.00012532,-0.00017047,0.00006517,-0.00051
 743,0.00029548,-0.00126647,-0.00025071,0.00370439,-0.00163831,0.026590
 91,-0.00647121,0.00331114,0.05132591,-0.01309931,0.05841539,-0.0002771
 5,-0.00003966,-0.00026226,-0.00019341,0.00000895,-0.00030111,-0.000029
 66,0.00021619,-0.00007280,0.00001204,0.00001000,0.00002080,0.00002985,
 -0.00001987,0.00000250,0.00000256,-0.00001429,-0.00002833,0.00001478,-
 0.00000490,-0.00000666,-0.00070570,0.00011544,-0.00005421,0.00011046,0
 .00005893,0.00024208,0.00001981,0.00003979,0.00006659,0.00021195,-0.00
 012394,0.00006844,-0.00004529,-0.00003191,-0.00014477,0.00003738,-0.00
 003244,-0.00002558,0.00001118,-0.00003222,-0.00001008,-0.00006180,0.00
 002997,0.00009139,0.00001658,-0.00002089,0.00003006,-0.00000772,0.0000
 0404,0.00002845,-0.00014980,0.00011972,0.00003087,0.00014748,-0.000171
 67,-0.00018858,0.00017828,0.00034110,-0.00020427,0.00025984,0.00003797
 ,0.00019028,-0.00016620,0.00020253,0.00008356,0.00005372,0.00009195,0.
 00031313,-0.00002224,-0.00007669,-0.00002850,0.00002228,0.00003729,0.0
 0007183,0.00004414,0.00003246,-0.00001818,0.00001636,0.00002120,-0.000
 09928,0.00016125,-0.00008466,-0.00001297,0.00008668,0.00000483,0.00004
 598,0.00001948,0.00001002,0.00001199,-0.00001065,-0.00002605,-0.000011
 24,0.00002505,-0.00008670,-0.00005368,0.00001223,-0.00003442,-0.000013
 35,0.00000063,0.00001539,0.00001936,0.00003024,0.00001056,-0.00000942,
 -0.00002636,-0.00001500,-0.00001123,0.00000079,0.00001551,0.00001251,-
 0.00001455,0.00000944,-0.00001795,-0.00001772,-0.00002185,-0.00001746,
 -0.00000192,0.00000013,-0.00000105,0.00001134,0.00000540,-0.00000525,0
 .00003033,0.00190191,0.00017689,-0.02063447,0.00223285,-0.01478450,-0.
 20199996,0.02672948,-0.12018239,-0.00313794,0.00196304,-0.00362326,0.0
 0298737,-0.00105434,-0.00256316,0.00019862,-0.00064062,0.00089460,-0.0
 0350422,-0.00540384,-0.00255979,-0.00023091,-0.00014271,0.00021215,0.0
 0051408,-0.00124459,0.00044026,0.22513471,-0.00030644,0.00014114,-0.00
 009033,-0.00010221,0.00001182,-0.00000531,-0.00000918,0.00005945,-0.00
 000025,-0.00001108,-0.00000686,-0.00000444,-0.00001928,0.00000580,-0.0
 0000083,-0.00000785,-0.00000072,0.00000056,0.00000781,0.00000703,0.000
 00348,-0.00016718,0.00005082,-0.00005293,0.00005536,0.00000832,-0.0000
 2683,0.00000586,-0.00000262,-0.00000262,0.00007076,0.00000532,0.000094
 59,0.00003301,-0.00005111,-0.00011226,0.00003441,-0.00001424,0.0000136
 4,-0.00001669,-0.00000984,-0.00005077,0.00000034,-0.00002779,0.0000384
 0,-0.00001663,-0.00000335,-0.00001638,-0.00000871,-0.00000423,-0.00000
 011,-0.00001384,0.00000985,0.00002984,0.00005976,0.00004299,-0.0000004
 0,0.00006765,0.00000335,0.00005580,0.00008598,0.00003228,0.00002501,-0
 .00006856,0.00006493,0.00016720,-0.00007638,-0.00004111,0.00001715,0.0
 0004712,0.00002293,0.00002609,-0.00003688,-0.00001371,0.00000265,0.000
 05790,-0.00001285,0.00002743,0.00000871,0.00002465,-0.00004885,0.00009
 305,-0.00001165,0.00002206,0.00002480,-0.00000768,0.00001598,0.0000055
 8,-0.00000631,-0.00000194,0.00000344,-0.00000241,0.00000204,-0.0000015
 8,-0.00004315,0.00002608,0.00003041,0.00001828,-0.00000095,-0.00000167
 ,-0.00001650,-0.00001510,-0.00000845,-0.00000244,0.00000808,-0.0000009
 0,0.00000143,0.00000382,0.00000112,0.00000317,-0.00000160,-0.00000129,
 -0.00000336,-0.00000080,0.00000395,0.00000164,-0.00000211,-0.00000111,
 0.00000182,-0.00000142,0.00000380,-0.00000091,-0.00000086,-0.00109277,
 -0.00020559,-0.00202664,-0.01518276,0.00185331,-0.00921281,0.02716006,
 -0.04544495,0.02463365,0.01971700,-0.00583585,0.01656439,-0.00203954,-
 0.00151696,0.00602664,0.00010904,-0.00000314,-0.00024808,-0.00493936,-
 0.00066060,0.00262564,-0.00002333,0.00018087,-0.00018414,-0.00004765,-
 0.00126830,0.00041417,-0.02615991,0.05367299,0.00002403,0.00001759,0.0
 0020585,-0.00003440,0.00002049,-0.00004810,0.00000739,0.00009331,-0.00
 002554,0.00000767,0.00000344,0.00001209,0.00002756,-0.00001062,-0.0000
 0709,-0.00000326,-0.00001049,-0.00001833,0.00000084,-0.00000441,-0.000
 00330,-0.00060882,0.00002699,-0.00003741,0.00004033,-0.00000780,0.0000
 4857,-0.00002518,0.00007036,0.00000613,0.00019462,-0.00007100,0.000009
 56,0.00006111,0.00003531,-0.00007275,-0.00001912,-0.00001064,-0.000024
 49,0.00003431,-0.00004387,-0.00003929,-0.00001499,0.00008387,0.0000649
 3,0.00002999,-0.00003363,0.00002876,0.00000383,-0.00000334,0.00001541,
 -0.00015823,0.00009163,0.00001612,0.00003995,0.00001018,0.00001178,0.0
 0001796,-0.00002227,0.00000612,0.00005499,-0.00001717,0.00004180,-0.00
 004314,0.00002318,0.00007075,-0.00009219,-0.00004858,-0.00007120,0.000
 03935,0.00001557,0.00004432,0.00003268,-0.00003642,0.00000400,0.000011
 72,-0.00000346,-0.00000937,-0.00000635,0.00000318,-0.00001302,0.000169
 73,0.00001105,-0.00007002,-0.00000048,-0.00003606,0.00000266,0.0000097
 4,0.00001067,0.00000762,-0.00000741,-0.00001336,-0.00000459,0.00006254
 ,-0.00002028,-0.00008745,0.00000221,-0.00002243,-0.00000024,-0.0000002
 7,0.00001224,0.00001244,0.00001469,0.00000479,-0.00000239,-0.00000968,
 -0.00000645,-0.00000638,-0.00000253,0.00000544,0.00000347,-0.00000710,
 0.00000280,-0.00000408,-0.00000761,-0.00000833,-0.00000786,-0.00000031
 ,-0.00000021,0.00000180,0.00000660,0.00000204,-0.00000348,0.00194147,-
 0.00005308,-0.00073677,-0.00446848,-0.00074732,-0.00078990,-0.12024622
 ,0.02665869,-0.12591368,-0.01557145,0.00422738,-0.01200909,-0.00249293
 ,0.00632071,0.00256942,0.00093049,0.00049609,-0.00027613,-0.00211203,0
 .00156172,0.00468087,0.00008616,0.00011755,-0.00026085,0.00054739,0.00
 016051,0.00043611,0.14037822,-0.03699323,0.13508605,-0.00006836,-0.000
 15420,0.00011578,0.00008323,0.00003451,-0.00017006,0.00006342,0.000127
 20,-0.00001651,0.00000593,-0.00000304,0.00002768,0.00005699,-0.0000271
 0,0.00000225,-0.00000651,-0.00000704,-0.00002366,0.00000948,-0.0000093
 7,-0.00000658,-0.00028468,0.00013184,0.00007037,-0.00002448,-0.0000253
 7,0.00013797,-0.00001291,0.00005255,0.00003005,0.00009690,-0.00008827,
 -0.00006814,-0.00000771,-0.00004729,-0.00011159,-0.00009993,-0.0001399
 3,-0.00016446,0.00007226,-0.00001255,-0.00007879,-0.00006884,0.0000829
 0,0.00008971,0.00002843,-0.00006041,0.00006610,0.00000010,0.00000735,0
 .00002336,-0.00008200,0.00007685,0.00002160,0.00005255,-0.00002678,-0.
 00004889,-0.00007505,0.00004909,0.00004740,-0.00002264,-0.00004831,0.0
 0006688,-0.00005916,0.00003576,-0.00001617,-0.00007528,0.00002317,0.00
 006254,-0.00002479,-0.00001479,0.00006173,0.00004024,-0.00000899,0.000
 02373,-0.00004496,0.00002882,0.00003581,0.00001361,0.00001393,-0.00004
 221,0.00008541,-0.00006577,-0.00001933,0.00001752,-0.00001140,0.000001
 95,0.00000998,0.00000939,0.00000966,-0.00001284,-0.00002291,-0.0000114
 3,0.00007278,-0.00009843,-0.00012800,-0.00004215,-0.00004396,-0.000009
 14,-0.00000075,0.00001684,0.00001525,0.00002660,0.00000416,-0.00000615
 ,-0.00002635,-0.00001387,-0.00001226,0.00000036,0.00001059,0.00000959,
 -0.00000459,0.00000706,-0.00000332,-0.00001837,-0.00001878,-0.00001506
 ,0.00000285,0.00000335,0.00000198,0.00000865,0.00000703,-0.00000262,-0
 .00013176,0.00004287,-0.00006402,0.00283544,-0.00140134,-0.00212830,-0
 .00096065,-0.00228253,0.00058099,-0.19381298,-0.12667227,-0.00137482,-
 0.02138207,-0.01640379,-0.00127316,-0.00336088,0.00018460,-0.00559558,
 0.00018484,0.00070572,-0.00003690,-0.00000551,-0.00000756,-0.00003357,
 0.00003166,-0.00002817,0.00001498,0.00048491,0.00146373,0.00087373,0.2
 1649837,0.00019194,0.00007244,-0.00010242,0.00028309,0.00008400,-0.000
 12125,0.00010284,0.00009288,0.00004692,0.00001973,0.00001447,0.0000204
 9,-0.00000394,-0.00000094,-0.00001371,0.00000159,-0.00001165,-0.000016
 37,0.00001662,-0.00000074,-0.00000348,-0.00027922,0.00014726,0.0002262
 9,-0.00009501,-0.00006042,0.00007530,0.00003599,0.00001393,-0.00001086
 ,0.00005238,-0.00006162,-0.00015343,-0.00001691,0.00002635,-0.00001491
 ,-0.00000513,-0.00003105,-0.00002670,-0.00001576,-0.00002837,0.0000438
 4,-0.00000560,-0.00000769,0.00007740,-0.00000128,0.00000418,0.00000198
 ,-0.00001161,0.00000401,0.00001096,-0.00002768,0.00003997,0.00005385,-
 0.00001168,-0.00004737,-0.00003266,-0.00004540,-0.00011280,0.00034487,
 -0.00014406,-0.00006095,-0.00001771,0.00002326,0.00003795,0.00004662,0
 .00000662,0.00001966,0.00008792,-0.00003855,0.00000357,0.00002182,0.00
 001470,0.00000550,0.00002524,0.00001204,0.00002022,-0.00005180,0.00005
 297,0.00000997,-0.00003456,0.00015301,-0.00004826,-0.00008871,-0.00002
 726,-0.00007212,-0.00002166,0.00000534,0.00000945,0.00000928,-0.000010
 77,-0.00001420,-0.00001467,0.00000621,-0.00006305,-0.00000247,-0.00004
 543,-0.00002855,-0.00000938,-0.00000008,0.00000589,0.00001284,0.000015
 75,0.00000424,-0.00000716,-0.00002152,-0.00001192,-0.00000885,0.000005
 03,0.00000585,0.00000635,-0.00000038,0.00000741,-0.00000247,-0.0000154
 6,-0.00001613,-0.00001299,0.00000502,0.00000554,0.00000067,0.00000578,
 0.00000207,-0.00000021,-0.00107261,-0.00099298,-0.00013195,-0.00117981
 ,-0.00115088,0.00648866,-0.02024478,-0.01858793,0.00189094,-0.12663034
 ,-0.14461942,0.00554530,0.00178749,0.00256046,-0.00009894,-0.00059359,
 0.00278012,0.00310357,0.00048450,-0.00011942,-0.00006607,0.00006012,0.
 00003558,-0.00005033,-0.00002287,0.00008794,-0.00010746,0.00039672,-0.
 00028905,-0.00174600,0.14466877,0.16054532,-0.00000405,-0.00033512,-0.
 00005264,-0.00011049,-0.00000441,0.00004472,-0.00003038,0.00000874,-0.
 00001262,-0.00000976,-0.00001163,0.00000454,0.00003161,-0.00001844,0.0
 0000510,-0.00000366,-0.00000088,0.00000282,-0.00001049,-0.00000642,0.0
 0000545,-0.00015543,-0.00005785,-0.00002318,0.00004960,0.00001300,-0.0
 0001219,0.00000805,-0.00002124,-0.00001703,0.00004467,-0.00001017,0.00
 001298,-0.00005729,0.00011078,0.00002904,0.00001316,-0.00003722,-0.000
 06825,0.00000487,0.00001719,0.00004400,-0.00001009,0.00005772,0.000032
 27,0.00002542,-0.00003528,0.00002748,0.00000478,0.00000227,-0.00000147
 ,-0.00004869,0.00002663,-0.00001336,-0.00002373,-0.00005550,-0.0000000
 3,0.00011423,0.00017816,-0.00012628,0.00006239,0.00000272,0.00001059,0
 .00012863,0.00006334,-0.00002852,-0.00001172,0.00003080,0.00007374,0.0
 0000435,0.00005725,0.00005352,0.00000551,0.00001300,0.00002042,-0.0000
 1719,-0.00002622,-0.00005122,-0.00001825,-0.00000162,0.00001976,0.0000
 5062,-0.00001596,-0.00008182,0.00001193,-0.00000339,0.00001997,0.00000
 315,-0.00000122,-0.00000167,0.00000158,-0.00000320,0.00000381,-0.00000
 446,0.00001331,-0.00005894,0.00000806,-0.00000017,-0.00000120,-0.00000
 090,0.00000117,-0.00000369,-0.00000064,-0.00000205,0.00000629,0.000002
 45,0.00000326,0.00000010,-0.00000418,0.00000336,0.00000164,-0.00000361
 ,0.00000088,0.00000131,0.00000182,0.00000246,0.00000016,-0.00000150,-0
 .00000243,-0.00000034,0.00000085,0.00000048,-0.00000261,0.00055542,0.0
 0048528,-0.00007749,-0.00303206,0.00591070,0.00258812,0.01292063,0.012
 49088,-0.00050936,-0.00128939,0.00531166,-0.03835371,-0.01331365,-0.01
 003404,0.00030422,-0.00553442,0.00321308,0.00288435,0.00007066,-0.0000
 8567,-0.00049148,-0.00001485,0.00002940,0.00002313,0.00007262,-0.00006
 978,0.00005824,0.00170023,-0.00106680,-0.00122925,0.00706201,-0.013605
 33,0.03696808,0.00015282,0.00049199,-0.00010197,-0.00005320,0.00001690
 ,-0.00008558,0.00003163,0.00011064,-0.00001286,-0.00000643,0.00000165,
 -0.00000755,-0.00006361,-0.00003108,-0.00000880,0.00001205,0.00001106,
 -0.00000924,0.00000934,0.00002616,0.00000609,-0.00019481,0.00000616,0.
 00003711,0.00001329,0.00001749,0.00004002,0.00005340,0.00005031,-0.000
 01268,0.00001182,-0.00002300,-0.00000674,0.00011658,-0.00003184,-0.000
 07353,0.00005181,-0.00012897,0.00008842,-0.00000317,0.00005889,0.00002
 440,-0.00003370,-0.00001929,0.00005165,-0.00010336,-0.00005396,-0.0000
 7731,-0.00000687,0.00000054,0.00002328,0.00002103,0.00001910,0.0000180
 4,0.00004527,0.00009932,0.00001197,0.00002121,0.00010042,-0.00007944,0
 .00005332,0.00001175,0.00003357,-0.00010356,0.00009482,0.00001451,-0.0
 0003444,-0.00013219,0.00009257,0.00003687,-0.00006634,0.00004160,0.000
 00419,0.00001111,-0.00002724,0.00009551,0.00003833,0.00003367,-0.00001
 109,0.00002572,-0.00007517,0.00004648,-0.00011780,-0.00001408,0.000020
 78,0.00000494,0.00000257,0.00000850,0.00000339,-0.00000228,0.00000277,
 -0.00000440,-0.00000247,0.00006772,-0.00011358,0.00000203,-0.00000031,
 0.00000681,-0.00001241,-0.00000139,-0.00000313,-0.00001010,0.00000047,
 -0.00000497,0.00000498,-0.00000938,-0.00000054,-0.00000146,0.00000162,
 0.00000695,0.00000326,-0.00000516,0.00000701,-0.00000546,-0.00000374,-
 0.00000396,-0.00000528,-0.00000104,0.00000371,-0.00000316,0.00000232,0
 .00000128,0.00000110,-0.00022244,0.00042000,0.00056479,-0.00086065,-0.
 00024068,-0.00029081,-0.00252710,-0.00035358,-0.00521713,-0.00202288,0
 .02041814,-0.01378362,-0.04397933,0.01093619,-0.01174446,0.00123644,-0
 .01903559,0.01221554,-0.00173403,-0.00536029,-0.00189782,-0.00002715,-
 0.00011199,0.00011965,0.00000081,-0.00006141,-0.00001438,-0.00010562,0
 .00098341,-0.00102769,0.00034132,0.00128029,0.00064903,0.04917995,0.00
 046305,0.00061430,-0.00039538,0.00021467,0.00010460,-0.00016833,0.0000
 9140,0.00018061,0.00002933,0.00004740,0.00003530,0.00003025,-0.0000855
 8,0.00000142,-0.00004675,0.00002467,-0.00000463,-0.00003310,0.00003840
 ,0.00002773,-0.00001712,-0.00023466,0.00018184,0.00025264,-0.00007251,
 -0.00004128,0.00009810,0.00011493,0.00006613,0.00003930,0.00000375,-0.
 00006943,-0.00018709,-0.00004982,-0.00018721,-0.00010783,-0.00007851,-
 0.00019887,-0.00004298,-0.00000040,-0.00003204,0.00006742,0.00001850,-
 0.00010405,0.00018566,-0.00019997,0.00001208,-0.00010783,-0.00000962,0
 .00000837,0.00003942,-0.00000674,0.00003885,0.00007369,0.00005949,0.00
 001502,-0.00010439,-0.00009518,-0.00000084,0.00010365,-0.00010728,-0.0
 0005709,-0.00000804,-0.00007759,0.00008347,0.00006634,0.00010816,0.000
 07132,0.00016947,-0.00005627,-0.00012000,0.00000290,0.00004653,0.00002
 386,0.00001895,0.00010306,0.00008524,-0.00002596,0.00002339,0.00003989
 ,-0.00010315,0.00009521,-0.00015182,-0.00008539,-0.00000419,-0.0000369
 2,-0.00001162,0.00001733,0.00002500,0.00001237,-0.00001014,-0.00001247
 ,-0.00001949,-0.00002679,-0.00018441,0.00016095,-0.00005336,-0.0000295
 7,-0.00001971,0.00000236,0.00000859,0.00001700,0.00002171,-0.00000115,
 -0.00000434,-0.00003064,-0.00001253,-0.00001142,0.00000846,0.00001097,
 0.00001373,-0.00001048,0.00002303,-0.00001218,-0.00001892,-0.00001902,
 -0.00001561,0.00000320,0.00001173,-0.00000547,0.00000722,0.00000379,0.
 00000092,0.00036026,-0.00039092,-0.00066110,0.00015612,0.00059032,-0.0
 0028243,0.00003634,0.00238068,0.00329192,0.00121629,-0.00655146,0.0049
 2774,0.01206547,-0.21853492,0.12084602,-0.00152994,-0.02094603,0.01235
 513,-0.00589234,-0.00036269,0.00208507,0.00001811,0.00013444,-0.000185
 63,0.00006942,0.00000742,0.00003563,-0.00008366,-0.00037492,0.00036691
 ,0.00021608,0.00019306,-0.00154921,-0.00862635,0.24402923,-0.00009784,
 -0.00038586,-0.00012236,-0.00012020,-0.00004796,0.00007792,-0.00007819
 ,-0.00007308,0.00002075,-0.00003391,-0.00002384,-0.00002390,0.00003207
 ,-0.00000603,0.00003697,-0.00001803,0.00000786,0.00001654,-0.00002051,
 -0.00001234,0.00001846,-0.00003446,-0.00005349,-0.00007338,0.00006537,
 0.00004374,-0.00006167,-0.00004432,-0.00002766,0.00001701,0.00002283,0
 .00003052,0.00005668,-0.00015615,-0.00000509,0.00013951,0.00003197,0.0
 0005494,-0.00001097,0.00000139,0.00004908,-0.00000922,0.00000991,0.000
 10426,-0.00000507,0.00000541,-0.00003558,0.00004302,0.00001084,-0.0000
 0305,-0.00001935,-0.00003208,-0.00001150,-0.00003603,0.00003634,-0.000
 05543,-0.00006998,0.00003671,-0.00014625,0.00002977,0.00006019,0.00003
 103,-0.00001246,0.00016145,-0.00001277,-0.00014421,0.00017757,0.000181
 53,-0.00006053,0.00004727,0.00000925,-0.00002724,-0.00002473,0.0000536
 3,-0.00001431,-0.00003754,-0.00003490,0.00001380,-0.00002989,-0.000005
 98,0.00004338,0.00001257,0.00010083,0.00003212,-0.00001832,-0.00003009
 ,0.00000012,-0.00000203,-0.00001660,-0.00001443,0.00001114,0.00000637,
 0.00001271,-0.00004980,0.00013374,-0.00005440,0.00004403,0.00002580,0.
 00000623,-0.00000299,-0.00001012,-0.00001415,-0.00001787,-0.00000227,0
 .00000893,0.00001790,0.00001084,0.00000701,-0.00000497,-0.00000052,-0.
 00000537,0.00000302,-0.00000728,0.00000516,0.00001256,0.00001176,0.000
 00684,-0.00000195,-0.00000621,-0.00000010,-0.00000284,-0.00000646,-0.0
 0000182,0.00068794,-0.00073823,-0.00092810,0.00037680,-0.00039510,0.00
 050023,-0.00556734,0.00272531,0.00313511,-0.00321629,0.01570806,-0.011
 09714,-0.01036111,0.12061427,-0.11333392,-0.00006720,0.00132128,-0.000
 49219,-0.00204559,0.00346657,0.00493827,-0.00001539,0.00015596,-0.0001
 8695,0.00011976,-0.00008128,0.00012211,-0.00005135,0.00063985,-0.00044
 130,0.00125399,-0.00107607,-0.00107835,0.01868963,-0.14075444,0.120565
 79,0.00301972,0.00339692,-0.00077381,0.00054225,0.00020913,-0.00012730
 ,-0.00024209,0.00229556,-0.00036435,0.00049429,0.00076231,0.00045464,-
 0.00140192,0.00024458,-0.00026796,0.00067882,-0.00013193,-0.00026429,0
 .00019619,0.00029671,-0.00048865,-0.00018046,0.00018709,0.00031883,-0.
 00017290,-0.00007964,-0.00005051,-0.00008865,0.00035490,0.00068514,-0.
 00060289,0.00008989,-0.00014272,-0.00055263,-0.00294808,0.00005267,-0.
 00359199,-0.00422487,-0.00486815,-0.00010950,-0.00015811,0.00081646,-0
 .00108418,0.00147949,0.00133286,-0.00092035,-0.00102537,-0.00551695,0.
 00002740,0.00003001,0.00070325,0.00073098,-0.00003270,0.00008151,-0.00
 040945,0.00176974,0.00045299,-0.00015533,0.00005351,0.00002609,-0.0002
 5581,0.00011910,-0.00024333,0.00024427,0.00043476,-0.00171732,-0.00355
 281,-0.00275989,0.00599712,-0.00310062,-0.00124375,0.00163588,0.000869
 34,-0.00093311,-0.00064752,-0.00008684,0.00026937,-0.00078355,-0.00000
 562,0.00021274,-0.00057364,-0.00011099,-0.00016234,-0.00010331,-0.0000
 0967,-0.00003263,-0.00000544,0.00038804,0.00057132,0.00016348,0.000141
 15,0.00013368,0.00001269,-0.00005092,-0.00074087,0.00102155,0.00006729
 ,0.00041736,-0.00002187,0.00003932,0.00003196,-0.00003488,-0.00000832,
 0.00001518,0.00001579,0.00002522,0.00001550,0.00001759,-0.00000856,0.0
 0006429,0.00004814,0.00009373,0.00002747,0.00009648,0.00002039,0.00001
 001,0.00001848,0.00001712,0.00001685,-0.00001393,0.00003846,0.00003818
 ,-0.00002146,-0.00043396,-0.00011679,0.00001750,0.00123006,-0.00026690
 ,-0.00283044,0.00048075,-0.00021677,0.00037447,-0.00107681,-0.00418980
 ,-0.00146745,-0.01738071,0.00095067,-0.00984814,-0.24744792,0.03728640
 ,-0.11827202,-0.00670359,0.00254555,-0.00501960,0.00000805,-0.00000435
 ,0.00002574,0.00003007,-0.00001046,-0.00003490,-0.00008237,0.00032763,
 0.00059282,-0.00058427,0.00030332,-0.00045259,0.00030826,0.00111446,0.
 00054702,0.28181622,0.00690820,0.00072493,-0.00204909,0.00072616,0.000
 25840,0.00001627,-0.00003635,0.00001501,0.00030978,0.00048790,0.000489
 78,0.00023015,0.00111433,-0.00033512,-0.00022950,0.00038681,0.00002607
 ,-0.00016139,0.00028051,0.00012474,-0.00020961,0.00022127,0.00012706,0
 .00065632,-0.00026131,-0.00011964,-0.00012078,0.00006528,0.00015702,0.
 00049683,-0.00052520,0.00013319,-0.00040407,-0.00079809,-0.00673290,-0
 .00224375,-0.00370829,0.00043644,-0.00258655,-0.00050104,-0.00029674,0
 .00056927,0.00075044,-0.00107103,-0.00027098,-0.00046765,0.00165105,0.
 00021099,0.00028306,0.00021913,0.00042573,0.00048779,-0.00028196,0.000
 17548,-0.00091628,0.00030629,0.00048404,-0.00011539,0.00013804,0.00017
 566,-0.00042447,0.00007712,-0.00049875,-0.00025025,-0.00048931,-0.0006
 4460,-0.00089934,-0.00011896,-0.00076915,-0.00005345,0.00056508,-0.000
 18182,0.00050236,-0.00044889,-0.00040879,0.00041050,0.00009407,-0.0002
 6342,0.00012230,-0.00001124,-0.00036190,-0.00024867,-0.00004621,-0.000
 16688,-0.00005537,0.00001403,-0.00005411,0.00024168,0.00026943,0.00005
 362,0.00011525,0.00012741,-0.00001163,0.00054252,0.00039001,-0.0018260
 5,0.00016494,0.00024840,0.00006165,0.00007150,0.00007038,0.00008034,0.
 00001714,0.00000556,0.00000598,0.00005535,0.00002649,0.00001579,0.0000
 2291,0.00003705,0.00003237,0.00002567,0.00009837,0.00001672,0.00002454
 ,0.00001534,0.00002547,0.00003168,0.00003458,-0.00002943,0.00001516,-0
 .00000270,0.00000133,0.00091713,-0.00010589,0.00095590,-0.00107374,-0.
 00234668,0.00539167,-0.00053375,-0.00077994,0.00003958,-0.00436150,0.0
 0022447,0.00231612,-0.01415025,0.00246715,-0.00799468,0.03088177,-0.04
 166665,0.01988940,0.02013745,-0.00698634,0.01430114,0.00004729,-0.0000
 4813,0.00002896,0.00010036,-0.00023282,0.00021964,0.00035484,-0.000459
 94,-0.00051966,-0.00064879,0.00006113,-0.00046230,0.00014342,0.0003084
 2,-0.00153828,-0.03758956,0.05338544,-0.00063641,-0.00160623,-0.005175
 97,0.00010908,0.00017777,0.00010340,0.00031699,0.00022299,0.00014044,-
 0.00001753,0.00001158,-0.00003915,0.00005821,-0.00002309,0.00075681,-0
 .00009502,-0.00007647,-0.00008492,-0.00015911,-0.00004587,0.00010884,-
 0.00016741,0.00003656,0.00026430,-0.00000727,-0.00009978,-0.00007599,-
 0.00038746,-0.00001090,0.00023618,-0.00006874,0.00003399,-0.00019377,0
 .00010635,-0.00568448,-0.00158029,-0.00501296,-0.00440329,-0.00427780,
 -0.00121638,-0.00055586,-0.00028441,0.00044339,-0.00085065,0.00017621,
 -0.00495287,0.00003758,-0.00772297,-0.00021305,-0.00006531,0.00010134,
 0.00007327,-0.00009521,0.00004919,0.00010454,0.00007530,-0.00044774,0.
 00000178,0.00002124,0.00005139,-0.00006075,-0.00009271,-0.00010302,0.0
 0032073,0.00088834,-0.00055396,0.00258050,0.00035207,-0.00412707,0.001
 66035,0.00024625,0.00087200,0.00019687,0.00015416,-0.00013276,-0.00022
 679,0.00020325,0.00061064,0.00004825,0.00010892,-0.00007651,0.00012266
 ,-0.00017757,-0.00009025,0.00002831,-0.00003525,0.00000522,0.00006076,
 0.00002642,-0.00007963,0.00003313,0.00000579,-0.00000485,0.00119019,-0
 .00071586,-0.00441873,-0.00004784,0.00005123,-0.00007267,-0.00004922,-
 0.00002802,-0.00001507,-0.00003406,0.00001706,0.00000160,0.00000139,0.
 00000130,0.00000067,0.00001330,0.00001987,-0.00001708,0.00000692,-0.00
 001619,-0.00000503,0.00000610,-0.00000441,-0.00001085,-0.00001168,-0.0
 0001765,-0.00000114,-0.00000028,-0.00002954,-0.00000686,-0.00052767,0.
 00003061,-0.00040923,-0.00209157,0.00602881,0.00273838,-0.00019317,-0.
 00073178,0.00023288,-0.00271358,0.00316791,0.00492161,0.00002884,-0.00
 066160,0.00100246,-0.11524039,0.02167342,-0.09097258,-0.01559051,0.007
 50939,-0.01210599,-0.00006592,0.00001446,-0.00001183,0.00005255,0.0000
 5822,-0.00015334,0.00071538,-0.00076254,-0.00095693,0.00012835,0.00008
 055,-0.00000391,0.00132660,-0.00106406,-0.00132622,0.13914212,-0.02269
 267,0.12462550,-0.03481650,0.00157868,-0.01361052,0.00310803,0.0010163
 7,-0.00085038,0.00279233,-0.00522202,-0.00019357,0.00111688,0.00131212
 ,0.00084773,0.00095404,-0.00114575,-0.00068243,0.00130485,-0.00025222,
 -0.00051667,0.00041103,0.00026599,-0.00074310,-0.00130915,0.00144596,0
 .00244922,-0.00111673,-0.00028751,0.00005903,0.00078601,0.00041197,0.0
 0079990,-0.00265759,-0.00008230,-0.00134288,-0.00203012,0.00009181,-0.
 00376792,-0.00054923,-0.00080054,0.00144991,0.00049998,0.00060551,0.00
 276856,-0.00149594,0.00029947,0.00266498,-0.00021998,-0.00032321,0.001
 44119,0.00041153,0.00026060,0.00141147,0.00302315,-0.00021001,0.000807
 05,-0.00201715,0.00026327,-0.00214002,-0.00096545,0.00034726,-0.000214
 74,-0.00154723,0.00029750,-0.00095146,-0.01272880,0.00408794,0.0075405
 4,-0.00688230,0.00717487,0.00359806,0.00103079,-0.00143891,-0.00113317
 ,0.00133223,-0.00112627,-0.00149759,-0.00138716,0.00096815,-0.00075970
 ,-0.00024950,0.00032370,-0.00014914,0.00068312,-0.00045339,-0.00053757
 ,-0.00000724,-0.00015859,0.00002345,0.00055160,0.00098780,0.00033132,0
 .00023882,0.00027106,-0.00001654,0.00043799,-0.00122639,-0.00119160,-0
 .00002177,0.00067518,0.00010741,0.00013924,-0.00004323,-0.00007734,0.0
 0006281,0.00000772,-0.00006062,-0.00000753,0.00001220,-0.00001445,0.00
 004622,0.00009814,0.00006724,0.00013001,0.00010827,0.00010810,-0.00001
 482,0.00000640,0.00008996,0.00004746,0.00001969,-0.00000895,-0.0000709
 1,0.00012596,0.00003425,-0.00020322,0.00014041,0.00158738,-0.01047136,
 -0.00530603,-0.00337333,-0.00025282,-0.00148641,-0.00293354,-0.0005482
 4,0.00040665,-0.00050306,0.00199238,-0.00095615,-0.00139910,-0.0028930
 4,-0.00578282,0.00145472,-0.17626422,-0.11226478,-0.02102865,0.0000967
 6,-0.00017736,0.00025354,0.00022901,-0.00023176,0.00002669,0.00011537,
 -0.00025360,0.00036816,0.00008898,0.00053810,0.00044747,0.00007880,0.0
 0052879,-0.00040616,-0.00097995,0.00126907,0.00080888,0.23993320,0.004
 86706,-0.00968279,0.00297334,0.00071251,0.00031370,0.00072081,-0.00412
 212,-0.00609082,-0.00013617,-0.00012018,0.00000443,-0.00014889,-0.0000
 6421,0.00012032,0.00037006,-0.00025815,-0.00022814,-0.00002438,-0.0002
 7954,-0.00004612,0.00005211,0.00103899,-0.00067683,0.00052351,-0.00017
 414,-0.00021054,-0.00036023,-0.00038324,0.00014093,-0.00013509,-0.0003
 4874,-0.00002209,-0.00004293,-0.00042890,0.00171536,-0.00362323,0.0010
 8282,-0.00030219,0.00002482,-0.00043986,-0.00069521,-0.00049200,-0.000
 21759,0.00048965,0.00016486,0.00031133,-0.00023674,-0.00009758,-0.0002
 0207,-0.00029766,-0.00016963,0.00021989,-0.00021376,-0.00049607,-0.001
 06004,-0.00138273,-0.00431368,0.00006325,-0.00013933,0.00030141,-0.000
 38094,-0.00036725,-0.00002844,0.00057201,0.00383201,-0.00001422,0.0042
 6965,-0.00283169,0.00001808,0.00102164,0.00025324,0.00032955,-0.000163
 39,-0.00059488,0.00040981,-0.00086977,0.00053584,0.00024554,-0.0002540
 5,0.00084213,0.00030639,0.00475645,-0.00701812,0.00065503,-0.00012741,
 -0.00007168,-0.00008004,-0.00006792,0.00005209,-0.00002022,0.00001497,
 0.00004952,0.00000608,-0.00020075,-0.00084460,-0.00018276,0.00007771,-
 0.00013278,0.00006460,-0.00012930,-0.00017275,-0.00004885,-0.00006382,
 -0.00004777,0.00003298,0.00001671,0.00002042,-0.00001479,-0.00001722,-
 0.00009155,-0.00011810,-0.00017854,-0.00006699,-0.00017015,0.00003243,
 0.00002272,-0.00000116,-0.00004523,-0.00007336,0.00004976,-0.00006540,
 0.00005135,0.00002146,0.00056682,-0.00000782,-0.00095597,0.00351337,0.
 00415080,-0.00059927,-0.00048544,0.00217397,0.00312853,0.00044210,0.00
 017369,0.00003117,-0.00068621,-0.00235954,0.00513634,-0.02033942,-0.02
 003835,0.00211194,-0.10513750,-0.10643768,-0.00917408,0.00000572,0.000
 15652,-0.00016304,0.00003213,-0.00013748,0.00004388,0.00050323,0.00012
 137,0.00007277,0.00047729,-0.00032746,-0.00059863,-0.00089926,-0.00084
 705,0.00008428,0.00074514,-0.00068705,-0.00073668,0.11312201,0.1479065
 0,-0.01402240,0.00061958,-0.01734990,0.00048012,0.00094157,-0.00051804
 ,-0.00046349,-0.00091705,0.00370641,0.00059140,0.00057601,0.00025291,0
 .00042966,-0.00040390,-0.00058379,0.00030865,0.00000604,-0.00036851,0.
 00047014,0.00028824,-0.00003031,-0.00034058,0.00017885,0.00184076,-0.0
 0015714,-0.00040311,-0.00018604,-0.00018899,0.00087821,0.00036161,-0.0
 0058707,0.00006796,-0.00110695,-0.00323402,0.00079585,-0.00911292,-0.0
 0112694,0.00045009,-0.00027473,-0.00000230,0.00025141,0.00138412,0.000
 59837,0.00061111,-0.00113127,-0.00029128,-0.00005972,0.00040520,0.0004
 7691,0.00005323,0.00046666,0.00056895,-0.00061299,0.00008332,-0.002311
 40,-0.00242243,-0.00270103,-0.00053426,0.00014367,-0.00005188,-0.00020
 777,0.00013862,-0.00068840,0.00645447,-0.00047694,-0.00360536,0.002231
 76,-0.00361911,0.00032115,0.00098617,-0.00038438,-0.00022125,0.0011699
 9,-0.00084357,-0.00056586,0.00175372,0.00041904,-0.00054914,0.00218866
 ,-0.00029219,-0.00405801,0.00019830,-0.00065250,0.00060849,0.00003626,
 -0.00017174,-0.00004996,0.00037907,0.00031972,0.00002603,0.00012421,0.
 00010923,-0.00008339,-0.00015248,-0.00072437,-0.00023600,0.00009450,0.
 00020356,0.00010118,-0.00001139,0.00005415,0.00011010,-0.00000243,0.00
 001890,0.00007745,0.00005136,0.00000931,-0.00002884,-0.00000878,-0.000
 02712,-0.00003569,0.00003105,0.00007519,0.00002375,0.00000414,-0.00001
 733,-0.00002048,0.00006867,0.00006716,-0.00001777,0.00008390,0.0000034
 1,0.00000707,0.00083552,-0.00143737,-0.00054923,-0.01008283,-0.0077791
 9,-0.00009459,-0.00458337,0.00322732,0.00246524,0.00013104,0.00039166,
 -0.00032729,-0.00211093,0.00483874,0.00272725,0.01138900,0.01154458,0.
 00060633,-0.02177795,-0.01035199,-0.03324964,-0.00013532,0.00013815,-0
 .00034838,0.00015638,-0.00017408,0.00012180,-0.00052750,-0.00051211,-0
 .00018605,0.00057942,-0.00061317,-0.00096941,0.00052414,0.00069108,-0.
 00015498,0.00032948,-0.00039216,-0.00143148,0.02878278,0.00518322,0.06
 532517,0.00070114,0.00177926,-0.00124569,0.00058419,-0.00108314,-0.004
 17324,-0.00246473,-0.00244470,0.00038105,0.00051620,-0.00043990,0.0005
 8226,0.00001434,0.00006482,-0.00011342,-0.00001008,-0.00004181,-0.0000
 4729,0.00032212,0.00010200,-0.00021207,-0.25379084,0.00990341,-0.06719
 437,0.00013994,0.00107371,0.00256153,0.00071088,-0.00057228,-0.0002722
 7,-0.03638977,-0.00025364,-0.03150316,-0.00069202,-0.00072579,-0.00047
 126,-0.00019513,0.00023151,0.00011494,0.00011202,-0.00002930,-0.000134
 21,-0.00008292,-0.00012162,-0.00000373,-0.00005684,0.00030102,0.000049
 35,-0.00012645,0.00015792,0.00009264,0.00573726,-0.00291133,-0.0006568
 3,-0.00208964,0.00124000,0.00100753,0.00088581,0.00097497,-0.00282684,
 0.00059449,0.00030483,0.00116808,-0.00034010,-0.00036412,0.00062516,-0
 .00001210,-0.00007540,-0.00016208,-0.00022778,0.00012521,0.00008258,-0
 .00010806,0.00016327,0.00041139,0.00002100,0.00016912,0.00071986,0.000
 00870,-0.00025411,-0.00026507,-0.07796288,0.00782660,0.01537429,0.0006
 4765,-0.00226277,0.00186876,0.00000497,-0.00017146,0.00000683,-0.00022
 470,-0.00006478,-0.00035114,0.00002981,0.00002439,0.00002951,-0.003326
 19,-0.00089829,-0.00138026,-0.00032506,0.00080294,0.00058641,0.0004409
 6,0.00015596,-0.00054576,-0.00041312,-0.00030832,-0.00020487,0.0000738
 2,0.00018070,0.00029973,-0.00000525,0.00033759,0.00002543,-0.00046878,
 -0.00036686,-0.00009732,0.00006122,0.00016707,-0.00010961,0.00008007,0
 .00002513,-0.00002131,-0.00052874,0.00008904,0.00025040,-0.00039486,-0
 .00016529,0.00076748,0.00019074,0.00000483,-0.00081619,0.00006813,-0.0
 0014109,-0.00015321,-0.00000490,-0.00018786,-0.00012127,0.00054346,0.0
 0002828,-0.00004639,-0.00032175,0.00037892,-0.00004783,0.00004441,0.00
 001324,-0.00029443,0.00118146,0.00029297,0.00088507,0.00041134,0.00002
 480,0.00037690,0.00022916,0.00025616,0.00010164,0.00005854,0.00020334,
 0.00001443,-0.00007695,-0.00025044,0.00008122,0.00018110,-0.00028349,0
 .00034411,0.51509082,0.00003072,0.00001152,0.00000166,-0.00044898,-0.0
 0053680,-0.00032801,0.00029442,0.00331142,-0.00091012,0.00009132,0.000
 06543,0.00003989,-0.00000878,0.00000302,0.00003444,0.00002487,0.000023
 01,0.00003187,0.00001309,0.00001279,0.00000118,0.00275661,-0.04328798,
 0.00728362,0.00016437,0.00024541,0.00011350,-0.00003157,0.00005712,0.0
 0002351,-0.00385067,0.01087653,-0.00286713,-0.00005612,0.00002329,0.00
 013003,-0.00004731,0.00008422,0.00009346,-0.00005307,-0.00002379,0.000
 02255,-0.00006946,-0.00001304,-0.00012014,-0.00001265,-0.00001320,-0.0
 0000849,0.00003845,0.00000353,-0.00001663,0.00213271,0.00136400,-0.000
 69331,-0.00081550,0.00005047,0.00032529,0.00004180,-0.00367211,0.00122
 043,0.00034062,0.00029616,0.00030041,0.00000663,-0.00009517,-0.0000490
 4,0.00006269,-0.00008876,-0.00009191,-0.00006720,-0.00003757,-0.000082
 72,0.00003052,-0.00000996,0.00004086,0.00000157,0.00002103,-0.00005614
 ,-0.00004961,-0.00000856,0.00005008,0.00788726,0.01147587,-0.00377187,
 -0.00040478,-0.00010587,0.00029954,-0.00000393,0.00000492,-0.00000325,
 0.00004331,0.00000886,0.00003482,-0.00002375,0.00002970,0.00002159,0.0
 0095260,-0.00021927,0.00044167,0.00004692,-0.00014590,-0.00005589,-0.0
 0002766,-0.00001715,0.00004750,0.00001866,0.00001532,-0.00000468,0.000
 03004,-0.00003649,-0.00000751,0.00004419,0.00000636,-0.00002682,0.0000
 4032,0.00003663,0.00000518,0.00000831,-0.00002114,0.00000100,-0.000022
 75,0.00001467,0.00000825,-0.00038564,-0.00048464,-0.00101866,-0.000070
 45,0.00021627,-0.00021828,0.00036692,0.00009282,-0.00008013,-0.0000642
 0,0.00021607,-0.00019069,0.00007796,-0.00008817,0.00005134,0.00012464,
 0.00010898,0.00010342,-0.00013631,0.00040671,-0.00033669,0.00018073,-0
 .00011973,0.00000046,0.00024415,-0.00023851,0.00015678,0.00003299,0.00
 001925,0.00007140,-0.00003644,-0.00008637,0.00007107,0.00003918,-0.000
 07392,0.00006683,0.00001913,-0.00008831,0.00005438,-0.00008430,0.00014
 647,-0.00004104,0.00336027,0.07085643,0.00027823,0.00034150,-0.0006674
 8,-0.00198688,-0.00117488,0.00051621,-0.00304188,-0.00121108,-0.002989
 92,0.00002989,0.00013618,-0.00006553,0.00000276,-0.00001765,0.00001360
 ,0.00004046,-0.00000212,0.00002493,-0.00002103,0.00006495,-0.00002736,
 -0.05348551,0.00591983,-0.10231249,0.00047114,0.00028312,-0.00001035,0
 .00011200,0.00005863,-0.00001453,-0.05493305,0.00197357,-0.02707394,-0
 .00005105,-0.00044686,0.00035205,-0.00001458,-0.00027473,0.00010061,0.
 00004266,0.00002675,0.00008945,-0.00013078,-0.00015441,-0.00010859,0.0
 0002013,-0.00001105,-0.00000321,-0.00000167,0.00001858,-0.00001925,0.0
 0591835,-0.00370664,-0.00518003,-0.00310605,0.00178564,0.00171278,0.00
 263126,0.00054660,0.00023758,0.00116633,0.00055229,0.00079232,0.000023
 12,-0.00021077,0.00015301,0.00005204,0.00001128,-0.00019330,-0.0001167
 4,0.00001903,0.00004374,-0.00002457,0.00007175,-0.00001931,-0.00001371
 ,-0.00010000,0.00007729,-0.00007834,0.00005610,0.00004688,0.03558977,-
 0.00440805,0.00439387,0.00040980,-0.00045794,0.00048434,-0.00000973,0.
 00001443,0.00001488,0.00006232,0.00000725,0.00004880,-0.00002329,0.000
 03584,0.00002073,0.00042687,0.00032896,0.00025497,0.00012594,-0.000085
 59,-0.00012418,-0.00001655,0.00000812,0.00001283,-0.00003541,0.0000289
 5,0.00003904,0.00008175,0.00001641,0.00012320,-0.00002091,0.00002178,-
 0.00006505,0.00002978,0.00002061,0.00001060,-0.00004042,-0.00000486,-0
 .00002090,-0.00000940,0.00000023,0.00000155,-0.00018216,-0.00038924,-0
 .00015527,-0.00007529,0.00042542,-0.00055934,0.00000057,0.00002180,-0.
 00011938,0.00003415,0.00009960,0.00001746,0.00000608,-0.00008116,0.000
 07768,0.00005029,0.00004106,0.00000285,0.00006835,-0.00019183,0.000171
 45,0.00035397,0.00025813,0.00014479,0.00053560,0.00008260,0.00036353,0
 .00013304,0.00005917,0.00011377,-0.00002382,-0.00008894,0.00001563,0.0
 0004131,-0.00008762,0.00004753,-0.00004227,-0.00015673,-0.00004887,-0.
 00034885,-0.00010585,-0.00017232,-0.01030284,-0.01547889,0.30289650,-0
 .00006183,0.00006551,-0.00004529,0.00009228,-0.00005320,-0.00032755,0.
 00022917,0.00013494,0.00013278,0.00000030,-0.00002421,0.00001587,-0.00
 000714,0.00001324,-0.00001204,-0.00001576,-0.00000020,-0.00001084,0.00
 000254,-0.00000984,-0.00000372,-0.00279404,-0.00126496,0.00341589,-0.0
 0004953,0.00005156,0.00024052,0.00004825,-0.00002040,-0.00000419,-0.00
 021956,0.00006133,-0.00051994,-0.00000542,-0.00001846,-0.00001539,0.00
 000606,0.00001894,0.00000681,-0.00002139,0.00000716,-0.00001309,-0.000
 01127,-0.00003048,0.00001202,-0.00000860,0.00001410,-0.00000691,-0.000
 01496,0.00001030,-0.00000180,0.00009502,-0.00001615,0.00002569,0.00000
 844,0.00000250,0.00000156,0.00006411,-0.00006358,-0.00010510,0.0000087
 9,0.00002478,0.00008643,-0.00002048,-0.00000484,0.00002448,0.00000606,
 -0.00001917,0.00001713,-0.00000758,0.00001149,-0.00000222,-0.00000438,
 -0.00000358,0.00002435,0.00002420,0.00001520,0.00002656,0.00000381,-0.
 00001521,-0.00001095,-0.00235896,0.00047575,0.00000302,0.00001627,0.00
 001681,-0.00003625,-0.00000634,-0.00000273,0.00000308,-0.00001664,-0.0
 0000875,-0.00001970,0.00000255,0.00000887,0.00000321,-0.00015440,-0.00
 007021,-0.00006229,-0.00001313,0.00001691,0.00001574,0.00000572,-0.000
 00002,-0.00002441,-0.00002763,-0.00001523,-0.00001128,0.00000565,0.000
 00766,0.00001831,0.00000168,0.00002264,0.00000013,-0.00002752,-0.00001
 962,-0.00000707,0.00000660,0.00000539,-0.00000119,-0.00000311,0.000005
 19,-0.00000065,0.00004400,-0.00001060,-0.00002476,-0.00001916,-0.00012
 164,0.00005834,0.00000705,-0.00001208,-0.00001231,-0.00002821,-0.00000
 404,-0.00001897,-0.00000540,-0.00000693,-0.00001451,0.00002942,-0.0000
 2134,0.00002263,0.00001308,0.00004402,-0.00000751,-0.00005236,0.000024
 30,0.00000783,-0.00003846,-0.00000584,-0.00007196,-0.00002424,-0.00002
 850,0.00000877,0.00001666,0.00004696,-0.00000341,0.00000453,0.00002322
 ,-0.00000713,0.00000442,0.00001468,0.00000049,0.00005081,-0.00001072,0
 .00002025,-0.04260253,-0.00469033,-0.00626400,0.48387937,-0.00001636,0
 .00003714,0.00000190,0.00001153,0.00001989,-0.00000949,0.00000644,0.00
 000787,0.00000118,0.00000119,-0.00000337,0.00000312,-0.00000114,0.0000
 0310,0.00000125,-0.00000091,0.00000059,-0.00000107,0.00000315,-0.00000
 038,-0.00000108,-0.00018273,0.00014430,0.00035023,-0.00001200,-0.00002
 257,0.00001329,0.00000744,-0.00000597,-0.00000684,-0.00005502,0.000303
 10,-0.00005302,-0.00001374,-0.00004979,-0.00005383,0.00001493,0.000023
 22,-0.00000682,-0.00000961,-0.00000879,-0.00000359,-0.00005330,0.00003
 511,0.00003823,-0.00000548,0.00001350,-0.00000116,0.00000181,0.0000050
 2,-0.00000144,0.00001447,-0.00008134,0.00001577,0.00001116,-0.00000512
 ,0.00000749,0.00000516,0.00001006,-0.00002216,-0.00001120,-0.00000669,
 0.00000714,-0.00000850,-0.00000464,0.00000564,0.00000240,0.00000153,0.
 00000396,-0.00000613,0.00000127,0.00000342,0.00000198,-0.00000128,-0.0
 0000452,0.00000396,0.00000402,0.00000379,0.00000823,0.00000280,-0.0000
 0706,-0.00033985,-0.00000459,0.00005695,-0.00002674,-0.00000064,0.0000
 0808,-0.00000079,0.00000274,0.00000057,0.00000002,0.00000124,-0.000003
 23,0.00000278,-0.00000671,0.00000186,-0.00002064,-0.00000304,-0.000003
 29,-0.00000033,0.00000231,-0.00000101,-0.00000126,0.00000495,-0.000002
 80,0.00000119,0.00000167,0.00000141,0.00000599,-0.00001087,0.00000472,
 0.00000337,0.00000314,-0.00000714,-0.00000172,-0.00000022,-0.00000041,
 -0.00000028,0.00000117,-0.00000205,-0.00000255,0.00000112,0.00000121,-
 0.00001565,0.00000238,0.00006971,0.00004252,-0.00005659,0.00006159,0.0
 0002848,0.00002966,0.00013068,0.00001199,-0.00001188,0.00000017,-0.000
 03030,0.00000552,-0.00004179,-0.00001121,0.00002898,-0.00003117,0.0000
 0273,-0.00002783,-0.00000464,-0.00001506,0.00002421,-0.00000160,0.0000
 4432,0.00006969,-0.00014739,-0.00004763,-0.00006614,-0.00006801,0.0000
 0025,0.00000384,0.00000363,-0.00000239,0.00002074,-0.00000861,-0.00000
 911,0.00001261,-0.00000028,0.00000727,-0.00000673,0.00001409,-0.005365
 75,0.00224851,-0.00087068,-0.00536231,0.52916460,-0.00005196,-0.000072
 79,0.00003277,-0.00010028,-0.00001240,0.00010058,-0.00016407,-0.000081
 41,-0.00001855,-0.00001837,0.00001101,-0.00002017,0.00000461,0.0000007
 7,0.00000107,-0.00000660,0.00000030,-0.00000052,-0.00001459,-0.0000110
 2,0.00000886,0.00191375,0.00076320,-0.00183413,0.00001497,-0.00001693,
 -0.00005848,-0.00004449,0.00004008,0.00000235,0.00028103,-0.00002290,0
 .00040478,0.00009424,0.00005935,0.00005792,-0.00000243,-0.00002191,-0.
 00000265,-0.00001489,0.00000351,-0.00000627,0.00001848,-0.00002607,-0.
 00003964,0.00000764,-0.00002314,-0.00000125,0.00000089,-0.00000841,-0.
 00000563,0.00001591,0.00000928,-0.00005961,-0.00000766,-0.00002945,-0.
 00001423,-0.00004723,0.00003301,0.00000262,0.00003264,0.00002960,-0.00
 002463,0.00000915,0.00001964,-0.00004046,0.00000360,-0.00000140,0.0000
 1464,0.00001266,-0.00000712,0.00000558,0.00000492,-0.00001136,-0.00000
 314,0.00000412,0.00000790,-0.00001930,-0.00000140,0.00001134,0.0000096
 5,0.00136936,-0.00028919,-0.00003335,-0.00000208,-0.00001723,0.0000246
 7,-0.00000255,0.00000249,-0.00000101,0.00001055,0.00000173,0.00001390,
 0.00000226,0.00000117,-0.00000297,0.00016251,0.00007759,0.00005553,0.0
 0002866,-0.00002772,-0.00002752,-0.00000969,0.00000316,0.00001850,0.00
 001527,0.00001182,0.00001490,0.00000297,-0.00000935,-0.00000969,-0.000
 00252,-0.00001448,-0.00000720,0.00001479,0.00001076,0.00000373,-0.0000
 0573,-0.00000998,0.00000521,-0.00000704,-0.00000109,0.00000290,-0.0001
 3771,-0.00000985,-0.00000289,0.00005059,0.00011398,-0.00007852,-0.0000
 4728,0.00003226,0.00005724,-0.00000799,-0.00001426,0.00000795,-0.00000
 423,-0.00002962,0.00002596,-0.00000244,0.00000252,0.00000038,0.0000069
 5,-0.00004871,-0.00000244,0.00003170,-0.00000863,0.00003940,0.00005637
 ,0.00001731,-0.00001336,-0.00001243,0.00000538,-0.00006002,-0.00001061
 ,-0.00002767,0.00000723,0.00000045,-0.00000846,0.00000186,0.00000231,-
 0.00000097,0.00000298,-0.00001058,0.00000387,-0.00000865,0.01880349,0.
 00201479,0.00845659,-0.04411272,-0.00482480,0.50530119,0.00007737,-0.0
 0060127,0.00063122,-0.00175268,-0.00022789,0.00173303,-0.00055504,0.00
 047623,0.00030793,-0.00011904,0.00012094,-0.00019824,0.00000958,-0.000
 02463,0.00004786,0.00002913,0.00001032,0.00003705,-0.00004292,-0.00002
 336,0.00002867,-0.04534916,-0.00127873,0.01366276,0.00042589,-0.000257
 70,-0.00143277,-0.00024679,0.00009279,0.00008435,0.00490509,0.00051587
 ,0.00381111,0.00008542,0.00028665,0.00023254,0.00002234,-0.00002897,-0
 .00001112,0.00007382,-0.00006872,0.00003227,0.00005097,0.00026008,-0.0
 0026707,0.00003315,-0.00011520,-0.00003069,0.00008271,-0.00007657,-0.0
 0002215,-0.00371301,0.00135324,-0.00056612,0.00127643,-0.00068960,-0.0
 0036438,0.00147201,-0.00039320,-0.00055957,0.00065578,0.00017758,-0.00
 009998,0.00015046,0.00004998,-0.00028550,-0.00001999,0.00000668,-0.000
 07929,0.00007305,-0.00005605,-0.00005025,0.00006289,-0.00009040,-0.000
 10743,-0.00005650,-0.00001499,-0.00027150,-0.00005745,0.00005802,0.000
 03562,-0.00299865,-0.00036893,-0.00282596,-0.00013202,0.00000096,0.000
 01821,0.00003151,0.00002985,-0.00001653,0.00009009,0.00005381,0.000107
 03,-0.00002772,0.00000538,-0.00000408,0.00102975,0.00030023,0.00021725
 ,0.00003036,-0.00021275,-0.00017070,-0.00013318,-0.00005467,0.00015690
 ,0.00018493,0.00009785,0.00008154,-0.00006557,-0.00004520,-0.00009707,
 -0.00005445,-0.00009381,0.00001199,0.00015146,0.00012582,0.00003824,-0
 .00003761,-0.00003835,0.00001147,-0.00001168,-0.00002817,-0.00000807,0
 .00015194,-0.00030127,-0.00024650,-0.00003177,0.00061766,-0.00048276,0
 .00024438,0.00007116,0.00033071,0.00005171,0.00006270,0.00006578,0.000
 00583,0.00001127,0.00002345,-0.00009012,0.00013509,-0.00008216,0.00000
 654,-0.00026582,-0.00006342,0.00009302,-0.00010306,-0.00002908,0.00001
 705,0.00006008,0.00013845,-0.00012926,-0.00000288,-0.00016395,-0.00015
 967,-0.00022059,0.00001587,-0.00001877,-0.00014247,0.00005886,0.000001
 19,-0.00001379,0.00000894,-0.00016165,0.00007201,-0.00004711,-0.083078
 13,-0.00554603,0.03891119,-0.13780631,-0.00808997,-0.06161198,0.431388
 66,-0.00031041,-0.00034867,-0.00002436,-0.00000779,0.00018702,-0.00007
 108,-0.00055882,0.00117276,-0.00050194,-0.00004416,0.00004122,-0.00001
 803,0.00001253,-0.00000817,-0.00000037,-0.00002617,-0.00000813,-0.0000
 2330,-0.00002386,-0.00000274,0.00001365,-0.00187649,-0.00381771,-0.001
 26247,-0.00002625,-0.00017206,0.00003815,-0.00000017,0.00002702,0.0000
 6910,0.00055743,-0.00401693,0.00019455,0.00017790,0.00011549,0.0000142
 6,0.00009241,-0.00016513,-0.00004955,0.00000264,0.00002671,-0.00001905
 ,0.00008813,-0.00014356,0.00010877,0.00002534,-0.00004999,0.00000792,-
 0.00003243,-0.00000852,0.00000470,-0.00066773,0.00103576,-0.00002056,0
 .00032762,-0.00015716,-0.00013827,-0.00012020,0.00046030,-0.00055736,0
 .00000524,-0.00025248,0.00011184,0.00000716,0.00014504,0.00000163,0.00
 000894,0.00003081,0.00019233,0.00005869,0.00000921,0.00001251,-0.00005
 759,-0.00000219,0.00001662,0.00003709,-0.00002057,-0.00002486,0.000027
 82,0.00003422,-0.00005011,0.00241946,0.00210701,0.00018599,0.00047847,
 -0.00026768,0.00000985,0.00001589,-0.00000934,0.00001630,-0.00002365,-
 0.00004535,0.00001488,0.00002115,-0.00005806,-0.00003301,0.00028912,-0
 .00010690,0.00009648,-0.00005883,-0.00001268,-0.00003315,-0.00000139,-
 0.00001429,0.00002108,-0.00002443,-0.00003296,-0.00001991,-0.00003670,
 0.00005747,-0.00003317,-0.00007116,-0.00004216,0.00002846,-0.00001306,
 -0.00000486,-0.00001540,-0.00001854,0.00001442,0.00001900,0.00003360,-
 0.00001320,-0.00001450,-0.00003053,-0.00018096,0.00018539,0.00012888,0
 .00006572,-0.00039308,-0.00024173,-0.00001677,0.00015581,-0.00014037,-
 0.00008334,0.00016194,-0.00005014,-0.00010265,0.00012295,0.00000044,-0
 .00003215,0.00007792,-0.00014840,0.00001835,0.00015167,-0.00002040,0.0
 0001453,0.00002001,-0.00013748,0.00006028,-0.00022299,-0.00011962,-0.0
 0000362,-0.00013610,0.00000901,-0.00002465,-0.00004775,0.00000741,0.00
 002859,-0.00007847,0.00006246,0.00006986,-0.00003970,0.00035884,0.0001
 4637,0.00003578,-0.00775457,-0.04654434,0.01038971,-0.00807384,-0.0655
 2277,-0.00672884,-0.00890044,0.47706236,0.00000051,0.00051959,-0.00020
 633,0.00175422,0.00035903,-0.00095811,0.00129034,-0.00007158,0.0004943
 4,0.00012159,-0.00014449,0.00019852,-0.00000129,0.00001609,-0.00004522
 ,-0.00001659,-0.00000727,-0.00002968,0.00006956,0.00002548,-0.00003872
 ,0.01168618,-0.00240334,0.01706214,-0.00043781,0.00013107,0.00070524,0
 .00012404,-0.00014812,-0.00006949,-0.00109350,0.00008119,-0.00167771,-
 0.00018171,-0.00023879,-0.00036511,-0.00006034,0.00018917,-0.00001022,
 -0.00001503,0.00003966,-0.00007403,-0.00000018,0.00004955,0.00009129,-
 0.00003049,0.00010700,0.00003610,-0.00004131,0.00005270,0.00003966,0.0
 0147123,-0.00055166,0.00066745,-0.00022317,0.00010812,-0.00018234,-0.0
 0033842,0.00000079,0.00021925,-0.00075318,-0.00028340,-0.00024062,-0.0
 0014183,-0.00002869,0.00016075,-0.00002162,-0.00001842,0.00003790,-0.0
 0002414,0.00003612,0.00003676,-0.00002252,0.00004641,0.00006725,0.0000
 3818,0.00004599,0.00021191,0.00006380,-0.00006823,-0.00004700,-0.00557
 412,0.00131467,0.00041852,0.00028258,0.00008899,-0.00018146,-0.0000042
 7,-0.00003937,0.00000369,-0.00009654,-0.00003879,-0.00011033,0.0000197
 0,-0.00001808,0.00000409,-0.00111185,-0.00041134,-0.00028670,-0.000108
 18,0.00022420,0.00022371,0.00011699,0.00002825,-0.00013817,-0.00012665
 ,-0.00009854,-0.00008642,0.00000178,0.00004226,0.00001191,0.00002100,0
 .00005231,0.00003588,-0.00013543,-0.00010678,-0.00003185,0.00003379,0.
 00004955,-0.00001304,0.00003146,0.00001189,-0.00000344,0.00007924,0.00
 036985,0.00004156,0.00011583,-0.00072940,0.00070184,0.00010141,-0.0000
 9664,-0.00003145,0.00011201,-0.00012757,-0.00002213,-0.00006842,0.0001
 0750,-0.00021837,-0.00002395,-0.00004337,-0.00008776,0.00001180,0.0001
 8127,-0.00004160,-0.00015055,0.00004389,-0.00002037,-0.00016808,-0.000
 13130,-0.00047883,-0.00012747,-0.00007290,-0.00006500,0.00007882,0.000
 17654,-0.00000368,-0.00003811,0.00014225,-0.00004640,-0.00002784,0.000
 07181,0.00002500,0.00013254,-0.00000403,0.00013117,0.04507657,0.008507
 96,-0.13100780,-0.05918177,-0.00635858,-0.10443515,0.04632820,0.006405
 09,0.46073029,-0.00001754,0.00004891,0.00004076,0.00011900,-0.00003208
 ,-0.00026510,0.00018089,-0.00016363,0.00020623,0.00000150,-0.00002609,
 0.00002138,-0.00000227,0.00000619,-0.00000678,-0.00000667,0.00000110,-
 0.00000339,0.00001159,-0.00000649,-0.00000017,0.00267613,0.00067547,0.
 00028541,-0.00005238,0.00004544,0.00018121,-0.00003033,0.00008707,-0.0
 0001504,-0.00312260,0.00167416,0.00014627,0.00001169,-0.00000067,-0.00
 004697,-0.00000744,0.00004856,0.00000714,-0.00004748,0.00002527,-0.000
 01384,-0.00000479,-0.00001400,0.00002938,-0.00000830,0.00001126,-0.000
 00394,-0.00000461,0.00001125,-0.00000246,0.00108775,-0.00031484,0.0003
 0284,-0.00024199,-0.00000239,-0.00002222,-0.00010045,-0.00004214,-0.00
 007896,0.00000165,0.00005800,0.00000621,-0.00001171,-0.00000064,-0.000
 02764,-0.00001196,-0.00003311,-0.00001624,0.00000524,-0.00001448,0.000
 00856,0.00003157,-0.00000808,0.00000812,0.00002016,0.00003796,0.000003
 85,0.00000502,-0.00001283,-0.00001596,-0.00078475,-0.00015894,0.000489
 56,-0.00004488,0.00004546,-0.00003696,0.00000527,-0.00000159,-0.000001
 79,-0.00001616,-0.00000320,-0.00001345,-0.00000001,0.00000212,0.000002
 80,-0.00013126,-0.00002163,-0.00004358,0.00000427,-0.00000083,0.000023
 54,0.00001035,0.00000480,-0.00001039,-0.00001711,-0.00000414,-0.000004
 17,-0.00000277,0.00001444,0.00000706,0.00000541,0.00002135,-0.00000093
 ,-0.00001817,-0.00001170,-0.00000427,0.00000717,0.00000616,-0.00000359
 ,-0.00000069,-0.00000027,0.00000002,-0.00004229,0.00001457,-0.00003496
 ,0.00000775,-0.00010121,0.00007139,-0.00006835,-0.00001296,-0.00009489
 ,0.00001509,0.00000964,-0.00000655,0.00001419,0.00001649,-0.00000280,0
 .00001606,-0.00001789,0.00001609,0.00002032,0.00001527,0.00000869,-0.0
 0001435,0.00001135,0.00000406,-0.00001712,-0.00002344,0.00001811,0.000
 01672,0.00002130,0.00005142,0.00000735,0.00002713,-0.00000630,0.000010
 55,0.00000213,0.00000644,-0.00001091,-0.00000695,0.00000470,-0.0000124
 3,-0.00001485,0.00001621,-0.01203700,0.01844973,0.02602833,-0.00252602
 ,-0.01865413,-0.01564920,-0.06153629,0.00147574,-0.00313479,0.53446320
 ,0.00009261,0.00001117,-0.00003789,-0.00007919,-0.00000544,0.00015657,
 -0.00001658,-0.00008962,-0.00010609,0.00001044,0.00000835,0.00000392,-
 0.00000365,-0.00000721,0.00000851,0.00002064,0.00000070,0.00001255,0.0
 0000721,0.00001503,-0.00000562,0.00011425,0.00034915,0.00013733,0.0000
 5046,0.00000034,-0.00010165,0.00004747,-0.00005193,-0.00000606,0.00163
 926,0.00001868,-0.00010565,-0.00010503,-0.00003293,0.00002047,0.000008
 49,-0.00001226,0.00000524,0.00002909,-0.00000928,0.00003153,-0.0000156
 4,-0.00000965,-0.00002215,-0.00000822,0.00001504,0.00000052,0.00001013
 ,0.00000166,0.00000328,-0.00011872,-0.00013633,-0.00010496,0.00005356,
 0.00003469,0.00004410,0.00002312,-0.00004534,-0.00000572,0.00003452,0.
 00001596,-0.00001334,0.00002333,-0.00001989,0.00003668,-0.00000291,0.0
 0001088,-0.00003748,-0.00001964,0.00000976,-0.00000918,-0.00001295,0.0
 0002317,-0.00000690,-0.00003027,-0.00003026,-0.00000575,-0.00001253,-0
 .00000148,0.00000277,-0.00025181,0.00005188,0.00011130,0.00000193,0.00
 000507,0.00001488,-0.00000636,0.00000485,-0.00000229,0.00001614,0.0000
 1457,0.00000737,-0.00001060,0.00000096,0.00000603,0.00003027,0.0000292
 7,0.00001294,0.00001403,-0.00000806,-0.00002518,0.00000101,0.00000467,
 -0.00000149,0.00001776,0.00001399,0.00000821,0.00000125,-0.00001838,0.
 00000787,0.00001111,-0.00000132,-0.00000190,0.00001503,0.00001147,0.00
 000637,-0.00000154,0.00000103,-0.00000794,-0.00000527,0.00000178,0.000
 00345,-0.00001833,0.00003584,0.00001505,-0.00000798,-0.00002128,0.0000
 4750,0.00004432,-0.00001799,-0.00001141,0.00004170,0.00001930,-0.00002
 366,-0.00001485,0.00003379,-0.00004315,-0.00002380,0.00002504,-0.00002
 314,-0.00000064,-0.00000074,-0.00001148,0.00000772,-0.00000331,-0.0000
 1274,0.00003238,-0.00001066,0.00002123,0.00002648,-0.00000675,0.000024
 19,0.00001849,0.00001019,0.00000108,0.00000405,-0.00000348,0.00000314,
 -0.00000425,-0.00002579,-0.00000286,-0.00005308,-0.00001215,-0.0000230
 8,0.00340302,0.00180785,-0.00454439,-0.00283799,-0.00633372,-0.0066319
 4,0.00229828,-0.14665106,-0.05563702,0.00604288,0.47192083,0.00003638,
 -0.00017122,0.00010216,-0.00015312,-0.00000219,0.00025814,-0.00014463,
 0.00007245,0.00006658,-0.00001082,0.00000709,-0.00000771,0.00000942,-0
 .00000862,0.00000327,0.00000569,-0.00000203,0.00000477,-0.00000319,-0.
 00000185,-0.00000083,-0.00242557,0.00024333,0.00009873,0.00008043,-0.0
 0004168,-0.00020707,-0.00007891,0.00002279,0.00001898,0.00155246,-0.00
 121534,0.00060936,0.00004214,0.00010576,0.00001134,-0.00000888,-0.0000
 0793,-0.00000837,0.00002296,0.00000787,-0.00000010,0.00004767,0.000029
 94,-0.00001745,0.00001123,-0.00002600,0.00000640,0.00001277,-0.0000176
 9,0.00000371,-0.00039838,0.00017336,-0.00016682,0.00019953,-0.00013703
 ,-0.00014487,0.00005602,0.00001976,0.00002029,0.00005202,0.00000340,-0
 .00008528,0.00001649,0.00002801,-0.00006454,-0.00001857,0.00000924,-0.
 00001298,0.00002612,-0.00002394,0.00000679,0.00002346,-0.00000834,-0.0
 0000243,-0.00002630,0.00001070,-0.00004203,-0.00000424,0.00000767,0.00
 000897,0.00052756,0.00019802,-0.00015977,0.00004266,-0.00007645,0.0000
 0603,0.00000774,-0.00000019,-0.00000409,0.00001136,0.00000501,0.000015
 63,0.00000198,-0.00000272,-0.00000833,0.00013707,0.00004167,0.00005019
 ,-0.00000573,-0.00002362,-0.00001468,-0.00000240,-0.00000034,0.0000171
 5,0.00003900,0.00001199,0.00001091,-0.00001992,0.00000110,-0.00003514,
 -0.00001082,-0.00002968,0.00000730,0.00002556,0.00001687,0.00000522,-0
 .00000505,-0.00000582,0.00000082,0.00000451,-0.00000324,-0.00000184,-0
 .00001501,-0.00000887,0.00000951,0.00000374,0.00016473,-0.00009816,-0.
 00003781,0.00003387,-0.00001058,-0.00002750,-0.00001953,0.00003461,0.0
 0000291,-0.00002385,0.00004186,0.00000995,0.00001961,0.00000435,0.0000
 0986,0.00000937,0.00002161,0.00002468,-0.00002294,-0.00000129,0.000027
 06,0.00000100,0.00004412,0.00000373,0.00001674,0.00000567,-0.00001534,
 -0.00002631,-0.00000290,0.00000087,-0.00002437,0.00000623,0.00000486,-
 0.00000401,0.00000093,-0.00001412,0.00001751,-0.00000833,0.01708520,-0
 .01767760,-0.02495489,-0.00469287,-0.01662464,-0.01350171,-0.00213567,
 -0.05498568,-0.09753592,0.00323287,-0.03932394,0.50372567,0.00017323,-
 0.00002905,-0.00011712,0.00014183,0.00000350,-0.00027385,0.00012625,0.
 00007512,0.00006206,0.00000322,-0.00000029,0.00002388,0.00000545,0.000
 00012,-0.00000786,-0.00000745,-0.00000171,-0.00000753,0.00001938,-0.00
 000390,-0.00000864,0.00293015,-0.00142002,0.00041454,-0.00005513,0.000
 01154,0.00020637,-0.00002337,0.00002504,0.00002188,-0.00273900,-0.0020
 7189,0.00062033,0.00034263,0.00007548,-0.00002330,-0.00005737,-0.00003
 189,0.00001286,-0.00007879,0.00005489,0.00000477,-0.00013290,0.0000046
 9,0.00015983,-0.00002474,0.00000324,0.00001208,-0.00002073,-0.00000360
 ,0.00000360,0.00099189,-0.00017785,0.00027506,-0.00017567,0.00003321,-
 0.00006448,-0.00021621,0.00008536,-0.00024943,0.00000127,0.00000289,0.
 00005218,-0.00002136,0.00001511,-0.00004769,-0.00000344,-0.00003978,0.
 00000251,0.00000909,-0.00003842,0.00001192,0.00003060,-0.00000329,0.00
 002878,0.00003082,0.00005675,-0.00000103,0.00000420,-0.00000491,-0.000
 03316,-0.00047643,0.00022863,0.00082096,0.00008033,-0.00004004,-0.0000
 6370,0.00000746,-0.00000828,0.00000260,-0.00002179,-0.00001325,-0.0000
 1130,-0.00000043,-0.00001396,-0.00000674,-0.00008483,-0.00003953,-0.00
 002236,-0.00002099,0.00001921,0.00002713,0.00001721,0.00001169,-0.0000
 1926,-0.00001995,-0.00001384,-0.00000976,-0.00000095,0.00001210,0.0000
 1661,-0.00000237,0.00002280,-0.00000836,-0.00002362,-0.00001851,-0.000
 00722,0.00001081,0.00000244,0.00000473,0.00000506,0.00000162,-0.000001
 37,-0.00005097,0.00006732,-0.00001487,-0.00006532,-0.00000400,0.000013
 88,-0.00020832,0.00000785,-0.00005803,-0.00004745,-0.00008021,0.000007
 03,-0.00002371,-0.00007665,-0.00000517,0.00008935,-0.00006513,0.000026
 67,0.00003890,0.00002719,0.00002759,0.00000841,-0.00000747,0.00002190,
 -0.00002605,-0.00001903,0.00000124,0.00004724,0.00002268,0.00008726,0.
 00002510,0.00007634,0.00001210,0.00001304,0.00002853,0.00001927,-0.000
 00673,0.00003427,0.00003154,0.00006903,0.00003368,0.00006497,-0.007703
 52,-0.02067992,0.02364402,-0.00758549,0.01853767,-0.01586826,-0.065745
 67,0.01895990,-0.01560489,0.00075900,0.00258702,-0.00133927,0.53361614
 ,-0.00022541,0.00007601,0.00011057,0.00015327,0.00000779,-0.00020227,0
 .00005003,-0.00003754,0.00015052,-0.00000246,-0.00004121,0.00000718,-0
 .00000598,0.00001648,-0.00000328,-0.00001839,0.00000316,-0.00000816,0.
 00000215,-0.00001808,0.00000784,0.00128865,0.00051933,-0.00021122,-0.0
 0008093,0.00003098,0.00013697,-0.00000058,0.00007089,-0.00004671,-0.00
 223071,-0.00076676,0.00055794,-0.00011844,-0.00006371,-0.00021484,0.00
 002489,0.00010824,-0.00000693,-0.00004803,-0.00001526,-0.00004659,-0.0
 0000997,-0.00000961,0.00019321,-0.00000739,0.00002532,-0.00001146,0.00
 000784,0.00001674,-0.00001304,0.00043007,-0.00035979,0.00016248,-0.000
 00367,-0.00006435,-0.00004609,-0.00005165,0.00004864,-0.00005786,-0.00
 006558,0.00002674,-0.00004302,-0.00002678,0.00000683,-0.00000542,-0.00
 000164,-0.00001773,0.00003168,0.00001402,0.00001371,0.00001410,0.00001
 068,-0.00002266,-0.00001371,0.00004145,0.00002812,0.00003068,0.0000194
 0,-0.00000769,-0.00001141,-0.00008177,0.00007061,0.00019335,-0.0000010
 2,0.00000785,-0.00003961,0.00000573,0.00000144,-0.00000330,-0.00000538
 ,-0.00000169,-0.00001259,0.00000880,-0.00000406,0.00000170,-0.00005960
 ,-0.00001199,-0.00001036,0.00000547,-0.00000933,0.00002058,-0.00000967
 ,0.,0.00000357,-0.00000430,0.00000166,-0.00000051,0.00000896,-0.000006
 65,-0.00000121,0.00000535,0.00001234,-0.00000910,-0.00001000,-0.000006
 39,-0.00000322,0.00000352,0.00000061,-0.00000332,-0.00000747,-0.000000
 85,0.00000283,0.00001539,-0.00002939,-0.00003664,0.00000767,-0.0000831
 3,0.00001101,-0.00001056,-0.00010820,-0.00009665,-0.00004085,-0.000047
 39,0.00003162,-0.00001843,-0.00000917,0.00002765,-0.00000117,-0.000012
 91,0.00005462,0.00003506,0.00002678,0.00009759,-0.00002197,0.00003545,
 0.00002295,-0.00003595,0.00002271,-0.00003902,-0.00001605,0.00001218,-
 0.00003474,0.00004904,0.00004493,-0.00002215,0.00000372,0.00005101,-0.
 00005188,-0.00000957,0.00002971,-0.00002096,0.00003834,-0.00000974,0.0
 0001975,-0.00659875,-0.00628547,0.01157550,0.00259765,-0.00171489,0.00
 337407,0.01781216,-0.14620203,0.05031996,0.00516423,-0.02832975,0.0098
 3591,0.00961514,0.46613906,-0.00002548,-0.00014819,0.00016772,-0.00013
 974,0.00001575,0.00025261,-0.00012972,-0.00000495,0.00021579,-0.000014
 05,-0.00000596,-0.00000268,0.00001403,-0.00000842,0.00000270,0.0000037
 4,-0.00000373,0.00000002,-0.00000076,-0.00000367,-0.00000155,-0.002322
 62,0.00005829,0.00053960,0.00007068,-0.00005986,-0.00020691,-0.0001362
 5,0.00004412,0.00002500,0.00162627,0.00145019,0.00002065,0.00011708,0.
 00000352,-0.00010270,0.00002732,0.00005995,-0.00002388,0.00001970,-0.0
 0000361,-0.00002339,-0.00009214,0.00031336,0.00008327,0.00002093,-0.00
 002858,0.00000714,0.00001703,-0.00001693,0.00000799,-0.00050315,0.0001
 4257,-0.00009218,0.00024152,-0.00020151,-0.00018189,0.00011307,-0.0000
 7080,0.00013860,0.00004200,0.00000782,-0.00008267,0.00000033,0.0000356
 3,-0.00010020,-0.00002707,0.00000563,0.00000055,0.00003540,-0.00003538
 ,0.00001169,0.00005065,-0.00002871,-0.00000934,-0.00001454,0.00002607,
 -0.00005262,0.00000435,0.00001250,-0.00000251,0.00018866,-0.00029966,-
 0.00034186,-0.00007609,-0.00000253,0.00007300,0.00001207,0.00000526,-0
 .00000285,0.00000733,0.00000406,0.00001229,0.00000803,-0.00001181,-0.0
 0001518,0.00010343,0.00003488,0.00003832,-0.00000514,-0.00001503,-0.00
 000013,0.00000254,0.00000547,0.00001613,0.00003584,0.00001408,0.000009
 51,-0.00001030,-0.00001308,-0.00002628,-0.00000632,-0.00001481,-0.0000
 0731,0.00002191,0.00001442,0.00000374,-0.00000463,-0.00000446,-0.00000
 094,0.00000360,-0.00000293,-0.00000082,-0.00003541,-0.00004914,0.00005
 276,0.00006056,0.00008259,-0.00015407,0.00002861,-0.00001695,-0.000135
 07,-0.00008926,0.00006425,-0.00003044,0.00000711,-0.00001131,0.0000949
 4,0.00002415,0.00008745,0.00001661,-0.00004324,0.00001319,0.00002249,0
 .00000350,-0.00000470,-0.00002167,0.00004453,0.00001642,0.00001084,0.0
 0004170,-0.00004176,-0.00000539,-0.00002017,-0.00007288,-0.00002055,0.
 00001235,-0.00005272,0.00000504,0.00000701,-0.00000605,-0.00000379,-0.
 00000327,-0.00000706,0.00000783,0.01205382,0.02194154,-0.02316404,-0.0
 0839315,0.01550656,-0.01333331,-0.01335427,0.04997592,-0.09301975,0.00
 140494,-0.01120190,0.00624549,-0.00572207,0.03579215,0.50946515,0.0000
 6747,0.00002808,0.00001318,-0.00017566,-0.00006817,0.00008020,-0.00008
 041,-0.00005569,-0.00006578,0.00000684,0.00000398,-0.00000288,-0.00000
 188,-0.00000095,0.00000151,0.00000924,0.00000155,0.00000543,0.00000066
 ,0.00000251,-0.00000151,-0.00056756,-0.00035476,-0.00070993,0.00007420
 ,0.00003424,-0.00005756,-0.00000487,-0.00000136,-0.00000115,0.00019505
 ,0.00009024,0.00038764,-0.00002721,0.00000884,0.00004319,-0.00000691,0
 .00001162,0.00001068,0.00000782,-0.00001041,0.00001334,-0.00000942,-0.
 00000783,-0.00003498,-0.00000316,-0.00000062,-0.00000487,0.00001035,-0
 .00000425,0.00000040,-0.00000274,-0.00002340,-0.00000655,-0.00003161,0
 .00002354,0.00003526,0.00000644,-0.00007304,-0.00000103,0.00011787,0.0
 0005799,0.00001895,0.00000708,-0.00002514,-0.00002259,0.00000487,-0.00
 001359,-0.00004094,-0.00001062,-0.00000408,-0.00001075,0.00001447,-0.0
 0000502,0.00000046,-0.00000892,0.00000112,-0.00001121,-0.00001575,-0.0
 0000348,0.00001750,0.00016238,0.00008341,-0.00001519,0.00000152,-0.000
 04707,0.00002112,0.00000112,0.00000161,-0.00000184,0.00001174,0.000008
 76,0.00000701,-0.00000724,0.00002035,0.00000655,0.00004863,0.00002070,
 0.00001510,0.00000814,-0.00000089,-0.00000554,-0.00000195,0.00000276,0
 .00000422,0.00001708,0.00000910,0.00000911,0.00000378,-0.00000776,0.00
 000153,0.00000145,0.00000131,-0.00000534,0.00001258,0.00000812,0.00000
 470,-0.00000209,-0.00000366,-0.00000336,-0.00000283,-0.00000033,0.0000
 0019,-0.00014344,-0.00004843,-0.00009958,-0.00015032,0.00009329,-0.000
 05958,-0.00004011,-0.00003957,-0.00013275,0.00006450,0.00013549,-0.000
 07478,0.00004529,0.00000679,0.00003089,-0.00000392,-0.00004383,0.00002
 656,-0.00003888,0.00001690,-0.00004186,0.00009393,-0.00001740,-0.00000
 640,0.00006580,-0.00005421,0.00034947,0.00020004,0.00012614,0.00014842
 ,0.00000797,-0.00005995,0.00001996,0.00002048,-0.00002951,0.00002863,-
 0.00000289,-0.00003780,0.00000622,-0.00005167,-0.00001668,-0.00001102,
 0.00157828,0.00056602,0.00016702,-0.04436427,0.01633396,0.01184740,-0.
 00047939,-0.02043552,-0.01576306,-0.00387643,-0.00075678,-0.00290468,0
 .00068315,-0.00076262,0.00037097,0.04986162,0.00006285,-0.00000416,-0.
 00002138,-0.00017317,-0.00010062,0.00000471,-0.00002127,-0.00002572,-0
 .00010929,0.00000255,0.00000090,0.00000606,0.00000101,-0.00000486,0.00
 000080,0.00000914,-0.00000134,0.00000454,-0.00000313,0.00000640,-0.000
 00510,-0.00015782,-0.00030860,-0.00055103,0.00009062,0.00003756,0.0000
 0783,0.00000505,-0.00001432,0.00000864,0.00010752,0.00013364,0.0004736
 1,-0.00003160,-0.00001273,0.00003351,0.00000433,-0.00000869,0.00001077
 ,0.00001783,0.00000178,0.00001604,-0.00000311,0.00001412,-0.00001823,-
 0.00000163,0.00000339,0.00000245,0.00000225,-0.00000116,0.00000435,0.0
 0018030,-0.00006959,0.00001180,-0.00008149,0.00005675,0.00006602,-0.00
 005022,-0.00004899,-0.00006306,0.00013008,0.00005630,0.00004778,0.0000
 0687,-0.00000947,-0.00001014,0.00000943,0.00000008,-0.00003256,0.00000
 137,-0.00000712,-0.00000069,0.00000411,0.00000780,0.00000351,-0.000009
 16,-0.00001328,-0.00000653,-0.00001220,0.00000570,0.00000957,0.0001156
 4,0.00005863,0.00008952,-0.00004920,-0.00012027,0.00003842,-0.00000269
 ,0.00000355,0.00000201,0.00000536,0.00000256,0.00000153,0.00000175,0.0
 0000671,-0.00000077,0.00000232,0.00001722,0.00000844,0.00001020,-0.000
 00149,-0.00000997,0.00000264,0.00000234,-0.00000308,0.00000517,0.00000
 265,0.00000399,0.00000006,-0.00000484,0.00000306,0.00000269,-0.0000043
 1,-0.00000046,0.00000400,0.00000151,0.00000217,-0.00000231,-0.00000154
 ,-0.00000322,-0.00000223,0.00000446,0.00000091,-0.00012702,-0.00004759
 ,-0.00004897,-0.00001840,0.00022002,-0.00014589,0.00010389,-0.00002169
 ,0.00013297,-0.00003152,0.00004450,-0.00001229,0.00001181,-0.00000498,
 0.00000976,-0.00000252,-0.00002229,0.00002559,-0.00004185,-0.00002240,
 0.00001567,0.00006932,-0.00003208,-0.00000460,0.00003153,0.00016371,0.
 00019429,0.00006207,0.00000043,-0.00015166,-0.00002569,-0.00006391,0.0
 0002816,-0.00000958,-0.00001141,-0.00000109,-0.00001153,-0.00002161,0.
 00000122,-0.00005164,-0.00000969,-0.00002662,0.00001484,0.00055609,0.0
 0058774,0.01619126,-0.20989442,-0.11264218,-0.00239132,-0.00502827,-0.
 00524701,-0.00141336,0.00025755,-0.00094356,0.00069414,0.00065278,0.00
 089641,-0.01813764,0.24060532,0.00007724,0.00002607,0.00000121,0.00003
 085,-0.00000866,0.00002542,0.00001931,-0.00005157,-0.00001868,0.000009
 63,-0.00000451,0.00001030,-0.00000452,-0.00000043,-0.00000418,0.000007
 34,-0.00000034,0.00000053,0.00000305,0.00000514,-0.00000707,0.00005592
 ,-0.00023274,-0.00023479,0.00000266,0.00001398,-0.00001892,0.00000861,
 0.00000160,-0.00000712,0.00003911,0.00015041,0.00011344,-0.00005623,-0
 .00000738,0.00001567,-0.00000395,0.00000955,0.00001014,0.00001357,-0.0
 0000015,0.00000992,-0.00002457,-0.00000520,-0.00002423,-0.00000702,0.0
 0000789,-0.00000106,0.00000669,0.00000006,0.00000393,0.00014615,-0.000
 08037,0.00001461,-0.00005293,0.00003184,0.00003622,-0.00006711,-0.0000
 3791,0.00002761,-0.00003214,-0.00000269,-0.00003534,0.00000603,-0.0000
 2596,-0.00000760,-0.00000188,-0.00001369,-0.00004424,-0.00000259,-0.00
 000574,-0.00000079,0.00001252,0.00000067,0.00000253,-0.00000219,0.0000
 0539,-0.00000440,0.00000045,-0.00000520,0.00001062,0.00010259,0.000045
 54,0.00003653,-0.00001762,0.00002539,0.00002249,-0.00000132,0.00000554
 ,0.00000154,0.00000403,0.00000416,-0.00000273,-0.00000119,0.00000882,0
 .00000695,-0.00001765,0.00000653,0.00000734,0.00000687,0.00000252,0.00
 000041,0.00000329,0.00000165,-0.00000496,0.00000157,0.00000185,-0.0000
 0012,0.00000410,-0.00000714,0.00000252,0.00000238,0.00000374,-0.000003
 00,-0.00000040,-0.00000061,-0.00000022,0.00000108,0.00000172,-0.000003
 21,-0.00000246,0.00000440,0.00000169,0.00014807,-0.00000449,0.00003596
 ,-0.00011776,-0.00008564,0.00007427,0.00018367,0.00001219,0.00007747,-
 0.00005705,0.00002384,-0.00007746,-0.00004059,0.00003925,-0.00007056,-
 0.00000627,0.00001694,-0.00001216,-0.00000715,0.00001717,-0.00003433,-
 0.00002801,0.00001787,-0.00005172,0.00010878,0.00003961,-0.00003739,0.
 00006156,-0.00016303,0.00002576,0.00002738,0.00004207,0.00000676,0.000
 00099,0.00000147,-0.00000039,0.00000082,-0.00000830,0.00000049,-0.0000
 4323,-0.00000692,-0.00001627,0.00073855,0.00079209,0.00061756,0.011547
 29,-0.11198306,-0.12013849,-0.00208330,-0.01623831,-0.01308963,-0.0037
 0544,-0.00067677,-0.00217234,0.00053453,-0.00052617,0.00040002,-0.0103
 4470,0.13140870,0.13808729,-0.00000345,-0.00005754,0.00001282,-0.00016
 372,-0.00003270,0.00009305,-0.00006383,0.00004950,-0.00008591,-0.00000
 643,-0.00000023,-0.00000388,0.00000414,-0.00000328,0.00000239,0.000001
 08,0.00000031,0.00000171,-0.00000483,0.00000130,0.00000072,-0.00075633
 ,0.00038683,-0.00070699,0.00007518,-0.00002036,-0.00005948,-0.00001391
 ,0.00000419,0.00001116,0.00027583,-0.00007167,0.00048473,0.00002127,0.
 00002594,0.00003067,-0.00000061,-0.00002074,0.00000186,0.00001043,-0.0
 0000190,0.00000025,0.00002057,-0.00002374,-0.00001000,0.00000746,-0.00
 001492,0.00000296,0.00000368,-0.00000599,-0.00000125,-0.00000118,0.000
 05317,-0.00000398,-0.00000693,0.00001652,0.00002515,-0.00001086,0.0000
 8005,-0.00006401,0.00010004,0.00000393,0.00002694,0.00000655,0.0000078
 2,-0.00001071,0.00000321,0.00000848,0.00000223,0.00000382,-0.00000052,
 0.00000435,-0.00000212,0.00000309,0.00000222,-0.00000787,-0.00000579,-
 0.00000678,-0.00000431,0.00000963,0.00000473,0.00026875,-0.00010607,-0
 .00004642,-0.00004506,-0.00008414,0.00009181,0.00000271,-0.00000199,-0
 .00000117,0.00000735,0.00000155,0.00000739,0.00000029,-0.00000043,-0.0
 0000271,0.00003449,0.00001496,0.00000877,-0.00000243,-0.00000293,-0.00
 001985,-0.00000340,0.00000185,0.00000299,0.00001156,0.00000341,0.00000
 624,-0.00000227,0.00000359,-0.00000452,-0.00000717,-0.00001025,0.00000
 493,0.00000812,0.00000587,0.00000169,-0.00000563,-0.00000195,0.0000006
 8,0.00000279,-0.00000244,-0.00000210,-0.00004636,-0.00001407,0.0000188
 1,0.00000681,0.00008995,-0.00010484,-0.00001218,-0.00001280,0.00000947
 ,-0.00001581,-0.00000809,0.00000496,0.00000352,-0.00001448,0.00002136,
 0.00000687,-0.00000137,0.00001183,0.00001025,-0.00001476,0.00002892,0.
 00002821,-0.00002253,-0.00000636,0.00003835,0.00008416,0.00006242,0.00
 001145,0.00001024,-0.00000044,-0.00000933,-0.00001915,0.00000352,0.000
 00159,-0.00001650,0.00000426,0.00000648,-0.00001137,-0.00000041,-0.000
 00185,0.00000039,-0.00001601,0.00190356,-0.00040477,0.00029880,-0.0440
 4336,0.01467005,-0.01024328,-0.00491292,0.01985453,-0.01713247,0.00050
 683,0.00067403,0.00057497,-0.00409432,-0.00025831,-0.00312328,0.000636
 09,0.00326659,-0.00140260,0.04971958,-0.00003415,0.00004672,-0.0000070
 9,0.00011869,0.00004548,0.00001978,-0.00001658,-0.00002230,0.00005293,
 0.00000099,0.00000024,-0.00000417,-0.00000699,0.00000499,0.00000096,-0
 .00000220,0.00000216,0.00000194,0.00000517,0.00000018,0.00000061,0.000
 15601,-0.00008834,0.00023234,-0.00006710,-0.00000488,-0.00002902,0.000
 01552,-0.00001166,-0.00001129,-0.00008316,0.00006297,-0.00030830,-0.00
 002369,-0.00002142,-0.00001823,0.00000626,0.00001255,-0.00000454,-0.00
 001237,-0.00000312,-0.00000238,-0.00000661,-0.00000293,0.00000306,-0.0
 0000664,0.00000874,-0.00000665,0.00000047,0.00000167,-0.00000432,-0.00
 014675,0.00000359,-0.00000924,0.00004531,-0.00001555,-0.00002031,0.000
 05263,-0.00002673,0.00009656,-0.00010231,-0.00001959,-0.00004035,-0.00
 000368,-0.00000826,0.00001715,-0.00000311,-0.00000701,0.00000331,-0.00
 000778,0.00000985,-0.00000262,-0.00000591,-0.00000572,-0.00000507,0.00
 000561,0.00000395,0.00000797,0.00000585,-0.00000700,-0.00000026,-0.000
 11948,0.00003445,-0.00005912,0.00003251,0.00013456,-0.00005369,0.00000
 159,-0.00000470,-0.00000377,0.00000143,0.00000317,0.00000023,-0.000003
 65,0.00000282,0.00000618,-0.00000127,0.00000502,-0.00000222,0.00000187
 ,-0.00001442,-0.00000333,-0.00000608,-0.00000360,0.00000552,0.00000599
 ,0.00000353,0.00000454,0.00000349,0.00000038,-0.00000160,0.00000141,0.
 00000558,0.00000048,0.00000437,0.00000337,0.00000067,0.00000371,0.0000
 0171,-0.00000073,0.00000024,-0.00000382,-0.00000005,0.00010523,0.00003
 494,0.00000293,-0.00004455,-0.00015145,0.00011399,0.00003349,-0.000003
 65,-0.00003535,0.00000466,0.00000344,-0.00002172,-0.00002063,0.0000295
 1,-0.00004075,-0.00000686,0.00000732,-0.00001394,0.00002008,0.00002576
 ,-0.00003141,-0.00005982,0.00002282,0.00000081,0.00001962,-0.00013577,
 -0.00007709,-0.00000491,-0.00004231,0.00006590,0.00001775,0.00005007,-
 0.00000619,-0.00000102,0.00001351,-0.00000196,0.00000653,0.00001342,0.
 00000022,0.00000228,0.00000214,0.00001203,0.00021382,0.00024865,-0.000
 56516,0.01460197,-0.19944878,0.11610416,0.00226660,0.00003936,0.001531
 92,-0.00066586,0.00066757,-0.00061313,0.00050174,0.00055749,0.00048679
 ,0.00213138,-0.02755688,0.01520466,-0.01742077,0.22855627,0.00003043,-
 0.00004989,-0.00001037,0.00004099,0.00004538,0.00002903,0.00004856,0.0
 0004205,-0.00003541,-0.00000122,-0.00000245,0.00001087,0.00000369,-0.0
 0000312,-0.00000525,0.00000061,-0.00000256,-0.00000450,-0.00000270,0.0
 0000092,-0.00000295,0.00002890,0.00024486,-0.00017526,-0.00000053,-0.0
 0001545,-0.00001011,-0.00000128,0.00000602,0.00000549,0.00009304,-0.00
 015147,0.00013343,0.00000683,0.00001587,0.00001751,-0.00000602,-0.0000
 2664,-0.00000046,0.00001651,0.00001157,0.00000291,0.00001552,-0.000018
 25,-0.00001296,0.00000524,-0.00000908,0.00000655,-0.00000140,-0.000002
 38,0.00000414,0.00011442,0.00002561,0.00001521,-0.00002908,0.00002492,
 0.00002170,-0.00003499,0.00000910,0.00002312,-0.00002403,-0.00004280,-
 0.00001618,0.00000161,0.00001067,0.00000290,-0.00000656,0.00000746,0.0
 0000300,0.00000426,-0.00000117,0.00000488,-0.00000097,0.00000881,0.000
 00605,-0.00000730,-0.00000516,-0.00000172,0.00000228,-0.00000157,0.000
 00520,0.00016816,-0.00006099,-0.00000921,0.00002577,-0.00000963,0.0000
 5547,-0.00000104,0.00000224,0.00000349,-0.00000395,-0.00000421,-0.0000
 0339,0.00000236,-0.00000069,-0.00000471,-0.00002783,-0.00001341,0.0000
 0003,-0.00000512,0.00001029,-0.00000212,0.00000697,0.00000182,-0.00000
 700,-0.00000913,-0.00000694,-0.00000501,-0.00000233,0.00000641,-0.0000
 0153,-0.00000759,-0.00000502,0.00000573,-0.00000776,-0.00000482,-0.000
 00359,-0.00000173,0.00000339,0.00000234,0.00000376,0.00000225,-0.00000
 131,0.00001355,-0.00000148,0.00000429,-0.00003286,0.00003018,-0.000030
 38,-0.00001986,0.00000383,-0.00003945,-0.00000688,0.00000137,0.0000046
 4,0.00000511,-0.00000941,0.00002140,-0.00000297,-0.00000009,0.00000133
 ,-0.00002271,0.00000847,-0.00000111,0.00001385,-0.00000478,-0.00001282
 ,-0.00000057,-0.00004787,0.00005666,0.00000449,0.00001214,0.00003426,0
 .00000183,-0.00000167,-0.00001012,0.00000309,-0.00000491,-0.00000290,0
 .00000580,-0.00000050,-0.00000410,0.00002679,0.00000217,-0.00000565,0.
 00098805,-0.00059521,0.00068807,-0.01048141,0.11571457,-0.13060466,-0.
 00496318,0.01523251,-0.01360790,0.00035180,0.00066916,0.00031336,-0.00
 350904,-0.00013901,-0.00223318,0.00133865,-0.01353752,0.00992856,0.015
 07942,-0.13494129,0.14971893,-0.00000605,0.00008203,-0.00004391,0.0002
 0560,0.00004505,-0.00015779,0.00023378,0.00004650,0.00007060,0.0000099
 8,-0.00002116,0.00002987,-0.00000196,0.00000339,-0.00000873,-0.0000000
 8,-0.00000262,-0.00000846,0.00001251,0.00000466,-0.00000749,-0.0004211
 8,-0.00038506,0.00121573,-0.00007087,0.00001457,0.00011216,0.00002981,
 -0.00000214,-0.00000383,-0.00004452,0.00003179,-0.00026304,-0.00003424
 ,-0.00003772,-0.00002465,0.00000677,0.00001613,0.00000531,-0.00000297,
 0.00000243,-0.00000406,-0.00001792,-0.00002209,0.00003095,-0.00000311,
 0.00001326,0.00000293,-0.00000550,0.00000803,0.00000858,0.00014324,-0.
 00004788,0.00008838,-0.00001429,0.00003151,-0.00000128,-0.00003557,-0.
 00003992,-0.00000954,-0.00008262,-0.00002662,0.00000031,-0.00001452,-0
 .00000580,0.00000392,0.00000607,-0.00002347,0.00001224,0.00000039,0.00
 000197,0.00000038,0.00000199,-0.00000412,0.00001371,0.00002596,0.00000
 694,0.00002370,0.00000970,-0.00001114,-0.00001329,-0.00072753,0.000128
 03,-0.00006235,0.00001132,0.00004777,-0.00005705,0.00000267,0.00000298
 ,0.00000696,-0.00001163,-0.00000999,-0.00001860,0.00000374,-0.00000335
 ,0.00000067,-0.00012509,-0.00004317,-0.00003114,-0.00000801,0.00001451
 ,0.00001885,0.00001421,0.00000389,-0.00001717,-0.00002465,-0.00001312,
 -0.00001164,0.00000892,0.00000807,0.00001331,0.00000679,0.00001802,0.0
 0000159,-0.00001986,-0.00001780,-0.00001066,0.00000884,0.00000898,-0.0
 0000409,0.00000490,0.00000646,0.00000009,0.00002925,0.00004392,-0.0000
 0881,0.00001380,-0.00010091,0.00008868,-0.00002679,-0.00001674,-0.0000
 1052,0.00000727,-0.00002847,0.00000844,-0.00000103,0.00001766,-0.00002
 338,-0.00000982,-0.00001973,0.00000190,-0.00003214,0.00001352,0.000001
 88,-0.00000271,0.00000630,-0.00002508,-0.00006123,-0.00001051,-0.00006
 052,-0.00001490,-0.00001419,0.00000209,0.00002233,0.00004003,-0.000006
 60,0.00000163,0.00002235,-0.00001158,-0.00000006,-0.00000042,0.0000016
 5,0.00004202,0.00000170,0.00001090,-0.00743784,-0.00064782,-0.00299098
 ,-0.20136132,-0.01249634,0.11616485,-0.02301883,-0.00201404,0.01401026
 ,0.00067350,0.00039308,0.00071102,0.00044404,-0.00030219,0.00055870,-0
 .00359266,0.00128280,0.00471696,0.00076434,-0.00111646,0.00139839,0.23
 369904,0.00001641,0.00000961,-0.00001241,0.00002708,0.00001052,-0.0000
 1274,0.00003414,-0.00000749,-0.00000507,0.00000191,0.00000076,0.000004
 10,-0.00000031,-0.00000006,-0.00000168,0.00000135,-0.00000190,-0.00000
 060,0.00000162,0.00000158,-0.00000184,-0.00011027,0.00011183,0.0000794
 5,-0.00000546,0.00000267,0.00001531,0.00000445,-0.00000583,0.00000117,
 0.00001146,-0.00003824,0.00002602,-0.00000703,-0.00001078,0.00000034,0
 .00000008,-0.00000742,-0.00000450,0.00000296,0.00000163,0.00000333,0.0
 0000419,0.00000228,-0.00000457,-0.00000018,0.00000349,-0.00000070,-0.0
 0000318,0.00000074,0.00000181,0.00001299,-0.00000756,0.00000923,-0.000
 00923,0.00001236,0.00000724,0.00000087,-0.00000261,0.00003018,-0.00001
 029,-0.00001092,0.00000584,-0.00000420,0.00000148,0.00000871,-0.000003
 64,0.00000501,0.00000515,-0.00000679,0.00000095,-0.00000112,-0.0000024
 5,0.00000332,0.00000229,-0.00000529,-0.00000527,0.00000106,-0.00000211
 ,-0.00000395,0.00000243,-0.00012975,-0.00000309,-0.00000737,0.00002099
 ,-0.00001752,-0.00001306,0.00000082,-0.00000087,0.00000151,-0.00000173
 ,-0.00000148,-0.00000183,-0.00000037,0.00000372,-0.00000079,-0.0000261
 4,-0.00000875,-0.00000628,0.00000066,0.00000274,0.00000054,0.00000365,
 0.00000044,-0.00000229,-0.00000133,-0.00000149,0.00000034,-0.00000041,
 0.00000339,0.00000270,-0.00000140,0.00000224,0.00000132,-0.00000171,-0
 .00000196,-0.00000104,0.00000077,0.00000141,-0.00000089,0.00000225,-0.
 00000046,-0.00000136,-0.00000269,-0.00000310,-0.00003617,-0.00002185,0
 .00002686,-0.00000981,-0.00003110,-0.00002110,-0.00004436,0.00002228,0
 .00002407,0.00000608,0.00002281,0.00000454,0.00002035,-0.00000895,-0.0
 0001182,0.00000104,-0.00003133,-0.00000445,-0.00000749,0.00002491,-0.0
 0000271,0.00000929,-0.00003683,-0.00004588,0.00007317,0.00002288,0.000
 05946,0.00002548,0.00000841,-0.00000637,-0.00000579,0.00000142,0.00000
 173,-0.00000056,-0.00000134,-0.00000031,-0.00000150,0.00001317,-0.0000
 0115,0.00000266,-0.00093601,0.00030290,-0.00035735,-0.01238516,-0.0436
 7753,0.00901178,-0.00241996,-0.00026442,0.00155832,-0.00039073,-0.0000
 1532,-0.00005576,0.00056041,-0.00003841,0.00012310,0.02180409,0.000126
 08,-0.01772721,-0.02107458,-0.00336414,0.01779735,0.01490752,0.0473603
 1,-0.00000770,-0.00001753,-0.00000419,-0.00015488,-0.00004544,0.000078
 58,-0.00006798,0.00001833,-0.00004563,-0.00000639,0.00000586,-0.000010
 03,-0.00000150,-0.00000028,0.00000463,0.00000157,0.00000053,0.00000438
 ,-0.00000510,-0.00000321,0.00000168,-0.00139502,-0.00014474,0.00011325
 ,0.00006644,-0.00000202,-0.00006394,0.00000426,-0.00001692,0.00000403,
 0.00035865,-0.00000740,0.00029552,-0.00001328,0.00001467,0.00001314,0.
 00000204,-0.00001202,0.00000081,0.00000807,0.00000295,0.00000472,0.000
 00516,-0.00000635,-0.00000091,0.00000129,-0.00000671,-0.00000083,0.000
 00438,-0.00000561,-0.00000365,-0.00021858,0.00008450,-0.00000150,0.000
 05854,-0.00000391,0.00000459,0.00004522,0.00001583,-0.00000344,0.00008
 268,0.00002871,0.00002776,0.00000757,0.00000537,0.00000912,0.00000174,
 0.00000799,-0.00000289,-0.00000202,0.00000766,-0.00000190,-0.00000825,
 0.00000638,-0.00000645,-0.00000989,-0.00001310,-0.00000150,-0.00000767
 ,0.00000067,0.00000586,-0.00008663,0.00003968,-0.00012095,-0.00003407,
 -0.00005579,0.00001493,-0.00000011,-0.00000339,-0.00000463,0.00000832,
 0.00000576,0.00000961,-0.00000227,0.00000518,0.00000018,0.00004944,0.0
 0001553,0.00000445,-0.00000195,-0.00000846,-0.00001402,-0.00000988,-0.
 00000245,0.00000771,0.00001203,0.00000756,0.00000744,0.00000039,-0.000
 00185,-0.00000003,0.00000161,-0.00000452,0.00000048,0.00001153,0.00000
 943,0.00000470,-0.00000305,-0.00000306,-0.00000092,-0.00000027,-0.0000
 0330,-0.00000232,-0.00005194,-0.00003492,-0.00002308,-0.00002937,0.000
 06632,-0.00007776,0.00000343,-0.00002458,-0.00002768,0.00001074,0.0000
 4174,-0.00001983,0.00001798,-0.00001482,0.00002550,0.00000797,-0.00001
 224,0.00001696,-0.00001315,0.00000964,-0.00000660,0.00003031,-0.000013
 82,0.00001594,0.00000552,0.00003535,0.00010993,0.00003616,0.00006171,0
 .00001821,-0.00000482,-0.00002787,0.00000833,0.00000412,-0.00001409,0.
 00001069,0.00000653,-0.00001043,0.00000368,-0.00000984,-0.00000452,-0.
 00000672,-0.00282760,-0.00040080,-0.00020907,0.11764338,0.00924885,-0.
 12756179,-0.01033949,-0.00078211,0.00772660,-0.00057828,0.00004758,0.0
 0024422,-0.00053750,-0.00021734,0.00012665,0.01628512,-0.00086580,-0.0
 1301337,0.01689337,0.00355443,-0.01391686,-0.13436205,-0.01058007,0.14
 677689,-0.00000173,-0.00006159,0.00001358,-0.00001108,0.00005830,0.000
 09962,-0.00005833,0.00008562,-0.00003400,-0.00000568,-0.00000027,-0.00
 000618,0.00000302,-0.00000312,0.00000041,-0.00000008,-0.00000009,-0.00
 000015,-0.00000191,0.00000178,-0.00000104,-0.00049990,0.00063507,-0.00
 003524,0.00001367,-0.00003662,-0.00006746,-0.00000529,0.00000056,0.000
 00723,-0.00004987,-0.00024051,0.00011026,0.00002554,0.00001665,0.00001
 678,-0.00000104,-0.00002938,-0.00000103,0.00001401,-0.00000086,-0.0000
 0208,-0.00000171,-0.00002495,-0.00000813,0.00000507,-0.00001388,0.0000
 0431,0.00000349,-0.00000734,-0.00000020,-0.00012576,0.00012960,-0.0000
 0875,0.00002318,0.00000969,0.00001178,-0.00000199,0.00005749,0.0000244
 8,-0.00000421,-0.00006122,-0.00001854,0.00000352,0.00000612,-0.0000031
 7,-0.00000111,0.00001056,0.00000596,0.00000113,0.00000158,0.00000653,-
 0.00000478,0.00000424,-0.00000064,-0.00000375,-0.00000385,-0.00000314,
 0.00000074,0.00000494,0.00000278,0.00003067,-0.00013560,0.00004054,0.0
 0002507,-0.00000369,0.00004807,0.00000540,-0.00000636,0.00000037,0.000
 00600,-0.00000058,0.00000635,0.00000048,-0.00000198,-0.00000154,0.0000
 0660,0.00000005,0.00000132,-0.00001512,0.00000180,-0.00002687,-0.00000
 654,-0.00000256,0.00000149,0.00001120,-0.00000311,0.00000486,-0.000003
 39,0.00001404,-0.00001448,-0.00002556,-0.00001312,0.00001930,0.0000042
 7,0.00000405,-0.00000074,-0.00000554,0.00000129,0.00000493,0.00000856,
 -0.00000557,-0.00000458,0.00001063,-0.00000347,0.00000996,-0.00000136,
 0.00002214,-0.00003649,-0.00000087,-0.00000218,0.00001242,-0.00000626,
 -0.00000923,0.00000818,-0.00000145,-0.00000349,0.00000671,-0.00000728,
 0.00000333,-0.00000416,0.00000524,-0.00001108,0.00001062,-0.00000167,-
 0.00001258,-0.00000422,-0.00000089,-0.00000418,-0.00000485,-0.00000336
 ,-0.00000202,-0.00000584,-0.00000454,-0.00000853,0.00000026,-0.0000027
 0,-0.00000699,0.00000036,0.00000482,0.00000003,-0.00000152,0.00001614,
 0.00000222,-0.00000645,0.00033980,-0.00014394,-0.00038585,0.00020137,-
 0.00074667,0.00002287,-0.00031568,0.00292320,-0.00066742,-0.04803548,0
 .02377622,-0.01739915,0.00038846,0.00055588,0.00025865,-0.00011691,0.0
 0007814,-0.00003796,0.00009184,-0.00021211,-0.00041993,-0.00011613,-0.
 00013950,0.00013545,0.05117866,-0.00002723,0.00012555,0.00003160,0.000
 05594,-0.00002489,-0.00005194,-0.00000709,-0.00009478,0.00009349,0.000
 00431,-0.00000221,-0.00000601,-0.00001066,0.00000816,0.00000284,-0.000
 00280,0.00000310,0.00000405,0.00000755,-0.00000299,0.00000236,0.000533
 87,-0.00075593,0.00014055,-0.00004440,0.00002923,0.00002244,0.00000445
 ,0.00000972,-0.00002244,-0.00010712,0.00032363,-0.00032525,-0.00002953
 ,-0.00001767,-0.00003564,-0.00000629,0.00004357,-0.00000272,-0.0000282
 1,-0.00000740,-0.00000747,-0.00002974,0.00000808,0.00000115,-0.0000120
 2,0.00001598,-0.00001193,0.00000079,0.00000378,-0.00000574,-0.00017538
 ,-0.00006641,0.00003065,0.00002989,-0.00003633,-0.00003344,0.00004216,
 -0.00006852,0.00005117,-0.00004361,0.00004864,-0.00001028,-0.00001103,
 -0.00001969,-0.00000035,-0.00000028,-0.00001758,-0.00000765,-0.0000135
 2,0.00000207,-0.00000604,0.00000678,-0.00001519,-0.00001067,0.00001057
 ,0.00001715,0.00000726,0.00000113,-0.00000806,-0.00000094,-0.00011008,
 0.00011958,-0.00007037,-0.00000770,0.00005596,-0.00007300,0.00000248,-
 0.00000130,-0.00000261,0.00000258,0.00000601,-0.00000039,-0.00000547,0
 .00000857,0.00001024,0.00001071,0.00001207,-0.00000329,0.00001368,-0.0
 0001959,0.00000797,-0.00001140,-0.00000309,0.00001133,0.00000335,0.000
 00854,0.00000819,0.00001310,-0.00000661,0.00000686,0.00001279,0.000022
 57,-0.00001042,0.00000450,0.00000355,0.00000192,0.00000688,-0.00000183
 ,-0.00000183,-0.00000570,-0.00000225,0.00000266,0.00002239,0.00001475,
 -0.00004770,-0.00000454,-0.00008628,0.00010021,0.00003902,-0.00001457,
 -0.00000850,0.00003553,0.00000903,-0.00001512,0.00000263,0.00003786,-0
 .00004361,-0.00001363,0.00000403,-0.00001781,0.00001236,-0.00001170,-0
 .00001904,-0.00001393,0.00001763,0.00000673,-0.00000927,-0.00002172,-0
 .00000334,-0.00000250,-0.00000438,0.00000880,0.00000453,0.00002368,0.0
 0000336,-0.00000535,0.00001211,0.00000323,-0.00000324,0.00000591,0.000
 00742,-0.00002435,-0.00000095,0.00001433,-0.00058980,0.00202426,0.0009
 1202,0.00041272,0.00081788,0.00096411,0.00368634,-0.02759624,0.0126703
 0,0.02343568,-0.20005383,0.11253970,0.00060745,-0.00479406,-0.00350873
 ,0.00015995,0.00040129,0.00027423,-0.00034322,0.00012268,-0.00082248,-
 0.00009814,-0.00016312,0.00004728,-0.02783658,0.23380616,0.00004010,-0
 .00002117,-0.00005087,0.00003919,0.00001298,-0.00001712,0.00003923,0.0
 0002181,-0.00000932,0.00000213,-0.00000208,0.00001269,0.00000139,-0.00
 000076,-0.00000685,-0.00000003,-0.00000206,-0.00000446,-0.00000029,0.0
 0000058,-0.00000419,0.00032845,0.00015225,-0.00007280,-0.00001125,0.00
 000392,0.00002095,0.00001480,-0.00000538,-0.00000079,-0.00045973,-0.00
 002730,0.00009711,0.00000485,-0.00000701,0.00001950,0.00000012,-0.0000
 2690,0.00000412,0.00001210,0.00001502,0.00000610,-0.00001248,-0.000015
 58,-0.00001820,-0.00000083,-0.00000207,0.00000521,-0.00000246,-0.00000
 066,0.00000323,0.00026310,-0.00003976,-0.00002423,-0.00007734,0.000055
 89,0.00004706,-0.00002233,-0.00001560,-0.00000764,-0.00001799,-0.00001
 709,0.00000046,0.00000125,-0.00000127,0.00001529,-0.00000431,0.0000027
 5,-0.00000953,-0.00000247,0.00000099,0.00000525,-0.00000226,0.00001234
 ,0.00000986,-0.00000520,-0.00000439,0.00000551,0.00000144,-0.00000525,
 0.00000398,-0.00010562,-0.00000050,0.00015477,0.00001639,-0.00001382,0
 .00000102,-0.00000369,-0.00000032,0.00000317,-0.00000531,-0.00000392,-
 0.00000714,0.00000195,0.00000182,-0.00000142,-0.00004824,-0.00001765,-
 0.00000735,-0.00000517,0.00001284,-0.00000067,0.00000961,0.00000173,-0
 .00001278,-0.00001387,-0.00001062,-0.00000677,-0.00000128,0.00001034,-
 0.00000258,-0.00000944,-0.00000270,0.00001227,-0.00001132,-0.00000753,
 -0.00000427,0.00000081,0.00000372,0.00000342,0.00000340,0.00000283,-0.
 00000144,-0.00000111,0.00000135,0.00000281,-0.00001503,-0.00000211,0.0
 0000739,0.00001317,0.00000869,-0.00000236,-0.00000474,0.00000701,-0.00
 000918,-0.00000549,-0.00000585,0.00000152,-0.00000237,0.00000467,-0.00
 000331,-0.00001472,0.00000887,-0.00000873,-0.00000064,0.00000381,0.000
 00265,0.00000610,-0.00001664,0.00001070,0.00000745,-0.00000500,0.00000
 920,0.00000764,0.00000412,-0.00000062,0.00000094,0.00000406,-0.0000042
 3,-0.00000146,-0.00000108,-0.00000364,0.00000712,-0.00000507,-0.000002
 85,-0.00100320,0.00036746,0.00110250,0.00047155,-0.00061808,0.00060447
 ,0.00158131,-0.01293027,0.00873496,-0.01655651,0.11323518,-0.12401517,
 0.00019091,-0.00257547,-0.00112257,0.00005923,0.00000698,-0.00004643,-
 0.00022058,-0.00033025,-0.00015280,0.00001736,0.00014076,-0.00012152,0
 .02020801,-0.12958093,0.14084022,0.00000580,0.00009548,-0.00009284,0.0
 0010831,-0.00000686,-0.00012674,0.00013707,-0.00002620,-0.00006929,0.0
 0001375,-0.00001261,0.00003069,-0.00000319,0.00000379,-0.00000622,0.00
 000226,-0.00000317,-0.00000534,0.00000814,0.00000509,-0.00000929,0.000
 81756,-0.00035493,-0.00029838,-0.00004000,0.00003502,0.00011612,0.0000
 5298,-0.00001816,-0.00000505,-0.00068327,0.00063297,-0.00007531,-0.000
 04013,-0.00006884,-0.00000441,0.00001372,-0.00000375,0.00000756,-0.000
 00430,0.00000146,0.00000693,-0.00002385,-0.00002524,0.00002766,-0.0000
 0523,0.00001732,0.00000414,-0.00000690,0.00001026,0.00000679,0.0003616
 1,-0.00016715,0.00019634,-0.00014213,0.00011113,0.00008033,-0.00004279
 ,-0.00005493,0.00001409,-0.00004192,0.00000499,0.00003463,-0.00001062,
 -0.00001483,0.00002467,0.00000826,-0.00001614,-0.00000085,-0.00001076,
 0.00000688,0.00000323,-0.00000363,0.00000505,0.00001382,0.00001695,-0.
 00000442,0.00002530,0.00000195,-0.00000960,-0.00000704,-0.00015641,0.0
 0006199,0.00016301,-0.00002019,0.00002066,-0.00001127,-0.00000356,0.00
 000526,0.00000690,-0.00000765,-0.00000817,-0.00001548,0.00000171,0.000
 00082,0.00000086,-0.00009706,-0.00001978,-0.00002353,0.00000787,0.0000
 1167,0.00001321,0.00001482,0.00000694,-0.00001863,-0.00002678,-0.00000
 808,-0.00000557,0.00002212,-0.00000362,0.00003398,0.00001513,0.0000286
 8,-0.00001371,-0.00001533,-0.00001518,-0.00000837,0.00000840,0.0000063
 3,-0.00000726,-0.00000032,0.00000922,0.00000134,0.00000243,0.00002384,
 -0.00000002,0.00000015,-0.00004136,0.00004593,-0.00001726,-0.00000734,
 -0.00000837,0.00000751,-0.00000182,0.00000229,0.00000128,0.00000470,-0
 .00000871,-0.00000650,-0.00001748,0.00000548,-0.00003855,0.00000964,-0
 .00000292,-0.00000117,0.00001426,-0.00000099,-0.00000776,-0.00000017,-
 0.00000720,0.00001077,0.00000153,0.00000518,0.00001808,0.00002213,-0.0
 0000266,0.00000258,0.00002153,-0.00001031,-0.00000270,-0.00000584,-0.0
 0000031,0.00001970,-0.00001269,-0.00000234,-0.00049065,0.00139356,0.00
 092706,0.00025862,-0.00058247,-0.00070949,-0.00421594,0.00082871,0.004
 16668,-0.19169577,-0.01775052,0.11799772,0.00024800,-0.00027946,-0.000
 25939,-0.00007375,-0.00010819,-0.00014193,-0.00008608,0.00003722,0.000
 02019,0.00024816,-0.00027433,-0.00049822,0.00180943,-0.00083519,-0.000
 46781,0.22027472,0.00001010,0.00000396,-0.00000725,-0.00002064,-0.0000
 1664,0.00002159,-0.00003034,0.00001035,-0.00005808,-0.00000037,0.00000
 597,-0.00000136,-0.00000004,-0.00000093,-0.00000048,0.00000090,-0.0000
 0134,0.00000058,-0.00000291,0.00000040,-0.00000069,-0.00033459,-0.0003
 4737,-0.00048756,0.00001010,0.00000702,0.00000350,0.00000190,-0.000003
 73,0.00000118,-0.00021282,0.00001822,0.00031567,0.00000446,-0.00001003
 ,0.00001324,0.00000407,-0.00000835,-0.00000361,-0.00000183,0.00000271,
 0.00000434,0.00000472,0.00001417,-0.00001976,-0.00000170,0.00000255,-0
 .00000181,-0.00000325,0.00000068,0.00000038,0.00011405,-0.00003516,-0.
 00004476,-0.00005601,0.00002715,0.00002672,0.00002429,-0.00001144,-0.0
 0000155,0.00000861,-0.00000493,0.00000878,-0.00000200,0.00000007,0.000
 00455,-0.00000129,0.00000424,-0.00000065,-0.00000557,0.00000044,-0.000
 00037,-0.00000285,0.00000253,0.00000199,-0.00000567,-0.00000321,-0.000
 00295,-0.00000578,0.00000176,0.00000554,0.00016149,0.00012182,0.000026
 83,0.00000369,-0.00004313,0.00001360,-0.00000144,0.00000105,0.00000257
 ,0.00000032,-0.00000011,0.00000138,-0.00000148,0.00000365,-0.00000003,
 0.00000645,-0.00000739,0.00000428,0.00000756,0.00000242,0.00000164,0.0
 0000171,0.00000049,0.00000026,0.00000068,0.00000230,0.00000156,-0.0000
 0024,-0.00000270,0.00000630,0.00000023,0.00000323,-0.00000710,0.000000
 62,0.00000024,0.00000054,-0.00000043,-0.00000180,-0.00000134,-0.000001
 54,0.00000103,-0.00000064,0.00000034,-0.00000827,-0.00000870,-0.000003
 32,0.00004776,-0.00001578,-0.00000378,0.00000178,0.00000211,0.00000356
 ,-0.00000223,0.00001076,0.00000225,0.00000401,0.00000462,-0.00000208,0
 .00000416,-0.00000352,0.00000335,-0.00000976,0.00000353,0.00001032,0.0
 0000649,0.00000897,0.00001318,0.00000651,0.00002584,0.00001095,0.00000
 624,0.00000219,-0.00000098,-0.00000264,-0.00000167,-0.00000172,-0.0000
 0057,-0.00000064,-0.00000321,0.00000282,-0.00000330,-0.00000627,0.0000
 0151,-0.00000463,0.00283235,-0.00360620,-0.00560430,0.00044505,0.00037
 363,0.00023169,0.01740245,0.00137732,-0.01394536,-0.01794293,-0.044494
 92,0.01502965,0.00017553,0.00026507,-0.00023974,0.00012749,0.00003719,
 0.00015847,-0.00011589,-0.00009233,0.00008775,-0.00027706,-0.00004556,
 -0.00039356,-0.02085084,-0.00409321,0.01805048,0.02101508,0.05051223,-
 0.00002680,-0.00003527,0.00006892,-0.00010826,-0.00000238,0.00012972,-
 0.00011119,0.00005157,-0.00004791,-0.00000933,0.00000813,-0.00001768,-
 0.00000068,-0.00000043,0.00000500,-0.00000256,0.00000123,0.00000371,-0
 .00001013,-0.00000783,0.00000547,-0.00114944,-0.00008082,-0.00024438,0
 .00004201,-0.00002594,-0.00009661,-0.00001853,0.00000743,0.00000397,0.
 00000307,-0.00009169,0.00006513,0.00001720,0.00003967,0.00000310,-0.00
 000818,-0.00000935,-0.00000507,0.00000262,0.00000217,-0.00000428,0.000
 00182,0.00000097,-0.00001660,0.00000224,-0.00001435,-0.00000217,0.0000
 0603,-0.00000934,-0.00000591,-0.00038921,0.00017205,-0.00001218,0.0000
 7300,-0.00004265,-0.00000764,0.00005465,0.00003089,0.00002327,0.000036
 07,-0.00000871,-0.00002080,0.00000601,0.00001166,-0.00001253,-0.000004
 57,0.00000879,-0.00000237,0.00000342,-0.00000085,0.00000253,0.00000139
 ,-0.00000109,-0.00001558,-0.00001088,-0.00000110,-0.00001449,-0.000002
 70,0.00000556,0.00001087,0.00038118,0.00002327,-0.00012437,0.00000660,
 -0.00002699,0.00004412,0.00000238,-0.00000165,-0.00000353,0.00000897,0
 .00000623,0.00001340,-0.00000151,0.00000374,-0.00000010,0.00007763,0.0
 0001431,0.00001515,-0.00000489,-0.00000735,-0.00001359,-0.00001822,-0.
 00000541,0.00001589,0.00001643,0.00000846,0.00001104,0.00000183,-0.000
 00405,-0.00000902,-0.00000981,-0.00001100,-0.00000358,0.00001323,0.000
 01234,0.00000622,-0.00000620,-0.00000448,0.00000304,-0.00000052,-0.000
 00540,-0.00000205,0.00000656,-0.00003150,0.00000130,-0.00000708,0.0000
 5639,-0.00005005,0.00002718,0.00000128,0.00001992,-0.00000056,0.000003
 93,0.00000105,0.00000272,-0.00000534,0.00000787,-0.00000237,0.00001024
 ,-0.00000527,0.00001357,-0.00001590,0.00000064,0.00000745,-0.00000424,
 0.00000548,0.00001195,0.00001531,0.00002027,-0.00000641,0.00000525,-0.
 00001162,-0.00001543,-0.00002112,0.00000312,-0.00000391,-0.00001372,0.
 00000695,0.00000531,0.00000471,0.00000271,-0.00000690,0.00000600,-0.00
 000516,0.00267206,-0.00402437,-0.00417606,0.00038920,0.00036776,0.0002
 9050,0.01486965,0.00005450,-0.01270483,0.11730805,0.01437151,-0.135155
 55,-0.00018112,0.00078972,0.00039513,-0.00000364,0.00025820,0.00027921
 ,0.00008981,0.00004134,-0.00020993,-0.00075050,-0.00063542,-0.00018136
 ,0.01656685,0.00514546,-0.01424730,-0.13751232,-0.01515157,0.15563601,
 -0.00000843,-0.00005416,-0.00004851,-0.00008041,-0.00000711,0.00006445
 ,-0.00005450,0.00002793,-0.00004960,-0.00002080,0.00001685,-0.00002597
 ,-0.00000039,0.00000147,0.00000474,-0.00000209,0.00000205,0.00000342,-
 0.00000565,0.00000162,0.00000504,0.00107236,0.00018952,0.00127821,0.00
 001774,-0.00001073,-0.00006942,-0.00000919,-0.00006750,0.00000758,-0.0
 0252352,0.00069120,0.00033400,0.00001851,0.00000560,0.00002401,0.00000
 946,-0.00001897,-0.00000061,0.00001050,0.00000214,0.00001010,0.0000384
 1,0.00001001,-0.00000911,0.00000452,-0.00000691,-0.00000079,-0.0000013
 8,-0.00000599,-0.00000545,-0.00105923,0.00045958,-0.00000087,0.0001477
 9,0.00000403,-0.00000738,0.00007807,0.00003932,0.00000209,0.00003052,0
 .00001120,0.00002600,0.00001006,0.00001143,0.00002845,0.00001259,0.000
 02086,0.00003679,-0.00000013,0.00003204,-0.00001324,-0.00004143,-0.000
 00200,-0.00000310,-0.00000394,-0.00002850,0.00000658,-0.00000374,0.000
 00797,-0.00000064,0.00008755,-0.00013806,-0.00052203,-0.00001569,0.000
 01260,-0.00004369,-0.00000264,-0.00000638,-0.00000678,0.00000328,0.000
 00504,0.00000812,-0.00000322,-0.00000161,-0.00000083,0.00005433,0.0000
 1448,0.00000945,-0.00000303,-0.00003026,-0.00001460,-0.00000880,-0.000
 00949,0.00001171,0.00002173,0.00000679,-0.00000007,-0.00003371,0.00000
 775,-0.00001922,0.00000153,-0.00002384,0.00002189,0.00001247,0.0000107
 1,0.00000382,-0.00000178,-0.00000448,0.00000309,-0.00000045,-0.0000022
 7,-0.00000226,-0.00000332,-0.00000630,-0.00000893,0.00000587,0.0000080
 0,-0.00002659,-0.00001829,0.00000107,-0.00000932,-0.00000620,0.0000000
 7,0.00000044,-0.00000022,0.00000392,0.00000513,0.00000218,-0.00000171,
 0.00000218,0.00002555,-0.00000353,0.00000057,-0.00000385,-0.00000617,0
 .00000563,-0.00001504,-0.00000112,-0.00000151,-0.00000571,0.00000354,0
 .00000480,-0.00000889,-0.00000392,-0.00000154,-0.00000007,-0.00001346,
 0.00000627,0.00000409,0.00000269,-0.00000539,-0.00000081,0.00001132,-0
 .00000038,0.00001786,0.00021877,-0.00015252,0.00054318,-0.00038081,-0.
 00028987,-0.00005684,-0.00251880,-0.00249689,-0.21666379,-0.01968376,-
 0.11038637,0.00009876,0.00027349,0.00052870,0.00008207,0.00006509,-0.0
 0003375,0.00003967,-0.00010380,0.00022985,0.00030022,0.00014241,-0.000
 03547,-0.00504743,0.00126726,-0.00440718,-0.02660924,-0.00245158,-0.01
 207008,0.24925417,-0.00004684,0.00003721,-0.00012591,0.00000682,0.0000
 0732,-0.00004140,-0.00001828,0.00005785,-0.00010391,-0.00000752,0.0000
 0393,-0.00000385,-0.00000274,0.00000197,-0.00000029,-0.00000643,0.0000
 0073,-0.00000001,-0.00000153,-0.00000103,0.00000546,-0.00031928,0.0001
 6187,-0.00199346,-0.00000604,0.00000436,0.00006726,0.00004452,0.000006
 90,-0.00000611,0.00064034,-0.00050802,0.00094982,0.00005352,-0.0000357
 0,0.00005729,0.00001176,-0.00006426,0.00000229,-0.00002213,0.00002279,
 0.00000183,-0.00000324,-0.00009854,-0.00002016,-0.00000360,0.00000135,
 0.00000020,-0.00001802,0.00000529,-0.00000520,0.00080430,-0.00009872,0
 .00000111,-0.00028337,0.00017764,0.00014146,-0.00001884,0.00002047,0.0
 0003136,0.00001004,-0.00002552,0.00007044,-0.00000254,-0.00000047,0.00
 005883,0.00000840,0.00000587,0.00002278,-0.00002141,0.00001710,0.00000
 487,-0.00003064,0.00002366,0.00001028,0.00000384,-0.00001381,0.0000324
 4,-0.00000479,0.00000011,0.00000075,-0.00011186,0.00002008,0.00046099,
 0.00001420,-0.00002537,0.00004072,-0.00000463,-0.00001076,0.00000545,-
 0.00000443,-0.00000601,-0.00000149,-0.00000221,0.00000222,0.00000316,-
 0.00004163,-0.00002548,-0.00003101,0.00000170,0.00000700,-0.00001440,-
 0.00000066,-0.00000434,-0.00000693,-0.00002253,-0.00001336,-0.00000352
 ,0.00000039,0.00003673,0.00000651,-0.00001416,0.00000466,0.00002123,-0
 .00001275,-0.00000839,-0.00000483,0.00000174,-0.00000015,0.00000750,0.
 00000481,-0.00000228,-0.00000320,-0.00001398,0.00000932,-0.00000285,-0
 .00001796,0.00000879,-0.00002071,-0.00003838,-0.00000852,-0.00003861,-
 0.00000658,-0.00000693,0.00000331,0.00000330,-0.00000360,0.00001118,0.
 00001044,-0.00001646,0.00001125,0.00001571,0.00000617,0.00000842,-0.00
 000054,0.00000349,0.00001260,0.00000788,-0.00000546,0.00003238,0.00002
 172,0.00001254,0.00002963,0.00000837,0.00001572,-0.00000096,0.00000283
 ,0.00000103,0.00000070,0.00000450,-0.00000925,-0.00000448,0.00000997,-
 0.00000809,-0.00002081,0.00012226,0.00075385,0.00130288,-0.00003657,-0
 .00389803,-0.00332100,-0.02100812,-0.00486037,-0.01473503,-0.01876987,
 -0.04516268,-0.01068957,-0.00065165,0.00087945,-0.00066219,-0.00111023
 ,-0.00013983,-0.00099363,0.00012040,-0.00012163,0.00002678,0.00022061,
 -0.00004029,0.00006978,0.02214069,0.00076268,0.01517861,-0.00383985,0.
 00055626,-0.00131590,0.02187736,0.05237961,-0.00007536,0.00015155,-0.0
 0011939,-0.00003692,-0.00009240,-0.00019032,0.00005616,-0.00006089,-0.
 00009908,0.00000111,-0.00001043,0.00001767,-0.00000927,0.00001234,-0.0
 0000151,-0.00000993,0.00000074,-0.00000162,-0.00000004,-0.00000724,0.0
 0000285,0.00004305,-0.00106536,-0.00246947,-0.00000592,0.00005092,0.00
 016986,0.00004749,0.00000554,-0.00001519,0.00024588,0.00080110,0.00108
 705,-0.00000193,-0.00005756,0.00000725,0.00000746,-0.00000226,0.000005
 47,-0.00004323,0.00002217,-0.00000441,-0.00000366,-0.00006209,0.000023
 39,-0.00000694,0.00001622,-0.00000509,-0.00001588,0.00001369,-0.000007
 54,0.00072031,-0.00042002,0.00020120,-0.00030345,0.00016531,0.00013752
 ,-0.00001699,-0.00003230,-0.00002526,0.00005325,0.00007174,0.00012080,
 -0.00001067,-0.00000798,0.00005429,0.00000919,-0.00001377,0.00001119,-
 0.00001952,0.00001811,0.00000461,-0.00001498,0.00001449,0.00000906,0.0
 0001347,-0.00000502,0.00004333,-0.00000093,-0.00000886,-0.00000403,-0.
 00007394,0.00018640,0.00028769,-0.00001551,-0.00002020,0.00002576,-0.0
 0001086,0.00000159,-0.00000126,-0.00000924,-0.00000357,-0.00001020,-0.
 00000016,0.00000801,0.00000423,-0.00004243,-0.00000602,-0.00002803,0.0
 0002870,-0.00000168,0.00000514,0.00000426,0.00000770,-0.00001203,-0.00
 003664,-0.00000285,-0.00000089,0.00002907,-0.00000521,0.00005727,0.000
 03549,0.00003772,-0.00002771,-0.00001448,-0.00001212,-0.00000289,0.000
 00818,0.00000002,-0.00000428,-0.00001001,0.00000653,0.00000474,-0.0000
 3138,0.00000773,0.00000162,-0.00001233,-0.00002116,0.00001327,-0.00003
 253,-0.00000853,-0.00004847,-0.00000397,0.00000837,-0.00001286,0.00001
 142,-0.00000570,0.00000633,0.00001995,-0.00002228,0.00002084,-0.000009
 40,0.00001798,-0.00000360,0.00000253,0.00002242,0.00001808,0.00001243,
 0.00001790,0.00003744,0.00002215,0.00001745,0.00002912,0.00001213,0.00
 002242,-0.00000074,0.00000658,0.00001097,-0.00000022,0.00000355,-0.000
 00986,0.00000326,-0.00000184,-0.00001703,-0.00000931,-0.00025597,0.000
 86463,0.00106297,0.00006017,-0.00363149,-0.00230678,-0.01625334,-0.005
 66319,-0.01283661,-0.10998756,-0.01087384,-0.11348481,0.00018694,0.001
 07472,0.00052028,-0.00095024,-0.00029762,-0.00057160,0.00018668,-0.000
 10381,0.00028994,0.00024767,0.00005076,-0.00001926,-0.01850970,0.00143
 749,-0.01215186,0.01669670,0.00191839,0.01001575,0.12791232,0.01516382
 ,0.12986490,0.00020390,0.00005325,0.00005781,-0.00003538,-0.00001989,0
 .00005287,-0.00011819,-0.00009013,0.00002908,0.00003036,0.00000488,0.0
 0000212,0.00000633,-0.00000659,-0.00000818,0.00001242,0.00000520,-0.00
 000077,0.00001285,0.00000152,-0.00000234,-0.00002200,-0.00050586,0.000
 03393,0.00001352,0.00001044,-0.00005472,0.00003151,0.00003556,-0.00000
 895,0.00002309,0.00004459,-0.00002665,-0.00020941,-0.00003159,0.000018
 53,0.00000391,0.00005892,0.00001100,0.00005246,-0.00002631,0.00002284,
 -0.00028518,-0.00002547,-0.00027653,-0.00001436,0.00001284,-0.00000618
 ,0.00003804,0.00000464,0.00000312,-0.00020639,-0.00005387,-0.00005191,
 0.00003362,-0.00002897,0.00002023,0.00001583,-0.00005221,0.00009220,-0
 .00000442,0.00001566,-0.00004299,-0.00000436,-0.00005238,-0.00004870,-
 0.00001725,-0.00003972,-0.00008729,0.00000642,0.00000182,-0.00000984,0
 .00003169,-0.00000697,-0.00001609,0.00002193,-0.00000011,-0.00001033,-
 0.00000169,-0.00001332,0.00001288,-0.00011932,0.00016432,0.00007423,-0
 .00000456,0.00002449,-0.00002668,0.00000904,0.00000450,-0.00000334,0.0
 0001621,0.00001492,0.00000367,-0.00000929,0.00002560,0.00001066,0.0000
 4813,0.00001414,0.00001680,0.00000977,0.00000401,0.00000572,-0.0000018
 3,0.00000117,0.00000594,0.00001710,0.00001001,0.00000849,0.00000556,-0
 .00000514,-0.00000388,-0.00000412,0.00000758,-0.00000436,0.00001148,0.
 00000878,0.00000373,-0.00000099,0.00000109,-0.00000478,-0.00000195,-0.
 00000207,0.00000077,0.00005043,-0.00008742,0.00003167,-0.00007845,-0.0
 0018607,0.00038463,0.00041818,0.00012579,0.00035249,0.00023065,0.00032
 869,0.00004162,0.00000566,0.00022679,-0.00009346,-0.00021106,0.0001064
 2,-0.00012659,-0.00026456,-0.00010052,-0.00001962,-0.00002149,0.000046
 21,-0.00004152,0.00001093,0.00002992,-0.00005280,-0.00010073,-0.000016
 42,-0.00019521,-0.00008335,-0.00016923,-0.00002188,-0.00000924,-0.0000
 3740,-0.00001301,-0.00002960,-0.00003773,-0.00001453,-0.00012291,-0.00
 004152,-0.00002712,0.00040419,-0.00089964,-0.00013469,0.00009448,0.000
 49925,0.00028981,-0.00104506,0.00410751,0.00289639,0.00023054,0.000520
 63,-0.00045717,-0.05484970,0.03778547,0.02979544,-0.00022680,0.0001775
 5,-0.00069110,0.00001129,-0.00023544,0.00000294,-0.00009821,0.00008676
 ,0.00008593,0.00020969,0.00016910,0.00012892,0.00001880,-0.00009698,-0
 .00008709,0.00000341,0.00005423,-0.00003900,0.05959757,0.00011058,0.00
 001650,0.00004677,-0.00010514,-0.00005108,0.00009600,-0.00005920,-0.00
 011155,-0.00004666,0.00001637,0.00000439,0.00000705,0.00000535,-0.0000
 1063,0.00000101,0.00002180,-0.00000357,0.00000476,-0.00000099,0.000014
 82,-0.00001676,-0.00076596,-0.00112170,-0.00004804,0.00007603,0.000024
 91,-0.00008222,-0.00000469,-0.00002992,0.00000742,0.00021753,0.0004471
 5,0.00012443,-0.00010436,-0.00008107,0.00005033,0.00003380,0.00005980,
 0.00001632,0.00004757,-0.00002987,0.00002555,-0.00016353,0.00022276,-0
 .00009846,0.00000603,-0.00000106,0.00000405,0.00002363,-0.00000616,0.0
 0001099,-0.00003471,-0.00015340,-0.00005173,-0.00002747,0.00002016,0.0
 0002626,-0.00003570,-0.00014367,0.00006666,0.00006132,0.00003686,-0.00
 003470,-0.00000308,-0.00003404,-0.00005435,0.00001165,-0.00000354,-0.0
 0006927,0.00000323,-0.00001426,-0.00000465,0.00003198,-0.00001626,-0.0
 0000621,-0.00001059,-0.00000615,-0.00002344,-0.00001312,0.00000599,0.0
 0001847,-0.00003780,0.00019212,0.00015780,-0.00001873,-0.00003287,-0.0
 0000870,0.00000275,0.00000993,-0.00000050,0.00001376,0.00001081,0.0000
 0531,0.00000652,0.00001054,-0.00000551,0.00002387,0.00001988,0.0000263
 7,0.00001683,0.00000098,-0.00000477,0.00000791,0.00000110,-0.00000190,
 0.00002062,0.00000975,0.00000518,-0.00000407,-0.00001522,0.00000044,0.
 00000056,-0.00000065,-0.00000246,0.00001331,0.00000744,0.00000444,-0.0
 0000150,0.00000047,-0.00000744,-0.00000137,0.00000551,0.00000029,-0.00
 007732,-0.00006001,0.00000979,0.00016935,0.00030783,-0.00003915,-0.000
 01227,0.00021922,-0.00034035,0.00008071,-0.00026090,-0.00002674,0.0002
 1382,-0.00008413,0.00010096,0.00008440,0.00001524,-0.00001807,-0.00002
 907,0.00000764,-0.00013600,0.00005749,-0.00002760,-0.00003859,0.000073
 11,-0.00001398,0.00014497,-0.00003459,0.00005199,0.00005553,-0.0001793
 1,-0.00011150,0.00006722,-0.00003932,-0.00005084,0.00007927,-0.0000368
 5,-0.00003498,0.00002803,-0.00009170,-0.00001293,0.00001399,0.00070913
 ,0.00210228,-0.00143772,-0.00046665,0.00061088,-0.00069611,0.00596350,
 -0.02678416,-0.01344885,0.00092455,-0.00487393,0.00320233,0.03751829,-
 0.18183401,-0.11231290,0.00032511,0.00027062,0.00054818,-0.00020940,0.
 00027469,-0.00020153,-0.00004044,-0.00006743,0.00002441,0.00012763,-0.
 00136645,-0.00077054,-0.00022147,0.00019842,0.00026276,0.00025444,0.00
 024485,0.00028861,-0.04424394,0.21261717,-0.00001946,0.00006552,0.0000
 0737,0.00007602,0.00002643,0.00001226,0.00002665,-0.00001112,0.0000171
 2,0.00001141,-0.00000279,0.00000795,-0.00001430,0.00000144,-0.00000215
 ,0.00000947,-0.00000506,-0.00000723,0.,0.00000771,-0.00001027,0.000151
 69,-0.00025314,0.00017132,-0.00002467,-0.00001731,-0.00000856,0.000040
 31,0.00001225,-0.00002005,-0.00029584,0.00010617,0.00000471,-0.0001626
 3,-0.00008385,-0.00006735,0.00007648,0.00002759,-0.00001168,0.00002313
 ,-0.00002629,0.00000615,-0.00033137,-0.00000133,-0.00000439,-0.0000209
 8,0.00002921,-0.00001006,0.00001412,0.00000576,0.00000820,0.00013763,-
 0.00012710,-0.00003597,0.00002325,0.00000826,0.00002740,-0.00001561,0.
 00002396,-0.00001494,-0.00006059,-0.00002455,-0.00004020,-0.00000388,-
 0.00001024,0.00001816,0.00000096,-0.00000379,-0.00002502,-0.00000395,-
 0.00000737,0.00001786,0.00001295,0.00000035,-0.00001615,0.00000850,-0.
 00000513,-0.00000871,0.00001436,0.00000542,-0.00000899,-0.00004616,0.0
 0005314,0.00013473,-0.00000580,-0.00000410,-0.00000629,0.00000167,0.00
 001316,0.00000244,0.00000397,0.00000432,-0.00000514,0.00001277,-0.0000
 1456,0.00000790,-0.00003014,-0.00000405,0.00000859,0.00000546,-0.00000
 217,-0.00000394,0.00000326,-0.00000147,-0.00000616,-0.00000166,0.00000
 030,-0.00000323,0.00000254,-0.00000645,-0.00000296,-0.00000251,0.00000
 368,0.00000173,-0.00000118,-0.00000123,-0.00000203,0.00000058,0.000006
 08,-0.00000474,-0.00000026,0.00000356,0.00000093,0.00002324,0.00006110
 ,0.00002777,0.00052814,0.00024015,-0.00020837,-0.00015100,-0.00002783,
 -0.00001124,0.00010327,-0.00054187,0.00022735,0.00001733,-0.00003724,-
 0.00004043,-0.00003684,-0.00000120,-0.00002157,0.00013342,-0.00006239,
 0.00006415,-0.00001645,-0.00002431,0.00000365,-0.00008739,0.00008259,-
 0.00010644,-0.00023198,0.00004866,-0.00018894,-0.00002683,0.00005338,0
 .00002232,-0.00005001,0.00008663,-0.00007118,-0.00000290,0.00003594,-0
 .00001929,0.00000677,0.00001829,0.00000793,-0.00082637,-0.00024588,0.0
 0129256,0.00029660,0.00067033,0.00039550,-0.00313965,0.01083289,0.0085
 9126,-0.00031536,0.00231878,-0.00091718,0.03068725,-0.11290366,-0.1347
 7197,-0.00031415,0.00022636,-0.00002746,0.00000476,0.00001536,-0.00006
 513,0.00000817,-0.00007463,-0.00014102,-0.00003363,0.00072902,0.000470
 91,-0.00019473,0.00007677,0.00000680,0.00013371,0.00013077,-0.00005397
 ,-0.03454693,0.12927858,0.15331361,-0.00002025,0.00005539,-0.00019033,
 0.00012028,0.00002677,-0.00011522,0.00014970,0.00010360,-0.00012963,-0
 .00000191,-0.00000800,0.00002732,-0.00000486,0.00000110,-0.00000366,-0
 .00000069,-0.00000395,-0.00000736,0.00000210,0.00000541,-0.00000587,0.
 00049127,0.00015009,-0.00056804,-0.00004159,0.00001665,0.00012381,0.00
 009783,-0.00002772,0.00000643,-0.00075355,-0.00064383,0.00031998,0.000
 01494,0.00000201,0.00003856,0.00000748,-0.00007407,0.00001414,-0.00001
 075,0.00002053,0.00001628,0.00001544,-0.00020247,0.00007710,-0.0000098
 8,0.00000753,0.00001305,-0.00001603,0.00000664,0.00000790,0.00047229,-
 0.00005156,0.00012686,-0.00012461,0.00016801,0.00011308,-0.00005390,0.
 00001171,-0.00003363,-0.00004422,-0.00003065,0.00005295,0.00000045,0.0
 0001105,0.00004974,0.00002210,-0.00001925,0.00003033,-0.00000197,0.000
 01869,0.00000498,-0.00003372,0.00002224,0.00002008,0.00003071,-0.00002
 485,0.00003978,0.00000010,-0.00000323,-0.00001490,-0.00008142,0.000000
 57,0.00017173,0.00000100,0.00000267,0.00001761,-0.00000633,0.00000202,
 0.00000862,-0.00001036,-0.00001214,-0.00001353,0.00000056,-0.00001114,
 -0.00000289,-0.00009343,-0.00003017,-0.00002954,0.00000564,0.00000934,
 -0.00000223,0.00001141,0.00000173,-0.00001772,-0.00003505,-0.00001449,
 -0.00000977,0.00001101,0.00001251,0.00002663,0.00000147,0.00001776,-0.
 00000029,-0.00002013,-0.00001746,-0.00001016,0.00000502,0.00000758,-0.
 00000386,0.00000170,0.00000859,0.00000034,0.00001065,0.00004578,-0.000
 00100,-0.00001839,-0.00000541,-0.00001867,-0.00007856,-0.00004194,0.00
 001595,-0.00001670,-0.00003928,0.00002664,-0.00002240,-0.00003188,-0.0
 0000463,-0.00002288,-0.00007771,0.00003259,-0.00003511,0.00002172,0.00
 000288,0.00000438,0.00000961,-0.00000573,-0.00002403,0.00000588,-0.000
 01469,0.00000691,0.00000969,-0.00000282,0.00004230,0.00004608,-0.00000
 111,0.00000453,0.00003906,-0.00002063,0.00002350,-0.00000901,0.0000001
 3,0.00008550,0.00000787,-0.00001919,0.00026606,-0.00016011,-0.00061318
 ,0.00033927,0.00075548,-0.00084543,0.00022252,-0.00107986,0.00106641,0
 .00008907,0.00019936,-0.00028035,-0.21397889,-0.04087424,0.10477384,-0
 .00004580,-0.00003030,0.00013183,-0.00007414,0.00014983,-0.00016153,0.
 00014011,0.00041735,-0.00054793,-0.00000521,0.00016677,-0.00012885,0.0
 0049563,-0.00006434,-0.00018070,-0.00022675,-0.00000010,0.00010594,-0.
 00794106,-0.00011186,0.00595845,0.24671136,0.00006089,0.00005090,-0.00
 002201,0.00007654,0.00001468,-0.00006378,0.00003288,-0.00000493,-0.000
 00649,0.00001646,0.00000285,0.00001348,-0.00000224,-0.00000019,-0.0000
 0530,0.00000671,-0.00000335,-0.00000339,0.00000805,0.00000538,-0.00000
 664,0.00085972,-0.00037035,0.00023362,-0.00002172,0.00000902,0.0000485
 3,0.00001301,0.00000144,-0.00000002,0.00013088,-0.00012007,-0.00020362
 ,-0.00003698,-0.00002285,0.00001533,0.00000320,0.00000410,-0.00000490,
 0.00001575,-0.00000864,0.00000948,-0.00007916,-0.00000254,-0.00005716,
 -0.00000160,0.00000975,-0.00000390,-0.00000080,0.00000305,0.00000836,-
 0.00000749,0.00000195,0.00007518,-0.00000075,0.00000691,-0.00000260,-0
 .00006917,-0.00000226,0.00001086,-0.00003399,-0.00001484,0.00001026,-0
 .00000675,-0.00001452,0.00000269,-0.00000268,-0.00000719,-0.00000927,-
 0.00001408,-0.00000674,-0.00000625,0.00001210,-0.00000224,0.00000595,-
 0.00000167,0.00000111,-0.00000458,0.00000085,-0.00001197,0.00000094,-0
 .00021485,0.00015055,0.00018451,0.00003014,0.00000063,-0.00005641,0.00
 000253,0.00000347,0.00000395,-0.00000347,-0.00000223,-0.00000614,0.000
 00035,0.00000865,0.00000239,-0.00002895,-0.00001671,-0.00000276,-0.000
 00009,0.00001068,0.00001108,0.00001204,0.00000292,-0.00000772,-0.00000
 840,-0.00000386,-0.00000376,0.00000447,0.00000430,0.00000940,0.0000022
 8,0.00001209,-0.00000197,-0.00000602,-0.00000613,-0.00000382,0.0000035
 1,0.00000358,-0.00000323,0.00000285,0.00000193,-0.00000102,-0.00000399
 ,-0.00000298,0.00001311,-0.00002397,-0.00009025,0.00007232,0.00004439,
 -0.00000688,0.00001130,0.00005409,0.00008710,-0.00002751,-0.00000036,0
 .00005825,-0.00002619,-0.00004360,0.00002539,-0.00002658,-0.00010335,-
 0.00003446,-0.00001861,0.00000198,0.00001674,-0.00001594,0.00000840,-0
 .00002977,0.00000444,0.00004020,-0.00001434,0.00000874,0.00001132,-0.0
 0001639,-0.00001827,0.00001146,-0.00000381,-0.00000023,0.00000498,-0.0
 0000823,0.00000094,0.00002591,-0.00000890,0.00000617,-0.00209087,-0.00
 457937,0.00513543,-0.00071479,0.00062705,-0.00040713,-0.01985332,-0.00
 605076,0.01318174,-0.00005949,0.00002537,0.00016953,-0.04061238,-0.051
 88958,0.02397507,0.00011783,0.00000446,-0.00006040,-0.00019584,0.00007
 916,-0.00027411,0.00050181,-0.00009499,0.00032136,0.00008618,0.0002255
 1,-0.00015445,0.00029659,-0.00075039,-0.00015545,-0.00004868,-0.000053
 24,0.00003828,0.02077129,0.00421950,-0.01337967,0.04667940,0.05878023,
 -0.00004801,-0.00003001,0.00007760,-0.00008138,-0.00000767,0.00013051,
 -0.00008946,-0.00002081,-0.00000237,-0.00000565,0.00000313,-0.00001436
 ,0.00000056,0.00000009,0.00000327,-0.00000217,0.00000172,0.00000395,-0
 .00000801,-0.00000834,0.00000496,-0.00119201,0.00027580,-0.00027330,0.
 00003484,-0.00001508,-0.00009466,-0.00001121,0.00000588,-0.00000464,-0
 .00017367,-0.00031821,0.00008497,-0.00000646,0.00005983,0.00002114,-0.
 00003561,-0.00000823,-0.00000616,-0.00000072,-0.00000149,-0.00000788,0
 .00006717,-0.00007014,-0.00009507,0.00000211,-0.00001235,-0.00000117,0
 .00000557,-0.00000686,-0.00000675,-0.00033525,0.00006538,-0.00002329,0
 .00007485,-0.00003738,-0.00001893,0.00007490,-0.00000853,0.00008090,0.
 00001512,0.00000220,-0.00003975,0.00000258,0.00000482,-0.00000228,-0.0
 0000554,0.00001561,0.00000110,-0.00000346,0.00000400,0.00000102,-0.000
 00149,-0.00000196,-0.00001467,-0.00001539,-0.00000145,-0.00000956,-0.0
 0000480,0.00000108,0.00001680,0.00022921,-0.00007239,-0.00016089,-0.00
 002386,-0.00001668,0.00004343,0.00000139,-0.00000185,-0.00000334,0.000
 01013,0.00000722,0.00001164,-0.00000225,0.00001083,0.00000266,0.000059
 57,0.00002045,0.00000712,0.00000139,-0.00000865,-0.00001006,-0.0000173
 3,-0.00000444,0.00001431,0.00001756,0.00001030,0.00001076,-0.00000037,
 -0.00000236,-0.00000519,-0.00000450,-0.00000729,-0.00000131,0.00001257
 ,0.00001168,0.00000607,-0.00000386,-0.00000615,0.00000219,-0.00000244,
 -0.00000454,-0.00000140,0.00000456,-0.00004806,-0.00000055,-0.00001806
 ,0.00002806,-0.00003172,0.00008945,0.00000850,0.00003668,0.00004621,0.
 00006056,-0.00001666,0.00001075,0.00001709,-0.00000219,-0.00003574,0.0
 0002079,-0.00003206,-0.00003730,-0.00004144,-0.00002270,0.00000483,0.0
 0000350,0.00000894,0.00003233,0.00000436,0.00003748,0.00001574,0.00000
 482,-0.00002607,-0.00001991,-0.00005323,0.00000078,-0.00000706,-0.0000
 1318,0.00000822,-0.00000079,0.00000308,0.00000376,-0.00001176,-0.00000
 396,-0.00000913,0.00209462,0.00430796,-0.00397887,0.00059401,-0.000177
 54,0.00029809,0.01387375,0.00491980,-0.00975602,-0.00005792,-0.0005268
 2,0.00019895,0.10389252,0.02446171,-0.10557801,0.00012277,-0.00008731,
 -0.00041195,0.00007278,-0.00030093,0.00023147,-0.00078903,0.00056723,-
 0.00006054,-0.00000219,-0.00015557,-0.00001122,-0.00011645,-0.00009728
 ,0.00030557,-0.00005747,-0.00001565,-0.00005804,0.01952000,0.00170076,
 -0.01223561,-0.12113931,-0.03049460,0.12148138,0.00006889,-0.00006991,
 -0.00005383,-0.00008595,-0.00001370,0.00006221,-0.00004986,0.00000918,
 -0.00005964,-0.00000636,0.00002177,-0.00002510,0.00000956,-0.00000674,
 0.00000143,-0.00000040,0.00000105,-0.00000089,-0.00000438,0.00000211,0
 .00000523,0.00075298,-0.00026960,0.00115964,0.00001695,-0.00000906,-0.
 00006486,-0.00000324,-0.00005043,0.00002282,-0.00196876,-0.00154264,0.
 00072461,-0.00028762,-0.00010350,-0.00009446,0.00005440,0.00005653,-0.
 00000846,0.00002738,-0.00000025,0.00002609,-0.00004591,0.00045288,0.00
 017837,0.00001265,0.00000942,-0.00000343,0.00001355,0.00000586,-0.0000
 0284,-0.00099454,-0.00006075,0.00010572,0.00007594,-0.00006521,-0.0000
 1054,0.00006746,-0.00000501,-0.00000786,0.00002783,0.00001487,0.000023
 11,0.00001998,0.00001076,0.00001440,0.00001275,0.00001423,0.00001538,0
 .00002727,0.00005294,-0.00001344,-0.00005356,0.00000459,-0.00002068,0.
 00000603,-0.00005741,0.00002510,-0.00000230,0.00000718,-0.00001391,0.0
 0001553,-0.00002280,-0.00035709,-0.00001339,0.00000892,-0.00003132,-0.
 00000075,-0.00000006,-0.00000734,0.00000755,0.00000823,0.00000853,-0.0
 0000432,-0.00001469,-0.00001237,0.00007113,0.00002581,0.00002485,0.000
 00066,-0.00002341,-0.00001635,-0.00001174,-0.00000635,0.00001405,0.000
 01764,0.00000976,0.00000442,-0.00000902,-0.00001577,-0.00001158,0.0000
 0606,-0.00001390,0.00000577,0.00001518,0.00001292,0.00000440,-0.000003
 09,-0.00000174,-0.00000075,-0.00000277,-0.00000185,0.00000016,-0.00001
 600,-0.00001782,-0.00000471,0.00002360,0.00001427,-0.00006247,-0.00006
 348,0.00000916,-0.00005390,-0.00005699,-0.00001726,-0.00001522,0.00001
 753,-0.00001374,0.00002739,0.00005117,-0.00000168,0.00003297,0.0000448
 1,0.00003906,0.00000664,-0.00001047,-0.00001443,0.00001626,-0.00001254
 ,0.00000072,-0.00000086,-0.00000239,-0.00000270,0.00003103,-0.00001550
 ,0.00000407,-0.00000220,0.00000135,-0.00002711,0.00000750,-0.00002997,
 0.00001382,-0.00001084,-0.00004763,-0.00000413,0.00002561,-0.00020619,
 -0.00023240,-0.00003640,0.00019305,0.00153893,-0.00123471,-0.00501132,
 0.00226232,-0.00615723,0.00020771,-0.00048989,0.00034017,-0.18286582,-
 0.02372663,-0.11821060,0.00003807,0.00016761,0.00027113,-0.00024735,-0
 .00002957,-0.00030020,0.00031290,-0.00009542,-0.00002483,0.00005392,-0
 .00032024,0.00017257,-0.00040287,0.00010595,-0.00000640,0.00054215,0.0
 0029930,0.00008597,0.00420191,-0.00008833,0.00245696,-0.02604972,-0.00
 565951,-0.01661593,0.21157067,-0.00001413,-0.00018979,-0.00001472,-0.0
 0002382,0.00003155,0.00007584,0.00003075,0.00004590,0.00002269,-0.0000
 3058,0.00001484,-0.00001317,0.00001219,-0.00000732,0.00000142,-0.00000
 235,-0.00000105,0.00000484,-0.00000400,0.00000349,0.00000321,0.0002526
 8,0.00043179,0.00195843,0.00001244,-0.00002339,-0.00007565,-0.00007069
 ,-0.00004112,0.00003518,-0.00115095,-0.00104335,-0.00053683,0.00027854
 ,0.00015765,0.00017072,-0.00006628,-0.00007595,0.00000679,0.00001325,0
 .00003525,-0.00000182,0.00038732,-0.00001783,-0.00018858,0.00002377,-0
 .00005180,0.00001236,-0.00001920,-0.00002057,0.00000200,-0.00091144,0.
 00029985,-0.00000600,0.00016757,-0.00008128,-0.00012127,0.00003910,0.0
 0000399,-0.00001795,0.00000213,-0.00002598,-0.00000331,0.00002166,0.00
 003647,-0.00001307,-0.00000096,0.00002941,0.00004189,0.00001746,0.0000
 0064,-0.00001465,-0.00002430,-0.00000337,0.00002310,-0.00003008,-0.000
 00619,-0.00002165,-0.00000865,0.00000767,0.00000333,0.00015035,-0.0002
 1344,-0.00055157,0.00000519,0.00001591,-0.00002799,0.00000055,-0.00001
 142,-0.00000111,-0.00000693,-0.00000702,0.00000792,-0.00000515,-0.0000
 0534,-0.00000835,0.00002402,0.00000015,0.00000273,-0.00001801,-0.00001
 149,0.00000086,0.00000177,-0.00000753,0.00000929,0.00001109,0.00000004
 ,-0.00000276,-0.00002921,0.00001201,-0.00001427,-0.00000838,-0.0000185
 0,0.00001425,0.00000430,0.00000443,-0.00000018,-0.00000135,-0.00000372
 ,0.00000600,0.00000728,-0.00000296,-0.00000548,0.00000364,0.00000004,-
 0.00001393,-0.00005918,0.00000249,-0.00005595,-0.00001884,-0.00001459,
 -0.00002411,-0.00005462,0.00000259,-0.00005024,-0.00005043,-0.00001913
 ,0.00000472,0.00000714,-0.00001483,-0.00001047,0.00001637,0.00002141,-
 0.00005712,0.00000700,-0.00002060,0.00000273,0.00000779,-0.00004729,0.
 00002066,0.00005398,-0.00002797,0.00006229,0.00002682,0.00002793,0.000
 00293,0.00000563,-0.00003007,0.00002322,0.00002863,-0.00000480,0.00000
 950,0.00001623,0.00002809,-0.00000894,-0.00030512,0.00037914,-0.001012
 95,0.00105810,-0.00379569,0.00314192,0.01956666,0.00138285,0.01636553,
 0.00051182,0.00103931,0.00079370,-0.02463011,-0.04695663,-0.02204237,-
 0.00010261,-0.00012392,0.00000300,0.00117518,0.00004154,0.00095360,-0.
 00009768,-0.00008236,-0.00004601,-0.00010942,0.00021787,-0.00008669,0.
 00007008,-0.00003550,-0.00003019,-0.00007972,-0.00098426,-0.00000151,-
 0.01845264,-0.00481265,-0.01739813,-0.00554306,-0.00020272,-0.00391980
 ,0.02791142,0.05476913,-0.00016098,0.00003378,-0.00023082,-0.00004379,
 -0.00005171,-0.00016031,0.00005790,0.00014282,-0.00022564,-0.00002433,
 -0.00000267,0.00000074,-0.00000980,0.00001534,0.00000377,-0.00002190,0
 .00000013,0.00000117,-0.00001156,-0.00001030,0.00001362,-0.00017697,0.
 00070739,-0.00303513,-0.00000218,0.00003241,0.00017008,0.00004355,-0.0
 0003040,0.00001080,0.00033004,-0.00034780,0.00148303,0.00016057,0.0000
 7587,0.00006120,-0.00002657,-0.00012391,-0.00001040,-0.00009128,0.0000
 5544,-0.00000507,0.00040480,-0.00041071,0.00015800,-0.00000167,0.00001
 360,0.00000061,-0.00005084,0.00001025,-0.00001520,0.00094112,0.0001275
 6,0.00010687,-0.00032450,0.00022262,0.00016546,-0.00002282,0.00004617,
 -0.00005405,0.00006693,0.00001170,0.00016354,0.00000218,0.00003207,0.0
 0010696,0.00002109,0.00000952,0.00008313,-0.00002680,0.00002608,0.0000
 0471,-0.00006241,0.00003766,0.00003125,0.00000418,-0.00002313,0.000055
 58,-0.00000667,-0.00000162,-0.00000337,0.00002101,0.00001708,0.0002659
 8,0.00000980,-0.00004399,0.00007566,-0.00001656,-0.00001219,0.00000320
 ,-0.00001790,-0.00001806,-0.00000604,-0.00000075,0.00000092,0.00000280
 ,-0.00005189,-0.00002113,-0.00004141,0.00000490,0.00000548,-0.00001348
 ,-0.00000014,0.00000290,-0.00001146,-0.00003936,-0.00001511,-0.0000047
 7,0.00001472,0.00001354,0.00003486,0.00001194,0.00000922,-0.00000522,-
 0.00002018,-0.00001526,-0.00000541,0.00000241,-0.00000224,0.00000464,-
 0.00000291,0.00000177,0.00000079,-0.00004185,0.00001299,0.00000299,-0.
 00009200,-0.00001568,-0.00012673,-0.00011229,-0.00004959,-0.00010224,-
 0.00006323,-0.00001057,-0.00005778,-0.00001672,-0.00006989,0.00003198,
 0.00005879,-0.00010509,0.00005937,0.00002044,0.00006229,-0.00003369,0.
 00000367,0.00000305,0.00004314,0.00002845,-0.00001404,0.00006933,0.000
 09490,0.00001058,0.00009073,0.00005494,0.00006325,-0.00000137,0.000018
 89,0.00002215,0.00000444,0.00001437,-0.00001178,0.00000780,0.00005235,
 -0.00000947,-0.00003800,0.00036612,-0.00054255,0.00080459,-0.00066572,
 0.00326522,-0.00199138,-0.01502883,0.00125701,-0.01360383,0.00047492,-
 0.00122093,0.00061381,-0.11840995,-0.02142517,-0.14411788,0.00021089,0
 .00019355,0.00029927,-0.00091855,0.00009259,-0.00044191,0.00018866,0.0
 0001885,-0.00002500,0.00008603,-0.00037716,-0.00004409,0.00007000,0.00
 003180,0.00000079,0.00010831,0.00020089,0.00042414,-0.01676018,-0.0064
 7695,-0.01567262,0.01172244,0.00196142,0.00989260,0.13765276,0.0226121
 3,0.16473088\\-0.00001272,-0.00001294,-0.00003163,-0.00001425,-0.00000
 461,-0.00000146,-0.00001307,-0.00002882,0.00004058,0.00000269,-0.00000
 218,0.00000477,-0.00000020,-0.00000084,0.00000134,-0.00000169,-0.00000
 114,-0.00000241,-0.00000510,-0.00000325,-0.00000250,-0.00000030,0.0000
 0555,-0.00004577,-0.00000161,-0.00000325,-0.00000797,-0.00000758,0.000
 00357,0.00000583,0.00001211,0.00000325,0.00001087,0.00001603,-0.000008
 33,-0.00000448,0.00000234,0.00001040,-0.00001055,-0.00000850,-0.000010
 13,0.00000683,-0.00000058,-0.00000235,-0.00000119,-0.00000220,-0.00000
 388,-0.00000074,0.00000315,-0.00000055,0.00000035,0.00001902,-0.000015
 82,-0.00001447,-0.00001009,0.00004981,-0.00002249,-0.00002246,-0.00000
 065,0.00001536,0.00003881,0.00002398,0.00001486,0.00000953,-0.00000482
 ,0.00000544,-0.00000991,0.00000312,0.00000483,0.00000061,-0.00000762,0
 .00000207,0.00000568,0.00000374,0.00000375,0.00000479,0.00000744,0.000
 00055,-0.00000573,-0.00000106,-0.00000447,0.00000220,-0.00001115,0.000
 02855,-0.00000157,-0.00000481,-0.00000262,0.00000239,0.00000082,0.0000
 0060,0.00000081,0.00000157,0.00000255,0.00000172,-0.00000094,0.0000006
 6,0.00000142,0.00000623,-0.00000517,-0.00000018,0.00000352,0.00000012,
 -0.00000049,-0.00000188,-0.00000443,-0.00000081,-0.00000179,-0.0000000
 3,0.00000011,-0.00000003,0.00000003,0.00000070,-0.00000065,0.00000037,
 0.00000132,0.00000009,0.00000136,-0.00000035,-0.00000042,0.00000058,-0
 .00000136,0.00000303,0.00000128,-0.00000160,-0.00000660,0.00000385,0.0
 0000988,0.00000681,0.00000022,-0.00000176,0.00000200,-0.00000369,-0.00
 000362,-0.00000479,0.00000191,-0.00000043,-0.00000413,0.00000289,0.000
 00211,0.00001320,-0.00000508,-0.00000634,-0.00000463,0.00000040,-0.000
 00409,0.00000049,-0.00000162,0.00000041,-0.00000088,0.00000327,-0.0000
 0010,0.00000011,0.00000012,0.00000157,0.00000127,-0.00000060,-0.000000
 38,-0.00000073,0.00000018,0.00000141,-0.00000343,0.00000528,0.00000405
 ,0.00001241,0.00000657,-0.00000756,-0.00000641,-0.00000231,0.00000153,
 0.00000143,0.00000368,0.00000021,0.00000657,-0.00000622,0.00000089,-0.
 00000281,-0.00000428,-0.00000008,0.00000091,0.00000632,0.00000112,0.00
 000046,-0.00000110,0.00000065,0.00000108,-0.00000082,-0.00000144,-0.00
 000117,0.00000128,-0.00000156,0.00000122,-0.00000086,0.00000103,-0.000
 00051,0.00000242,0.00000137,0.00000115,0.00000066,0.00000230,-0.000003
 43,-0.00000237,-0.00000032,-0.00000124,-0.00000121,-0.00000393,-0.0000
 0053,-0.00000001\\\@
 The archive entry for this job was punched.


 IT IS BETTER TO THINK YOU ARE HALF DRY THAN TO KNOW YOU
 ARE ALL WET.  -- SNOOPY
 Job cpu time:       0 days  0 hours  0 minutes  0.4 seconds.
 Elapsed time:       0 days  0 hours  0 minutes 10.0 seconds.
 File lengths (MBytes):  RWF=      6 Int=      0 D2E=      0 Chk=      2 Scr=      1
 Normal termination of Gaussian 16 at Mon Oct 14 08:38:43 2024.
