%chk=4-tsfreq.chk
#p freq external='./xtb.sh'

Generate automatically by rxnb

0 1
Fe          -1.544840        1.233330       -0.441630
C            0.038430       -1.223660        2.756520
Pd          -0.883320       -1.210050        0.158900
C           -3.329580       -0.895770       -1.313520
H           -2.550870        3.615930       -0.627870
H           -4.191180        1.588440       -0.365230
H           -3.075490       -0.115850        1.428250
C            1.916150       -1.279140       -0.370470
O            0.025370       -0.861050        3.922410
C           -2.242310        0.000570       -1.762360
O            1.556040       -1.425320       -1.623380
C           -0.225050        0.948070       -1.925380
C           -1.182290        1.923080       -2.229870
C           -2.440660        1.333890       -2.153160
H            0.825080        1.128050       -1.941980
H           -1.027020        2.947480       -2.474410
H           -3.360920        1.849200       -2.277740
H            0.486390       -1.176040       -1.671280
C           -0.854180       -0.280990       -1.629810
C            1.352210       -0.988860        1.928190
O           -0.908900       -1.813190        2.156960
C           -1.543970        1.419220        1.594450
C           -1.425600        2.676060        1.009130
C           -2.457480        2.838010        0.090780
C           -3.297140        1.718740        0.193470
C           -2.692570        0.811210        1.076690
H           -0.912070        1.012280        2.352040
N            1.027720       -1.095380        0.532860
H            2.023970       -1.813210        2.212310
H           -4.034370       -0.288080       -0.753720
H           -3.864920       -1.360230       -2.156200
H           -0.683430        3.402570        1.232170
N           -2.760130       -1.910970       -0.426340
C           -2.257650       -3.054770       -1.197260
C           -3.707050       -2.413050        0.561540
H           -3.091990       -3.662300       -1.581110
H           -1.671560       -2.703180       -2.048570
H           -1.631930       -3.688190       -0.553400
H           -4.438210       -3.093560        0.104540
H           -3.159940       -2.944930        1.341220
H           -4.259360       -1.598950        1.026050
C            2.039330        0.340950        2.284090
C            1.964840        1.440910        1.262260
C            3.019370        2.358660        1.230770
C            2.979070        3.475360        0.422290
C            1.848750        3.730050       -0.343680
C            0.813130        2.821810       -0.328580
C            0.884130        1.651150        0.419110
H            1.568000        0.694320        3.210010
H            3.088930        0.151750        2.515740
H            3.879220        2.196150        1.865970
H            3.812420        4.162990        0.410530
H            1.783640        4.631140       -0.935010
H           -0.126090        2.965910       -0.828890
H           -0.016280        1.040830        0.292070
O            3.195460       -1.316210       -0.026330
C            5.509920       -1.035390       -0.136350
C            4.254930       -1.172150       -0.998890
C            4.341650       -2.413720       -1.885110
C            4.042230        0.096010       -1.826580
H            5.438490       -0.142000        0.477840
H            5.606690       -1.898030        0.517290
H            6.391230       -0.965780       -0.766540
H            4.475010       -3.301220       -1.270550
H            5.187910       -2.322020       -2.559950
H            3.433830       -2.524430       -2.471700
H            3.816230        0.933490       -1.168500
H            4.946270        0.319900       -2.385440
H            3.222230       -0.033360       -2.527590


