69
charge 0 multiplicity 1
Fe          -1.98378  -0.46725   0.56040
C            0.63363   0.25438  -2.80138
Pd          -0.25785   1.15035  -0.39790
C           -2.38803   2.40328   1.07891
H           -4.11037  -1.89802   1.03182
H           -4.42695   0.61809   0.33191
H           -2.63133   1.13551  -1.62299
C            2.33030   0.52031   0.29424
O            0.47028  -0.22629  -3.91116
C           -1.89594   1.13341   1.66387
O            2.00935   1.17065   1.34391
C           -0.70671  -0.70693   2.10936
C           -2.03904  -0.97466   2.44549
C           -2.77973   0.17567   2.20025
H            0.10041  -1.39215   2.22717
H           -2.45610  -1.87918   2.82113
H           -3.83324   0.25486   2.31252
H            0.70917   1.04290   1.54385
C           -0.57645   0.61841   1.66659
C            1.66928  -0.41467  -1.83757
O            0.04258   1.30028  -2.37557
C           -2.12730  -0.97598  -1.41096
C           -2.68813  -1.98565  -0.64239
C           -3.61839  -1.41585   0.22221
C           -3.74167  -0.05695  -0.11779
C           -2.77264   0.22867  -1.08575
H           -1.38438  -1.09911  -2.16856
N            1.41903   0.08480  -0.51946
H            2.65632  -0.07964  -2.19321
H           -3.39172   2.20226   0.71130
H           -2.45531   3.20210   1.83397
H           -2.45419  -3.02023  -0.70182
N           -1.54871   2.81756  -0.04622
C           -0.43531   3.66540   0.40008
C           -2.29238   3.53934  -1.06986
H           -0.79567   4.66844   0.67740
H            0.05098   3.22513   1.27362
H            0.29584   3.76929  -0.41421
H           -2.55482   4.55206  -0.73450
H           -1.68050   3.61272  -1.96979
H           -3.21639   3.02124  -1.31943
C            1.62280  -1.94859  -1.92114
C            0.90065  -2.68930  -0.82838
C            1.27062  -4.02585  -0.64189
C            0.61828  -4.84030   0.25787
C           -0.45960  -4.34113   0.97627
C           -0.82598  -3.02484   0.80244
C           -0.13467  -2.17970  -0.06001
H            1.14634  -2.19205  -2.87911
H            2.64506  -2.32962  -1.96886
H            2.08360  -4.43169  -1.22744
H            0.93217  -5.86617   0.38498
H           -1.00618  -4.97893   1.65499
H           -1.68506  -2.58186   1.26468
H           -0.55639  -1.17211  -0.06506
O            3.60016   0.20894   0.00856
C            5.92778   0.05562   0.15987
C            4.68716   0.60350   0.86767
C            4.76255   2.12739   0.97097
C            4.53532  -0.03866   2.24714
H            5.85011  -1.02374   0.05987
H            6.01115   0.48779  -0.83392
H            6.81987   0.29829   0.72959
H            4.82088   2.56467  -0.02387
H            5.64617   2.41375   1.53450
H            3.88098   2.51298   1.47615
H            4.42408  -1.11597   2.14331
H            5.41629   0.17108   2.84734
H            3.65876   0.35666   2.75311