%chk=rp_0_1.chk
%mem=300GB
%nprocshared=68
#p opt=(calcfc,ts,noeigen,maxstep=5) freq b3lyp def2svp em=gd3bj  

Freeze index  [11, 18]  [18, 19]  [3, 19]  [3, 33]  [3, 28]  [3, 21] // Local index  3  18  20  33  (20,)  [11, 18]  [18, 19]

0 1
Fe          -3.59017   4.39686   0.98275
C           -3.54481  -1.92262  -1.52963
Pd          -4.09048   0.70203  -0.60973
C           -6.13477   2.46491   0.42603
H           -4.47831   6.62678   2.49713
H           -5.02746   4.13622   3.41059
H           -2.82740   2.59780   3.00778
C           -1.28740   0.59916   0.00006
O           -3.65596  -2.95207  -2.16272
C           -5.02482   3.36600  -0.00256
O           -1.47420   1.75104   0.50964
C           -2.98367   3.88016  -0.93891
C           -3.79386   5.05087  -0.97867
C           -5.07073   4.72557  -0.42902
H           -1.94052   3.81826  -1.24266
H           -3.48671   6.02997  -1.34300
H           -5.91949   5.40034  -0.32568
H           -2.72669   2.09571   0.26625
C           -3.72267   2.80692  -0.32559
C           -2.18951  -1.49954  -0.92279
O           -4.56546  -1.14225  -1.23977
C           -1.91463   4.47235   2.17903
C           -2.45118   5.78493   2.01029
C           -3.79147   5.78223   2.50437
C           -4.08107   4.46747   2.98594
C           -2.92130   3.65885   2.78501
H           -0.93182   4.13037   1.86380
N           -2.26270  -0.08451  -0.55808
H           -1.40883  -1.65938  -1.68383
H           -5.96340   2.07220   1.43849
H           -7.11904   2.96709   0.41345
H           -1.94879   6.61682   1.56258
N           -6.13622   1.30883  -0.48193
C           -6.66066   1.49930  -1.78451
C           -6.42730   0.04727   0.12554
H           -7.46094   0.76766  -2.06972
H           -7.01758   2.55530  -1.91505
H           -5.85392   1.37840  -2.55317
H           -7.38828   0.12809   0.67862
H           -6.40085  -0.80197  -0.55934
H           -5.65178  -0.11551   0.93049
C           -1.87966  -2.38903   0.27018
C           -1.35736  -3.66783  -0.24671
C           -2.17635  -4.73681  -0.54949
C           -1.66334  -5.93122  -1.03753
C           -0.30830  -6.09693  -1.23981
C            0.50867  -5.02636  -0.93619
C            0.00449  -3.82521  -0.44662
H           -1.11323  -1.90948   0.95068
H           -2.76725  -2.54549   0.92161
H           -3.25413  -4.59744  -0.38615
H           -2.34414  -6.75125  -1.26448
H            0.09732  -7.03185  -1.62242
H            1.56371  -5.12768  -1.08370
H            0.66958  -2.98180  -0.20957
O            0.00000   0.00000   0.00000
C            2.36872  -0.00000  -0.00000
C            1.12642   0.84102   0.00000
C            1.00441   1.75909  -1.16378
C            1.12229   1.64378   1.29321
H            2.10051  -0.97094   0.50206
H            2.78672  -0.18178  -0.99856
H            3.15081   0.44913   0.66874
H            1.45006   1.40106  -2.09795
H            1.37178   2.79703  -0.92930
H           -0.09254   1.91007  -1.39223
H            0.27333   1.32712   1.93948
H            2.04218   1.47692   1.89145
H            1.10345   2.72534   1.05436



