69
charge 0 multiplicity 1
Fe          -1.54484   1.23333  -0.44163
C            0.03843  -1.22366   2.75652
Pd          -0.88332  -1.21005   0.15890
C           -3.32958  -0.89577  -1.31352
H           -2.55087   3.61593  -0.62787
H           -4.19118   1.58844  -0.36523
H           -3.07549  -0.11585   1.42825
C            1.91615  -1.27914  -0.37047
O            0.02537  -0.86105   3.92241
C           -2.24231   0.00057  -1.76236
O            1.55604  -1.42532  -1.62338
C           -0.22505   0.94807  -1.92538
C           -1.18229   1.92308  -2.22987
C           -2.44066   1.33389  -2.15316
H            0.82508   1.12805  -1.94198
H           -1.02702   2.94748  -2.47441
H           -3.36092   1.84920  -2.27774
H            0.48639  -1.17604  -1.67128
C           -0.85418  -0.28099  -1.62981
C            1.35221  -0.98886   1.92819
O           -0.90890  -1.81319   2.15696
C           -1.54397   1.41922   1.59445
C           -1.42560   2.67606   1.00913
C           -2.45748   2.83801   0.09078
C           -3.29714   1.71874   0.19347
C           -2.69257   0.81121   1.07669
H           -0.91207   1.01228   2.35204
N            1.02772  -1.09538   0.53286
H            2.02397  -1.81321   2.21231
H           -4.03437  -0.28808  -0.75372
H           -3.86492  -1.36023  -2.15620
H           -0.68343   3.40257   1.23217
N           -2.76013  -1.91097  -0.42634
C           -2.25765  -3.05477  -1.19726
C           -3.70705  -2.41305   0.56154
H           -3.09199  -3.66230  -1.58111
H           -1.67156  -2.70318  -2.04857
H           -1.63193  -3.68819  -0.55340
H           -4.43821  -3.09356   0.10454
H           -3.15994  -2.94493   1.34122
H           -4.25936  -1.59895   1.02605
C            2.03933   0.34095   2.28409
C            1.96484   1.44091   1.26226
C            3.01937   2.35866   1.23077
C            2.97907   3.47536   0.42229
C            1.84875   3.73005  -0.34368
C            0.81313   2.82181  -0.32858
C            0.88413   1.65115   0.41911
H            1.56800   0.69432   3.21001
H            3.08893   0.15175   2.51574
H            3.87922   2.19615   1.86597
H            3.81242   4.16299   0.41053
H            1.78364   4.63114  -0.93501
H           -0.12609   2.96591  -0.82889
H           -0.01628   1.04083   0.29207
O            3.19546  -1.31621  -0.02633
C            5.50992  -1.03539  -0.13635
C            4.25493  -1.17215  -0.99889
C            4.34165  -2.41372  -1.88511
C            4.04223   0.09601  -1.82658
H            5.43849  -0.14200   0.47784
H            5.60669  -1.89803   0.51729
H            6.39123  -0.96578  -0.76654
H            4.47501  -3.30122  -1.27055
H            5.18791  -2.32202  -2.55995
H            3.43383  -2.52443  -2.47170
H            3.81623   0.93349  -1.16850
H            4.94627   0.31990  -2.38544
H            3.22223  -0.03336  -2.52759