%chk=1-modopt.chk
#p opt=(modredundant,nomicro) external='./xtb.sh'

Generate automatically by rxnb

0 1
Fe          -3.952980        3.653540        2.010070
C           -2.857060       -0.893240       -2.908370
Pd          -3.855060        1.065590       -1.106710
C           -5.494480        3.441050       -0.819590
H           -4.698570        6.055820        3.321210
H           -3.835970        6.191630        0.757010
H           -1.734280        4.490960        0.495310
C           -1.287400        0.599160        0.000060
O           -2.725690       -1.636740       -3.858000
C           -5.202170        2.973660        0.569210
O           -1.521760        1.658580        0.670750
C           -4.269200        1.603590        2.171340
C           -5.346850        2.314840        2.771840
C           -5.947140        3.140730        1.771880
H           -3.591690        0.924240        2.686010
H           -5.648330        2.259440        3.816770
H           -6.799490        3.804290        1.912110
H           -2.806790        1.939480        0.536290
C           -4.148730        1.996280        0.791380
C           -2.005730       -1.104540       -1.631760
O           -3.734540        0.086200       -2.864700
C           -2.283660        4.702510        1.410410
C           -3.395890        5.586780        1.548380
C           -3.851440        5.515760        2.901930
C           -3.016210        4.590610        3.599480
C           -2.050720        4.084190        2.677680
H           -1.295200        3.329540        2.881540
N           -2.217150        0.015820       -0.724420
H           -0.950370       -1.140250       -1.943550
H           -4.688300        4.087250       -1.194970
H           -6.444450        4.000990       -0.889820
C           -3.161050        4.181800        5.056290
H           -2.653410        3.211860        5.213110
H           -2.639680        4.958630        5.674930
H           -4.232000        4.130070        5.325280
N           -5.529540        2.258210       -1.691690
C           -4.909270        2.361720       -2.961560
C           -6.740620        1.498540       -1.653050
H           -5.571580        2.080260       -3.821320
H           -4.477590        3.387460       -3.106780
H           -4.026360        1.674030       -3.023510
H           -7.597050        2.177190       -1.857720
H           -6.739350        0.611630       -2.288950
H           -6.889060        1.172810       -0.581730
C           -2.362610       -2.448660       -1.018260
C           -3.029490       -3.372870       -1.933840
C           -1.136660       -2.822240       -0.321380
H           -2.626350       -2.822270       -2.732580
H           -2.697320       -4.361420       -2.240720
H           -4.123710       -3.287510       -1.986950
H           -3.098900       -2.078360       -0.338330
H           -0.225810       -3.083000       -0.828750
H           -0.951290       -2.113280        0.509360
H           -1.411190       -3.768000        0.089600
O            0.000000        0.000000        0.000000
C            2.368720       -0.000000        0.000000
C            1.126420        0.841020        0.000000
C            1.004410        1.759090       -1.163780
C            1.122290        1.643780        1.293210
H            2.100510       -0.970940        0.502060
H            2.786720       -0.181780       -0.998560
H            3.150810        0.449130        0.668740
H            1.450060        1.401060       -2.097950
H            1.371780        2.797030       -0.929300
H           -0.092540        1.910070       -1.392230
H            0.273330        1.327120        1.939480
H            2.042180        1.476920        1.891450
H            1.103450        2.725340        1.054360

B 11 18 F
B 18 19 F
B 3 19 F
B 3 33 F
B 3 28 F
B 3 21 F

