%chk=3-tsopt.chk
#p opt(ts,calcfc,noeigen,nomicro) external='./xtb.sh'

Generate automatically by rxnb

0 1
Fe          -2.019290        0.410480        0.050130
C            2.471550       -1.217570       -1.596720
Pd           0.266210       -1.245220        0.104230
C           -2.335110       -2.344340        0.313460
H           -3.992830       -0.525370       -1.438460
H           -1.473760       -1.120160       -2.176790
H           -0.004690        1.013570       -1.793000
C            1.376200        1.354680        0.273700
O            3.214200       -1.246510       -2.561510
C           -2.264160       -1.119100        1.137300
O            0.141640        1.635890        0.483010
C           -1.603330        0.863900        1.962660
C           -2.955550        0.949290        1.685680
C           -3.387640       -0.292830        1.202600
H           -1.033350        1.709760        2.271170
H           -3.534070        1.830640        1.808820
H           -4.355390       -0.536380        0.832810
H           -0.609870        0.567810        0.689700
C           -1.072370       -0.400990        1.536240
C            2.908710       -0.499530       -0.273590
O            1.315730       -1.749750       -1.541440
C           -1.049730        0.950030       -1.592750
C           -1.831630       -0.194260       -1.784990
C           -3.162130        0.141110       -1.466960
C           -3.207920        1.490560       -1.073750
C           -1.887300        1.963570       -1.098340
H           -1.579710        2.863800       -0.623970
N            1.702340        0.118780        0.193410
H            3.713050        0.222260       -0.451920
H           -2.776420       -2.012720       -0.626390
H           -2.982510       -3.115840        0.760240
C           -4.371390        2.226450       -0.522350
H           -5.045930        2.751060       -1.238000
H           -4.974930        1.522720        0.041530
H           -3.973740        2.980090        0.150570
N           -0.994050       -2.867820        0.069370
C           -0.959800       -3.720900       -1.109900
C           -0.530830       -3.631480        1.226430
H           -1.556080       -4.631100       -0.958130
H           -1.354600       -3.189030       -1.973390
H            0.069150       -4.000260       -1.333420
H           -1.132550       -4.543240        1.361270
H            0.513060       -3.925980        1.086060
H           -0.617520       -3.022910        2.127580
C            3.343880       -1.591440        0.725990
C            4.659980       -2.219490        0.281840
C            3.447910       -1.025090        2.142600
H            5.466940       -1.493540        0.362930
H            4.905880       -3.078660        0.904030
H            4.599070       -2.541150       -0.755260
H            2.548360       -2.369860        0.728190
H            4.161450       -0.203570        2.169350
H            2.476360       -0.652390        2.472040
H            3.780450       -1.796590        2.835080
O            2.323290        2.297630        0.161090
C            3.310820        4.419360        0.080350
C            1.966120        3.690550        0.059400
C            1.247730        3.926850       -1.269190
C            1.098940        4.142680        1.236560
H            3.813660        4.247300        1.028180
H            3.944710        4.043930       -0.718160
H            3.160110        5.486200       -0.055590
H            1.884470        3.616200       -2.094390
H            1.011570        4.981110       -1.383180
H            0.330140        3.347810       -1.298020
H            1.573670        3.863170        2.174310
H            0.985890        5.222990        1.206550
H            0.121190        3.669240        1.183660


