%chk=4-tsfreq.chk
#p freq external='./xtb.sh'

Generate automatically by rxnb

0 1
Fe           1.873950        0.876410       -0.079510
C           -2.086680       -1.637480        1.544200
Pd           0.161870       -1.122640       -0.098470
C            3.054420       -1.574830       -0.202380
H            4.044570        0.674140        1.442650
H            1.787670       -0.534500        2.312920
H           -0.221970        1.087630        1.825800
C           -1.793720        0.973100       -0.344590
O           -2.900940       -1.830600        2.430010
C            2.631480       -0.527160       -1.149750
O           -0.819380        1.758500       -0.469180
C            1.221650        1.026340       -1.918860
C            2.459960        1.631720       -1.764870
C            3.352690        0.666180       -1.268660
H            0.345620        1.579270       -2.160510
H            2.629170        2.669220       -1.902350
H            4.354120        0.802500       -0.936860
H            0.434380        0.634570       -0.129330
C            1.282780       -0.354280       -1.561420
C           -2.548780       -1.294840        0.089440
O           -0.821130       -1.695460        1.672600
C            0.793750        1.260090        1.544290
C            1.878790        0.405460        1.822080
C            3.051470        1.058650        1.427370
C            2.700130        2.315000        0.901250
C            1.309430        2.420690        0.936350
H            0.742120        3.131500        0.385770
N           -1.601950       -0.311170       -0.373850
H           -3.572120       -0.905860        0.076740
H            3.428570       -1.023660        0.657120
H            3.843980       -2.237170       -0.588640
C            3.599320        3.285250        0.274720
H            4.119370        3.874710        1.027780
H            4.335040        2.771850       -0.330440
H            3.011170        3.955920       -0.340570
N            1.871380       -2.342360        0.188360
C            2.054280       -3.002890        1.476380
C            1.587320       -3.367760       -0.817180
H            2.690630       -3.892560        1.381850
H            2.530260       -2.330420        2.186830
H            1.084070       -3.297980        1.876830
H            2.398100       -4.112010       -0.856410
H            0.659590       -3.888190       -0.564950
H            1.490400       -2.908380       -1.801330
C           -2.442710       -2.589330       -0.744230
C           -3.615690       -3.507250       -0.418100
C           -2.366810       -2.285490       -2.242160
H           -4.544340       -3.074610       -0.785770
H           -3.483380       -4.484020       -0.881580
H           -3.704830       -3.637000        0.658320
H           -1.501410       -3.100930       -0.451810
H           -3.238730       -1.714270       -2.554910
H           -1.469570       -1.698860       -2.463400
H           -2.334370       -3.211840       -2.814100
O           -3.064780        1.398260       -0.195580
C           -4.852260        2.869780        0.152380
C           -3.335800        2.801480       -0.035370
C           -2.621850        3.335910        1.208610
C           -2.914710        3.579780       -1.283810
H           -5.353150        2.463000       -0.722080
H           -5.142260        2.281550        1.018760
H           -5.165430        3.899690        0.296960
H           -2.891030        2.733060        2.073280
H           -2.916380        4.365860        1.389640
H           -1.545540        3.288220        1.066940
H           -3.413130        3.172330       -2.160490
H           -3.187120        4.625800       -1.174050
H           -1.839510        3.496940       -1.420130


