68
charge 0 multiplicity 1
Fe          -2.01929   0.41048   0.05013
C            2.47155  -1.21757  -1.59672
Pd           0.26621  -1.24522   0.10423
C           -2.33511  -2.34434   0.31346
H           -3.99283  -0.52537  -1.43846
H           -1.47376  -1.12016  -2.17679
H           -0.00469   1.01357  -1.79300
C            1.37620   1.35468   0.27370
O            3.21420  -1.24651  -2.56151
C           -2.26416  -1.11910   1.13730
O            0.14164   1.63589   0.48301
C           -1.60333   0.86390   1.96266
C           -2.95555   0.94929   1.68568
C           -3.38764  -0.29283   1.20260
H           -1.03335   1.70976   2.27117
H           -3.53407   1.83064   1.80882
H           -4.35539  -0.53638   0.83281
H           -0.60987   0.56781   0.68970
C           -1.07237  -0.40099   1.53624
C            2.90871  -0.49953  -0.27359
O            1.31573  -1.74975  -1.54144
C           -1.04973   0.95003  -1.59275
C           -1.83163  -0.19426  -1.78499
C           -3.16213   0.14111  -1.46696
C           -3.20792   1.49056  -1.07375
C           -1.88730   1.96357  -1.09834
H           -1.57971   2.86380  -0.62397
N            1.70234   0.11878   0.19341
H            3.71305   0.22226  -0.45192
H           -2.77642  -2.01272  -0.62639
H           -2.98251  -3.11584   0.76024
C           -4.37139   2.22645  -0.52235
H           -5.04593   2.75106  -1.23800
H           -4.97493   1.52272   0.04153
H           -3.97374   2.98009   0.15057
N           -0.99405  -2.86782   0.06937
C           -0.95980  -3.72090  -1.10990
C           -0.53083  -3.63148   1.22643
H           -1.55608  -4.63110  -0.95813
H           -1.35460  -3.18903  -1.97339
H            0.06915  -4.00026  -1.33342
H           -1.13255  -4.54324   1.36127
H            0.51306  -3.92598   1.08606
H           -0.61752  -3.02291   2.12758
C            3.34388  -1.59144   0.72599
C            4.65998  -2.21949   0.28184
C            3.44791  -1.02509   2.14260
H            5.46694  -1.49354   0.36293
H            4.90588  -3.07866   0.90403
H            4.59907  -2.54115  -0.75526
H            2.54836  -2.36986   0.72819
H            4.16145  -0.20357   2.16935
H            2.47636  -0.65239   2.47204
H            3.78045  -1.79659   2.83508
O            2.32329   2.29763   0.16109
C            3.31082   4.41936   0.08035
C            1.96612   3.69055   0.05940
C            1.24773   3.92685  -1.26919
C            1.09894   4.14268   1.23656
H            3.81366   4.24730   1.02818
H            3.94471   4.04393  -0.71816
H            3.16011   5.48620  -0.05559
H            1.88447   3.61620  -2.09439
H            1.01157   4.98111  -1.38318
H            0.33014   3.34781  -1.29802
H            1.57367   3.86317   2.17431
H            0.98589   5.22299   1.20655
H            0.12119   3.66924   1.18366