68
charge 0 multiplicity 1
Fe          -3.95298   3.65354   2.01007
C           -2.85706  -0.89324  -2.90837
Pd          -3.85506   1.06559  -1.10671
C           -5.49448   3.44105  -0.81959
H           -4.69857   6.05582   3.32121
H           -3.83597   6.19163   0.75701
H           -1.73428   4.49096   0.49531
C           -1.28740   0.59916   0.00006
O           -2.72569  -1.63674  -3.85800
C           -5.20217   2.97366   0.56921
O           -1.52176   1.65858   0.67075
C           -4.26920   1.60359   2.17134
C           -5.34685   2.31484   2.77184
C           -5.94714   3.14073   1.77188
H           -3.59169   0.92424   2.68601
H           -5.64833   2.25944   3.81677
H           -6.79949   3.80429   1.91211
H           -2.80679   1.93948   0.53629
C           -4.14873   1.99628   0.79138
C           -2.00573  -1.10454  -1.63176
O           -3.73454   0.08620  -2.86470
C           -2.28366   4.70251   1.41041
C           -3.39589   5.58678   1.54838
C           -3.85144   5.51576   2.90193
C           -3.01621   4.59061   3.59948
C           -2.05072   4.08419   2.67768
H           -1.29520   3.32954   2.88154
N           -2.21715   0.01582  -0.72442
H           -0.95037  -1.14025  -1.94355
H           -4.68830   4.08725  -1.19497
H           -6.44445   4.00099  -0.88982
C           -3.16105   4.18180   5.05629
H           -2.65341   3.21186   5.21311
H           -2.63968   4.95863   5.67493
H           -4.23200   4.13007   5.32528
N           -5.52954   2.25821  -1.69169
C           -4.90927   2.36172  -2.96156
C           -6.74062   1.49854  -1.65305
H           -5.57158   2.08026  -3.82132
H           -4.47759   3.38746  -3.10678
H           -4.02636   1.67403  -3.02351
H           -7.59705   2.17719  -1.85772
H           -6.73935   0.61163  -2.28895
H           -6.88906   1.17281  -0.58173
C           -2.36261  -2.44866  -1.01826
C           -3.02949  -3.37287  -1.93384
C           -1.13666  -2.82224  -0.32138
H           -2.62635  -2.82227  -2.73258
H           -2.69732  -4.36142  -2.24072
H           -4.12371  -3.28751  -1.98695
H           -3.09890  -2.07836  -0.33833
H           -0.22581  -3.08300  -0.82875
H           -0.95129  -2.11328   0.50936
H           -1.41119  -3.76800   0.08960
O            0.00000   0.00000   0.00000
C            2.36872  -0.00000   0.00000
C            1.12642   0.84102   0.00000
C            1.00441   1.75909  -1.16378
C            1.12229   1.64378   1.29321
H            2.10051  -0.97094   0.50206
H            2.78672  -0.18178  -0.99856
H            3.15081   0.44913   0.66874
H            1.45006   1.40106  -2.09795
H            1.37178   2.79703  -0.92930
H           -0.09254   1.91007  -1.39223
H            0.27333   1.32712   1.93948
H            2.04218   1.47692   1.89145
H            1.10345   2.72534   1.05436