      -----------------------------------------------------------      
     |                   =====================                   |     
     |                           x T B                           |     
     |                   =====================                   |     
     |                         S. Grimme                         |     
     |          Mulliken Center for Theoretical Chemistry        |     
     |                    University of Bonn                     |     
      -----------------------------------------------------------      

   * xtb version 6.6.1 (8d0f1dd) compiled by 'stahn@M-Bot' on 2023-08-01

   xtb is free software: you can redistribute it and/or modify it under
   the terms of the GNU Lesser General Public License as published by
   the Free Software Foundation, either version 3 of the License, or
   (at your option) any later version.
   
   xtb is distributed in the hope that it will be useful,
   but WITHOUT ANY WARRANTY; without even the implied warranty of
   MERCHANTABILITY or FITNESS FOR A PARTICULAR PURPOSE.  See the
   GNU Lesser General Public License for more details.
   
   Cite this work as:
   * C. Bannwarth, E. Caldeweyher, S. Ehlert, A. Hansen, P. Pracht,
     J. Seibert, S. Spicher, S. Grimme, WIREs Comput. Mol. Sci., 2020, 11,
     e01493. DOI: 10.1002/wcms.1493
   
   for GFN2-xTB:
   * C. Bannwarth, S. Ehlert and S. Grimme., J. Chem. Theory Comput., 2019,
     15, 1652-1671. DOI: 10.1021/acs.jctc.8b01176
   for GFN1-xTB:
   * S. Grimme, C. Bannwarth, P. Shushkov, J. Chem. Theory Comput., 2017,
     13, 1989-2009. DOI: 10.1021/acs.jctc.7b00118
   for GFN0-xTB:
   * P. Pracht, E. Caldeweyher, S. Ehlert, S. Grimme, ChemRxiv, 2019, preprint.
     DOI: 10.26434/chemrxiv.8326202.v1
   for GFN-FF:
   * S. Spicher and S. Grimme, Angew. Chem. Int. Ed., 2020, 59, 15665-15673.
     DOI: 10.1002/anie.202004239
   
   for ALPB and GBSA implicit solvation:
   * S. Ehlert, M. Stahn, S. Spicher, S. Grimme, J. Chem. Theory Comput.,
     2021, 17, 4250-4261. DOI: 10.1021/acs.jctc.1c00471
   
   for DFT-D4:
   * E. Caldeweyher, C. Bannwarth and S. Grimme, J. Chem. Phys., 2017,
     147, 034112. DOI: 10.1063/1.4993215
   * E. Caldeweyher, S. Ehlert, A. Hansen, H. Neugebauer, S. Spicher,
     C. Bannwarth and S. Grimme, J. Chem. Phys., 2019, 150, 154122.
     DOI: 10.1063/1.5090222
   * E. Caldeweyher, J.-M. Mewes, S. Ehlert and S. Grimme, Phys. Chem. Chem. Phys.
     2020, 22, 8499-8512. DOI: 10.1039/D0CP00502A
   
   for sTDA-xTB:
   * S. Grimme and C. Bannwarth, J. Chem. Phys., 2016, 145, 054103.
     DOI: 10.1063/1.4959605
   
   in the mass-spec context:
   * V. Asgeirsson, C. Bauer and S. Grimme, Chem. Sci., 2017, 8, 4879.
     DOI: 10.1039/c7sc00601b
   * J. Koopman and S. Grimme, ACS Omega 2019, 4, 12, 15120-15133.
     DOI: 10.1021/acsomega.9b02011
   
   for metadynamics refer to:
   * S. Grimme, J. Chem. Theory Comput., 2019, 155, 2847-2862
     DOI: 10.1021/acs.jctc.9b00143
   
   for SPH calculations refer to:
   * S. Spicher and S. Grimme, J. Chem. Theory Comput., 2021, 17, 1701-1714
     DOI: 10.1021/acs.jctc.0c01306
   
   with help from (in alphabetical order)
   P. Atkinson, C. Bannwarth, F. Bohle, G. Brandenburg, E. Caldeweyher
   M. Checinski, S. Dohm, S. Ehlert, S. Ehrlich, I. Gerasimov, C. Hölzer
   A. Katbashev, J. Koopman, C. Lavigne, S. Lehtola, F. März, M. Müller,
   F. Musil, H. Neugebauer, J. Pisarek, C. Plett, P. Pracht, F. Pultar,
   J. Seibert, P. Shushkov, S. Spicher, M. Stahn, M. Steiner, T. Strunk,
   J. Stückrath, T. Rose, and J. Unsleber
   
 * started run on 2024/10/14 at 11:11:52.360     

           -------------------------------------------------
          |                Calculation Setup                |
           -------------------------------------------------

          program call               : xtb tsopted.xyz --gfn 2 --charge 0
          coordinate file            : tsopted.xyz
          omp threads                :                    12

   ID    Z sym.   atoms
    1   26 Fe     1
    2    6 C      2, 4, 8, 10, 12-14, 19, 20, 22-26, 32, 37, 38, 45-47, 56-59
    3   46 Pd     3
    4    1 H      5-7, 15-18, 27, 29-31, 33-35, 39-44, 48-54, 60-68
    5    8 O      9, 11, 21, 55
    6    7 N      28, 36

molecular fragmentation (1/2 indicates fragments):
11111111111111111111111111111111111111112111111111111122222222222222
# atoms in fragment 1/2:    53    15
 fragment masses (1/2) :      504.69       74.12
CMA distance (Bohr)    :  10.555
constraining FC (au)   :  0.0500

           -------------------------------------------------
          |                 G F N 2 - x T B                 |
           -------------------------------------------------

        Reference                      10.1021/acs.jctc.8b01176
      * Hamiltonian:
        H0-scaling (s, p, d)           1.850000    2.230000    2.230000
        zeta-weighting                 0.500000
      * Dispersion:
        s8                             2.700000
        a1                             0.520000
        a2                             5.000000
        s9                             5.000000
      * Repulsion:
        kExp                           1.500000    1.000000
        rExp                           1.000000
      * Coulomb:
        alpha                          2.000000
        third order                    shell-resolved
        anisotropic                    true
        a3                             3.000000
        a5                             4.000000
        cn-shift                       1.200000
        cn-exp                         4.000000
        max-rad                        5.000000

q/qsh data taken from xtbrestart
CAMM data taken from xtbrestart

          ...................................................
          :                      SETUP                      :
          :.................................................:
          :  # basis functions                 176          :
          :  # atomic orbitals                 174          :
          :  # shells                          102          :
          :  # electrons                       184          :
          :  max. iterations                   250          :
          :  Hamiltonian                  GFN2-xTB          :
          :  restarted?                       true          :
          :  GBSA solvation                  false          :
          :  PC potential                    false          :
          :  electronic temp.          300.0000000     K    :
          :  accuracy                    1.0000000          :
          :  -> integral cutoff          0.2500000E+02      :
          :  -> integral neglect         0.1000000E-07      :
          :  -> SCF convergence          0.1000000E-05 Eh   :
          :  -> wf. convergence          0.1000000E-03 e    :
          :  Broyden damping             0.4000000          :
          ...................................................

 iter      E             dE          RMSdq      gap      omega  full diag
   1   -101.0409679 -0.101041E+03  0.687E-01    1.55       0.0  T
   2   -101.0594235 -0.184556E-01  0.867E-01    0.91       1.0  T
   3   -101.0764565 -0.170330E-01  0.386E-01    1.11       1.0  T
   4   -101.0773915 -0.935050E-03  0.272E-01    1.12       1.0  T
   5   -101.0776568 -0.265250E-03  0.157E-01    1.12       1.0  T
   6   -101.0779128 -0.256044E-03  0.735E-02    1.13       1.0  T
   7   -101.0779338 -0.209481E-04  0.335E-02    1.14       1.0  T
   8   -101.0779407 -0.691521E-05  0.148E-02    1.14       1.0  T
   9   -101.0779421 -0.138775E-05  0.849E-03    1.14       1.4  T
  10   -101.0779428 -0.766369E-06  0.593E-03    1.14       2.0  T
  11   -101.0779433 -0.427147E-06  0.280E-03    1.14       4.3  T
  12   -101.0779433 -0.549961E-07  0.174E-03    1.14       7.0  T
  13   -101.0779433 -0.286444E-07  0.880E-04    1.14      13.8  T
  14   -101.0779433 -0.833215E-08  0.359E-04    1.14      33.7  T

   *** convergence criteria satisfied after 14 iterations ***

         #    Occupation            Energy/Eh            Energy/eV
      -------------------------------------------------------------
         1        2.0000           -0.8371844             -22.7809
       ...           ...                  ...                  ...
        86        2.0000           -0.3644830              -9.9181
        87        2.0000           -0.3627066              -9.8697
        88        2.0000           -0.3459799              -9.4146
        89        2.0000           -0.3443961              -9.3715
        90        2.0000           -0.3385087              -9.2113
        91        2.0000           -0.3348824              -9.1126
        92        2.0000           -0.3149013              -8.5689 (HOMO)
        93                         -0.2728916              -7.4258 (LUMO)
        94                         -0.2544609              -6.9242
        95                         -0.2475324              -6.7357
        96                         -0.1813505              -4.9348
        97                         -0.1754924              -4.7754
       ...                                ...                  ...
       174                          6.2941648             171.2729
      -------------------------------------------------------------
                  HL-Gap            0.0420098 Eh            1.1431 eV
             Fermi-level           -0.2938965 Eh           -7.9973 eV

 SCC (total)                   0 d,  0 h,  0 min,  0.085 sec
 SCC setup                      ...        0 min,  0.003 sec (  3.072%)
 Dispersion                     ...        0 min,  0.001 sec (  1.096%)
 classical contributions        ...        0 min,  0.000 sec (  0.046%)
 integral evaluation            ...        0 min,  0.005 sec (  5.956%)
 iterations                     ...        0 min,  0.063 sec ( 73.877%)
 molecular gradient             ...        0 min,  0.010 sec ( 12.028%)
 printout                       ...        0 min,  0.003 sec (  3.881%)

         :::::::::::::::::::::::::::::::::::::::::::::::::::::
         ::                     SUMMARY                     ::
         :::::::::::::::::::::::::::::::::::::::::::::::::::::
         :: total energy             -99.778820812048 Eh    ::
         :: gradient norm              0.000074797034 Eh/a0 ::
         :: HOMO-LUMO gap              1.143143534048 eV    ::
         ::.................................................::
         :: SCC energy              -101.077943347773 Eh    ::
         :: -> isotropic ES           -0.033789076559 Eh    ::
         :: -> anisotropic ES         -0.026144161527 Eh    ::
         :: -> anisotropic XC          0.028224024576 Eh    ::
         :: -> dispersion             -0.102028646100 Eh    ::
         :: repulsion energy           1.295391723802 Eh    ::
         :: add. restraining           0.000000000000 Eh    ::
         :: total charge               0.000022959544 e     ::
         :::::::::::::::::::::::::::::::::::::::::::::::::::::

           -------------------------------------------------
          |                Property Printout                |
           -------------------------------------------------

    * Orbital Energies and Occupations

         #    Occupation            Energy/Eh            Energy/eV
      -------------------------------------------------------------
         1        2.0000           -0.8371844             -22.7809
       ...           ...                  ...                  ...
        80        2.0000           -0.3876665             -10.5489
        81        2.0000           -0.3817099             -10.3869
        82        2.0000           -0.3794432             -10.3252
        83        2.0000           -0.3759677             -10.2306
        84        2.0000           -0.3734857             -10.1631
        85        2.0000           -0.3684032             -10.0248
        86        2.0000           -0.3644830              -9.9181
        87        2.0000           -0.3627066              -9.8697
        88        2.0000           -0.3459799              -9.4146
        89        2.0000           -0.3443961              -9.3715
        90        2.0000           -0.3385087              -9.2113
        91        2.0000           -0.3348824              -9.1126
        92        2.0000           -0.3149013              -8.5689 (HOMO)
        93                         -0.2728916              -7.4258 (LUMO)
        94                         -0.2544609              -6.9242
        95                         -0.2475324              -6.7357
        96                         -0.1813505              -4.9348
        97                         -0.1754924              -4.7754
        98                         -0.1612544              -4.3880
        99                         -0.1548689              -4.2142
       100                         -0.1484444              -4.0394
       101                         -0.1443904              -3.9291
       102                         -0.0092601              -0.2520
       103                          0.0262784               0.7151
       ...                                ...                  ...
       174                          6.2941648             171.2729
      -------------------------------------------------------------
                  HL-Gap            0.0420098 Eh            1.1431 eV
             Fermi-level           -0.2938965 Eh           -7.9973 eV

     #   Z          covCN         q      C6AA      α(0)
     1  26 Fe       9.303     1.482   108.811    18.395
     2   6 C        2.738     0.361    20.871     7.480
     3  46 Pd       4.801    -0.220   376.812    35.451
     4   6 C        3.791    -0.031    21.146     6.549
     5   1 H        0.927     0.038     2.472     2.459
     6   1 H        0.927     0.115     1.655     2.012
     7   1 H        0.927     0.119     1.624     1.993
     8   6 C        2.903     0.421    19.935     7.321
     9   8 O        0.856    -0.496    23.686     6.525
    10   6 C        4.134    -0.104    22.398     6.722
    11   8 O        0.914    -0.500    23.746     6.535
    12   6 C        3.950    -0.143    23.182     6.842
    13   6 C        3.878    -0.151    23.355     6.871
    14   6 C        3.872    -0.160    23.555     6.901
    15   1 H        0.927     0.087     1.905     2.158
    16   1 H        0.927     0.055     2.255     2.348
    17   1 H        0.927     0.058     2.220     2.330
    18   1 H        0.927     0.109     1.708     2.043
    19   6 C        4.562    -0.093    22.177     6.688
    20   6 C        3.828     0.015    20.302     6.411
    21   8 O        1.454    -0.466    22.385     6.376
    22   6 C        3.887    -0.156    23.461     6.886
    23   6 C        3.940    -0.077    21.906     6.651
    24   6 C        3.895    -0.155    23.431     6.881
    25   6 C        3.943    -0.130    22.925     6.804
    26   6 C        3.898    -0.132    22.973     6.813
    27   1 H        0.927     0.066     2.129     2.282
    28   7 N        2.672    -0.243    26.349     7.624
    29   1 H        0.923     0.041     2.432     2.439
    30   1 H        0.925     0.048     2.345     2.395
    31   1 H        0.923     0.053     2.286     2.364
    32   6 C        3.757    -0.139    23.240     6.873
    33   1 H        0.925     0.074     2.046     2.237
    34   1 H        0.925     0.061     2.187     2.313
    35   1 H        0.925     0.048     2.349     2.397
    36   7 N        3.486    -0.070    22.590     7.059
    37   6 C        3.920    -0.039    21.208     6.545
    38   6 C        3.719    -0.065    21.862     6.679
    39   1 H        0.923     0.028     2.611     2.527
    40   1 H        0.924     0.102     1.770     2.081
    41   1 H        0.923     0.114     1.666     2.018
    42   1 H        0.923     0.037     2.494     2.470
    43   1 H        0.924     0.083     1.948     2.183
    44   1 H        0.925     0.060     2.195     2.317
    45   6 C        3.848    -0.021    20.921     6.506
    46   6 C        3.755    -0.107    22.601     6.779
    47   6 C        3.753    -0.163    23.726     6.946
    48   1 H        0.925     0.034     2.524     2.484
    49   1 H        0.925     0.036     2.503     2.474
    50   1 H        0.925     0.032     2.556     2.500
    51   1 H        0.924     0.044     2.398     2.421
    52   1 H        0.925     0.042     2.420     2.433
    53   1 H        0.927     0.057     2.230     2.335
    54   1 H        0.925     0.033     2.546     2.495
    55   8 O        1.704    -0.322    19.374     5.943
    56   6 C        3.755    -0.121    22.875     6.820
    57   6 C        3.781     0.161    18.024     6.048
    58   6 C        3.755    -0.113    22.709     6.795
    59   6 C        3.755    -0.116    22.785     6.806
    60   1 H        0.925     0.042     2.422     2.434
    61   1 H        0.925     0.059     2.213     2.326
    62   1 H        0.925     0.044     2.398     2.422
    63   1 H        0.925     0.041     2.430     2.438
    64   1 H        0.925     0.031     2.569     2.507
    65   1 H        0.925     0.066     2.128     2.281
    66   1 H        0.925     0.038     2.476     2.461
    67   1 H        0.925     0.034     2.531     2.488
    68   1 H        0.925     0.065     2.137     2.286

 Mol. C6AA /au·bohr⁶  :      50458.736965
 Mol. C8AA /au·bohr⁸  :    1459036.132013
 Mol. α(0) /au        :        340.674681


Wiberg/Mayer (AO) data.
largest (>0.10) Wiberg bond orders for each atom

 ---------------------------------------------------------------------------
     #   Z sym  total        # sym  WBO       # sym  WBO       # sym  WBO
 ---------------------------------------------------------------------------
     1  26 Fe   0.717 --    23 C    0.238    10 C    0.234    12 C    0.207
                            24 C    0.189    26 C    0.188    22 C    0.183
                            14 C    0.182    13 C    0.177    25 C    0.164
     2   6 C    3.936 --     9 O    1.624    21 O    1.341    20 C    0.873
     3  46 Pd   3.742 --    28 N    0.718    19 C    0.561    21 O    0.448
                            36 N    0.389    25 C    0.204    11 O    0.177
                            12 C    0.149    26 C    0.144    10 C    0.133
                            37 C    0.102
     4   6 C    3.977 --    10 C    1.015    30 H    0.970    36 N    0.969
                            31 H    0.955
     5   1 H    0.996 --    24 C    0.976
     6   1 H    0.985 --    25 C    0.933
     7   1 H    0.983 --    26 C    0.938
     8   6 C    3.931 --    11 O    1.442    28 N    1.310    55 O    1.047
     9   8 O    1.956 --     2 C    1.624    21 O    0.192
    10   6 C    3.970 --    14 C    1.298    19 C    1.150     4 C    1.015
                             1 Fe   0.234     3 Pd   0.133
    11   8 O    1.976 --     8 C    1.442     3 Pd   0.177    28 N    0.161
                            55 O    0.102
    12   6 C    3.978 --    13 C    1.332    19 C    1.193    15 H    0.957
                             1 Fe   0.207     3 Pd   0.149
    13   6 C    3.968 --    12 C    1.332    14 C    1.293    16 H    0.983
                             1 Fe   0.177
    14   6 C    3.968 --    10 C    1.298    13 C    1.293    17 H    0.980
                             1 Fe   0.182
    15   1 H    0.990 --    12 C    0.957
    16   1 H    0.993 --    13 C    0.983
    17   1 H    0.994 --    14 C    0.980
    18   1 H    0.987 --    19 C    0.893
    19   6 C    3.976 --    12 C    1.193    10 C    1.150    18 H    0.893
                             3 Pd   0.561
    20   6 C    3.967 --    28 N    0.982    45 C    0.966    29 H    0.936
                             2 C    0.873
    21   8 O    2.125 --     2 C    1.341     3 Pd   0.448     9 O    0.192
    22   6 C    3.969 --    26 C    1.331    23 C    1.265    27 H    0.979
                             1 Fe   0.183
    23   6 C    3.979 --    22 C    1.265    24 C    1.260    32 C    1.052
                             1 Fe   0.238
    24   6 C    3.972 --    25 C    1.322    23 C    1.260     5 H    0.976
                             1 Fe   0.189
    25   6 C    3.976 --    24 C    1.322    26 C    1.238     6 H    0.933
                             3 Pd   0.204     1 Fe   0.164
    26   6 C    3.973 --    22 C    1.331    25 C    1.238     7 H    0.938
                             1 Fe   0.188     3 Pd   0.144
    27   1 H    0.992 --    22 C    0.979
    28   7 N    3.354 --     8 C    1.310    20 C    0.982     3 Pd   0.718
                            11 O    0.161
    29   1 H    0.996 --    20 C    0.936
    30   1 H    0.996 --     4 C    0.970
    31   1 H    0.994 --     4 C    0.955
    32   6 C    3.985 --    23 C    1.052    35 H    0.984    34 H    0.973
                            33 H    0.960
    33   1 H    0.991 --    32 C    0.960
    34   1 H    0.987 --    32 C    0.973
    35   1 H    0.993 --    32 C    0.984
    36   7 N    3.429 --    38 C    0.997    37 C    0.983     4 C    0.969
                             3 Pd   0.389
    37   6 C    3.967 --    36 N    0.983    39 H    0.970    40 H    0.941
                            41 H    0.927     3 Pd   0.102
    38   6 C    3.971 --    36 N    0.997    44 H    0.975    42 H    0.972
                            43 H    0.966
    39   1 H    0.997 --    37 C    0.970
    40   1 H    0.988 --    37 C    0.941
    41   1 H    0.985 --    37 C    0.927
    42   1 H    0.995 --    38 C    0.972
    43   1 H    0.992 --    38 C    0.966
    44   1 H    0.995 --    38 C    0.975
    45   6 C    3.993 --    46 C    1.009    47 C    1.006    20 C    0.966
                            51 H    0.960
    46   6 C    3.996 --    45 C    1.009    48 H    0.987    49 H    0.987
                            50 H    0.986
    47   6 C    3.988 --    45 C    1.006    54 H    0.989    52 H    0.981
                            53 H    0.933
    48   1 H    0.999 --    46 C    0.987
    49   1 H    0.999 --    46 C    0.987
    50   1 H    0.998 --    46 C    0.986
    51   1 H    0.997 --    45 C    0.960
    52   1 H    0.997 --    47 C    0.981
    53   1 H    0.995 --    47 C    0.933
    54   1 H    0.998 --    47 C    0.989
    55   8 O    2.227 --     8 C    1.047    57 C    0.920    11 O    0.102
    56   6 C    3.992 --    57 C    0.989    60 H    0.987    62 H    0.987
                            61 H    0.983
    57   6 C    3.930 --    58 C    0.995    59 C    0.995    56 C    0.989
                            55 O    0.920
    58   6 C    3.994 --    57 C    0.995    64 H    0.986    63 H    0.985
                            65 H    0.977
    59   6 C    3.993 --    57 C    0.995    66 H    0.986    67 H    0.985
                            68 H    0.978
    60   1 H    0.998 --    56 C    0.987
    61   1 H    0.996 --    56 C    0.983
    62   1 H    0.998 --    56 C    0.987
    63   1 H    0.998 --    58 C    0.985
    64   1 H    0.999 --    58 C    0.986
    65   1 H    0.995 --    58 C    0.977
    66   1 H    0.999 --    59 C    0.986
    67   1 H    0.999 --    59 C    0.985
    68   1 H    0.996 --    59 C    0.978
 ---------------------------------------------------------------------------

Topologies differ in total number of bonds
Writing topology from bond orders to xtbtopo.mol

molecular dipole:
                 x           y           z       tot (Debye)
 q only:       -4.297       1.276       2.737
   full:       -3.098       2.263       2.215      11.260
molecular quadrupole (traceless):
                xx          xy          yy          xz          yz          zz
 q only:       22.308       0.158       4.469       2.304     -20.208     -26.778
  q+dip:       24.665      -2.595       7.346       2.101     -26.463     -32.011
   full:       22.937      -4.853       5.762       2.759     -23.642     -28.698


           -------------------------------------------------
          | TOTAL ENERGY              -99.778820812048 Eh   |
          | GRADIENT NORM               0.000074797034 Eh/α |
          | HOMO-LUMO GAP               1.143143534048 eV   |
           -------------------------------------------------
########################################################################
[WARNING] Runtime exception occurred
-1- restart_readRestart: Multiplicity missmatch in restart file.
########################################################################

------------------------------------------------------------------------
 * finished run on 2024/10/14 at 11:11:52.649     
------------------------------------------------------------------------
 total:
 * wall-time:     0 d,  0 h,  0 min,  0.288 sec
 *  cpu-time:     0 d,  0 h,  0 min,  3.080 sec
 * ratio c/w:    10.676 speedup
 SCF:
 * wall-time:     0 d,  0 h,  0 min,  0.089 sec
 *  cpu-time:     0 d,  0 h,  0 min,  1.045 sec
 * ratio c/w:    11.749 speedup

