      -----------------------------------------------------------      
     |                   =====================                   |     
     |                           x T B                           |     
     |                   =====================                   |     
     |                         S. Grimme                         |     
     |          Mulliken Center for Theoretical Chemistry        |     
     |                    University of Bonn                     |     
      -----------------------------------------------------------      

   * xtb version 6.6.1 (8d0f1dd) compiled by 'stahn@M-Bot' on 2023-08-01

   xtb is free software: you can redistribute it and/or modify it under
   the terms of the GNU Lesser General Public License as published by
   the Free Software Foundation, either version 3 of the License, or
   (at your option) any later version.
   
   xtb is distributed in the hope that it will be useful,
   but WITHOUT ANY WARRANTY; without even the implied warranty of
   MERCHANTABILITY or FITNESS FOR A PARTICULAR PURPOSE.  See the
   GNU Lesser General Public License for more details.
   
   Cite this work as:
   * C. Bannwarth, E. Caldeweyher, S. Ehlert, A. Hansen, P. Pracht,
     J. Seibert, S. Spicher, S. Grimme, WIREs Comput. Mol. Sci., 2020, 11,
     e01493. DOI: 10.1002/wcms.1493
   
   for GFN2-xTB:
   * C. Bannwarth, S. Ehlert and S. Grimme., J. Chem. Theory Comput., 2019,
     15, 1652-1671. DOI: 10.1021/acs.jctc.8b01176
   for GFN1-xTB:
   * S. Grimme, C. Bannwarth, P. Shushkov, J. Chem. Theory Comput., 2017,
     13, 1989-2009. DOI: 10.1021/acs.jctc.7b00118
   for GFN0-xTB:
   * P. Pracht, E. Caldeweyher, S. Ehlert, S. Grimme, ChemRxiv, 2019, preprint.
     DOI: 10.26434/chemrxiv.8326202.v1
   for GFN-FF:
   * S. Spicher and S. Grimme, Angew. Chem. Int. Ed., 2020, 59, 15665-15673.
     DOI: 10.1002/anie.202004239
   
   for ALPB and GBSA implicit solvation:
   * S. Ehlert, M. Stahn, S. Spicher, S. Grimme, J. Chem. Theory Comput.,
     2021, 17, 4250-4261. DOI: 10.1021/acs.jctc.1c00471
   
   for DFT-D4:
   * E. Caldeweyher, C. Bannwarth and S. Grimme, J. Chem. Phys., 2017,
     147, 034112. DOI: 10.1063/1.4993215
   * E. Caldeweyher, S. Ehlert, A. Hansen, H. Neugebauer, S. Spicher,
     C. Bannwarth and S. Grimme, J. Chem. Phys., 2019, 150, 154122.
     DOI: 10.1063/1.5090222
   * E. Caldeweyher, J.-M. Mewes, S. Ehlert and S. Grimme, Phys. Chem. Chem. Phys.
     2020, 22, 8499-8512. DOI: 10.1039/D0CP00502A
   
   for sTDA-xTB:
   * S. Grimme and C. Bannwarth, J. Chem. Phys., 2016, 145, 054103.
     DOI: 10.1063/1.4959605
   
   in the mass-spec context:
   * V. Asgeirsson, C. Bauer and S. Grimme, Chem. Sci., 2017, 8, 4879.
     DOI: 10.1039/c7sc00601b
   * J. Koopman and S. Grimme, ACS Omega 2019, 4, 12, 15120-15133.
     DOI: 10.1021/acsomega.9b02011
   
   for metadynamics refer to:
   * S. Grimme, J. Chem. Theory Comput., 2019, 155, 2847-2862
     DOI: 10.1021/acs.jctc.9b00143
   
   for SPH calculations refer to:
   * S. Spicher and S. Grimme, J. Chem. Theory Comput., 2021, 17, 1701-1714
     DOI: 10.1021/acs.jctc.0c01306
   
   with help from (in alphabetical order)
   P. Atkinson, C. Bannwarth, F. Bohle, G. Brandenburg, E. Caldeweyher
   M. Checinski, S. Dohm, S. Ehlert, S. Ehrlich, I. Gerasimov, C. Hölzer
   A. Katbashev, J. Koopman, C. Lavigne, S. Lehtola, F. März, M. Müller,
   F. Musil, H. Neugebauer, J. Pisarek, C. Plett, P. Pracht, F. Pultar,
   J. Seibert, P. Shushkov, S. Spicher, M. Stahn, M. Steiner, T. Strunk,
   J. Stückrath, T. Rose, and J. Unsleber
   
 * started run on 2024/10/14 at 11:11:50.872     

           -------------------------------------------------
          |                Calculation Setup                |
           -------------------------------------------------

          program call               : xtb tsopted.xyz --gfn 2 --charge 0 --vfukui
          coordinate file            : tsopted.xyz
          omp threads                :                    12

   ID    Z sym.   atoms
    1   26 Fe     1
    2    6 C      2, 4, 8, 10, 12-14, 19, 20, 22-26, 32, 37, 38, 45-47, 56-59
    3   46 Pd     3
    4    1 H      5-7, 15-18, 27, 29-31, 33-35, 39-44, 48-54, 60-68
    5    8 O      9, 11, 21, 55
    6    7 N      28, 36

molecular fragmentation (1/2 indicates fragments):
11111111111111111111111111111111111111112111111111111122222222222222
# atoms in fragment 1/2:    53    15
 fragment masses (1/2) :      504.69       74.12
CMA distance (Bohr)    :  10.555
constraining FC (au)   :  0.0500

           -------------------------------------------------
          |                 G F N 2 - x T B                 |
           -------------------------------------------------

        Reference                      10.1021/acs.jctc.8b01176
      * Hamiltonian:
        H0-scaling (s, p, d)           1.850000    2.230000    2.230000
        zeta-weighting                 0.500000
      * Dispersion:
        s8                             2.700000
        a1                             0.520000
        a2                             5.000000
        s9                             5.000000
      * Repulsion:
        kExp                           1.500000    1.000000
        rExp                           1.000000
      * Coulomb:
        alpha                          2.000000
        third order                    shell-resolved
        anisotropic                    true
        a3                             3.000000
        a5                             4.000000
        cn-shift                       1.200000
        cn-exp                         4.000000
        max-rad                        5.000000


          ...................................................
          :                      SETUP                      :
          :.................................................:
          :  # basis functions                 176          :
          :  # atomic orbitals                 174          :
          :  # shells                          102          :
          :  # electrons                       184          :
          :  max. iterations                   250          :
          :  Hamiltonian                  GFN2-xTB          :
          :  restarted?                      false          :
          :  GBSA solvation                  false          :
          :  PC potential                    false          :
          :  electronic temp.          300.0000000     K    :
          :  accuracy                    1.0000000          :
          :  -> integral cutoff          0.2500000E+02      :
          :  -> integral neglect         0.1000000E-07      :
          :  -> SCF convergence          0.1000000E-05 Eh   :
          :  -> wf. convergence          0.1000000E-03 e    :
          :  Broyden damping             0.4000000          :
          ...................................................

 iter      E             dE          RMSdq      gap      omega  full diag
   1   -100.6293596 -0.100629E+03  0.705E+00    1.55       0.0  T
   2   -101.0041720 -0.374812E+00  0.416E+00    1.10       1.0  T
   3   -101.0526679 -0.484959E-01  0.247E+00    1.29       1.0  T
   4   -101.0691690 -0.165011E-01  0.136E+00    1.25       1.0  T
   5   -101.0750653 -0.589628E-02  0.822E-01    1.17       1.0  T
   6   -101.0770957 -0.203038E-02  0.556E-01    1.16       1.0  T
   7   -101.0776309 -0.535156E-03  0.232E-01    1.14       1.0  T
   8   -101.0778698 -0.238994E-03  0.139E-01    1.16       1.0  T
   9   -101.0779215 -0.516903E-04  0.728E-02    1.14       1.0  T
  10   -101.0779278 -0.630300E-05  0.310E-02    1.15       1.0  T
  11   -101.0779390 -0.111827E-04  0.176E-02    1.14       1.0  T
  12   -101.0779428 -0.379040E-05  0.859E-03    1.14       1.4  T
  13   -101.0779432 -0.376269E-06  0.374E-03    1.14       3.2  T
  14   -101.0779433 -0.134334E-06  0.160E-03    1.14       7.6  T
  15   -101.0779433 -0.219703E-07  0.762E-04    1.14      15.9  T
  16   -101.0779433 -0.201680E-08  0.447E-04    1.14      27.1  T

   *** convergence criteria satisfied after 16 iterations ***

         #    Occupation            Energy/Eh            Energy/eV
      -------------------------------------------------------------
         1        2.0000           -0.8371926             -22.7812
       ...           ...                  ...                  ...
        86        2.0000           -0.3645029              -9.9186
        87        2.0000           -0.3627244              -9.8702
        88        2.0000           -0.3459964              -9.4150
        89        2.0000           -0.3444113              -9.3719
        90        2.0000           -0.3385247              -9.2117
        91        2.0000           -0.3348990              -9.1131
        92        2.0000           -0.3149177              -8.5693 (HOMO)
        93                         -0.2729103              -7.4263 (LUMO)
        94                         -0.2544797              -6.9247
        95                         -0.2475492              -6.7362
        96                         -0.1813659              -4.9352
        97                         -0.1755090              -4.7758
       ...                                ...                  ...
       174                          6.2941645             171.2729
      -------------------------------------------------------------
                  HL-Gap            0.0420074 Eh            1.1431 eV
             Fermi-level           -0.2939140 Eh           -7.9978 eV

 SCC (total)                   0 d,  0 h,  0 min,  0.088 sec
 SCC setup                      ...        0 min,  0.003 sec (  3.271%)
 Dispersion                     ...        0 min,  0.001 sec (  1.211%)
 classical contributions        ...        0 min,  0.000 sec (  0.047%)
 integral evaluation            ...        0 min,  0.005 sec (  5.502%)
 iterations                     ...        0 min,  0.068 sec ( 76.511%)
 molecular gradient             ...        0 min,  0.010 sec ( 10.777%)
 printout                       ...        0 min,  0.002 sec (  2.645%)

         :::::::::::::::::::::::::::::::::::::::::::::::::::::
         ::                     SUMMARY                     ::
         :::::::::::::::::::::::::::::::::::::::::::::::::::::
         :: total energy             -99.778820810265 Eh    ::
         :: gradient norm              0.000075869307 Eh/a0 ::
         :: HOMO-LUMO gap              1.143080368790 eV    ::
         ::.................................................::
         :: SCC energy              -101.077943345990 Eh    ::
         :: -> isotropic ES           -0.033799219383 Eh    ::
         :: -> anisotropic ES         -0.026145013276 Eh    ::
         :: -> anisotropic XC          0.028223499755 Eh    ::
         :: -> dispersion             -0.102028552383 Eh    ::
         :: repulsion energy           1.295391723802 Eh    ::
         :: add. restraining           0.000000000000 Eh    ::
         :: total charge              -0.000000000000 e     ::
         :::::::::::::::::::::::::::::::::::::::::::::::::::::


Fukui index Calculation

 iter      E             dE          RMSdq      gap      omega  full diag
   1   -101.2278973 -0.101228E+03  0.720E-01    0.50       0.0  T
   2   -101.2100288  0.178684E-01  0.134E+00    0.62       1.0  T
   3   -101.2697156 -0.596867E-01  0.425E-01    0.47       1.0  T
   4   -101.2703900 -0.674428E-03  0.336E-01    0.47       1.0  T
   5   -101.2714398 -0.104977E-02  0.191E-01    0.47       1.0  T
   6   -101.2718124 -0.372644E-03  0.100E-01    0.48       1.0  T
   7   -101.2719556 -0.143148E-03  0.493E-02    0.48       1.0  T
   8   -101.2719554  0.138440E-06  0.273E-02    0.48       1.0  T
   9   -101.2719693 -0.138291E-04  0.110E-02    0.48       1.1  T
  10   -101.2719706 -0.134758E-05  0.773E-03    0.48       1.6  T
  11   -101.2719714 -0.747370E-06  0.396E-03    0.48       3.1  T
  12   -101.2719715 -0.125289E-06  0.227E-03    0.48       5.3  T
  13   -101.2719715 -0.429696E-07  0.129E-03    0.48       9.4  T
  14   -101.2719715 -0.236508E-07  0.619E-04    0.48      19.6  T
  15   -101.2719716 -0.189887E-08  0.332E-04    0.48      36.5  T
     SCC iter.                  ...        0 min,  0.055 sec
     gradient                   ...        0 min,  0.009 sec

 iter      E             dE          RMSdq      gap      omega  full diag
   1   -100.6539821 -0.100654E+03  0.589E-01    1.14       0.0  T
   2   -100.6749374 -0.209553E-01  0.634E-01    1.72       1.0  T
   3   -100.6822282 -0.729082E-02  0.414E-01    1.64       1.0  T
   4   -100.6709447  0.112835E-01  0.514E-01    1.78       1.0  T
   5   -100.6824121 -0.114673E-01  0.305E-01    1.67       1.0  T
   6   -100.6834850 -0.107291E-02  0.147E-01    1.69       1.0  T
   7   -100.6836603 -0.175296E-03  0.756E-02    1.69       1.0  T
   8   -100.6836700 -0.971638E-05  0.529E-02    1.69       1.0  T
   9   -100.6837066 -0.366466E-04  0.352E-02    1.69       1.0  T
  10   -100.6837429 -0.362533E-04  0.114E-02    1.68       1.1  T
  11   -100.6837431 -0.175529E-06  0.801E-03    1.68       1.5  T
  12   -100.6837438 -0.709210E-06  0.471E-03    1.68       2.6  T
  13   -100.6837440 -0.276101E-06  0.266E-03    1.68       4.6  T
  14   -100.6837441 -0.578885E-07  0.106E-03    1.68      11.4  T
  15   -100.6837441 -0.269964E-07  0.372E-04    1.68      32.6  T
  16   -100.6837441 -0.372009E-08  0.179E-04    1.68      67.7  T
     SCC iter.                  ...        0 min,  0.072 sec
     gradient                   ...        0 min,  0.011 sec

     #        f(+)     f(-)     f(0)
     1Fe     -0.106   -0.041   -0.074
     2C       0.004   -0.012   -0.004
     3Pd     -0.205   -0.211   -0.208
     4C       0.016    0.015    0.015
     5H      -0.038   -0.023   -0.031
     6H      -0.032   -0.006   -0.019
     7H      -0.033    0.000   -0.016
     8C      -0.003   -0.005   -0.004
     9O      -0.045   -0.103   -0.074
    10C      -0.011   -0.003   -0.007
    11O      -0.020   -0.056   -0.038
    12C      -0.005    0.004   -0.000
    13C      -0.004   -0.006   -0.005
    14C      -0.003   -0.005   -0.004
    15H      -0.037   -0.013   -0.025
    16H      -0.036   -0.026   -0.031
    17H      -0.036   -0.028   -0.032
    18H      -0.039   -0.015   -0.027
    19C       0.016    0.017    0.016
    20C       0.012   -0.018   -0.003
    21O       0.002   -0.038   -0.018
    22C      -0.008   -0.003   -0.006
    23C      -0.021   -0.012   -0.016
    24C      -0.003   -0.002   -0.002
    25C      -0.005    0.009    0.002
    26C      -0.005    0.006    0.001
    27H      -0.039   -0.021   -0.030
    28N      -0.004   -0.011   -0.008
    29H      -0.035   -0.038   -0.036
    30H      -0.019   -0.020   -0.020
    31H      -0.037   -0.030   -0.034
    32C       0.021    0.016    0.018
    33H      -0.040   -0.029   -0.034
    34H      -0.023   -0.015   -0.019
    35H      -0.026   -0.018   -0.022
    36N       0.012    0.004    0.008
    37C       0.017    0.019    0.018
    38C       0.016    0.015    0.016
    39H      -0.033   -0.034   -0.033
    40H      -0.005   -0.008   -0.006
    41H      -0.010   -0.006   -0.008
    42H      -0.031   -0.030   -0.030
    43H      -0.013   -0.006   -0.010
    44H      -0.006   -0.013   -0.009
    45C       0.004   -0.003    0.000
    46C       0.011    0.011    0.011
    47C       0.013    0.014    0.013
    48H      -0.016   -0.019   -0.017
    49H      -0.009   -0.014   -0.012
    50H      -0.018   -0.034   -0.026
    51H      -0.011   -0.020   -0.015
    52H      -0.016   -0.016   -0.016
    53H       0.022    0.006    0.014
    54H      -0.019   -0.028   -0.023
    55O      -0.020   -0.028   -0.024
    56C       0.006    0.007    0.007
    57C       0.001    0.002    0.002
    58C       0.005    0.007    0.006
    59C       0.006    0.007    0.006
    60H      -0.013   -0.017   -0.015
    61H      -0.003   -0.002   -0.002
    62H      -0.012   -0.015   -0.014
    63H      -0.004   -0.005   -0.004
    64H      -0.017   -0.023   -0.020
    65H       0.005    0.002    0.004
    66H      -0.006   -0.010   -0.008
    67H      -0.017   -0.023   -0.020
    68H       0.004    0.000    0.002
           -------------------------------------------------
          |                Property Printout                |
           -------------------------------------------------

    * Orbital Energies and Occupations

         #    Occupation            Energy/Eh            Energy/eV
      -------------------------------------------------------------
         1        2.0000           -0.8371926             -22.7812
       ...           ...                  ...                  ...
        80        2.0000           -0.3876824             -10.5494
        81        2.0000           -0.3817273             -10.3873
        82        2.0000           -0.3794605             -10.3256
        83        2.0000           -0.3759865             -10.2311
        84        2.0000           -0.3735036             -10.1635
        85        2.0000           -0.3684226             -10.0253
        86        2.0000           -0.3645029              -9.9186
        87        2.0000           -0.3627244              -9.8702
        88        2.0000           -0.3459964              -9.4150
        89        2.0000           -0.3444113              -9.3719
        90        2.0000           -0.3385247              -9.2117
        91        2.0000           -0.3348990              -9.1131
        92        2.0000           -0.3149177              -8.5693 (HOMO)
        93                         -0.2729103              -7.4263 (LUMO)
        94                         -0.2544797              -6.9247
        95                         -0.2475492              -6.7362
        96                         -0.1813659              -4.9352
        97                         -0.1755090              -4.7758
        98                         -0.1612718              -4.3884
        99                         -0.1548860              -4.2147
       100                         -0.1484613              -4.0398
       101                         -0.1444074              -3.9295
       102                         -0.0092751              -0.2524
       103                          0.0262646               0.7147
       ...                                ...                  ...
       174                          6.2941645             171.2729
      -------------------------------------------------------------
                  HL-Gap            0.0420074 Eh            1.1431 eV
             Fermi-level           -0.2939140 Eh           -7.9978 eV

     #   Z          covCN         q      C6AA      α(0)
     1  26 Fe       9.303     1.482   108.811    18.395
     2   6 C        2.738     0.361    20.871     7.480
     3  46 Pd       4.801    -0.220   376.809    35.451
     4   6 C        3.791    -0.032    21.146     6.549
     5   1 H        0.927     0.038     2.472     2.459
     6   1 H        0.927     0.115     1.655     2.012
     7   1 H        0.927     0.119     1.624     1.993
     8   6 C        2.903     0.421    19.935     7.321
     9   8 O        0.856    -0.496    23.686     6.525
    10   6 C        4.134    -0.104    22.398     6.722
    11   8 O        0.914    -0.500    23.746     6.535
    12   6 C        3.950    -0.143    23.182     6.842
    13   6 C        3.878    -0.151    23.355     6.871
    14   6 C        3.872    -0.160    23.555     6.901
    15   1 H        0.927     0.087     1.905     2.158
    16   1 H        0.927     0.055     2.255     2.348
    17   1 H        0.927     0.058     2.220     2.330
    18   1 H        0.927     0.109     1.708     2.043
    19   6 C        4.562    -0.093    22.177     6.688
    20   6 C        3.828     0.015    20.302     6.411
    21   8 O        1.454    -0.467    22.385     6.376
    22   6 C        3.887    -0.156    23.461     6.886
    23   6 C        3.940    -0.077    21.905     6.651
    24   6 C        3.895    -0.155    23.432     6.881
    25   6 C        3.943    -0.130    22.926     6.804
    26   6 C        3.898    -0.132    22.973     6.813
    27   1 H        0.927     0.066     2.129     2.282
    28   7 N        2.672    -0.243    26.349     7.624
    29   1 H        0.923     0.041     2.432     2.439
    30   1 H        0.925     0.048     2.345     2.395
    31   1 H        0.923     0.053     2.286     2.364
    32   6 C        3.757    -0.139    23.240     6.873
    33   1 H        0.925     0.074     2.046     2.237
    34   1 H        0.925     0.061     2.187     2.313
    35   1 H        0.925     0.048     2.349     2.397
    36   7 N        3.486    -0.070    22.590     7.059
    37   6 C        3.920    -0.039    21.208     6.545
    38   6 C        3.719    -0.065    21.862     6.679
    39   1 H        0.923     0.028     2.611     2.527
    40   1 H        0.924     0.102     1.770     2.081
    41   1 H        0.923     0.114     1.666     2.018
    42   1 H        0.923     0.037     2.494     2.470
    43   1 H        0.924     0.083     1.948     2.183
    44   1 H        0.925     0.060     2.195     2.317
    45   6 C        3.848    -0.021    20.921     6.506
    46   6 C        3.755    -0.107    22.601     6.779
    47   6 C        3.753    -0.163    23.727     6.946
    48   1 H        0.925     0.034     2.524     2.484
    49   1 H        0.925     0.036     2.503     2.474
    50   1 H        0.925     0.032     2.556     2.500
    51   1 H        0.924     0.044     2.398     2.421
    52   1 H        0.925     0.042     2.420     2.433
    53   1 H        0.927     0.057     2.230     2.335
    54   1 H        0.925     0.033     2.546     2.495
    55   8 O        1.704    -0.322    19.374     5.943
    56   6 C        3.755    -0.121    22.875     6.820
    57   6 C        3.781     0.161    18.024     6.048
    58   6 C        3.755    -0.113    22.709     6.795
    59   6 C        3.755    -0.116    22.785     6.806
    60   1 H        0.925     0.042     2.422     2.434
    61   1 H        0.925     0.059     2.213     2.326
    62   1 H        0.925     0.044     2.398     2.422
    63   1 H        0.925     0.041     2.430     2.438
    64   1 H        0.925     0.031     2.569     2.507
    65   1 H        0.925     0.066     2.128     2.281
    66   1 H        0.925     0.038     2.476     2.461
    67   1 H        0.925     0.034     2.531     2.488
    68   1 H        0.925     0.065     2.137     2.286

 Mol. C6AA /au·bohr⁶  :      50458.805941
 Mol. C8AA /au·bohr⁸  :    1459036.977178
 Mol. α(0) /au        :        340.674871


Wiberg/Mayer (AO) data.
largest (>0.10) Wiberg bond orders for each atom

 ---------------------------------------------------------------------------
     #   Z sym  total        # sym  WBO       # sym  WBO       # sym  WBO
 ---------------------------------------------------------------------------
     1  26 Fe   0.717 --    23 C    0.238    10 C    0.234    12 C    0.207
                            24 C    0.189    26 C    0.188    22 C    0.183
                            14 C    0.182    13 C    0.177    25 C    0.164
     2   6 C    3.936 --     9 O    1.624    21 O    1.341    20 C    0.873
     3  46 Pd   3.742 --    28 N    0.718    19 C    0.561    21 O    0.448
                            36 N    0.389    25 C    0.204    11 O    0.177
                            12 C    0.149    26 C    0.144    10 C    0.133
                            37 C    0.102
     4   6 C    3.977 --    10 C    1.015    30 H    0.970    36 N    0.969
                            31 H    0.955
     5   1 H    0.996 --    24 C    0.976
     6   1 H    0.985 --    25 C    0.933
     7   1 H    0.983 --    26 C    0.938
     8   6 C    3.931 --    11 O    1.442    28 N    1.310    55 O    1.047
     9   8 O    1.956 --     2 C    1.624    21 O    0.192
    10   6 C    3.970 --    14 C    1.298    19 C    1.150     4 C    1.015
                             1 Fe   0.234     3 Pd   0.133
    11   8 O    1.976 --     8 C    1.442     3 Pd   0.177    28 N    0.161
                            55 O    0.102
    12   6 C    3.978 --    13 C    1.332    19 C    1.193    15 H    0.957
                             1 Fe   0.207     3 Pd   0.149
    13   6 C    3.968 --    12 C    1.332    14 C    1.293    16 H    0.983
                             1 Fe   0.177
    14   6 C    3.968 --    10 C    1.298    13 C    1.293    17 H    0.980
                             1 Fe   0.182
    15   1 H    0.990 --    12 C    0.957
    16   1 H    0.993 --    13 C    0.983
    17   1 H    0.994 --    14 C    0.980
    18   1 H    0.987 --    19 C    0.893
    19   6 C    3.976 --    12 C    1.193    10 C    1.150    18 H    0.893
                             3 Pd   0.561
    20   6 C    3.967 --    28 N    0.982    45 C    0.966    29 H    0.936
                             2 C    0.873
    21   8 O    2.125 --     2 C    1.341     3 Pd   0.448     9 O    0.192
    22   6 C    3.969 --    26 C    1.331    23 C    1.265    27 H    0.979
                             1 Fe   0.183
    23   6 C    3.979 --    22 C    1.265    24 C    1.260    32 C    1.052
                             1 Fe   0.238
    24   6 C    3.972 --    25 C    1.322    23 C    1.260     5 H    0.976
                             1 Fe   0.189
    25   6 C    3.976 --    24 C    1.322    26 C    1.238     6 H    0.933
                             3 Pd   0.204     1 Fe   0.164
    26   6 C    3.973 --    22 C    1.331    25 C    1.238     7 H    0.938
                             1 Fe   0.188     3 Pd   0.144
    27   1 H    0.992 --    22 C    0.979
    28   7 N    3.354 --     8 C    1.310    20 C    0.982     3 Pd   0.718
                            11 O    0.161
    29   1 H    0.996 --    20 C    0.936
    30   1 H    0.996 --     4 C    0.970
    31   1 H    0.994 --     4 C    0.955
    32   6 C    3.985 --    23 C    1.052    35 H    0.984    34 H    0.973
                            33 H    0.960
    33   1 H    0.991 --    32 C    0.960
    34   1 H    0.987 --    32 C    0.973
    35   1 H    0.993 --    32 C    0.984
    36   7 N    3.429 --    38 C    0.997    37 C    0.983     4 C    0.969
                             3 Pd   0.389
    37   6 C    3.967 --    36 N    0.983    39 H    0.970    40 H    0.941
                            41 H    0.927     3 Pd   0.102
    38   6 C    3.971 --    36 N    0.997    44 H    0.975    42 H    0.972
                            43 H    0.966
    39   1 H    0.997 --    37 C    0.970
    40   1 H    0.988 --    37 C    0.941
    41   1 H    0.985 --    37 C    0.927
    42   1 H    0.995 --    38 C    0.972
    43   1 H    0.992 --    38 C    0.966
    44   1 H    0.995 --    38 C    0.975
    45   6 C    3.993 --    46 C    1.009    47 C    1.006    20 C    0.966
                            51 H    0.960
    46   6 C    3.996 --    45 C    1.009    48 H    0.987    49 H    0.987
                            50 H    0.986
    47   6 C    3.988 --    45 C    1.006    54 H    0.989    52 H    0.981
                            53 H    0.933
    48   1 H    0.999 --    46 C    0.987
    49   1 H    0.999 --    46 C    0.987
    50   1 H    0.998 --    46 C    0.986
    51   1 H    0.997 --    45 C    0.960
    52   1 H    0.997 --    47 C    0.981
    53   1 H    0.995 --    47 C    0.933
    54   1 H    0.998 --    47 C    0.989
    55   8 O    2.227 --     8 C    1.047    57 C    0.920    11 O    0.102
    56   6 C    3.992 --    57 C    0.989    60 H    0.987    62 H    0.987
                            61 H    0.983
    57   6 C    3.930 --    58 C    0.995    59 C    0.995    56 C    0.989
                            55 O    0.920
    58   6 C    3.994 --    57 C    0.995    64 H    0.986    63 H    0.985
                            65 H    0.977
    59   6 C    3.993 --    57 C    0.995    66 H    0.986    67 H    0.985
                            68 H    0.978
    60   1 H    0.998 --    56 C    0.987
    61   1 H    0.996 --    56 C    0.983
    62   1 H    0.998 --    56 C    0.987
    63   1 H    0.998 --    58 C    0.985
    64   1 H    0.999 --    58 C    0.986
    65   1 H    0.995 --    58 C    0.977
    66   1 H    0.999 --    59 C    0.986
    67   1 H    0.999 --    59 C    0.985
    68   1 H    0.996 --    59 C    0.978
 ---------------------------------------------------------------------------

Topologies differ in total number of bonds
Writing topology from bond orders to xtbtopo.mol

molecular dipole:
                 x           y           z       tot (Debye)
 q only:       -4.297       1.276       2.737
   full:       -3.098       2.263       2.215      11.260
molecular quadrupole (traceless):
                xx          xy          yy          xz          yz          zz
 q only:       22.308       0.158       4.469       2.304     -20.208     -26.777
  q+dip:       24.665      -2.595       7.345       2.101     -26.462     -32.010
   full:       22.936      -4.854       5.761       2.759     -23.641     -28.697


           -------------------------------------------------
          | TOTAL ENERGY              -99.778820810265 Eh   |
          | GRADIENT NORM               0.000075869307 Eh/α |
          | HOMO-LUMO GAP               1.143080368790 eV   |
           -------------------------------------------------

------------------------------------------------------------------------
 * finished run on 2024/10/14 at 11:11:51.280     
------------------------------------------------------------------------
 total:
 * wall-time:     0 d,  0 h,  0 min,  0.408 sec
 *  cpu-time:     0 d,  0 h,  0 min,  4.533 sec
 * ratio c/w:    11.101 speedup
 SCF:
 * wall-time:     0 d,  0 h,  0 min,  0.091 sec
 *  cpu-time:     0 d,  0 h,  0 min,  1.072 sec
 * ratio c/w:    11.768 speedup

