      -----------------------------------------------------------      
     |                   =====================                   |     
     |                           x T B                           |     
     |                   =====================                   |     
     |                         S. Grimme                         |     
     |          Mulliken Center for Theoretical Chemistry        |     
     |                    University of Bonn                     |     
      -----------------------------------------------------------      

   * xtb version 6.6.1 (8d0f1dd) compiled by 'stahn@M-Bot' on 2023-08-01

   xtb is free software: you can redistribute it and/or modify it under
   the terms of the GNU Lesser General Public License as published by
   the Free Software Foundation, either version 3 of the License, or
   (at your option) any later version.
   
   xtb is distributed in the hope that it will be useful,
   but WITHOUT ANY WARRANTY; without even the implied warranty of
   MERCHANTABILITY or FITNESS FOR A PARTICULAR PURPOSE.  See the
   GNU Lesser General Public License for more details.
   
   Cite this work as:
   * C. Bannwarth, E. Caldeweyher, S. Ehlert, A. Hansen, P. Pracht,
     J. Seibert, S. Spicher, S. Grimme, WIREs Comput. Mol. Sci., 2020, 11,
     e01493. DOI: 10.1002/wcms.1493
   
   for GFN2-xTB:
   * C. Bannwarth, S. Ehlert and S. Grimme., J. Chem. Theory Comput., 2019,
     15, 1652-1671. DOI: 10.1021/acs.jctc.8b01176
   for GFN1-xTB:
   * S. Grimme, C. Bannwarth, P. Shushkov, J. Chem. Theory Comput., 2017,
     13, 1989-2009. DOI: 10.1021/acs.jctc.7b00118
   for GFN0-xTB:
   * P. Pracht, E. Caldeweyher, S. Ehlert, S. Grimme, ChemRxiv, 2019, preprint.
     DOI: 10.26434/chemrxiv.8326202.v1
   for GFN-FF:
   * S. Spicher and S. Grimme, Angew. Chem. Int. Ed., 2020, 59, 15665-15673.
     DOI: 10.1002/anie.202004239
   
   for ALPB and GBSA implicit solvation:
   * S. Ehlert, M. Stahn, S. Spicher, S. Grimme, J. Chem. Theory Comput.,
     2021, 17, 4250-4261. DOI: 10.1021/acs.jctc.1c00471
   
   for DFT-D4:
   * E. Caldeweyher, C. Bannwarth and S. Grimme, J. Chem. Phys., 2017,
     147, 034112. DOI: 10.1063/1.4993215
   * E. Caldeweyher, S. Ehlert, A. Hansen, H. Neugebauer, S. Spicher,
     C. Bannwarth and S. Grimme, J. Chem. Phys., 2019, 150, 154122.
     DOI: 10.1063/1.5090222
   * E. Caldeweyher, J.-M. Mewes, S. Ehlert and S. Grimme, Phys. Chem. Chem. Phys.
     2020, 22, 8499-8512. DOI: 10.1039/D0CP00502A
   
   for sTDA-xTB:
   * S. Grimme and C. Bannwarth, J. Chem. Phys., 2016, 145, 054103.
     DOI: 10.1063/1.4959605
   
   in the mass-spec context:
   * V. Asgeirsson, C. Bauer and S. Grimme, Chem. Sci., 2017, 8, 4879.
     DOI: 10.1039/c7sc00601b
   * J. Koopman and S. Grimme, ACS Omega 2019, 4, 12, 15120-15133.
     DOI: 10.1021/acsomega.9b02011
   
   for metadynamics refer to:
   * S. Grimme, J. Chem. Theory Comput., 2019, 155, 2847-2862
     DOI: 10.1021/acs.jctc.9b00143
   
   for SPH calculations refer to:
   * S. Spicher and S. Grimme, J. Chem. Theory Comput., 2021, 17, 1701-1714
     DOI: 10.1021/acs.jctc.0c01306
   
   with help from (in alphabetical order)
   P. Atkinson, C. Bannwarth, F. Bohle, G. Brandenburg, E. Caldeweyher
   M. Checinski, S. Dohm, S. Ehlert, S. Ehrlich, I. Gerasimov, C. Hölzer
   A. Katbashev, J. Koopman, C. Lavigne, S. Lehtola, F. März, M. Müller,
   F. Musil, H. Neugebauer, J. Pisarek, C. Plett, P. Pracht, F. Pultar,
   J. Seibert, P. Shushkov, S. Spicher, M. Stahn, M. Steiner, T. Strunk,
   J. Stückrath, T. Rose, and J. Unsleber
   
 * started run on 2024/10/14 at 11:11:51.351     

           -------------------------------------------------
          |                Calculation Setup                |
           -------------------------------------------------

          program call               : xtb tsopted.xyz --gfn 2 --charge 0 --vipea
          coordinate file            : tsopted.xyz
          omp threads                :                    12

   ID    Z sym.   atoms
    1   26 Fe     1
    2    6 C      2, 4, 8, 10, 12-14, 19, 20, 22-26, 32, 37, 38, 45-47, 56-59
    3   46 Pd     3
    4    1 H      5-7, 15-18, 27, 29-31, 33-35, 39-44, 48-54, 60-68
    5    8 O      9, 11, 21, 55
    6    7 N      28, 36

molecular fragmentation (1/2 indicates fragments):
11111111111111111111111111111111111111112111111111111122222222222222
# atoms in fragment 1/2:    53    15
 fragment masses (1/2) :      504.69       74.12
CMA distance (Bohr)    :  10.555
constraining FC (au)   :  0.0500

           -------------------------------------------------
          |                 G F N 2 - x T B                 |
           -------------------------------------------------

        Reference                      10.1021/acs.jctc.8b01176
      * Hamiltonian:
        H0-scaling (s, p, d)           1.850000    2.230000    2.230000
        zeta-weighting                 0.500000
      * Dispersion:
        s8                             2.700000
        a1                             0.520000
        a2                             5.000000
        s9                             5.000000
      * Repulsion:
        kExp                           1.500000    1.000000
        rExp                           1.000000
      * Coulomb:
        alpha                          2.000000
        third order                    shell-resolved
        anisotropic                    true
        a3                             3.000000
        a5                             4.000000
        cn-shift                       1.200000
        cn-exp                         4.000000
        max-rad                        5.000000

q/qsh data taken from xtbrestart
CAMM data taken from xtbrestart

          ...................................................
          :                      SETUP                      :
          :.................................................:
          :  # basis functions                 176          :
          :  # atomic orbitals                 174          :
          :  # shells                          102          :
          :  # electrons                       184          :
          :  max. iterations                   250          :
          :  Hamiltonian                  GFN2-xTB          :
          :  restarted?                       true          :
          :  GBSA solvation                  false          :
          :  PC potential                    false          :
          :  electronic temp.          300.0000000     K    :
          :  accuracy                    1.0000000          :
          :  -> integral cutoff          0.2500000E+02      :
          :  -> integral neglect         0.1000000E-07      :
          :  -> SCF convergence          0.1000000E-05 Eh   :
          :  -> wf. convergence          0.1000000E-03 e    :
          :  Broyden damping             0.4000000          :
          ...................................................

 iter      E             dE          RMSdq      gap      omega  full diag
   1   -101.0779433 -0.101078E+03  0.189E-04    1.14       0.0  T
   2   -101.0779433 -0.142904E-09  0.138E-04    1.14      87.7  T
   3   -101.0779433 -0.648015E-11  0.108E-04    1.14     112.8  T

   *** convergence criteria satisfied after 3 iterations ***

         #    Occupation            Energy/Eh            Energy/eV
      -------------------------------------------------------------
         1        2.0000           -0.8372019             -22.7814
       ...           ...                  ...                  ...
        86        2.0000           -0.3644991              -9.9185
        87        2.0000           -0.3627220              -9.8702
        88        2.0000           -0.3459950              -9.4150
        89        2.0000           -0.3444108              -9.3719
        90        2.0000           -0.3385238              -9.2117
        91        2.0000           -0.3348977              -9.1130
        92        2.0000           -0.3149164              -8.5693 (HOMO)
        93                         -0.2729069              -7.4262 (LUMO)
        94                         -0.2544769              -6.9247
        95                         -0.2475483              -6.7361
        96                         -0.1813679              -4.9353
        97                         -0.1755083              -4.7758
       ...                                ...                  ...
       174                          6.2941692             171.2731
      -------------------------------------------------------------
                  HL-Gap            0.0420094 Eh            1.1431 eV
             Fermi-level           -0.2939117 Eh           -7.9977 eV

 SCC (total)                   0 d,  0 h,  0 min,  0.037 sec
 SCC setup                      ...        0 min,  0.003 sec (  7.459%)
 Dispersion                     ...        0 min,  0.001 sec (  2.295%)
 classical contributions        ...        0 min,  0.000 sec (  0.112%)
 integral evaluation            ...        0 min,  0.005 sec ( 13.827%)
 iterations                     ...        0 min,  0.015 sec ( 41.379%)
 molecular gradient             ...        0 min,  0.010 sec ( 26.926%)
 printout                       ...        0 min,  0.003 sec (  7.904%)

         :::::::::::::::::::::::::::::::::::::::::::::::::::::
         ::                     SUMMARY                     ::
         :::::::::::::::::::::::::::::::::::::::::::::::::::::
         :: total energy             -99.778820813134 Eh    ::
         :: gradient norm              0.000075355135 Eh/a0 ::
         :: HOMO-LUMO gap              1.143134277324 eV    ::
         ::.................................................::
         :: SCC energy              -101.077943348858 Eh    ::
         :: -> isotropic ES           -0.033801333802 Eh    ::
         :: -> anisotropic ES         -0.026146166816 Eh    ::
         :: -> anisotropic XC          0.028223454439 Eh    ::
         :: -> dispersion             -0.102028792707 Eh    ::
         :: repulsion energy           1.295391723802 Eh    ::
         :: add. restraining           0.000000000000 Eh    ::
         :: total charge              -0.000000000000 e     ::
         :::::::::::::::::::::::::::::::::::::::::::::::::::::

           ------------------------------------------------- 
          |        vertical delta SCC IP calculation        |
           ------------------------------------------------- 

 iter      E             dE          RMSdq      gap      omega  full diag
   1   -100.6539828 -0.100654E+03  0.589E-01    1.14       0.0  T
   2   -100.6749397 -0.209570E-01  0.634E-01    1.72       1.0  T
   3   -100.6822284 -0.728867E-02  0.414E-01    1.64       1.0  T
   4   -100.6709449  0.112836E-01  0.514E-01    1.78       1.0  T
   5   -100.6824123 -0.114674E-01  0.305E-01    1.67       1.0  T
   6   -100.6834850 -0.107279E-02  0.147E-01    1.69       1.0  T
   7   -100.6836603 -0.175220E-03  0.756E-02    1.69       1.0  T
   8   -100.6836700 -0.971305E-05  0.529E-02    1.69       1.0  T
   9   -100.6837066 -0.366500E-04  0.352E-02    1.69       1.0  T
  10   -100.6837429 -0.362554E-04  0.114E-02    1.68       1.1  T
  11   -100.6837431 -0.176002E-06  0.801E-03    1.68       1.5  T
  12   -100.6837438 -0.709323E-06  0.471E-03    1.68       2.6  T
  13   -100.6837440 -0.276107E-06  0.266E-03    1.68       4.6  T
  14   -100.6837441 -0.579233E-07  0.106E-03    1.68      11.4  T
  15   -100.6837441 -0.269866E-07  0.372E-04    1.68      32.6  T
  16   -100.6837441 -0.371959E-08  0.179E-04    1.68      67.7  T
     SCC iter.                  ...        0 min,  0.066 sec
     gradient                   ...        0 min,  0.010 sec
------------------------------------------------------------------------
empirical IP shift (eV):    4.8455
delta SCC IP (eV):    5.8812
------------------------------------------------------------------------
           ------------------------------------------------- 
          |        vertical delta SCC EA calculation        |
           ------------------------------------------------- 

 iter      E             dE          RMSdq      gap      omega  full diag
   1   -101.1826703 -0.101183E+03  0.104E+00    0.55       0.0  T
   2   -101.2516087 -0.689384E-01  0.915E-01    0.41       1.0  T
   3   -101.2689665 -0.173578E-01  0.517E-01    0.47       1.0  T
   4   -101.2691211 -0.154536E-03  0.465E-01    0.46       1.0  T
   5   -101.2689858  0.135317E-03  0.300E-01    0.47       1.0  T
   6   -101.2706741 -0.168836E-02  0.216E-01    0.48       1.0  T
   7   -101.2718835 -0.120940E-02  0.960E-02    0.48       1.0  T
   8   -101.2718840 -0.472752E-06  0.571E-02    0.48       1.0  T
   9   -101.2719653 -0.813347E-04  0.207E-02    0.48       1.0  T
  10   -101.2719701 -0.473179E-05  0.136E-02    0.48       1.0  T
  11   -101.2719711 -0.100192E-05  0.932E-03    0.48       1.3  T
  12   -101.2719714 -0.303079E-06  0.573E-03    0.48       2.1  T
  13   -101.2719715 -0.113609E-06  0.233E-03    0.48       5.2  T
  14   -101.2719715 -0.373950E-07  0.119E-03    0.48      10.2  T
  15   -101.2719715 -0.296436E-07  0.585E-04    0.48      20.7  T
  16   -101.2719716 -0.664421E-08  0.195E-04    0.48      62.0  T
     SCC iter.                  ...        0 min,  0.070 sec
     gradient                   ...        0 min,  0.010 sec
------------------------------------------------------------------------
empirical EA shift (eV):    4.8455
delta SCC EA (eV):    0.4343
------------------------------------------------------------------------
           -------------------------------------------------
          |                Property Printout                |
           -------------------------------------------------

    * Orbital Energies and Occupations

         #    Occupation            Energy/Eh            Energy/eV
      -------------------------------------------------------------
         1        2.0000           -0.6954178             -18.9233
       ...           ...                  ...                  ...
        81        2.0000           -0.2468039              -6.7159
        82        2.0000           -0.2460776              -6.6961
        83        2.0000           -0.2380318              -6.4772
        84        2.0000           -0.2299995              -6.2586
        85        2.0000           -0.2141025              -5.8260
        86        2.0000           -0.2094726              -5.7000
        87        2.0000           -0.2012351              -5.4759
        88        2.0000           -0.1991846              -5.4201
        89        2.0000           -0.1918188              -5.2197
        90        2.0000           -0.1892956              -5.1510
        91        2.0000           -0.1799656              -4.8971
        92        2.0000           -0.1727982              -4.7021
        93        0.9999           -0.1158507              -3.1525 (HOMO)
        94        0.0001           -0.0983118              -2.6752 (LUMO)
        95        0.0000           -0.0925204              -2.5176
        96                         -0.0335370              -0.9126
        97                         -0.0270820              -0.7369
        98                         -0.0211752              -0.5762
        99                         -0.0173336              -0.4717
       100                         -0.0052041              -0.1416
       101                          0.0019951               0.0543
       102                          0.1215505               3.3076
       103                          0.1266926               3.4475
       104                          0.1686417               4.5890
       ...                                ...                  ...
       174                          6.4302573             174.9762
      -------------------------------------------------------------
                  HL-Gap            0.0175389 Eh            0.4773 eV
             Fermi-level           -0.1257034 Eh           -3.4206 eV

     #   Z          covCN         q      C6AA      α(0)
     1  26 Fe       9.303     1.376   110.023    18.497
     2   6 C        2.738     0.366    20.798     7.467
     3  46 Pd       4.801    -0.425   389.335    36.036
     4   6 C        3.791    -0.016    20.863     6.505
     5   1 H        0.927    -0.000     3.061     2.736
     6   1 H        0.927     0.083     1.950     2.183
     7   1 H        0.927     0.086     1.918     2.166
     8   6 C        2.903     0.418    19.983     7.330
     9   8 O        0.856    -0.540    24.700     6.663
    10   6 C        4.134    -0.115    22.606     6.753
    11   8 O        0.914    -0.520    24.190     6.596
    12   6 C        3.950    -0.148    23.273     6.855
    13   6 C        3.878    -0.154    23.429     6.882
    14   6 C        3.872    -0.163    23.612     6.909
    15   1 H        0.927     0.051     2.310     2.377
    16   1 H        0.927     0.019     2.750     2.593
    17   1 H        0.927     0.023     2.695     2.567
    18   1 H        0.927     0.070     2.090     2.260
    19   6 C        4.562    -0.077    21.880     6.643
    20   6 C        3.828     0.027    20.100     6.379
    21   8 O        1.454    -0.464    22.333     6.369
    22   6 C        3.887    -0.164    23.620     6.909
    23   6 C        3.940    -0.098    22.299     6.710
    24   6 C        3.895    -0.158    23.489     6.890
    25   6 C        3.943    -0.135    23.020     6.818
    26   6 C        3.898    -0.137    23.067     6.827
    27   1 H        0.927     0.027     2.635     2.538
    28   7 N        2.672    -0.248    26.455     7.639
    29   1 H        0.923     0.007     2.943     2.683
    30   1 H        0.925     0.029     2.606     2.524
    31   1 H        0.923     0.015     2.805     2.619
    32   6 C        3.757    -0.118    22.820     6.811
    33   1 H        0.925     0.034     2.536     2.490
    34   1 H        0.925     0.038     2.472     2.459
    35   1 H        0.925     0.022     2.701     2.570
    36   7 N        3.486    -0.058    22.354     7.022
    37   6 C        3.920    -0.022    20.911     6.499
    38   6 C        3.719    -0.049    21.569     6.634
    39   1 H        0.923    -0.004     3.135     2.769
    40   1 H        0.924     0.097     1.814     2.106
    41   1 H        0.923     0.104     1.752     2.070
    42   1 H        0.923     0.006     2.955     2.688
    43   1 H        0.924     0.070     2.085     2.258
    44   1 H        0.925     0.055     2.261     2.351
    45   6 C        3.848    -0.017    20.849     6.495
    46   6 C        3.755    -0.096    22.396     6.748
    47   6 C        3.753    -0.150    23.453     6.906
    48   1 H        0.925     0.019     2.752     2.594
    49   1 H        0.925     0.027     2.634     2.538
    50   1 H        0.925     0.014     2.824     2.628
    51   1 H        0.924     0.033     2.546     2.495
    52   1 H        0.925     0.026     2.645     2.543
    53   1 H        0.927     0.080     1.982     2.201
    54   1 H        0.925     0.014     2.830     2.631
    55   8 O        1.704    -0.342    19.739     5.998
    56   6 C        3.755    -0.115    22.748     6.801
    57   6 C        3.781     0.163    18.005     6.045
    58   6 C        3.755    -0.107    22.604     6.779
    59   6 C        3.755    -0.111    22.674     6.790
    60   1 H        0.925     0.029     2.603     2.523
    61   1 H        0.925     0.056     2.247     2.344
    62   1 H        0.925     0.031     2.566     2.505
    63   1 H        0.925     0.037     2.484     2.464
    64   1 H        0.925     0.014     2.829     2.630
    65   1 H        0.925     0.071     2.071     2.250
    66   1 H        0.925     0.032     2.564     2.504
    67   1 H        0.925     0.017     2.777     2.606
    68   1 H        0.925     0.069     2.094     2.263

 Mol. C6AA /au·bohr⁶  :      51952.762088
 Mol. C8AA /au·bohr⁸  :    1492153.105388
 Mol. α(0) /au        :        345.934035


Wiberg/Mayer (AO) data.
largest (>0.10) Wiberg bond orders for each atom

 ---------------------------------------------------------------------------
     #   Z sym  total        # sym  WBO       # sym  WBO       # sym  WBO
 ---------------------------------------------------------------------------
     1  26 Fe   0.615 --    10 C    0.257    12 C    0.232    24 C    0.200
                            14 C    0.187    22 C    0.178    13 C    0.176
                            23 C    0.156    26 C    0.148    25 C    0.110
     2   6 C    3.936 --     9 O    1.588    21 O    1.375    20 C    0.872
     3  46 Pd   3.620 --    19 C    0.623    28 N    0.603    21 O    0.409
                            36 N    0.346    25 C    0.207    11 O    0.161
                            26 C    0.152    12 C    0.143    10 C    0.128
                            37 C    0.100
     4   6 C    3.980 --    10 C    1.012    30 H    0.973    36 N    0.969
                            31 H    0.959
     5   1 H    0.998 --    24 C    0.977
     6   1 H    0.991 --    25 C    0.940
     7   1 H    0.989 --    26 C    0.946
     8   6 C    3.924 --    11 O    1.431    28 N    1.353    55 O    1.003
     9   8 O    1.904 --     2 C    1.588    21 O    0.197
    10   6 C    3.960 --    14 C    1.299    19 C    1.130     4 C    1.012
                             1 Fe   0.257     3 Pd   0.128
    11   8 O    1.948 --     8 C    1.431    28 N    0.178     3 Pd   0.161
    12   6 C    3.977 --    13 C    1.334    19 C    1.168    15 H    0.964
                             1 Fe   0.232     3 Pd   0.143
    13   6 C    3.965 --    12 C    1.334    14 C    1.288    16 H    0.987
                             1 Fe   0.176
    14   6 C    3.966 --    10 C    1.299    13 C    1.288    17 H    0.985
                             1 Fe   0.187
    15   1 H    0.995 --    12 C    0.964
    16   1 H    0.996 --    13 C    0.987
    17   1 H    0.997 --    14 C    0.985
    18   1 H    0.994 --    19 C    0.902
    19   6 C    3.971 --    12 C    1.168    10 C    1.130    18 H    0.902
                             3 Pd   0.623
    20   6 C    3.973 --    28 N    0.990    45 C    0.967    29 H    0.943
                             2 C    0.872
    21   8 O    2.118 --     2 C    1.375     3 Pd   0.409     9 O    0.197
    22   6 C    3.966 --    23 C    1.300    26 C    1.294    27 H    0.984
                             1 Fe   0.178
    23   6 C    3.971 --    22 C    1.300    24 C    1.278    32 C    1.044
                             1 Fe   0.156
    24   6 C    3.967 --    25 C    1.294    23 C    1.278     5 H    0.977
                             1 Fe   0.200
    25   6 C    3.973 --    24 C    1.294    26 C    1.284     6 H    0.940
                             3 Pd   0.207     1 Fe   0.110
    26   6 C    3.974 --    22 C    1.294    25 C    1.284     7 H    0.946
                             3 Pd   0.152     1 Fe   0.148
    27   1 H    0.996 --    22 C    0.984
    28   7 N    3.325 --     8 C    1.353    20 C    0.990     3 Pd   0.603
                            11 O    0.178
    29   1 H    0.998 --    20 C    0.943
    30   1 H    0.998 --     4 C    0.973
    31   1 H    0.997 --     4 C    0.959
    32   6 C    3.990 --    23 C    1.044    35 H    0.987    34 H    0.979
                            33 H    0.971
    33   1 H    0.995 --    32 C    0.971
    34   1 H    0.989 --    32 C    0.979
    35   1 H    0.995 --    32 C    0.987
    36   7 N    3.397 --    38 C    1.003    37 C    0.988     4 C    0.969
                             3 Pd   0.346
    37   6 C    3.974 --    36 N    0.988    39 H    0.970    40 H    0.943
                            41 H    0.931     3 Pd   0.100
    38   6 C    3.980 --    36 N    1.003    44 H    0.976    42 H    0.973
                            43 H    0.969
    39   1 H    0.999 --    37 C    0.970
    40   1 H    0.989 --    37 C    0.943
    41   1 H    0.987 --    37 C    0.931
    42   1 H    0.998 --    38 C    0.973
    43   1 H    0.994 --    38 C    0.969
    44   1 H    0.995 --    38 C    0.976
    45   6 C    3.993 --    46 C    1.007    47 C    1.006    20 C    0.967
                            51 H    0.962
    46   6 C    3.997 --    45 C    1.007    48 H    0.988    49 H    0.987
                            50 H    0.987
    47   6 C    3.984 --    45 C    1.006    54 H    0.990    52 H    0.983
                            53 H    0.926
    48   1 H    0.999 --    46 C    0.988
    49   1 H    0.999 --    46 C    0.987
    50   1 H    0.999 --    46 C    0.987
    51   1 H    0.998 --    45 C    0.962
    52   1 H    0.998 --    47 C    0.983
    53   1 H    0.992 --    47 C    0.926
    54   1 H    0.999 --    47 C    0.990
    55   8 O    2.189 --     8 C    1.003    57 C    0.937
    56   6 C    3.995 --    57 C    0.989    60 H    0.988    62 H    0.988
                            61 H    0.984
    57   6 C    3.944 --    58 C    0.994    59 C    0.993    56 C    0.989
                            55 O    0.937
    58   6 C    3.994 --    57 C    0.994    64 H    0.987    63 H    0.986
                            65 H    0.976
    59   6 C    3.994 --    57 C    0.993    67 H    0.987    66 H    0.986
                            68 H    0.977
    60   1 H    0.999 --    56 C    0.988
    61   1 H    0.997 --    56 C    0.984
    62   1 H    0.999 --    56 C    0.988
    63   1 H    0.999 --    58 C    0.986
    64   1 H    1.000 --    58 C    0.987
    65   1 H    0.995 --    58 C    0.976
    66   1 H    0.999 --    59 C    0.986
    67   1 H    1.000 --    59 C    0.987
    68   1 H    0.995 --    59 C    0.977
 ---------------------------------------------------------------------------

Topologies differ in total number of bonds
Writing topology from bond orders to xtbtopo.mol

molecular dipole:
                 x           y           z       tot (Debye)
 q only:       -2.629       1.468       2.543
   full:       -1.416       2.314       2.109       8.733
molecular quadrupole (traceless):
                xx          xy          yy          xz          yz          zz
 q only:        3.928      -0.299       9.433       5.250     -18.860     -13.360
  q+dip:        7.824      -4.067      12.212       4.533     -25.837     -20.036
   full:        6.236      -6.694      10.822       5.196     -23.255     -17.057


           -------------------------------------------------
          | TOTAL ENERGY              -99.972849016545 Eh   |
          | GRADIENT NORM               0.080979576693 Eh/α |
          | HOMO-LUMO GAP               0.477257194423 eV   |
           -------------------------------------------------

------------------------------------------------------------------------
 * finished run on 2024/10/14 at 11:11:51.750     
------------------------------------------------------------------------
 total:
 * wall-time:     0 d,  0 h,  0 min,  0.398 sec
 *  cpu-time:     0 d,  0 h,  0 min,  4.402 sec
 * ratio c/w:    11.047 speedup
 SCF:
 * wall-time:     0 d,  0 h,  0 min,  0.209 sec
 *  cpu-time:     0 d,  0 h,  0 min,  2.473 sec
 * ratio c/w:    11.857 speedup

